 <VTKFile type="UnstructuredGrid"  version="0.1"   >
 <UnstructuredGrid>
 <Piece  NumberOfPoints="          1600 "  NumberOfCells="         1024 ">
 <Points>
 <DataArray  type="Float64" NumberOfComponents="3"  format="ascii" >
   0.0000000000000000        0.0000000000000000        0.0000000000000000     
   3.1250000000000000E-002   0.0000000000000000        0.0000000000000000     
   6.2500000000000000E-002   0.0000000000000000        0.0000000000000000     
   9.3750000000000000E-002   0.0000000000000000        0.0000000000000000     
  0.12500000000000000        0.0000000000000000        0.0000000000000000     
   0.0000000000000000        3.1250000000000000E-002   0.0000000000000000     
   3.1250000000000000E-002   3.1250000000000000E-002   0.0000000000000000     
   6.2500000000000000E-002   3.1250000000000000E-002   0.0000000000000000     
   9.3750000000000000E-002   3.1250000000000000E-002   0.0000000000000000     
  0.12500000000000000        3.1250000000000000E-002   0.0000000000000000     
   0.0000000000000000        6.2500000000000000E-002   0.0000000000000000     
   3.1250000000000000E-002   6.2500000000000000E-002   0.0000000000000000     
   6.2500000000000000E-002   6.2500000000000000E-002   0.0000000000000000     
   9.3750000000000000E-002   6.2500000000000000E-002   0.0000000000000000     
  0.12500000000000000        6.2500000000000000E-002   0.0000000000000000     
   0.0000000000000000        9.3750000000000000E-002   0.0000000000000000     
   3.1250000000000000E-002   9.3750000000000000E-002   0.0000000000000000     
   6.2500000000000000E-002   9.3750000000000000E-002   0.0000000000000000     
   9.3750000000000000E-002   9.3750000000000000E-002   0.0000000000000000     
  0.12500000000000000        9.3750000000000000E-002   0.0000000000000000     
   0.0000000000000000       0.12500000000000000        0.0000000000000000     
   3.1250000000000000E-002  0.12500000000000000        0.0000000000000000     
   6.2500000000000000E-002  0.12500000000000000        0.0000000000000000     
   9.3750000000000000E-002  0.12500000000000000        0.0000000000000000     
  0.12500000000000000       0.12500000000000000        0.0000000000000000     
  0.12500000000000000        0.0000000000000000        0.0000000000000000     
  0.15625000000000000        0.0000000000000000        0.0000000000000000     
  0.18750000000000000        0.0000000000000000        0.0000000000000000     
  0.21875000000000000        0.0000000000000000        0.0000000000000000     
  0.25000000000000000        0.0000000000000000        0.0000000000000000     
  0.12500000000000000        3.1250000000000000E-002   0.0000000000000000     
  0.15625000000000000        3.1250000000000000E-002   0.0000000000000000     
  0.18750000000000000        3.1250000000000000E-002   0.0000000000000000     
  0.21875000000000000        3.1250000000000000E-002   0.0000000000000000     
  0.25000000000000000        3.1250000000000000E-002   0.0000000000000000     
  0.12500000000000000        6.2500000000000000E-002   0.0000000000000000     
  0.15625000000000000        6.2500000000000000E-002   0.0000000000000000     
  0.18750000000000000        6.2500000000000000E-002   0.0000000000000000     
  0.21875000000000000        6.2500000000000000E-002   0.0000000000000000     
  0.25000000000000000        6.2500000000000000E-002   0.0000000000000000     
  0.12500000000000000        9.3750000000000000E-002   0.0000000000000000     
  0.15625000000000000        9.3750000000000000E-002   0.0000000000000000     
  0.18750000000000000        9.3750000000000000E-002   0.0000000000000000     
  0.21875000000000000        9.3750000000000000E-002   0.0000000000000000     
  0.25000000000000000        9.3750000000000000E-002   0.0000000000000000     
  0.12500000000000000       0.12500000000000000        0.0000000000000000     
  0.15625000000000000       0.12500000000000000        0.0000000000000000     
  0.18750000000000000       0.12500000000000000        0.0000000000000000     
  0.21875000000000000       0.12500000000000000        0.0000000000000000     
  0.25000000000000000       0.12500000000000000        0.0000000000000000     
  0.25000000000000000        0.0000000000000000        0.0000000000000000     
  0.28125000000000000        0.0000000000000000        0.0000000000000000     
  0.31250000000000000        0.0000000000000000        0.0000000000000000     
  0.34375000000000000        0.0000000000000000        0.0000000000000000     
  0.37500000000000000        0.0000000000000000        0.0000000000000000     
  0.25000000000000000        3.1250000000000000E-002   0.0000000000000000     
  0.28125000000000000        3.1250000000000000E-002   0.0000000000000000     
  0.31250000000000000        3.1250000000000000E-002   0.0000000000000000     
  0.34375000000000000        3.1250000000000000E-002   0.0000000000000000     
  0.37500000000000000        3.1250000000000000E-002   0.0000000000000000     
  0.25000000000000000        6.2500000000000000E-002   0.0000000000000000     
  0.28125000000000000        6.2500000000000000E-002   0.0000000000000000     
  0.31250000000000000        6.2500000000000000E-002   0.0000000000000000     
  0.34375000000000000        6.2500000000000000E-002   0.0000000000000000     
  0.37500000000000000        6.2500000000000000E-002   0.0000000000000000     
  0.25000000000000000        9.3750000000000000E-002   0.0000000000000000     
  0.28125000000000000        9.3750000000000000E-002   0.0000000000000000     
  0.31250000000000000        9.3750000000000000E-002   0.0000000000000000     
  0.34375000000000000        9.3750000000000000E-002   0.0000000000000000     
  0.37500000000000000        9.3750000000000000E-002   0.0000000000000000     
  0.25000000000000000       0.12500000000000000        0.0000000000000000     
  0.28125000000000000       0.12500000000000000        0.0000000000000000     
  0.31250000000000000       0.12500000000000000        0.0000000000000000     
  0.34375000000000000       0.12500000000000000        0.0000000000000000     
  0.37500000000000000       0.12500000000000000        0.0000000000000000     
  0.37500000000000000        0.0000000000000000        0.0000000000000000     
  0.40625000000000000        0.0000000000000000        0.0000000000000000     
  0.43750000000000000        0.0000000000000000        0.0000000000000000     
  0.46875000000000000        0.0000000000000000        0.0000000000000000     
  0.50000000000000000        0.0000000000000000        0.0000000000000000     
  0.37500000000000000        3.1250000000000000E-002   0.0000000000000000     
  0.40625000000000000        3.1250000000000000E-002   0.0000000000000000     
  0.43750000000000000        3.1250000000000000E-002   0.0000000000000000     
  0.46875000000000000        3.1250000000000000E-002   0.0000000000000000     
  0.50000000000000000        3.1250000000000000E-002   0.0000000000000000     
  0.37500000000000000        6.2500000000000000E-002   0.0000000000000000     
  0.40625000000000000        6.2500000000000000E-002   0.0000000000000000     
  0.43750000000000000        6.2500000000000000E-002   0.0000000000000000     
  0.46875000000000000        6.2500000000000000E-002   0.0000000000000000     
  0.50000000000000000        6.2500000000000000E-002   0.0000000000000000     
  0.37500000000000000        9.3750000000000000E-002   0.0000000000000000     
  0.40625000000000000        9.3750000000000000E-002   0.0000000000000000     
  0.43750000000000000        9.3750000000000000E-002   0.0000000000000000     
  0.46875000000000000        9.3750000000000000E-002   0.0000000000000000     
  0.50000000000000000        9.3750000000000000E-002   0.0000000000000000     
  0.37500000000000000       0.12500000000000000        0.0000000000000000     
  0.40625000000000000       0.12500000000000000        0.0000000000000000     
  0.43750000000000000       0.12500000000000000        0.0000000000000000     
  0.46875000000000000       0.12500000000000000        0.0000000000000000     
  0.50000000000000000       0.12500000000000000        0.0000000000000000     
  0.50000000000000000        0.0000000000000000        0.0000000000000000     
  0.53125000000000000        0.0000000000000000        0.0000000000000000     
  0.56250000000000000        0.0000000000000000        0.0000000000000000     
  0.59375000000000000        0.0000000000000000        0.0000000000000000     
  0.62500000000000000        0.0000000000000000        0.0000000000000000     
  0.50000000000000000        3.1250000000000000E-002   0.0000000000000000     
  0.53125000000000000        3.1250000000000000E-002   0.0000000000000000     
  0.56250000000000000        3.1250000000000000E-002   0.0000000000000000     
  0.59375000000000000        3.1250000000000000E-002   0.0000000000000000     
  0.62500000000000000        3.1250000000000000E-002   0.0000000000000000     
  0.50000000000000000        6.2500000000000000E-002   0.0000000000000000     
  0.53125000000000000        6.2500000000000000E-002   0.0000000000000000     
  0.56250000000000000        6.2500000000000000E-002   0.0000000000000000     
  0.59375000000000000        6.2500000000000000E-002   0.0000000000000000     
  0.62500000000000000        6.2500000000000000E-002   0.0000000000000000     
  0.50000000000000000        9.3750000000000000E-002   0.0000000000000000     
  0.53125000000000000        9.3750000000000000E-002   0.0000000000000000     
  0.56250000000000000        9.3750000000000000E-002   0.0000000000000000     
  0.59375000000000000        9.3750000000000000E-002   0.0000000000000000     
  0.62500000000000000        9.3750000000000000E-002   0.0000000000000000     
  0.50000000000000000       0.12500000000000000        0.0000000000000000     
  0.53125000000000000       0.12500000000000000        0.0000000000000000     
  0.56250000000000000       0.12500000000000000        0.0000000000000000     
  0.59375000000000000       0.12500000000000000        0.0000000000000000     
  0.62500000000000000       0.12500000000000000        0.0000000000000000     
  0.62500000000000000        0.0000000000000000        0.0000000000000000     
  0.65625000000000000        0.0000000000000000        0.0000000000000000     
  0.68750000000000000        0.0000000000000000        0.0000000000000000     
  0.71875000000000000        0.0000000000000000        0.0000000000000000     
  0.75000000000000000        0.0000000000000000        0.0000000000000000     
  0.62500000000000000        3.1250000000000000E-002   0.0000000000000000     
  0.65625000000000000        3.1250000000000000E-002   0.0000000000000000     
  0.68750000000000000        3.1250000000000000E-002   0.0000000000000000     
  0.71875000000000000        3.1250000000000000E-002   0.0000000000000000     
  0.75000000000000000        3.1250000000000000E-002   0.0000000000000000     
  0.62500000000000000        6.2500000000000000E-002   0.0000000000000000     
  0.65625000000000000        6.2500000000000000E-002   0.0000000000000000     
  0.68750000000000000        6.2500000000000000E-002   0.0000000000000000     
  0.71875000000000000        6.2500000000000000E-002   0.0000000000000000     
  0.75000000000000000        6.2500000000000000E-002   0.0000000000000000     
  0.62500000000000000        9.3750000000000000E-002   0.0000000000000000     
  0.65625000000000000        9.3750000000000000E-002   0.0000000000000000     
  0.68750000000000000        9.3750000000000000E-002   0.0000000000000000     
  0.71875000000000000        9.3750000000000000E-002   0.0000000000000000     
  0.75000000000000000        9.3750000000000000E-002   0.0000000000000000     
  0.62500000000000000       0.12500000000000000        0.0000000000000000     
  0.65625000000000000       0.12500000000000000        0.0000000000000000     
  0.68750000000000000       0.12500000000000000        0.0000000000000000     
  0.71875000000000000       0.12500000000000000        0.0000000000000000     
  0.75000000000000000       0.12500000000000000        0.0000000000000000     
  0.75000000000000000        0.0000000000000000        0.0000000000000000     
  0.78125000000000000        0.0000000000000000        0.0000000000000000     
  0.81250000000000000        0.0000000000000000        0.0000000000000000     
  0.84375000000000000        0.0000000000000000        0.0000000000000000     
  0.87500000000000000        0.0000000000000000        0.0000000000000000     
  0.75000000000000000        3.1250000000000000E-002   0.0000000000000000     
  0.78125000000000000        3.1250000000000000E-002   0.0000000000000000     
  0.81250000000000000        3.1250000000000000E-002   0.0000000000000000     
  0.84375000000000000        3.1250000000000000E-002   0.0000000000000000     
  0.87500000000000000        3.1250000000000000E-002   0.0000000000000000     
  0.75000000000000000        6.2500000000000000E-002   0.0000000000000000     
  0.78125000000000000        6.2500000000000000E-002   0.0000000000000000     
  0.81250000000000000        6.2500000000000000E-002   0.0000000000000000     
  0.84375000000000000        6.2500000000000000E-002   0.0000000000000000     
  0.87500000000000000        6.2500000000000000E-002   0.0000000000000000     
  0.75000000000000000        9.3750000000000000E-002   0.0000000000000000     
  0.78125000000000000        9.3750000000000000E-002   0.0000000000000000     
  0.81250000000000000        9.3750000000000000E-002   0.0000000000000000     
  0.84375000000000000        9.3750000000000000E-002   0.0000000000000000     
  0.87500000000000000        9.3750000000000000E-002   0.0000000000000000     
  0.75000000000000000       0.12500000000000000        0.0000000000000000     
  0.78125000000000000       0.12500000000000000        0.0000000000000000     
  0.81250000000000000       0.12500000000000000        0.0000000000000000     
  0.84375000000000000       0.12500000000000000        0.0000000000000000     
  0.87500000000000000       0.12500000000000000        0.0000000000000000     
  0.87500000000000000        0.0000000000000000        0.0000000000000000     
  0.90625000000000000        0.0000000000000000        0.0000000000000000     
  0.93750000000000000        0.0000000000000000        0.0000000000000000     
  0.96875000000000000        0.0000000000000000        0.0000000000000000     
   1.0000000000000000        0.0000000000000000        0.0000000000000000     
  0.87500000000000000        3.1250000000000000E-002   0.0000000000000000     
  0.90625000000000000        3.1250000000000000E-002   0.0000000000000000     
  0.93750000000000000        3.1250000000000000E-002   0.0000000000000000     
  0.96875000000000000        3.1250000000000000E-002   0.0000000000000000     
   1.0000000000000000        3.1250000000000000E-002   0.0000000000000000     
  0.87500000000000000        6.2500000000000000E-002   0.0000000000000000     
  0.90625000000000000        6.2500000000000000E-002   0.0000000000000000     
  0.93750000000000000        6.2500000000000000E-002   0.0000000000000000     
  0.96875000000000000        6.2500000000000000E-002   0.0000000000000000     
   1.0000000000000000        6.2500000000000000E-002   0.0000000000000000     
  0.87500000000000000        9.3750000000000000E-002   0.0000000000000000     
  0.90625000000000000        9.3750000000000000E-002   0.0000000000000000     
  0.93750000000000000        9.3750000000000000E-002   0.0000000000000000     
  0.96875000000000000        9.3750000000000000E-002   0.0000000000000000     
   1.0000000000000000        9.3750000000000000E-002   0.0000000000000000     
  0.87500000000000000       0.12500000000000000        0.0000000000000000     
  0.90625000000000000       0.12500000000000000        0.0000000000000000     
  0.93750000000000000       0.12500000000000000        0.0000000000000000     
  0.96875000000000000       0.12500000000000000        0.0000000000000000     
   1.0000000000000000       0.12500000000000000        0.0000000000000000     
   0.0000000000000000       0.12500000000000000        0.0000000000000000     
   3.1250000000000000E-002  0.12500000000000000        0.0000000000000000     
   6.2500000000000000E-002  0.12500000000000000        0.0000000000000000     
   9.3750000000000000E-002  0.12500000000000000        0.0000000000000000     
  0.12500000000000000       0.12500000000000000        0.0000000000000000     
   0.0000000000000000       0.15625000000000000        0.0000000000000000     
   3.1250000000000000E-002  0.15625000000000000        0.0000000000000000     
   6.2500000000000000E-002  0.15625000000000000        0.0000000000000000     
   9.3750000000000000E-002  0.15625000000000000        0.0000000000000000     
  0.12500000000000000       0.15625000000000000        0.0000000000000000     
   0.0000000000000000       0.18750000000000000        0.0000000000000000     
   3.1250000000000000E-002  0.18750000000000000        0.0000000000000000     
   6.2500000000000000E-002  0.18750000000000000        0.0000000000000000     
   9.3750000000000000E-002  0.18750000000000000        0.0000000000000000     
  0.12500000000000000       0.18750000000000000        0.0000000000000000     
   0.0000000000000000       0.21875000000000000        0.0000000000000000     
   3.1250000000000000E-002  0.21875000000000000        0.0000000000000000     
   6.2500000000000000E-002  0.21875000000000000        0.0000000000000000     
   9.3750000000000000E-002  0.21875000000000000        0.0000000000000000     
  0.12500000000000000       0.21875000000000000        0.0000000000000000     
   0.0000000000000000       0.25000000000000000        0.0000000000000000     
   3.1250000000000000E-002  0.25000000000000000        0.0000000000000000     
   6.2500000000000000E-002  0.25000000000000000        0.0000000000000000     
   9.3750000000000000E-002  0.25000000000000000        0.0000000000000000     
  0.12500000000000000       0.25000000000000000        0.0000000000000000     
  0.12500000000000000       0.12500000000000000        0.0000000000000000     
  0.15625000000000000       0.12500000000000000        0.0000000000000000     
  0.18750000000000000       0.12500000000000000        0.0000000000000000     
  0.21875000000000000       0.12500000000000000        0.0000000000000000     
  0.25000000000000000       0.12500000000000000        0.0000000000000000     
  0.12500000000000000       0.15625000000000000        0.0000000000000000     
  0.15625000000000000       0.15625000000000000        0.0000000000000000     
  0.18750000000000000       0.15625000000000000        0.0000000000000000     
  0.21875000000000000       0.15625000000000000        0.0000000000000000     
  0.25000000000000000       0.15625000000000000        0.0000000000000000     
  0.12500000000000000       0.18750000000000000        0.0000000000000000     
  0.15625000000000000       0.18750000000000000        0.0000000000000000     
  0.18750000000000000       0.18750000000000000        0.0000000000000000     
  0.21875000000000000       0.18750000000000000        0.0000000000000000     
  0.25000000000000000       0.18750000000000000        0.0000000000000000     
  0.12500000000000000       0.21875000000000000        0.0000000000000000     
  0.15625000000000000       0.21875000000000000        0.0000000000000000     
  0.18750000000000000       0.21875000000000000        0.0000000000000000     
  0.21875000000000000       0.21875000000000000        0.0000000000000000     
  0.25000000000000000       0.21875000000000000        0.0000000000000000     
  0.12500000000000000       0.25000000000000000        0.0000000000000000     
  0.15625000000000000       0.25000000000000000        0.0000000000000000     
  0.18750000000000000       0.25000000000000000        0.0000000000000000     
  0.21875000000000000       0.25000000000000000        0.0000000000000000     
  0.25000000000000000       0.25000000000000000        0.0000000000000000     
  0.25000000000000000       0.12500000000000000        0.0000000000000000     
  0.28125000000000000       0.12500000000000000        0.0000000000000000     
  0.31250000000000000       0.12500000000000000        0.0000000000000000     
  0.34375000000000000       0.12500000000000000        0.0000000000000000     
  0.37500000000000000       0.12500000000000000        0.0000000000000000     
  0.25000000000000000       0.15625000000000000        0.0000000000000000     
  0.28125000000000000       0.15625000000000000        0.0000000000000000     
  0.31250000000000000       0.15625000000000000        0.0000000000000000     
  0.34375000000000000       0.15625000000000000        0.0000000000000000     
  0.37500000000000000       0.15625000000000000        0.0000000000000000     
  0.25000000000000000       0.18750000000000000        0.0000000000000000     
  0.28125000000000000       0.18750000000000000        0.0000000000000000     
  0.31250000000000000       0.18750000000000000        0.0000000000000000     
  0.34375000000000000       0.18750000000000000        0.0000000000000000     
  0.37500000000000000       0.18750000000000000        0.0000000000000000     
  0.25000000000000000       0.21875000000000000        0.0000000000000000     
  0.28125000000000000       0.21875000000000000        0.0000000000000000     
  0.31250000000000000       0.21875000000000000        0.0000000000000000     
  0.34375000000000000       0.21875000000000000        0.0000000000000000     
  0.37500000000000000       0.21875000000000000        0.0000000000000000     
  0.25000000000000000       0.25000000000000000        0.0000000000000000     
  0.28125000000000000       0.25000000000000000        0.0000000000000000     
  0.31250000000000000       0.25000000000000000        0.0000000000000000     
  0.34375000000000000       0.25000000000000000        0.0000000000000000     
  0.37500000000000000       0.25000000000000000        0.0000000000000000     
  0.37500000000000000       0.12500000000000000        0.0000000000000000     
  0.40625000000000000       0.12500000000000000        0.0000000000000000     
  0.43750000000000000       0.12500000000000000        0.0000000000000000     
  0.46875000000000000       0.12500000000000000        0.0000000000000000     
  0.50000000000000000       0.12500000000000000        0.0000000000000000     
  0.37500000000000000       0.15625000000000000        0.0000000000000000     
  0.40625000000000000       0.15625000000000000        0.0000000000000000     
  0.43750000000000000       0.15625000000000000        0.0000000000000000     
  0.46875000000000000       0.15625000000000000        0.0000000000000000     
  0.50000000000000000       0.15625000000000000        0.0000000000000000     
  0.37500000000000000       0.18750000000000000        0.0000000000000000     
  0.40625000000000000       0.18750000000000000        0.0000000000000000     
  0.43750000000000000       0.18750000000000000        0.0000000000000000     
  0.46875000000000000       0.18750000000000000        0.0000000000000000     
  0.50000000000000000       0.18750000000000000        0.0000000000000000     
  0.37500000000000000       0.21875000000000000        0.0000000000000000     
  0.40625000000000000       0.21875000000000000        0.0000000000000000     
  0.43750000000000000       0.21875000000000000        0.0000000000000000     
  0.46875000000000000       0.21875000000000000        0.0000000000000000     
  0.50000000000000000       0.21875000000000000        0.0000000000000000     
  0.37500000000000000       0.25000000000000000        0.0000000000000000     
  0.40625000000000000       0.25000000000000000        0.0000000000000000     
  0.43750000000000000       0.25000000000000000        0.0000000000000000     
  0.46875000000000000       0.25000000000000000        0.0000000000000000     
  0.50000000000000000       0.25000000000000000        0.0000000000000000     
  0.50000000000000000       0.12500000000000000        0.0000000000000000     
  0.53125000000000000       0.12500000000000000        0.0000000000000000     
  0.56250000000000000       0.12500000000000000        0.0000000000000000     
  0.59375000000000000       0.12500000000000000        0.0000000000000000     
  0.62500000000000000       0.12500000000000000        0.0000000000000000     
  0.50000000000000000       0.15625000000000000        0.0000000000000000     
  0.53125000000000000       0.15625000000000000        0.0000000000000000     
  0.56250000000000000       0.15625000000000000        0.0000000000000000     
  0.59375000000000000       0.15625000000000000        0.0000000000000000     
  0.62500000000000000       0.15625000000000000        0.0000000000000000     
  0.50000000000000000       0.18750000000000000        0.0000000000000000     
  0.53125000000000000       0.18750000000000000        0.0000000000000000     
  0.56250000000000000       0.18750000000000000        0.0000000000000000     
  0.59375000000000000       0.18750000000000000        0.0000000000000000     
  0.62500000000000000       0.18750000000000000        0.0000000000000000     
  0.50000000000000000       0.21875000000000000        0.0000000000000000     
  0.53125000000000000       0.21875000000000000        0.0000000000000000     
  0.56250000000000000       0.21875000000000000        0.0000000000000000     
  0.59375000000000000       0.21875000000000000        0.0000000000000000     
  0.62500000000000000       0.21875000000000000        0.0000000000000000     
  0.50000000000000000       0.25000000000000000        0.0000000000000000     
  0.53125000000000000       0.25000000000000000        0.0000000000000000     
  0.56250000000000000       0.25000000000000000        0.0000000000000000     
  0.59375000000000000       0.25000000000000000        0.0000000000000000     
  0.62500000000000000       0.25000000000000000        0.0000000000000000     
  0.62500000000000000       0.12500000000000000        0.0000000000000000     
  0.65625000000000000       0.12500000000000000        0.0000000000000000     
  0.68750000000000000       0.12500000000000000        0.0000000000000000     
  0.71875000000000000       0.12500000000000000        0.0000000000000000     
  0.75000000000000000       0.12500000000000000        0.0000000000000000     
  0.62500000000000000       0.15625000000000000        0.0000000000000000     
  0.65625000000000000       0.15625000000000000        0.0000000000000000     
  0.68750000000000000       0.15625000000000000        0.0000000000000000     
  0.71875000000000000       0.15625000000000000        0.0000000000000000     
  0.75000000000000000       0.15625000000000000        0.0000000000000000     
  0.62500000000000000       0.18750000000000000        0.0000000000000000     
  0.65625000000000000       0.18750000000000000        0.0000000000000000     
  0.68750000000000000       0.18750000000000000        0.0000000000000000     
  0.71875000000000000       0.18750000000000000        0.0000000000000000     
  0.75000000000000000       0.18750000000000000        0.0000000000000000     
  0.62500000000000000       0.21875000000000000        0.0000000000000000     
  0.65625000000000000       0.21875000000000000        0.0000000000000000     
  0.68750000000000000       0.21875000000000000        0.0000000000000000     
  0.71875000000000000       0.21875000000000000        0.0000000000000000     
  0.75000000000000000       0.21875000000000000        0.0000000000000000     
  0.62500000000000000       0.25000000000000000        0.0000000000000000     
  0.65625000000000000       0.25000000000000000        0.0000000000000000     
  0.68750000000000000       0.25000000000000000        0.0000000000000000     
  0.71875000000000000       0.25000000000000000        0.0000000000000000     
  0.75000000000000000       0.25000000000000000        0.0000000000000000     
  0.75000000000000000       0.12500000000000000        0.0000000000000000     
  0.78125000000000000       0.12500000000000000        0.0000000000000000     
  0.81250000000000000       0.12500000000000000        0.0000000000000000     
  0.84375000000000000       0.12500000000000000        0.0000000000000000     
  0.87500000000000000       0.12500000000000000        0.0000000000000000     
  0.75000000000000000       0.15625000000000000        0.0000000000000000     
  0.78125000000000000       0.15625000000000000        0.0000000000000000     
  0.81250000000000000       0.15625000000000000        0.0000000000000000     
  0.84375000000000000       0.15625000000000000        0.0000000000000000     
  0.87500000000000000       0.15625000000000000        0.0000000000000000     
  0.75000000000000000       0.18750000000000000        0.0000000000000000     
  0.78125000000000000       0.18750000000000000        0.0000000000000000     
  0.81250000000000000       0.18750000000000000        0.0000000000000000     
  0.84375000000000000       0.18750000000000000        0.0000000000000000     
  0.87500000000000000       0.18750000000000000        0.0000000000000000     
  0.75000000000000000       0.21875000000000000        0.0000000000000000     
  0.78125000000000000       0.21875000000000000        0.0000000000000000     
  0.81250000000000000       0.21875000000000000        0.0000000000000000     
  0.84375000000000000       0.21875000000000000        0.0000000000000000     
  0.87500000000000000       0.21875000000000000        0.0000000000000000     
  0.75000000000000000       0.25000000000000000        0.0000000000000000     
  0.78125000000000000       0.25000000000000000        0.0000000000000000     
  0.81250000000000000       0.25000000000000000        0.0000000000000000     
  0.84375000000000000       0.25000000000000000        0.0000000000000000     
  0.87500000000000000       0.25000000000000000        0.0000000000000000     
  0.87500000000000000       0.12500000000000000        0.0000000000000000     
  0.90625000000000000       0.12500000000000000        0.0000000000000000     
  0.93750000000000000       0.12500000000000000        0.0000000000000000     
  0.96875000000000000       0.12500000000000000        0.0000000000000000     
   1.0000000000000000       0.12500000000000000        0.0000000000000000     
  0.87500000000000000       0.15625000000000000        0.0000000000000000     
  0.90625000000000000       0.15625000000000000        0.0000000000000000     
  0.93750000000000000       0.15625000000000000        0.0000000000000000     
  0.96875000000000000       0.15625000000000000        0.0000000000000000     
   1.0000000000000000       0.15625000000000000        0.0000000000000000     
  0.87500000000000000       0.18750000000000000        0.0000000000000000     
  0.90625000000000000       0.18750000000000000        0.0000000000000000     
  0.93750000000000000       0.18750000000000000        0.0000000000000000     
  0.96875000000000000       0.18750000000000000        0.0000000000000000     
   1.0000000000000000       0.18750000000000000        0.0000000000000000     
  0.87500000000000000       0.21875000000000000        0.0000000000000000     
  0.90625000000000000       0.21875000000000000        0.0000000000000000     
  0.93750000000000000       0.21875000000000000        0.0000000000000000     
  0.96875000000000000       0.21875000000000000        0.0000000000000000     
   1.0000000000000000       0.21875000000000000        0.0000000000000000     
  0.87500000000000000       0.25000000000000000        0.0000000000000000     
  0.90625000000000000       0.25000000000000000        0.0000000000000000     
  0.93750000000000000       0.25000000000000000        0.0000000000000000     
  0.96875000000000000       0.25000000000000000        0.0000000000000000     
   1.0000000000000000       0.25000000000000000        0.0000000000000000     
   0.0000000000000000       0.25000000000000000        0.0000000000000000     
   3.1250000000000000E-002  0.25000000000000000        0.0000000000000000     
   6.2500000000000000E-002  0.25000000000000000        0.0000000000000000     
   9.3750000000000000E-002  0.25000000000000000        0.0000000000000000     
  0.12500000000000000       0.25000000000000000        0.0000000000000000     
   0.0000000000000000       0.28125000000000000        0.0000000000000000     
   3.1250000000000000E-002  0.28125000000000000        0.0000000000000000     
   6.2500000000000000E-002  0.28125000000000000        0.0000000000000000     
   9.3750000000000000E-002  0.28125000000000000        0.0000000000000000     
  0.12500000000000000       0.28125000000000000        0.0000000000000000     
   0.0000000000000000       0.31250000000000000        0.0000000000000000     
   3.1250000000000000E-002  0.31250000000000000        0.0000000000000000     
   6.2500000000000000E-002  0.31250000000000000        0.0000000000000000     
   9.3750000000000000E-002  0.31250000000000000        0.0000000000000000     
  0.12500000000000000       0.31250000000000000        0.0000000000000000     
   0.0000000000000000       0.34375000000000000        0.0000000000000000     
   3.1250000000000000E-002  0.34375000000000000        0.0000000000000000     
   6.2500000000000000E-002  0.34375000000000000        0.0000000000000000     
   9.3750000000000000E-002  0.34375000000000000        0.0000000000000000     
  0.12500000000000000       0.34375000000000000        0.0000000000000000     
   0.0000000000000000       0.37500000000000000        0.0000000000000000     
   3.1250000000000000E-002  0.37500000000000000        0.0000000000000000     
   6.2500000000000000E-002  0.37500000000000000        0.0000000000000000     
   9.3750000000000000E-002  0.37500000000000000        0.0000000000000000     
  0.12500000000000000       0.37500000000000000        0.0000000000000000     
  0.12500000000000000       0.25000000000000000        0.0000000000000000     
  0.15625000000000000       0.25000000000000000        0.0000000000000000     
  0.18750000000000000       0.25000000000000000        0.0000000000000000     
  0.21875000000000000       0.25000000000000000        0.0000000000000000     
  0.25000000000000000       0.25000000000000000        0.0000000000000000     
  0.12500000000000000       0.28125000000000000        0.0000000000000000     
  0.15625000000000000       0.28125000000000000        0.0000000000000000     
  0.18750000000000000       0.28125000000000000        0.0000000000000000     
  0.21875000000000000       0.28125000000000000        0.0000000000000000     
  0.25000000000000000       0.28125000000000000        0.0000000000000000     
  0.12500000000000000       0.31250000000000000        0.0000000000000000     
  0.15625000000000000       0.31250000000000000        0.0000000000000000     
  0.18750000000000000       0.31250000000000000        0.0000000000000000     
  0.21875000000000000       0.31250000000000000        0.0000000000000000     
  0.25000000000000000       0.31250000000000000        0.0000000000000000     
  0.12500000000000000       0.34375000000000000        0.0000000000000000     
  0.15625000000000000       0.34375000000000000        0.0000000000000000     
  0.18750000000000000       0.34375000000000000        0.0000000000000000     
  0.21875000000000000       0.34375000000000000        0.0000000000000000     
  0.25000000000000000       0.34375000000000000        0.0000000000000000     
  0.12500000000000000       0.37500000000000000        0.0000000000000000     
  0.15625000000000000       0.37500000000000000        0.0000000000000000     
  0.18750000000000000       0.37500000000000000        0.0000000000000000     
  0.21875000000000000       0.37500000000000000        0.0000000000000000     
  0.25000000000000000       0.37500000000000000        0.0000000000000000     
  0.25000000000000000       0.25000000000000000        0.0000000000000000     
  0.28125000000000000       0.25000000000000000        0.0000000000000000     
  0.31250000000000000       0.25000000000000000        0.0000000000000000     
  0.34375000000000000       0.25000000000000000        0.0000000000000000     
  0.37500000000000000       0.25000000000000000        0.0000000000000000     
  0.25000000000000000       0.28125000000000000        0.0000000000000000     
  0.28125000000000000       0.28125000000000000        0.0000000000000000     
  0.31250000000000000       0.28125000000000000        0.0000000000000000     
  0.34375000000000000       0.28125000000000000        0.0000000000000000     
  0.37500000000000000       0.28125000000000000        0.0000000000000000     
  0.25000000000000000       0.31250000000000000        0.0000000000000000     
  0.28125000000000000       0.31250000000000000        0.0000000000000000     
  0.31250000000000000       0.31250000000000000        0.0000000000000000     
  0.34375000000000000       0.31250000000000000        0.0000000000000000     
  0.37500000000000000       0.31250000000000000        0.0000000000000000     
  0.25000000000000000       0.34375000000000000        0.0000000000000000     
  0.28125000000000000       0.34375000000000000        0.0000000000000000     
  0.31250000000000000       0.34375000000000000        0.0000000000000000     
  0.34375000000000000       0.34375000000000000        0.0000000000000000     
  0.37500000000000000       0.34375000000000000        0.0000000000000000     
  0.25000000000000000       0.37500000000000000        0.0000000000000000     
  0.28125000000000000       0.37500000000000000        0.0000000000000000     
  0.31250000000000000       0.37500000000000000        0.0000000000000000     
  0.34375000000000000       0.37500000000000000        0.0000000000000000     
  0.37500000000000000       0.37500000000000000        0.0000000000000000     
  0.37500000000000000       0.25000000000000000        0.0000000000000000     
  0.40625000000000000       0.25000000000000000        0.0000000000000000     
  0.43750000000000000       0.25000000000000000        0.0000000000000000     
  0.46875000000000000       0.25000000000000000        0.0000000000000000     
  0.50000000000000000       0.25000000000000000        0.0000000000000000     
  0.37500000000000000       0.28125000000000000        0.0000000000000000     
  0.40625000000000000       0.28125000000000000        0.0000000000000000     
  0.43750000000000000       0.28125000000000000        0.0000000000000000     
  0.46875000000000000       0.28125000000000000        0.0000000000000000     
  0.50000000000000000       0.28125000000000000        0.0000000000000000     
  0.37500000000000000       0.31250000000000000        0.0000000000000000     
  0.40625000000000000       0.31250000000000000        0.0000000000000000     
  0.43750000000000000       0.31250000000000000        0.0000000000000000     
  0.46875000000000000       0.31250000000000000        0.0000000000000000     
  0.50000000000000000       0.31250000000000000        0.0000000000000000     
  0.37500000000000000       0.34375000000000000        0.0000000000000000     
  0.40625000000000000       0.34375000000000000        0.0000000000000000     
  0.43750000000000000       0.34375000000000000        0.0000000000000000     
  0.46875000000000000       0.34375000000000000        0.0000000000000000     
  0.50000000000000000       0.34375000000000000        0.0000000000000000     
  0.37500000000000000       0.37500000000000000        0.0000000000000000     
  0.40625000000000000       0.37500000000000000        0.0000000000000000     
  0.43750000000000000       0.37500000000000000        0.0000000000000000     
  0.46875000000000000       0.37500000000000000        0.0000000000000000     
  0.50000000000000000       0.37500000000000000        0.0000000000000000     
  0.50000000000000000       0.25000000000000000        0.0000000000000000     
  0.53125000000000000       0.25000000000000000        0.0000000000000000     
  0.56250000000000000       0.25000000000000000        0.0000000000000000     
  0.59375000000000000       0.25000000000000000        0.0000000000000000     
  0.62500000000000000       0.25000000000000000        0.0000000000000000     
  0.50000000000000000       0.28125000000000000        0.0000000000000000     
  0.53125000000000000       0.28125000000000000        0.0000000000000000     
  0.56250000000000000       0.28125000000000000        0.0000000000000000     
  0.59375000000000000       0.28125000000000000        0.0000000000000000     
  0.62500000000000000       0.28125000000000000        0.0000000000000000     
  0.50000000000000000       0.31250000000000000        0.0000000000000000     
  0.53125000000000000       0.31250000000000000        0.0000000000000000     
  0.56250000000000000       0.31250000000000000        0.0000000000000000     
  0.59375000000000000       0.31250000000000000        0.0000000000000000     
  0.62500000000000000       0.31250000000000000        0.0000000000000000     
  0.50000000000000000       0.34375000000000000        0.0000000000000000     
  0.53125000000000000       0.34375000000000000        0.0000000000000000     
  0.56250000000000000       0.34375000000000000        0.0000000000000000     
  0.59375000000000000       0.34375000000000000        0.0000000000000000     
  0.62500000000000000       0.34375000000000000        0.0000000000000000     
  0.50000000000000000       0.37500000000000000        0.0000000000000000     
  0.53125000000000000       0.37500000000000000        0.0000000000000000     
  0.56250000000000000       0.37500000000000000        0.0000000000000000     
  0.59375000000000000       0.37500000000000000        0.0000000000000000     
  0.62500000000000000       0.37500000000000000        0.0000000000000000     
  0.62500000000000000       0.25000000000000000        0.0000000000000000     
  0.65625000000000000       0.25000000000000000        0.0000000000000000     
  0.68750000000000000       0.25000000000000000        0.0000000000000000     
  0.71875000000000000       0.25000000000000000        0.0000000000000000     
  0.75000000000000000       0.25000000000000000        0.0000000000000000     
  0.62500000000000000       0.28125000000000000        0.0000000000000000     
  0.65625000000000000       0.28125000000000000        0.0000000000000000     
  0.68750000000000000       0.28125000000000000        0.0000000000000000     
  0.71875000000000000       0.28125000000000000        0.0000000000000000     
  0.75000000000000000       0.28125000000000000        0.0000000000000000     
  0.62500000000000000       0.31250000000000000        0.0000000000000000     
  0.65625000000000000       0.31250000000000000        0.0000000000000000     
  0.68750000000000000       0.31250000000000000        0.0000000000000000     
  0.71875000000000000       0.31250000000000000        0.0000000000000000     
  0.75000000000000000       0.31250000000000000        0.0000000000000000     
  0.62500000000000000       0.34375000000000000        0.0000000000000000     
  0.65625000000000000       0.34375000000000000        0.0000000000000000     
  0.68750000000000000       0.34375000000000000        0.0000000000000000     
  0.71875000000000000       0.34375000000000000        0.0000000000000000     
  0.75000000000000000       0.34375000000000000        0.0000000000000000     
  0.62500000000000000       0.37500000000000000        0.0000000000000000     
  0.65625000000000000       0.37500000000000000        0.0000000000000000     
  0.68750000000000000       0.37500000000000000        0.0000000000000000     
  0.71875000000000000       0.37500000000000000        0.0000000000000000     
  0.75000000000000000       0.37500000000000000        0.0000000000000000     
  0.75000000000000000       0.25000000000000000        0.0000000000000000     
  0.78125000000000000       0.25000000000000000        0.0000000000000000     
  0.81250000000000000       0.25000000000000000        0.0000000000000000     
  0.84375000000000000       0.25000000000000000        0.0000000000000000     
  0.87500000000000000       0.25000000000000000        0.0000000000000000     
  0.75000000000000000       0.28125000000000000        0.0000000000000000     
  0.78125000000000000       0.28125000000000000        0.0000000000000000     
  0.81250000000000000       0.28125000000000000        0.0000000000000000     
  0.84375000000000000       0.28125000000000000        0.0000000000000000     
  0.87500000000000000       0.28125000000000000        0.0000000000000000     
  0.75000000000000000       0.31250000000000000        0.0000000000000000     
  0.78125000000000000       0.31250000000000000        0.0000000000000000     
  0.81250000000000000       0.31250000000000000        0.0000000000000000     
  0.84375000000000000       0.31250000000000000        0.0000000000000000     
  0.87500000000000000       0.31250000000000000        0.0000000000000000     
  0.75000000000000000       0.34375000000000000        0.0000000000000000     
  0.78125000000000000       0.34375000000000000        0.0000000000000000     
  0.81250000000000000       0.34375000000000000        0.0000000000000000     
  0.84375000000000000       0.34375000000000000        0.0000000000000000     
  0.87500000000000000       0.34375000000000000        0.0000000000000000     
  0.75000000000000000       0.37500000000000000        0.0000000000000000     
  0.78125000000000000       0.37500000000000000        0.0000000000000000     
  0.81250000000000000       0.37500000000000000        0.0000000000000000     
  0.84375000000000000       0.37500000000000000        0.0000000000000000     
  0.87500000000000000       0.37500000000000000        0.0000000000000000     
  0.87500000000000000       0.25000000000000000        0.0000000000000000     
  0.90625000000000000       0.25000000000000000        0.0000000000000000     
  0.93750000000000000       0.25000000000000000        0.0000000000000000     
  0.96875000000000000       0.25000000000000000        0.0000000000000000     
   1.0000000000000000       0.25000000000000000        0.0000000000000000     
  0.87500000000000000       0.28125000000000000        0.0000000000000000     
  0.90625000000000000       0.28125000000000000        0.0000000000000000     
  0.93750000000000000       0.28125000000000000        0.0000000000000000     
  0.96875000000000000       0.28125000000000000        0.0000000000000000     
   1.0000000000000000       0.28125000000000000        0.0000000000000000     
  0.87500000000000000       0.31250000000000000        0.0000000000000000     
  0.90625000000000000       0.31250000000000000        0.0000000000000000     
  0.93750000000000000       0.31250000000000000        0.0000000000000000     
  0.96875000000000000       0.31250000000000000        0.0000000000000000     
   1.0000000000000000       0.31250000000000000        0.0000000000000000     
  0.87500000000000000       0.34375000000000000        0.0000000000000000     
  0.90625000000000000       0.34375000000000000        0.0000000000000000     
  0.93750000000000000       0.34375000000000000        0.0000000000000000     
  0.96875000000000000       0.34375000000000000        0.0000000000000000     
   1.0000000000000000       0.34375000000000000        0.0000000000000000     
  0.87500000000000000       0.37500000000000000        0.0000000000000000     
  0.90625000000000000       0.37500000000000000        0.0000000000000000     
  0.93750000000000000       0.37500000000000000        0.0000000000000000     
  0.96875000000000000       0.37500000000000000        0.0000000000000000     
   1.0000000000000000       0.37500000000000000        0.0000000000000000     
   0.0000000000000000       0.37500000000000000        0.0000000000000000     
   3.1250000000000000E-002  0.37500000000000000        0.0000000000000000     
   6.2500000000000000E-002  0.37500000000000000        0.0000000000000000     
   9.3750000000000000E-002  0.37500000000000000        0.0000000000000000     
  0.12500000000000000       0.37500000000000000        0.0000000000000000     
   0.0000000000000000       0.40625000000000000        0.0000000000000000     
   3.1250000000000000E-002  0.40625000000000000        0.0000000000000000     
   6.2500000000000000E-002  0.40625000000000000        0.0000000000000000     
   9.3750000000000000E-002  0.40625000000000000        0.0000000000000000     
  0.12500000000000000       0.40625000000000000        0.0000000000000000     
   0.0000000000000000       0.43750000000000000        0.0000000000000000     
   3.1250000000000000E-002  0.43750000000000000        0.0000000000000000     
   6.2500000000000000E-002  0.43750000000000000        0.0000000000000000     
   9.3750000000000000E-002  0.43750000000000000        0.0000000000000000     
  0.12500000000000000       0.43750000000000000        0.0000000000000000     
   0.0000000000000000       0.46875000000000000        0.0000000000000000     
   3.1250000000000000E-002  0.46875000000000000        0.0000000000000000     
   6.2500000000000000E-002  0.46875000000000000        0.0000000000000000     
   9.3750000000000000E-002  0.46875000000000000        0.0000000000000000     
  0.12500000000000000       0.46875000000000000        0.0000000000000000     
   0.0000000000000000       0.50000000000000000        0.0000000000000000     
   3.1250000000000000E-002  0.50000000000000000        0.0000000000000000     
   6.2500000000000000E-002  0.50000000000000000        0.0000000000000000     
   9.3750000000000000E-002  0.50000000000000000        0.0000000000000000     
  0.12500000000000000       0.50000000000000000        0.0000000000000000     
  0.12500000000000000       0.37500000000000000        0.0000000000000000     
  0.15625000000000000       0.37500000000000000        0.0000000000000000     
  0.18750000000000000       0.37500000000000000        0.0000000000000000     
  0.21875000000000000       0.37500000000000000        0.0000000000000000     
  0.25000000000000000       0.37500000000000000        0.0000000000000000     
  0.12500000000000000       0.40625000000000000        0.0000000000000000     
  0.15625000000000000       0.40625000000000000        0.0000000000000000     
  0.18750000000000000       0.40625000000000000        0.0000000000000000     
  0.21875000000000000       0.40625000000000000        0.0000000000000000     
  0.25000000000000000       0.40625000000000000        0.0000000000000000     
  0.12500000000000000       0.43750000000000000        0.0000000000000000     
  0.15625000000000000       0.43750000000000000        0.0000000000000000     
  0.18750000000000000       0.43750000000000000        0.0000000000000000     
  0.21875000000000000       0.43750000000000000        0.0000000000000000     
  0.25000000000000000       0.43750000000000000        0.0000000000000000     
  0.12500000000000000       0.46875000000000000        0.0000000000000000     
  0.15625000000000000       0.46875000000000000        0.0000000000000000     
  0.18750000000000000       0.46875000000000000        0.0000000000000000     
  0.21875000000000000       0.46875000000000000        0.0000000000000000     
  0.25000000000000000       0.46875000000000000        0.0000000000000000     
  0.12500000000000000       0.50000000000000000        0.0000000000000000     
  0.15625000000000000       0.50000000000000000        0.0000000000000000     
  0.18750000000000000       0.50000000000000000        0.0000000000000000     
  0.21875000000000000       0.50000000000000000        0.0000000000000000     
  0.25000000000000000       0.50000000000000000        0.0000000000000000     
  0.25000000000000000       0.37500000000000000        0.0000000000000000     
  0.28125000000000000       0.37500000000000000        0.0000000000000000     
  0.31250000000000000       0.37500000000000000        0.0000000000000000     
  0.34375000000000000       0.37500000000000000        0.0000000000000000     
  0.37500000000000000       0.37500000000000000        0.0000000000000000     
  0.25000000000000000       0.40625000000000000        0.0000000000000000     
  0.28125000000000000       0.40625000000000000        0.0000000000000000     
  0.31250000000000000       0.40625000000000000        0.0000000000000000     
  0.34375000000000000       0.40625000000000000        0.0000000000000000     
  0.37500000000000000       0.40625000000000000        0.0000000000000000     
  0.25000000000000000       0.43750000000000000        0.0000000000000000     
  0.28125000000000000       0.43750000000000000        0.0000000000000000     
  0.31250000000000000       0.43750000000000000        0.0000000000000000     
  0.34375000000000000       0.43750000000000000        0.0000000000000000     
  0.37500000000000000       0.43750000000000000        0.0000000000000000     
  0.25000000000000000       0.46875000000000000        0.0000000000000000     
  0.28125000000000000       0.46875000000000000        0.0000000000000000     
  0.31250000000000000       0.46875000000000000        0.0000000000000000     
  0.34375000000000000       0.46875000000000000        0.0000000000000000     
  0.37500000000000000       0.46875000000000000        0.0000000000000000     
  0.25000000000000000       0.50000000000000000        0.0000000000000000     
  0.28125000000000000       0.50000000000000000        0.0000000000000000     
  0.31250000000000000       0.50000000000000000        0.0000000000000000     
  0.34375000000000000       0.50000000000000000        0.0000000000000000     
  0.37500000000000000       0.50000000000000000        0.0000000000000000     
  0.37500000000000000       0.37500000000000000        0.0000000000000000     
  0.40625000000000000       0.37500000000000000        0.0000000000000000     
  0.43750000000000000       0.37500000000000000        0.0000000000000000     
  0.46875000000000000       0.37500000000000000        0.0000000000000000     
  0.50000000000000000       0.37500000000000000        0.0000000000000000     
  0.37500000000000000       0.40625000000000000        0.0000000000000000     
  0.40625000000000000       0.40625000000000000        0.0000000000000000     
  0.43750000000000000       0.40625000000000000        0.0000000000000000     
  0.46875000000000000       0.40625000000000000        0.0000000000000000     
  0.50000000000000000       0.40625000000000000        0.0000000000000000     
  0.37500000000000000       0.43750000000000000        0.0000000000000000     
  0.40625000000000000       0.43750000000000000        0.0000000000000000     
  0.43750000000000000       0.43750000000000000        0.0000000000000000     
  0.46875000000000000       0.43750000000000000        0.0000000000000000     
  0.50000000000000000       0.43750000000000000        0.0000000000000000     
  0.37500000000000000       0.46875000000000000        0.0000000000000000     
  0.40625000000000000       0.46875000000000000        0.0000000000000000     
  0.43750000000000000       0.46875000000000000        0.0000000000000000     
  0.46875000000000000       0.46875000000000000        0.0000000000000000     
  0.50000000000000000       0.46875000000000000        0.0000000000000000     
  0.37500000000000000       0.50000000000000000        0.0000000000000000     
  0.40625000000000000       0.50000000000000000        0.0000000000000000     
  0.43750000000000000       0.50000000000000000        0.0000000000000000     
  0.46875000000000000       0.50000000000000000        0.0000000000000000     
  0.50000000000000000       0.50000000000000000        0.0000000000000000     
  0.50000000000000000       0.37500000000000000        0.0000000000000000     
  0.53125000000000000       0.37500000000000000        0.0000000000000000     
  0.56250000000000000       0.37500000000000000        0.0000000000000000     
  0.59375000000000000       0.37500000000000000        0.0000000000000000     
  0.62500000000000000       0.37500000000000000        0.0000000000000000     
  0.50000000000000000       0.40625000000000000        0.0000000000000000     
  0.53125000000000000       0.40625000000000000        0.0000000000000000     
  0.56250000000000000       0.40625000000000000        0.0000000000000000     
  0.59375000000000000       0.40625000000000000        0.0000000000000000     
  0.62500000000000000       0.40625000000000000        0.0000000000000000     
  0.50000000000000000       0.43750000000000000        0.0000000000000000     
  0.53125000000000000       0.43750000000000000        0.0000000000000000     
  0.56250000000000000       0.43750000000000000        0.0000000000000000     
  0.59375000000000000       0.43750000000000000        0.0000000000000000     
  0.62500000000000000       0.43750000000000000        0.0000000000000000     
  0.50000000000000000       0.46875000000000000        0.0000000000000000     
  0.53125000000000000       0.46875000000000000        0.0000000000000000     
  0.56250000000000000       0.46875000000000000        0.0000000000000000     
  0.59375000000000000       0.46875000000000000        0.0000000000000000     
  0.62500000000000000       0.46875000000000000        0.0000000000000000     
  0.50000000000000000       0.50000000000000000        0.0000000000000000     
  0.53125000000000000       0.50000000000000000        0.0000000000000000     
  0.56250000000000000       0.50000000000000000        0.0000000000000000     
  0.59375000000000000       0.50000000000000000        0.0000000000000000     
  0.62500000000000000       0.50000000000000000        0.0000000000000000     
  0.62500000000000000       0.37500000000000000        0.0000000000000000     
  0.65625000000000000       0.37500000000000000        0.0000000000000000     
  0.68750000000000000       0.37500000000000000        0.0000000000000000     
  0.71875000000000000       0.37500000000000000        0.0000000000000000     
  0.75000000000000000       0.37500000000000000        0.0000000000000000     
  0.62500000000000000       0.40625000000000000        0.0000000000000000     
  0.65625000000000000       0.40625000000000000        0.0000000000000000     
  0.68750000000000000       0.40625000000000000        0.0000000000000000     
  0.71875000000000000       0.40625000000000000        0.0000000000000000     
  0.75000000000000000       0.40625000000000000        0.0000000000000000     
  0.62500000000000000       0.43750000000000000        0.0000000000000000     
  0.65625000000000000       0.43750000000000000        0.0000000000000000     
  0.68750000000000000       0.43750000000000000        0.0000000000000000     
  0.71875000000000000       0.43750000000000000        0.0000000000000000     
  0.75000000000000000       0.43750000000000000        0.0000000000000000     
  0.62500000000000000       0.46875000000000000        0.0000000000000000     
  0.65625000000000000       0.46875000000000000        0.0000000000000000     
  0.68750000000000000       0.46875000000000000        0.0000000000000000     
  0.71875000000000000       0.46875000000000000        0.0000000000000000     
  0.75000000000000000       0.46875000000000000        0.0000000000000000     
  0.62500000000000000       0.50000000000000000        0.0000000000000000     
  0.65625000000000000       0.50000000000000000        0.0000000000000000     
  0.68750000000000000       0.50000000000000000        0.0000000000000000     
  0.71875000000000000       0.50000000000000000        0.0000000000000000     
  0.75000000000000000       0.50000000000000000        0.0000000000000000     
  0.75000000000000000       0.37500000000000000        0.0000000000000000     
  0.78125000000000000       0.37500000000000000        0.0000000000000000     
  0.81250000000000000       0.37500000000000000        0.0000000000000000     
  0.84375000000000000       0.37500000000000000        0.0000000000000000     
  0.87500000000000000       0.37500000000000000        0.0000000000000000     
  0.75000000000000000       0.40625000000000000        0.0000000000000000     
  0.78125000000000000       0.40625000000000000        0.0000000000000000     
  0.81250000000000000       0.40625000000000000        0.0000000000000000     
  0.84375000000000000       0.40625000000000000        0.0000000000000000     
  0.87500000000000000       0.40625000000000000        0.0000000000000000     
  0.75000000000000000       0.43750000000000000        0.0000000000000000     
  0.78125000000000000       0.43750000000000000        0.0000000000000000     
  0.81250000000000000       0.43750000000000000        0.0000000000000000     
  0.84375000000000000       0.43750000000000000        0.0000000000000000     
  0.87500000000000000       0.43750000000000000        0.0000000000000000     
  0.75000000000000000       0.46875000000000000        0.0000000000000000     
  0.78125000000000000       0.46875000000000000        0.0000000000000000     
  0.81250000000000000       0.46875000000000000        0.0000000000000000     
  0.84375000000000000       0.46875000000000000        0.0000000000000000     
  0.87500000000000000       0.46875000000000000        0.0000000000000000     
  0.75000000000000000       0.50000000000000000        0.0000000000000000     
  0.78125000000000000       0.50000000000000000        0.0000000000000000     
  0.81250000000000000       0.50000000000000000        0.0000000000000000     
  0.84375000000000000       0.50000000000000000        0.0000000000000000     
  0.87500000000000000       0.50000000000000000        0.0000000000000000     
  0.87500000000000000       0.37500000000000000        0.0000000000000000     
  0.90625000000000000       0.37500000000000000        0.0000000000000000     
  0.93750000000000000       0.37500000000000000        0.0000000000000000     
  0.96875000000000000       0.37500000000000000        0.0000000000000000     
   1.0000000000000000       0.37500000000000000        0.0000000000000000     
  0.87500000000000000       0.40625000000000000        0.0000000000000000     
  0.90625000000000000       0.40625000000000000        0.0000000000000000     
  0.93750000000000000       0.40625000000000000        0.0000000000000000     
  0.96875000000000000       0.40625000000000000        0.0000000000000000     
   1.0000000000000000       0.40625000000000000        0.0000000000000000     
  0.87500000000000000       0.43750000000000000        0.0000000000000000     
  0.90625000000000000       0.43750000000000000        0.0000000000000000     
  0.93750000000000000       0.43750000000000000        0.0000000000000000     
  0.96875000000000000       0.43750000000000000        0.0000000000000000     
   1.0000000000000000       0.43750000000000000        0.0000000000000000     
  0.87500000000000000       0.46875000000000000        0.0000000000000000     
  0.90625000000000000       0.46875000000000000        0.0000000000000000     
  0.93750000000000000       0.46875000000000000        0.0000000000000000     
  0.96875000000000000       0.46875000000000000        0.0000000000000000     
   1.0000000000000000       0.46875000000000000        0.0000000000000000     
  0.87500000000000000       0.50000000000000000        0.0000000000000000     
  0.90625000000000000       0.50000000000000000        0.0000000000000000     
  0.93750000000000000       0.50000000000000000        0.0000000000000000     
  0.96875000000000000       0.50000000000000000        0.0000000000000000     
   1.0000000000000000       0.50000000000000000        0.0000000000000000     
   0.0000000000000000       0.50000000000000000        0.0000000000000000     
   3.1250000000000000E-002  0.50000000000000000        0.0000000000000000     
   6.2500000000000000E-002  0.50000000000000000        0.0000000000000000     
   9.3750000000000000E-002  0.50000000000000000        0.0000000000000000     
  0.12500000000000000       0.50000000000000000        0.0000000000000000     
   0.0000000000000000       0.53125000000000000        0.0000000000000000     
   3.1250000000000000E-002  0.53125000000000000        0.0000000000000000     
   6.2500000000000000E-002  0.53125000000000000        0.0000000000000000     
   9.3750000000000000E-002  0.53125000000000000        0.0000000000000000     
  0.12500000000000000       0.53125000000000000        0.0000000000000000     
   0.0000000000000000       0.56250000000000000        0.0000000000000000     
   3.1250000000000000E-002  0.56250000000000000        0.0000000000000000     
   6.2500000000000000E-002  0.56250000000000000        0.0000000000000000     
   9.3750000000000000E-002  0.56250000000000000        0.0000000000000000     
  0.12500000000000000       0.56250000000000000        0.0000000000000000     
   0.0000000000000000       0.59375000000000000        0.0000000000000000     
   3.1250000000000000E-002  0.59375000000000000        0.0000000000000000     
   6.2500000000000000E-002  0.59375000000000000        0.0000000000000000     
   9.3750000000000000E-002  0.59375000000000000        0.0000000000000000     
  0.12500000000000000       0.59375000000000000        0.0000000000000000     
   0.0000000000000000       0.62500000000000000        0.0000000000000000     
   3.1250000000000000E-002  0.62500000000000000        0.0000000000000000     
   6.2500000000000000E-002  0.62500000000000000        0.0000000000000000     
   9.3750000000000000E-002  0.62500000000000000        0.0000000000000000     
  0.12500000000000000       0.62500000000000000        0.0000000000000000     
  0.12500000000000000       0.50000000000000000        0.0000000000000000     
  0.15625000000000000       0.50000000000000000        0.0000000000000000     
  0.18750000000000000       0.50000000000000000        0.0000000000000000     
  0.21875000000000000       0.50000000000000000        0.0000000000000000     
  0.25000000000000000       0.50000000000000000        0.0000000000000000     
  0.12500000000000000       0.53125000000000000        0.0000000000000000     
  0.15625000000000000       0.53125000000000000        0.0000000000000000     
  0.18750000000000000       0.53125000000000000        0.0000000000000000     
  0.21875000000000000       0.53125000000000000        0.0000000000000000     
  0.25000000000000000       0.53125000000000000        0.0000000000000000     
  0.12500000000000000       0.56250000000000000        0.0000000000000000     
  0.15625000000000000       0.56250000000000000        0.0000000000000000     
  0.18750000000000000       0.56250000000000000        0.0000000000000000     
  0.21875000000000000       0.56250000000000000        0.0000000000000000     
  0.25000000000000000       0.56250000000000000        0.0000000000000000     
  0.12500000000000000       0.59375000000000000        0.0000000000000000     
  0.15625000000000000       0.59375000000000000        0.0000000000000000     
  0.18750000000000000       0.59375000000000000        0.0000000000000000     
  0.21875000000000000       0.59375000000000000        0.0000000000000000     
  0.25000000000000000       0.59375000000000000        0.0000000000000000     
  0.12500000000000000       0.62500000000000000        0.0000000000000000     
  0.15625000000000000       0.62500000000000000        0.0000000000000000     
  0.18750000000000000       0.62500000000000000        0.0000000000000000     
  0.21875000000000000       0.62500000000000000        0.0000000000000000     
  0.25000000000000000       0.62500000000000000        0.0000000000000000     
  0.25000000000000000       0.50000000000000000        0.0000000000000000     
  0.28125000000000000       0.50000000000000000        0.0000000000000000     
  0.31250000000000000       0.50000000000000000        0.0000000000000000     
  0.34375000000000000       0.50000000000000000        0.0000000000000000     
  0.37500000000000000       0.50000000000000000        0.0000000000000000     
  0.25000000000000000       0.53125000000000000        0.0000000000000000     
  0.28125000000000000       0.53125000000000000        0.0000000000000000     
  0.31250000000000000       0.53125000000000000        0.0000000000000000     
  0.34375000000000000       0.53125000000000000        0.0000000000000000     
  0.37500000000000000       0.53125000000000000        0.0000000000000000     
  0.25000000000000000       0.56250000000000000        0.0000000000000000     
  0.28125000000000000       0.56250000000000000        0.0000000000000000     
  0.31250000000000000       0.56250000000000000        0.0000000000000000     
  0.34375000000000000       0.56250000000000000        0.0000000000000000     
  0.37500000000000000       0.56250000000000000        0.0000000000000000     
  0.25000000000000000       0.59375000000000000        0.0000000000000000     
  0.28125000000000000       0.59375000000000000        0.0000000000000000     
  0.31250000000000000       0.59375000000000000        0.0000000000000000     
  0.34375000000000000       0.59375000000000000        0.0000000000000000     
  0.37500000000000000       0.59375000000000000        0.0000000000000000     
  0.25000000000000000       0.62500000000000000        0.0000000000000000     
  0.28125000000000000       0.62500000000000000        0.0000000000000000     
  0.31250000000000000       0.62500000000000000        0.0000000000000000     
  0.34375000000000000       0.62500000000000000        0.0000000000000000     
  0.37500000000000000       0.62500000000000000        0.0000000000000000     
  0.37500000000000000       0.50000000000000000        0.0000000000000000     
  0.40625000000000000       0.50000000000000000        0.0000000000000000     
  0.43750000000000000       0.50000000000000000        0.0000000000000000     
  0.46875000000000000       0.50000000000000000        0.0000000000000000     
  0.50000000000000000       0.50000000000000000        0.0000000000000000     
  0.37500000000000000       0.53125000000000000        0.0000000000000000     
  0.40625000000000000       0.53125000000000000        0.0000000000000000     
  0.43750000000000000       0.53125000000000000        0.0000000000000000     
  0.46875000000000000       0.53125000000000000        0.0000000000000000     
  0.50000000000000000       0.53125000000000000        0.0000000000000000     
  0.37500000000000000       0.56250000000000000        0.0000000000000000     
  0.40625000000000000       0.56250000000000000        0.0000000000000000     
  0.43750000000000000       0.56250000000000000        0.0000000000000000     
  0.46875000000000000       0.56250000000000000        0.0000000000000000     
  0.50000000000000000       0.56250000000000000        0.0000000000000000     
  0.37500000000000000       0.59375000000000000        0.0000000000000000     
  0.40625000000000000       0.59375000000000000        0.0000000000000000     
  0.43750000000000000       0.59375000000000000        0.0000000000000000     
  0.46875000000000000       0.59375000000000000        0.0000000000000000     
  0.50000000000000000       0.59375000000000000        0.0000000000000000     
  0.37500000000000000       0.62500000000000000        0.0000000000000000     
  0.40625000000000000       0.62500000000000000        0.0000000000000000     
  0.43750000000000000       0.62500000000000000        0.0000000000000000     
  0.46875000000000000       0.62500000000000000        0.0000000000000000     
  0.50000000000000000       0.62500000000000000        0.0000000000000000     
  0.50000000000000000       0.50000000000000000        0.0000000000000000     
  0.53125000000000000       0.50000000000000000        0.0000000000000000     
  0.56250000000000000       0.50000000000000000        0.0000000000000000     
  0.59375000000000000       0.50000000000000000        0.0000000000000000     
  0.62500000000000000       0.50000000000000000        0.0000000000000000     
  0.50000000000000000       0.53125000000000000        0.0000000000000000     
  0.53125000000000000       0.53125000000000000        0.0000000000000000     
  0.56250000000000000       0.53125000000000000        0.0000000000000000     
  0.59375000000000000       0.53125000000000000        0.0000000000000000     
  0.62500000000000000       0.53125000000000000        0.0000000000000000     
  0.50000000000000000       0.56250000000000000        0.0000000000000000     
  0.53125000000000000       0.56250000000000000        0.0000000000000000     
  0.56250000000000000       0.56250000000000000        0.0000000000000000     
  0.59375000000000000       0.56250000000000000        0.0000000000000000     
  0.62500000000000000       0.56250000000000000        0.0000000000000000     
  0.50000000000000000       0.59375000000000000        0.0000000000000000     
  0.53125000000000000       0.59375000000000000        0.0000000000000000     
  0.56250000000000000       0.59375000000000000        0.0000000000000000     
  0.59375000000000000       0.59375000000000000        0.0000000000000000     
  0.62500000000000000       0.59375000000000000        0.0000000000000000     
  0.50000000000000000       0.62500000000000000        0.0000000000000000     
  0.53125000000000000       0.62500000000000000        0.0000000000000000     
  0.56250000000000000       0.62500000000000000        0.0000000000000000     
  0.59375000000000000       0.62500000000000000        0.0000000000000000     
  0.62500000000000000       0.62500000000000000        0.0000000000000000     
  0.62500000000000000       0.50000000000000000        0.0000000000000000     
  0.65625000000000000       0.50000000000000000        0.0000000000000000     
  0.68750000000000000       0.50000000000000000        0.0000000000000000     
  0.71875000000000000       0.50000000000000000        0.0000000000000000     
  0.75000000000000000       0.50000000000000000        0.0000000000000000     
  0.62500000000000000       0.53125000000000000        0.0000000000000000     
  0.65625000000000000       0.53125000000000000        0.0000000000000000     
  0.68750000000000000       0.53125000000000000        0.0000000000000000     
  0.71875000000000000       0.53125000000000000        0.0000000000000000     
  0.75000000000000000       0.53125000000000000        0.0000000000000000     
  0.62500000000000000       0.56250000000000000        0.0000000000000000     
  0.65625000000000000       0.56250000000000000        0.0000000000000000     
  0.68750000000000000       0.56250000000000000        0.0000000000000000     
  0.71875000000000000       0.56250000000000000        0.0000000000000000     
  0.75000000000000000       0.56250000000000000        0.0000000000000000     
  0.62500000000000000       0.59375000000000000        0.0000000000000000     
  0.65625000000000000       0.59375000000000000        0.0000000000000000     
  0.68750000000000000       0.59375000000000000        0.0000000000000000     
  0.71875000000000000       0.59375000000000000        0.0000000000000000     
  0.75000000000000000       0.59375000000000000        0.0000000000000000     
  0.62500000000000000       0.62500000000000000        0.0000000000000000     
  0.65625000000000000       0.62500000000000000        0.0000000000000000     
  0.68750000000000000       0.62500000000000000        0.0000000000000000     
  0.71875000000000000       0.62500000000000000        0.0000000000000000     
  0.75000000000000000       0.62500000000000000        0.0000000000000000     
  0.75000000000000000       0.50000000000000000        0.0000000000000000     
  0.78125000000000000       0.50000000000000000        0.0000000000000000     
  0.81250000000000000       0.50000000000000000        0.0000000000000000     
  0.84375000000000000       0.50000000000000000        0.0000000000000000     
  0.87500000000000000       0.50000000000000000        0.0000000000000000     
  0.75000000000000000       0.53125000000000000        0.0000000000000000     
  0.78125000000000000       0.53125000000000000        0.0000000000000000     
  0.81250000000000000       0.53125000000000000        0.0000000000000000     
  0.84375000000000000       0.53125000000000000        0.0000000000000000     
  0.87500000000000000       0.53125000000000000        0.0000000000000000     
  0.75000000000000000       0.56250000000000000        0.0000000000000000     
  0.78125000000000000       0.56250000000000000        0.0000000000000000     
  0.81250000000000000       0.56250000000000000        0.0000000000000000     
  0.84375000000000000       0.56250000000000000        0.0000000000000000     
  0.87500000000000000       0.56250000000000000        0.0000000000000000     
  0.75000000000000000       0.59375000000000000        0.0000000000000000     
  0.78125000000000000       0.59375000000000000        0.0000000000000000     
  0.81250000000000000       0.59375000000000000        0.0000000000000000     
  0.84375000000000000       0.59375000000000000        0.0000000000000000     
  0.87500000000000000       0.59375000000000000        0.0000000000000000     
  0.75000000000000000       0.62500000000000000        0.0000000000000000     
  0.78125000000000000       0.62500000000000000        0.0000000000000000     
  0.81250000000000000       0.62500000000000000        0.0000000000000000     
  0.84375000000000000       0.62500000000000000        0.0000000000000000     
  0.87500000000000000       0.62500000000000000        0.0000000000000000     
  0.87500000000000000       0.50000000000000000        0.0000000000000000     
  0.90625000000000000       0.50000000000000000        0.0000000000000000     
  0.93750000000000000       0.50000000000000000        0.0000000000000000     
  0.96875000000000000       0.50000000000000000        0.0000000000000000     
   1.0000000000000000       0.50000000000000000        0.0000000000000000     
  0.87500000000000000       0.53125000000000000        0.0000000000000000     
  0.90625000000000000       0.53125000000000000        0.0000000000000000     
  0.93750000000000000       0.53125000000000000        0.0000000000000000     
  0.96875000000000000       0.53125000000000000        0.0000000000000000     
   1.0000000000000000       0.53125000000000000        0.0000000000000000     
  0.87500000000000000       0.56250000000000000        0.0000000000000000     
  0.90625000000000000       0.56250000000000000        0.0000000000000000     
  0.93750000000000000       0.56250000000000000        0.0000000000000000     
  0.96875000000000000       0.56250000000000000        0.0000000000000000     
   1.0000000000000000       0.56250000000000000        0.0000000000000000     
  0.87500000000000000       0.59375000000000000        0.0000000000000000     
  0.90625000000000000       0.59375000000000000        0.0000000000000000     
  0.93750000000000000       0.59375000000000000        0.0000000000000000     
  0.96875000000000000       0.59375000000000000        0.0000000000000000     
   1.0000000000000000       0.59375000000000000        0.0000000000000000     
  0.87500000000000000       0.62500000000000000        0.0000000000000000     
  0.90625000000000000       0.62500000000000000        0.0000000000000000     
  0.93750000000000000       0.62500000000000000        0.0000000000000000     
  0.96875000000000000       0.62500000000000000        0.0000000000000000     
   1.0000000000000000       0.62500000000000000        0.0000000000000000     
   0.0000000000000000       0.62500000000000000        0.0000000000000000     
   3.1250000000000000E-002  0.62500000000000000        0.0000000000000000     
   6.2500000000000000E-002  0.62500000000000000        0.0000000000000000     
   9.3750000000000000E-002  0.62500000000000000        0.0000000000000000     
  0.12500000000000000       0.62500000000000000        0.0000000000000000     
   0.0000000000000000       0.65625000000000000        0.0000000000000000     
   3.1250000000000000E-002  0.65625000000000000        0.0000000000000000     
   6.2500000000000000E-002  0.65625000000000000        0.0000000000000000     
   9.3750000000000000E-002  0.65625000000000000        0.0000000000000000     
  0.12500000000000000       0.65625000000000000        0.0000000000000000     
   0.0000000000000000       0.68750000000000000        0.0000000000000000     
   3.1250000000000000E-002  0.68750000000000000        0.0000000000000000     
   6.2500000000000000E-002  0.68750000000000000        0.0000000000000000     
   9.3750000000000000E-002  0.68750000000000000        0.0000000000000000     
  0.12500000000000000       0.68750000000000000        0.0000000000000000     
   0.0000000000000000       0.71875000000000000        0.0000000000000000     
   3.1250000000000000E-002  0.71875000000000000        0.0000000000000000     
   6.2500000000000000E-002  0.71875000000000000        0.0000000000000000     
   9.3750000000000000E-002  0.71875000000000000        0.0000000000000000     
  0.12500000000000000       0.71875000000000000        0.0000000000000000     
   0.0000000000000000       0.75000000000000000        0.0000000000000000     
   3.1250000000000000E-002  0.75000000000000000        0.0000000000000000     
   6.2500000000000000E-002  0.75000000000000000        0.0000000000000000     
   9.3750000000000000E-002  0.75000000000000000        0.0000000000000000     
  0.12500000000000000       0.75000000000000000        0.0000000000000000     
  0.12500000000000000       0.62500000000000000        0.0000000000000000     
  0.15625000000000000       0.62500000000000000        0.0000000000000000     
  0.18750000000000000       0.62500000000000000        0.0000000000000000     
  0.21875000000000000       0.62500000000000000        0.0000000000000000     
  0.25000000000000000       0.62500000000000000        0.0000000000000000     
  0.12500000000000000       0.65625000000000000        0.0000000000000000     
  0.15625000000000000       0.65625000000000000        0.0000000000000000     
  0.18750000000000000       0.65625000000000000        0.0000000000000000     
  0.21875000000000000       0.65625000000000000        0.0000000000000000     
  0.25000000000000000       0.65625000000000000        0.0000000000000000     
  0.12500000000000000       0.68750000000000000        0.0000000000000000     
  0.15625000000000000       0.68750000000000000        0.0000000000000000     
  0.18750000000000000       0.68750000000000000        0.0000000000000000     
  0.21875000000000000       0.68750000000000000        0.0000000000000000     
  0.25000000000000000       0.68750000000000000        0.0000000000000000     
  0.12500000000000000       0.71875000000000000        0.0000000000000000     
  0.15625000000000000       0.71875000000000000        0.0000000000000000     
  0.18750000000000000       0.71875000000000000        0.0000000000000000     
  0.21875000000000000       0.71875000000000000        0.0000000000000000     
  0.25000000000000000       0.71875000000000000        0.0000000000000000     
  0.12500000000000000       0.75000000000000000        0.0000000000000000     
  0.15625000000000000       0.75000000000000000        0.0000000000000000     
  0.18750000000000000       0.75000000000000000        0.0000000000000000     
  0.21875000000000000       0.75000000000000000        0.0000000000000000     
  0.25000000000000000       0.75000000000000000        0.0000000000000000     
  0.25000000000000000       0.62500000000000000        0.0000000000000000     
  0.28125000000000000       0.62500000000000000        0.0000000000000000     
  0.31250000000000000       0.62500000000000000        0.0000000000000000     
  0.34375000000000000       0.62500000000000000        0.0000000000000000     
  0.37500000000000000       0.62500000000000000        0.0000000000000000     
  0.25000000000000000       0.65625000000000000        0.0000000000000000     
  0.28125000000000000       0.65625000000000000        0.0000000000000000     
  0.31250000000000000       0.65625000000000000        0.0000000000000000     
  0.34375000000000000       0.65625000000000000        0.0000000000000000     
  0.37500000000000000       0.65625000000000000        0.0000000000000000     
  0.25000000000000000       0.68750000000000000        0.0000000000000000     
  0.28125000000000000       0.68750000000000000        0.0000000000000000     
  0.31250000000000000       0.68750000000000000        0.0000000000000000     
  0.34375000000000000       0.68750000000000000        0.0000000000000000     
  0.37500000000000000       0.68750000000000000        0.0000000000000000     
  0.25000000000000000       0.71875000000000000        0.0000000000000000     
  0.28125000000000000       0.71875000000000000        0.0000000000000000     
  0.31250000000000000       0.71875000000000000        0.0000000000000000     
  0.34375000000000000       0.71875000000000000        0.0000000000000000     
  0.37500000000000000       0.71875000000000000        0.0000000000000000     
  0.25000000000000000       0.75000000000000000        0.0000000000000000     
  0.28125000000000000       0.75000000000000000        0.0000000000000000     
  0.31250000000000000       0.75000000000000000        0.0000000000000000     
  0.34375000000000000       0.75000000000000000        0.0000000000000000     
  0.37500000000000000       0.75000000000000000        0.0000000000000000     
  0.37500000000000000       0.62500000000000000        0.0000000000000000     
  0.40625000000000000       0.62500000000000000        0.0000000000000000     
  0.43750000000000000       0.62500000000000000        0.0000000000000000     
  0.46875000000000000       0.62500000000000000        0.0000000000000000     
  0.50000000000000000       0.62500000000000000        0.0000000000000000     
  0.37500000000000000       0.65625000000000000        0.0000000000000000     
  0.40625000000000000       0.65625000000000000        0.0000000000000000     
  0.43750000000000000       0.65625000000000000        0.0000000000000000     
  0.46875000000000000       0.65625000000000000        0.0000000000000000     
  0.50000000000000000       0.65625000000000000        0.0000000000000000     
  0.37500000000000000       0.68750000000000000        0.0000000000000000     
  0.40625000000000000       0.68750000000000000        0.0000000000000000     
  0.43750000000000000       0.68750000000000000        0.0000000000000000     
  0.46875000000000000       0.68750000000000000        0.0000000000000000     
  0.50000000000000000       0.68750000000000000        0.0000000000000000     
  0.37500000000000000       0.71875000000000000        0.0000000000000000     
  0.40625000000000000       0.71875000000000000        0.0000000000000000     
  0.43750000000000000       0.71875000000000000        0.0000000000000000     
  0.46875000000000000       0.71875000000000000        0.0000000000000000     
  0.50000000000000000       0.71875000000000000        0.0000000000000000     
  0.37500000000000000       0.75000000000000000        0.0000000000000000     
  0.40625000000000000       0.75000000000000000        0.0000000000000000     
  0.43750000000000000       0.75000000000000000        0.0000000000000000     
  0.46875000000000000       0.75000000000000000        0.0000000000000000     
  0.50000000000000000       0.75000000000000000        0.0000000000000000     
  0.50000000000000000       0.62500000000000000        0.0000000000000000     
  0.53125000000000000       0.62500000000000000        0.0000000000000000     
  0.56250000000000000       0.62500000000000000        0.0000000000000000     
  0.59375000000000000       0.62500000000000000        0.0000000000000000     
  0.62500000000000000       0.62500000000000000        0.0000000000000000     
  0.50000000000000000       0.65625000000000000        0.0000000000000000     
  0.53125000000000000       0.65625000000000000        0.0000000000000000     
  0.56250000000000000       0.65625000000000000        0.0000000000000000     
  0.59375000000000000       0.65625000000000000        0.0000000000000000     
  0.62500000000000000       0.65625000000000000        0.0000000000000000     
  0.50000000000000000       0.68750000000000000        0.0000000000000000     
  0.53125000000000000       0.68750000000000000        0.0000000000000000     
  0.56250000000000000       0.68750000000000000        0.0000000000000000     
  0.59375000000000000       0.68750000000000000        0.0000000000000000     
  0.62500000000000000       0.68750000000000000        0.0000000000000000     
  0.50000000000000000       0.71875000000000000        0.0000000000000000     
  0.53125000000000000       0.71875000000000000        0.0000000000000000     
  0.56250000000000000       0.71875000000000000        0.0000000000000000     
  0.59375000000000000       0.71875000000000000        0.0000000000000000     
  0.62500000000000000       0.71875000000000000        0.0000000000000000     
  0.50000000000000000       0.75000000000000000        0.0000000000000000     
  0.53125000000000000       0.75000000000000000        0.0000000000000000     
  0.56250000000000000       0.75000000000000000        0.0000000000000000     
  0.59375000000000000       0.75000000000000000        0.0000000000000000     
  0.62500000000000000       0.75000000000000000        0.0000000000000000     
  0.62500000000000000       0.62500000000000000        0.0000000000000000     
  0.65625000000000000       0.62500000000000000        0.0000000000000000     
  0.68750000000000000       0.62500000000000000        0.0000000000000000     
  0.71875000000000000       0.62500000000000000        0.0000000000000000     
  0.75000000000000000       0.62500000000000000        0.0000000000000000     
  0.62500000000000000       0.65625000000000000        0.0000000000000000     
  0.65625000000000000       0.65625000000000000        0.0000000000000000     
  0.68750000000000000       0.65625000000000000        0.0000000000000000     
  0.71875000000000000       0.65625000000000000        0.0000000000000000     
  0.75000000000000000       0.65625000000000000        0.0000000000000000     
  0.62500000000000000       0.68750000000000000        0.0000000000000000     
  0.65625000000000000       0.68750000000000000        0.0000000000000000     
  0.68750000000000000       0.68750000000000000        0.0000000000000000     
  0.71875000000000000       0.68750000000000000        0.0000000000000000     
  0.75000000000000000       0.68750000000000000        0.0000000000000000     
  0.62500000000000000       0.71875000000000000        0.0000000000000000     
  0.65625000000000000       0.71875000000000000        0.0000000000000000     
  0.68750000000000000       0.71875000000000000        0.0000000000000000     
  0.71875000000000000       0.71875000000000000        0.0000000000000000     
  0.75000000000000000       0.71875000000000000        0.0000000000000000     
  0.62500000000000000       0.75000000000000000        0.0000000000000000     
  0.65625000000000000       0.75000000000000000        0.0000000000000000     
  0.68750000000000000       0.75000000000000000        0.0000000000000000     
  0.71875000000000000       0.75000000000000000        0.0000000000000000     
  0.75000000000000000       0.75000000000000000        0.0000000000000000     
  0.75000000000000000       0.62500000000000000        0.0000000000000000     
  0.78125000000000000       0.62500000000000000        0.0000000000000000     
  0.81250000000000000       0.62500000000000000        0.0000000000000000     
  0.84375000000000000       0.62500000000000000        0.0000000000000000     
  0.87500000000000000       0.62500000000000000        0.0000000000000000     
  0.75000000000000000       0.65625000000000000        0.0000000000000000     
  0.78125000000000000       0.65625000000000000        0.0000000000000000     
  0.81250000000000000       0.65625000000000000        0.0000000000000000     
  0.84375000000000000       0.65625000000000000        0.0000000000000000     
  0.87500000000000000       0.65625000000000000        0.0000000000000000     
  0.75000000000000000       0.68750000000000000        0.0000000000000000     
  0.78125000000000000       0.68750000000000000        0.0000000000000000     
  0.81250000000000000       0.68750000000000000        0.0000000000000000     
  0.84375000000000000       0.68750000000000000        0.0000000000000000     
  0.87500000000000000       0.68750000000000000        0.0000000000000000     
  0.75000000000000000       0.71875000000000000        0.0000000000000000     
  0.78125000000000000       0.71875000000000000        0.0000000000000000     
  0.81250000000000000       0.71875000000000000        0.0000000000000000     
  0.84375000000000000       0.71875000000000000        0.0000000000000000     
  0.87500000000000000       0.71875000000000000        0.0000000000000000     
  0.75000000000000000       0.75000000000000000        0.0000000000000000     
  0.78125000000000000       0.75000000000000000        0.0000000000000000     
  0.81250000000000000       0.75000000000000000        0.0000000000000000     
  0.84375000000000000       0.75000000000000000        0.0000000000000000     
  0.87500000000000000       0.75000000000000000        0.0000000000000000     
  0.87500000000000000       0.62500000000000000        0.0000000000000000     
  0.90625000000000000       0.62500000000000000        0.0000000000000000     
  0.93750000000000000       0.62500000000000000        0.0000000000000000     
  0.96875000000000000       0.62500000000000000        0.0000000000000000     
   1.0000000000000000       0.62500000000000000        0.0000000000000000     
  0.87500000000000000       0.65625000000000000        0.0000000000000000     
  0.90625000000000000       0.65625000000000000        0.0000000000000000     
  0.93750000000000000       0.65625000000000000        0.0000000000000000     
  0.96875000000000000       0.65625000000000000        0.0000000000000000     
   1.0000000000000000       0.65625000000000000        0.0000000000000000     
  0.87500000000000000       0.68750000000000000        0.0000000000000000     
  0.90625000000000000       0.68750000000000000        0.0000000000000000     
  0.93750000000000000       0.68750000000000000        0.0000000000000000     
  0.96875000000000000       0.68750000000000000        0.0000000000000000     
   1.0000000000000000       0.68750000000000000        0.0000000000000000     
  0.87500000000000000       0.71875000000000000        0.0000000000000000     
  0.90625000000000000       0.71875000000000000        0.0000000000000000     
  0.93750000000000000       0.71875000000000000        0.0000000000000000     
  0.96875000000000000       0.71875000000000000        0.0000000000000000     
   1.0000000000000000       0.71875000000000000        0.0000000000000000     
  0.87500000000000000       0.75000000000000000        0.0000000000000000     
  0.90625000000000000       0.75000000000000000        0.0000000000000000     
  0.93750000000000000       0.75000000000000000        0.0000000000000000     
  0.96875000000000000       0.75000000000000000        0.0000000000000000     
   1.0000000000000000       0.75000000000000000        0.0000000000000000     
   0.0000000000000000       0.75000000000000000        0.0000000000000000     
   3.1250000000000000E-002  0.75000000000000000        0.0000000000000000     
   6.2500000000000000E-002  0.75000000000000000        0.0000000000000000     
   9.3750000000000000E-002  0.75000000000000000        0.0000000000000000     
  0.12500000000000000       0.75000000000000000        0.0000000000000000     
   0.0000000000000000       0.78125000000000000        0.0000000000000000     
   3.1250000000000000E-002  0.78125000000000000        0.0000000000000000     
   6.2500000000000000E-002  0.78125000000000000        0.0000000000000000     
   9.3750000000000000E-002  0.78125000000000000        0.0000000000000000     
  0.12500000000000000       0.78125000000000000        0.0000000000000000     
   0.0000000000000000       0.81250000000000000        0.0000000000000000     
   3.1250000000000000E-002  0.81250000000000000        0.0000000000000000     
   6.2500000000000000E-002  0.81250000000000000        0.0000000000000000     
   9.3750000000000000E-002  0.81250000000000000        0.0000000000000000     
  0.12500000000000000       0.81250000000000000        0.0000000000000000     
   0.0000000000000000       0.84375000000000000        0.0000000000000000     
   3.1250000000000000E-002  0.84375000000000000        0.0000000000000000     
   6.2500000000000000E-002  0.84375000000000000        0.0000000000000000     
   9.3750000000000000E-002  0.84375000000000000        0.0000000000000000     
  0.12500000000000000       0.84375000000000000        0.0000000000000000     
   0.0000000000000000       0.87500000000000000        0.0000000000000000     
   3.1250000000000000E-002  0.87500000000000000        0.0000000000000000     
   6.2500000000000000E-002  0.87500000000000000        0.0000000000000000     
   9.3750000000000000E-002  0.87500000000000000        0.0000000000000000     
  0.12500000000000000       0.87500000000000000        0.0000000000000000     
  0.12500000000000000       0.75000000000000000        0.0000000000000000     
  0.15625000000000000       0.75000000000000000        0.0000000000000000     
  0.18750000000000000       0.75000000000000000        0.0000000000000000     
  0.21875000000000000       0.75000000000000000        0.0000000000000000     
  0.25000000000000000       0.75000000000000000        0.0000000000000000     
  0.12500000000000000       0.78125000000000000        0.0000000000000000     
  0.15625000000000000       0.78125000000000000        0.0000000000000000     
  0.18750000000000000       0.78125000000000000        0.0000000000000000     
  0.21875000000000000       0.78125000000000000        0.0000000000000000     
  0.25000000000000000       0.78125000000000000        0.0000000000000000     
  0.12500000000000000       0.81250000000000000        0.0000000000000000     
  0.15625000000000000       0.81250000000000000        0.0000000000000000     
  0.18750000000000000       0.81250000000000000        0.0000000000000000     
  0.21875000000000000       0.81250000000000000        0.0000000000000000     
  0.25000000000000000       0.81250000000000000        0.0000000000000000     
  0.12500000000000000       0.84375000000000000        0.0000000000000000     
  0.15625000000000000       0.84375000000000000        0.0000000000000000     
  0.18750000000000000       0.84375000000000000        0.0000000000000000     
  0.21875000000000000       0.84375000000000000        0.0000000000000000     
  0.25000000000000000       0.84375000000000000        0.0000000000000000     
  0.12500000000000000       0.87500000000000000        0.0000000000000000     
  0.15625000000000000       0.87500000000000000        0.0000000000000000     
  0.18750000000000000       0.87500000000000000        0.0000000000000000     
  0.21875000000000000       0.87500000000000000        0.0000000000000000     
  0.25000000000000000       0.87500000000000000        0.0000000000000000     
  0.25000000000000000       0.75000000000000000        0.0000000000000000     
  0.28125000000000000       0.75000000000000000        0.0000000000000000     
  0.31250000000000000       0.75000000000000000        0.0000000000000000     
  0.34375000000000000       0.75000000000000000        0.0000000000000000     
  0.37500000000000000       0.75000000000000000        0.0000000000000000     
  0.25000000000000000       0.78125000000000000        0.0000000000000000     
  0.28125000000000000       0.78125000000000000        0.0000000000000000     
  0.31250000000000000       0.78125000000000000        0.0000000000000000     
  0.34375000000000000       0.78125000000000000        0.0000000000000000     
  0.37500000000000000       0.78125000000000000        0.0000000000000000     
  0.25000000000000000       0.81250000000000000        0.0000000000000000     
  0.28125000000000000       0.81250000000000000        0.0000000000000000     
  0.31250000000000000       0.81250000000000000        0.0000000000000000     
  0.34375000000000000       0.81250000000000000        0.0000000000000000     
  0.37500000000000000       0.81250000000000000        0.0000000000000000     
  0.25000000000000000       0.84375000000000000        0.0000000000000000     
  0.28125000000000000       0.84375000000000000        0.0000000000000000     
  0.31250000000000000       0.84375000000000000        0.0000000000000000     
  0.34375000000000000       0.84375000000000000        0.0000000000000000     
  0.37500000000000000       0.84375000000000000        0.0000000000000000     
  0.25000000000000000       0.87500000000000000        0.0000000000000000     
  0.28125000000000000       0.87500000000000000        0.0000000000000000     
  0.31250000000000000       0.87500000000000000        0.0000000000000000     
  0.34375000000000000       0.87500000000000000        0.0000000000000000     
  0.37500000000000000       0.87500000000000000        0.0000000000000000     
  0.37500000000000000       0.75000000000000000        0.0000000000000000     
  0.40625000000000000       0.75000000000000000        0.0000000000000000     
  0.43750000000000000       0.75000000000000000        0.0000000000000000     
  0.46875000000000000       0.75000000000000000        0.0000000000000000     
  0.50000000000000000       0.75000000000000000        0.0000000000000000     
  0.37500000000000000       0.78125000000000000        0.0000000000000000     
  0.40625000000000000       0.78125000000000000        0.0000000000000000     
  0.43750000000000000       0.78125000000000000        0.0000000000000000     
  0.46875000000000000       0.78125000000000000        0.0000000000000000     
  0.50000000000000000       0.78125000000000000        0.0000000000000000     
  0.37500000000000000       0.81250000000000000        0.0000000000000000     
  0.40625000000000000       0.81250000000000000        0.0000000000000000     
  0.43750000000000000       0.81250000000000000        0.0000000000000000     
  0.46875000000000000       0.81250000000000000        0.0000000000000000     
  0.50000000000000000       0.81250000000000000        0.0000000000000000     
  0.37500000000000000       0.84375000000000000        0.0000000000000000     
  0.40625000000000000       0.84375000000000000        0.0000000000000000     
  0.43750000000000000       0.84375000000000000        0.0000000000000000     
  0.46875000000000000       0.84375000000000000        0.0000000000000000     
  0.50000000000000000       0.84375000000000000        0.0000000000000000     
  0.37500000000000000       0.87500000000000000        0.0000000000000000     
  0.40625000000000000       0.87500000000000000        0.0000000000000000     
  0.43750000000000000       0.87500000000000000        0.0000000000000000     
  0.46875000000000000       0.87500000000000000        0.0000000000000000     
  0.50000000000000000       0.87500000000000000        0.0000000000000000     
  0.50000000000000000       0.75000000000000000        0.0000000000000000     
  0.53125000000000000       0.75000000000000000        0.0000000000000000     
  0.56250000000000000       0.75000000000000000        0.0000000000000000     
  0.59375000000000000       0.75000000000000000        0.0000000000000000     
  0.62500000000000000       0.75000000000000000        0.0000000000000000     
  0.50000000000000000       0.78125000000000000        0.0000000000000000     
  0.53125000000000000       0.78125000000000000        0.0000000000000000     
  0.56250000000000000       0.78125000000000000        0.0000000000000000     
  0.59375000000000000       0.78125000000000000        0.0000000000000000     
  0.62500000000000000       0.78125000000000000        0.0000000000000000     
  0.50000000000000000       0.81250000000000000        0.0000000000000000     
  0.53125000000000000       0.81250000000000000        0.0000000000000000     
  0.56250000000000000       0.81250000000000000        0.0000000000000000     
  0.59375000000000000       0.81250000000000000        0.0000000000000000     
  0.62500000000000000       0.81250000000000000        0.0000000000000000     
  0.50000000000000000       0.84375000000000000        0.0000000000000000     
  0.53125000000000000       0.84375000000000000        0.0000000000000000     
  0.56250000000000000       0.84375000000000000        0.0000000000000000     
  0.59375000000000000       0.84375000000000000        0.0000000000000000     
  0.62500000000000000       0.84375000000000000        0.0000000000000000     
  0.50000000000000000       0.87500000000000000        0.0000000000000000     
  0.53125000000000000       0.87500000000000000        0.0000000000000000     
  0.56250000000000000       0.87500000000000000        0.0000000000000000     
  0.59375000000000000       0.87500000000000000        0.0000000000000000     
  0.62500000000000000       0.87500000000000000        0.0000000000000000     
  0.62500000000000000       0.75000000000000000        0.0000000000000000     
  0.65625000000000000       0.75000000000000000        0.0000000000000000     
  0.68750000000000000       0.75000000000000000        0.0000000000000000     
  0.71875000000000000       0.75000000000000000        0.0000000000000000     
  0.75000000000000000       0.75000000000000000        0.0000000000000000     
  0.62500000000000000       0.78125000000000000        0.0000000000000000     
  0.65625000000000000       0.78125000000000000        0.0000000000000000     
  0.68750000000000000       0.78125000000000000        0.0000000000000000     
  0.71875000000000000       0.78125000000000000        0.0000000000000000     
  0.75000000000000000       0.78125000000000000        0.0000000000000000     
  0.62500000000000000       0.81250000000000000        0.0000000000000000     
  0.65625000000000000       0.81250000000000000        0.0000000000000000     
  0.68750000000000000       0.81250000000000000        0.0000000000000000     
  0.71875000000000000       0.81250000000000000        0.0000000000000000     
  0.75000000000000000       0.81250000000000000        0.0000000000000000     
  0.62500000000000000       0.84375000000000000        0.0000000000000000     
  0.65625000000000000       0.84375000000000000        0.0000000000000000     
  0.68750000000000000       0.84375000000000000        0.0000000000000000     
  0.71875000000000000       0.84375000000000000        0.0000000000000000     
  0.75000000000000000       0.84375000000000000        0.0000000000000000     
  0.62500000000000000       0.87500000000000000        0.0000000000000000     
  0.65625000000000000       0.87500000000000000        0.0000000000000000     
  0.68750000000000000       0.87500000000000000        0.0000000000000000     
  0.71875000000000000       0.87500000000000000        0.0000000000000000     
  0.75000000000000000       0.87500000000000000        0.0000000000000000     
  0.75000000000000000       0.75000000000000000        0.0000000000000000     
  0.78125000000000000       0.75000000000000000        0.0000000000000000     
  0.81250000000000000       0.75000000000000000        0.0000000000000000     
  0.84375000000000000       0.75000000000000000        0.0000000000000000     
  0.87500000000000000       0.75000000000000000        0.0000000000000000     
  0.75000000000000000       0.78125000000000000        0.0000000000000000     
  0.78125000000000000       0.78125000000000000        0.0000000000000000     
  0.81250000000000000       0.78125000000000000        0.0000000000000000     
  0.84375000000000000       0.78125000000000000        0.0000000000000000     
  0.87500000000000000       0.78125000000000000        0.0000000000000000     
  0.75000000000000000       0.81250000000000000        0.0000000000000000     
  0.78125000000000000       0.81250000000000000        0.0000000000000000     
  0.81250000000000000       0.81250000000000000        0.0000000000000000     
  0.84375000000000000       0.81250000000000000        0.0000000000000000     
  0.87500000000000000       0.81250000000000000        0.0000000000000000     
  0.75000000000000000       0.84375000000000000        0.0000000000000000     
  0.78125000000000000       0.84375000000000000        0.0000000000000000     
  0.81250000000000000       0.84375000000000000        0.0000000000000000     
  0.84375000000000000       0.84375000000000000        0.0000000000000000     
  0.87500000000000000       0.84375000000000000        0.0000000000000000     
  0.75000000000000000       0.87500000000000000        0.0000000000000000     
  0.78125000000000000       0.87500000000000000        0.0000000000000000     
  0.81250000000000000       0.87500000000000000        0.0000000000000000     
  0.84375000000000000       0.87500000000000000        0.0000000000000000     
  0.87500000000000000       0.87500000000000000        0.0000000000000000     
  0.87500000000000000       0.75000000000000000        0.0000000000000000     
  0.90625000000000000       0.75000000000000000        0.0000000000000000     
  0.93750000000000000       0.75000000000000000        0.0000000000000000     
  0.96875000000000000       0.75000000000000000        0.0000000000000000     
   1.0000000000000000       0.75000000000000000        0.0000000000000000     
  0.87500000000000000       0.78125000000000000        0.0000000000000000     
  0.90625000000000000       0.78125000000000000        0.0000000000000000     
  0.93750000000000000       0.78125000000000000        0.0000000000000000     
  0.96875000000000000       0.78125000000000000        0.0000000000000000     
   1.0000000000000000       0.78125000000000000        0.0000000000000000     
  0.87500000000000000       0.81250000000000000        0.0000000000000000     
  0.90625000000000000       0.81250000000000000        0.0000000000000000     
  0.93750000000000000       0.81250000000000000        0.0000000000000000     
  0.96875000000000000       0.81250000000000000        0.0000000000000000     
   1.0000000000000000       0.81250000000000000        0.0000000000000000     
  0.87500000000000000       0.84375000000000000        0.0000000000000000     
  0.90625000000000000       0.84375000000000000        0.0000000000000000     
  0.93750000000000000       0.84375000000000000        0.0000000000000000     
  0.96875000000000000       0.84375000000000000        0.0000000000000000     
   1.0000000000000000       0.84375000000000000        0.0000000000000000     
  0.87500000000000000       0.87500000000000000        0.0000000000000000     
  0.90625000000000000       0.87500000000000000        0.0000000000000000     
  0.93750000000000000       0.87500000000000000        0.0000000000000000     
  0.96875000000000000       0.87500000000000000        0.0000000000000000     
   1.0000000000000000       0.87500000000000000        0.0000000000000000     
   0.0000000000000000       0.87500000000000000        0.0000000000000000     
   3.1250000000000000E-002  0.87500000000000000        0.0000000000000000     
   6.2500000000000000E-002  0.87500000000000000        0.0000000000000000     
   9.3750000000000000E-002  0.87500000000000000        0.0000000000000000     
  0.12500000000000000       0.87500000000000000        0.0000000000000000     
   0.0000000000000000       0.90625000000000000        0.0000000000000000     
   3.1250000000000000E-002  0.90625000000000000        0.0000000000000000     
   6.2500000000000000E-002  0.90625000000000000        0.0000000000000000     
   9.3750000000000000E-002  0.90625000000000000        0.0000000000000000     
  0.12500000000000000       0.90625000000000000        0.0000000000000000     
   0.0000000000000000       0.93750000000000000        0.0000000000000000     
   3.1250000000000000E-002  0.93750000000000000        0.0000000000000000     
   6.2500000000000000E-002  0.93750000000000000        0.0000000000000000     
   9.3750000000000000E-002  0.93750000000000000        0.0000000000000000     
  0.12500000000000000       0.93750000000000000        0.0000000000000000     
   0.0000000000000000       0.96875000000000000        0.0000000000000000     
   3.1250000000000000E-002  0.96875000000000000        0.0000000000000000     
   6.2500000000000000E-002  0.96875000000000000        0.0000000000000000     
   9.3750000000000000E-002  0.96875000000000000        0.0000000000000000     
  0.12500000000000000       0.96875000000000000        0.0000000000000000     
   0.0000000000000000        1.0000000000000000        0.0000000000000000     
   3.1250000000000000E-002   1.0000000000000000        0.0000000000000000     
   6.2500000000000000E-002   1.0000000000000000        0.0000000000000000     
   9.3750000000000000E-002   1.0000000000000000        0.0000000000000000     
  0.12500000000000000        1.0000000000000000        0.0000000000000000     
  0.12500000000000000       0.87500000000000000        0.0000000000000000     
  0.15625000000000000       0.87500000000000000        0.0000000000000000     
  0.18750000000000000       0.87500000000000000        0.0000000000000000     
  0.21875000000000000       0.87500000000000000        0.0000000000000000     
  0.25000000000000000       0.87500000000000000        0.0000000000000000     
  0.12500000000000000       0.90625000000000000        0.0000000000000000     
  0.15625000000000000       0.90625000000000000        0.0000000000000000     
  0.18750000000000000       0.90625000000000000        0.0000000000000000     
  0.21875000000000000       0.90625000000000000        0.0000000000000000     
  0.25000000000000000       0.90625000000000000        0.0000000000000000     
  0.12500000000000000       0.93750000000000000        0.0000000000000000     
  0.15625000000000000       0.93750000000000000        0.0000000000000000     
  0.18750000000000000       0.93750000000000000        0.0000000000000000     
  0.21875000000000000       0.93750000000000000        0.0000000000000000     
  0.25000000000000000       0.93750000000000000        0.0000000000000000     
  0.12500000000000000       0.96875000000000000        0.0000000000000000     
  0.15625000000000000       0.96875000000000000        0.0000000000000000     
  0.18750000000000000       0.96875000000000000        0.0000000000000000     
  0.21875000000000000       0.96875000000000000        0.0000000000000000     
  0.25000000000000000       0.96875000000000000        0.0000000000000000     
  0.12500000000000000        1.0000000000000000        0.0000000000000000     
  0.15625000000000000        1.0000000000000000        0.0000000000000000     
  0.18750000000000000        1.0000000000000000        0.0000000000000000     
  0.21875000000000000        1.0000000000000000        0.0000000000000000     
  0.25000000000000000        1.0000000000000000        0.0000000000000000     
  0.25000000000000000       0.87500000000000000        0.0000000000000000     
  0.28125000000000000       0.87500000000000000        0.0000000000000000     
  0.31250000000000000       0.87500000000000000        0.0000000000000000     
  0.34375000000000000       0.87500000000000000        0.0000000000000000     
  0.37500000000000000       0.87500000000000000        0.0000000000000000     
  0.25000000000000000       0.90625000000000000        0.0000000000000000     
  0.28125000000000000       0.90625000000000000        0.0000000000000000     
  0.31250000000000000       0.90625000000000000        0.0000000000000000     
  0.34375000000000000       0.90625000000000000        0.0000000000000000     
  0.37500000000000000       0.90625000000000000        0.0000000000000000     
  0.25000000000000000       0.93750000000000000        0.0000000000000000     
  0.28125000000000000       0.93750000000000000        0.0000000000000000     
  0.31250000000000000       0.93750000000000000        0.0000000000000000     
  0.34375000000000000       0.93750000000000000        0.0000000000000000     
  0.37500000000000000       0.93750000000000000        0.0000000000000000     
  0.25000000000000000       0.96875000000000000        0.0000000000000000     
  0.28125000000000000       0.96875000000000000        0.0000000000000000     
  0.31250000000000000       0.96875000000000000        0.0000000000000000     
  0.34375000000000000       0.96875000000000000        0.0000000000000000     
  0.37500000000000000       0.96875000000000000        0.0000000000000000     
  0.25000000000000000        1.0000000000000000        0.0000000000000000     
  0.28125000000000000        1.0000000000000000        0.0000000000000000     
  0.31250000000000000        1.0000000000000000        0.0000000000000000     
  0.34375000000000000        1.0000000000000000        0.0000000000000000     
  0.37500000000000000        1.0000000000000000        0.0000000000000000     
  0.37500000000000000       0.87500000000000000        0.0000000000000000     
  0.40625000000000000       0.87500000000000000        0.0000000000000000     
  0.43750000000000000       0.87500000000000000        0.0000000000000000     
  0.46875000000000000       0.87500000000000000        0.0000000000000000     
  0.50000000000000000       0.87500000000000000        0.0000000000000000     
  0.37500000000000000       0.90625000000000000        0.0000000000000000     
  0.40625000000000000       0.90625000000000000        0.0000000000000000     
  0.43750000000000000       0.90625000000000000        0.0000000000000000     
  0.46875000000000000       0.90625000000000000        0.0000000000000000     
  0.50000000000000000       0.90625000000000000        0.0000000000000000     
  0.37500000000000000       0.93750000000000000        0.0000000000000000     
  0.40625000000000000       0.93750000000000000        0.0000000000000000     
  0.43750000000000000       0.93750000000000000        0.0000000000000000     
  0.46875000000000000       0.93750000000000000        0.0000000000000000     
  0.50000000000000000       0.93750000000000000        0.0000000000000000     
  0.37500000000000000       0.96875000000000000        0.0000000000000000     
  0.40625000000000000       0.96875000000000000        0.0000000000000000     
  0.43750000000000000       0.96875000000000000        0.0000000000000000     
  0.46875000000000000       0.96875000000000000        0.0000000000000000     
  0.50000000000000000       0.96875000000000000        0.0000000000000000     
  0.37500000000000000        1.0000000000000000        0.0000000000000000     
  0.40625000000000000        1.0000000000000000        0.0000000000000000     
  0.43750000000000000        1.0000000000000000        0.0000000000000000     
  0.46875000000000000        1.0000000000000000        0.0000000000000000     
  0.50000000000000000        1.0000000000000000        0.0000000000000000     
  0.50000000000000000       0.87500000000000000        0.0000000000000000     
  0.53125000000000000       0.87500000000000000        0.0000000000000000     
  0.56250000000000000       0.87500000000000000        0.0000000000000000     
  0.59375000000000000       0.87500000000000000        0.0000000000000000     
  0.62500000000000000       0.87500000000000000        0.0000000000000000     
  0.50000000000000000       0.90625000000000000        0.0000000000000000     
  0.53125000000000000       0.90625000000000000        0.0000000000000000     
  0.56250000000000000       0.90625000000000000        0.0000000000000000     
  0.59375000000000000       0.90625000000000000        0.0000000000000000     
  0.62500000000000000       0.90625000000000000        0.0000000000000000     
  0.50000000000000000       0.93750000000000000        0.0000000000000000     
  0.53125000000000000       0.93750000000000000        0.0000000000000000     
  0.56250000000000000       0.93750000000000000        0.0000000000000000     
  0.59375000000000000       0.93750000000000000        0.0000000000000000     
  0.62500000000000000       0.93750000000000000        0.0000000000000000     
  0.50000000000000000       0.96875000000000000        0.0000000000000000     
  0.53125000000000000       0.96875000000000000        0.0000000000000000     
  0.56250000000000000       0.96875000000000000        0.0000000000000000     
  0.59375000000000000       0.96875000000000000        0.0000000000000000     
  0.62500000000000000       0.96875000000000000        0.0000000000000000     
  0.50000000000000000        1.0000000000000000        0.0000000000000000     
  0.53125000000000000        1.0000000000000000        0.0000000000000000     
  0.56250000000000000        1.0000000000000000        0.0000000000000000     
  0.59375000000000000        1.0000000000000000        0.0000000000000000     
  0.62500000000000000        1.0000000000000000        0.0000000000000000     
  0.62500000000000000       0.87500000000000000        0.0000000000000000     
  0.65625000000000000       0.87500000000000000        0.0000000000000000     
  0.68750000000000000       0.87500000000000000        0.0000000000000000     
  0.71875000000000000       0.87500000000000000        0.0000000000000000     
  0.75000000000000000       0.87500000000000000        0.0000000000000000     
  0.62500000000000000       0.90625000000000000        0.0000000000000000     
  0.65625000000000000       0.90625000000000000        0.0000000000000000     
  0.68750000000000000       0.90625000000000000        0.0000000000000000     
  0.71875000000000000       0.90625000000000000        0.0000000000000000     
  0.75000000000000000       0.90625000000000000        0.0000000000000000     
  0.62500000000000000       0.93750000000000000        0.0000000000000000     
  0.65625000000000000       0.93750000000000000        0.0000000000000000     
  0.68750000000000000       0.93750000000000000        0.0000000000000000     
  0.71875000000000000       0.93750000000000000        0.0000000000000000     
  0.75000000000000000       0.93750000000000000        0.0000000000000000     
  0.62500000000000000       0.96875000000000000        0.0000000000000000     
  0.65625000000000000       0.96875000000000000        0.0000000000000000     
  0.68750000000000000       0.96875000000000000        0.0000000000000000     
  0.71875000000000000       0.96875000000000000        0.0000000000000000     
  0.75000000000000000       0.96875000000000000        0.0000000000000000     
  0.62500000000000000        1.0000000000000000        0.0000000000000000     
  0.65625000000000000        1.0000000000000000        0.0000000000000000     
  0.68750000000000000        1.0000000000000000        0.0000000000000000     
  0.71875000000000000        1.0000000000000000        0.0000000000000000     
  0.75000000000000000        1.0000000000000000        0.0000000000000000     
  0.75000000000000000       0.87500000000000000        0.0000000000000000     
  0.78125000000000000       0.87500000000000000        0.0000000000000000     
  0.81250000000000000       0.87500000000000000        0.0000000000000000     
  0.84375000000000000       0.87500000000000000        0.0000000000000000     
  0.87500000000000000       0.87500000000000000        0.0000000000000000     
  0.75000000000000000       0.90625000000000000        0.0000000000000000     
  0.78125000000000000       0.90625000000000000        0.0000000000000000     
  0.81250000000000000       0.90625000000000000        0.0000000000000000     
  0.84375000000000000       0.90625000000000000        0.0000000000000000     
  0.87500000000000000       0.90625000000000000        0.0000000000000000     
  0.75000000000000000       0.93750000000000000        0.0000000000000000     
  0.78125000000000000       0.93750000000000000        0.0000000000000000     
  0.81250000000000000       0.93750000000000000        0.0000000000000000     
  0.84375000000000000       0.93750000000000000        0.0000000000000000     
  0.87500000000000000       0.93750000000000000        0.0000000000000000     
  0.75000000000000000       0.96875000000000000        0.0000000000000000     
  0.78125000000000000       0.96875000000000000        0.0000000000000000     
  0.81250000000000000       0.96875000000000000        0.0000000000000000     
  0.84375000000000000       0.96875000000000000        0.0000000000000000     
  0.87500000000000000       0.96875000000000000        0.0000000000000000     
  0.75000000000000000        1.0000000000000000        0.0000000000000000     
  0.78125000000000000        1.0000000000000000        0.0000000000000000     
  0.81250000000000000        1.0000000000000000        0.0000000000000000     
  0.84375000000000000        1.0000000000000000        0.0000000000000000     
  0.87500000000000000        1.0000000000000000        0.0000000000000000     
  0.87500000000000000       0.87500000000000000        0.0000000000000000     
  0.90625000000000000       0.87500000000000000        0.0000000000000000     
  0.93750000000000000       0.87500000000000000        0.0000000000000000     
  0.96875000000000000       0.87500000000000000        0.0000000000000000     
   1.0000000000000000       0.87500000000000000        0.0000000000000000     
  0.87500000000000000       0.90625000000000000        0.0000000000000000     
  0.90625000000000000       0.90625000000000000        0.0000000000000000     
  0.93750000000000000       0.90625000000000000        0.0000000000000000     
  0.96875000000000000       0.90625000000000000        0.0000000000000000     
   1.0000000000000000       0.90625000000000000        0.0000000000000000     
  0.87500000000000000       0.93750000000000000        0.0000000000000000     
  0.90625000000000000       0.93750000000000000        0.0000000000000000     
  0.93750000000000000       0.93750000000000000        0.0000000000000000     
  0.96875000000000000       0.93750000000000000        0.0000000000000000     
   1.0000000000000000       0.93750000000000000        0.0000000000000000     
  0.87500000000000000       0.96875000000000000        0.0000000000000000     
  0.90625000000000000       0.96875000000000000        0.0000000000000000     
  0.93750000000000000       0.96875000000000000        0.0000000000000000     
  0.96875000000000000       0.96875000000000000        0.0000000000000000     
   1.0000000000000000       0.96875000000000000        0.0000000000000000     
  0.87500000000000000        1.0000000000000000        0.0000000000000000     
  0.90625000000000000        1.0000000000000000        0.0000000000000000     
  0.93750000000000000        1.0000000000000000        0.0000000000000000     
  0.96875000000000000        1.0000000000000000        0.0000000000000000     
   1.0000000000000000        1.0000000000000000        0.0000000000000000     
 </DataArray>
 </Points>
 <Cells>
 <DataArray  type="Int32"  Name="connectivity"  format="ascii">
           0           1           6           5
           1           2           7           6
           2           3           8           7
           3           4           9           8
           5           6          11          10
           6           7          12          11
           7           8          13          12
           8           9          14          13
          10          11          16          15
          11          12          17          16
          12          13          18          17
          13          14          19          18
          15          16          21          20
          16          17          22          21
          17          18          23          22
          18          19          24          23
          25          26          31          30
          26          27          32          31
          27          28          33          32
          28          29          34          33
          30          31          36          35
          31          32          37          36
          32          33          38          37
          33          34          39          38
          35          36          41          40
          36          37          42          41
          37          38          43          42
          38          39          44          43
          40          41          46          45
          41          42          47          46
          42          43          48          47
          43          44          49          48
          50          51          56          55
          51          52          57          56
          52          53          58          57
          53          54          59          58
          55          56          61          60
          56          57          62          61
          57          58          63          62
          58          59          64          63
          60          61          66          65
          61          62          67          66
          62          63          68          67
          63          64          69          68
          65          66          71          70
          66          67          72          71
          67          68          73          72
          68          69          74          73
          75          76          81          80
          76          77          82          81
          77          78          83          82
          78          79          84          83
          80          81          86          85
          81          82          87          86
          82          83          88          87
          83          84          89          88
          85          86          91          90
          86          87          92          91
          87          88          93          92
          88          89          94          93
          90          91          96          95
          91          92          97          96
          92          93          98          97
          93          94          99          98
         100         101         106         105
         101         102         107         106
         102         103         108         107
         103         104         109         108
         105         106         111         110
         106         107         112         111
         107         108         113         112
         108         109         114         113
         110         111         116         115
         111         112         117         116
         112         113         118         117
         113         114         119         118
         115         116         121         120
         116         117         122         121
         117         118         123         122
         118         119         124         123
         125         126         131         130
         126         127         132         131
         127         128         133         132
         128         129         134         133
         130         131         136         135
         131         132         137         136
         132         133         138         137
         133         134         139         138
         135         136         141         140
         136         137         142         141
         137         138         143         142
         138         139         144         143
         140         141         146         145
         141         142         147         146
         142         143         148         147
         143         144         149         148
         150         151         156         155
         151         152         157         156
         152         153         158         157
         153         154         159         158
         155         156         161         160
         156         157         162         161
         157         158         163         162
         158         159         164         163
         160         161         166         165
         161         162         167         166
         162         163         168         167
         163         164         169         168
         165         166         171         170
         166         167         172         171
         167         168         173         172
         168         169         174         173
         175         176         181         180
         176         177         182         181
         177         178         183         182
         178         179         184         183
         180         181         186         185
         181         182         187         186
         182         183         188         187
         183         184         189         188
         185         186         191         190
         186         187         192         191
         187         188         193         192
         188         189         194         193
         190         191         196         195
         191         192         197         196
         192         193         198         197
         193         194         199         198
         200         201         206         205
         201         202         207         206
         202         203         208         207
         203         204         209         208
         205         206         211         210
         206         207         212         211
         207         208         213         212
         208         209         214         213
         210         211         216         215
         211         212         217         216
         212         213         218         217
         213         214         219         218
         215         216         221         220
         216         217         222         221
         217         218         223         222
         218         219         224         223
         225         226         231         230
         226         227         232         231
         227         228         233         232
         228         229         234         233
         230         231         236         235
         231         232         237         236
         232         233         238         237
         233         234         239         238
         235         236         241         240
         236         237         242         241
         237         238         243         242
         238         239         244         243
         240         241         246         245
         241         242         247         246
         242         243         248         247
         243         244         249         248
         250         251         256         255
         251         252         257         256
         252         253         258         257
         253         254         259         258
         255         256         261         260
         256         257         262         261
         257         258         263         262
         258         259         264         263
         260         261         266         265
         261         262         267         266
         262         263         268         267
         263         264         269         268
         265         266         271         270
         266         267         272         271
         267         268         273         272
         268         269         274         273
         275         276         281         280
         276         277         282         281
         277         278         283         282
         278         279         284         283
         280         281         286         285
         281         282         287         286
         282         283         288         287
         283         284         289         288
         285         286         291         290
         286         287         292         291
         287         288         293         292
         288         289         294         293
         290         291         296         295
         291         292         297         296
         292         293         298         297
         293         294         299         298
         300         301         306         305
         301         302         307         306
         302         303         308         307
         303         304         309         308
         305         306         311         310
         306         307         312         311
         307         308         313         312
         308         309         314         313
         310         311         316         315
         311         312         317         316
         312         313         318         317
         313         314         319         318
         315         316         321         320
         316         317         322         321
         317         318         323         322
         318         319         324         323
         325         326         331         330
         326         327         332         331
         327         328         333         332
         328         329         334         333
         330         331         336         335
         331         332         337         336
         332         333         338         337
         333         334         339         338
         335         336         341         340
         336         337         342         341
         337         338         343         342
         338         339         344         343
         340         341         346         345
         341         342         347         346
         342         343         348         347
         343         344         349         348
         350         351         356         355
         351         352         357         356
         352         353         358         357
         353         354         359         358
         355         356         361         360
         356         357         362         361
         357         358         363         362
         358         359         364         363
         360         361         366         365
         361         362         367         366
         362         363         368         367
         363         364         369         368
         365         366         371         370
         366         367         372         371
         367         368         373         372
         368         369         374         373
         375         376         381         380
         376         377         382         381
         377         378         383         382
         378         379         384         383
         380         381         386         385
         381         382         387         386
         382         383         388         387
         383         384         389         388
         385         386         391         390
         386         387         392         391
         387         388         393         392
         388         389         394         393
         390         391         396         395
         391         392         397         396
         392         393         398         397
         393         394         399         398
         400         401         406         405
         401         402         407         406
         402         403         408         407
         403         404         409         408
         405         406         411         410
         406         407         412         411
         407         408         413         412
         408         409         414         413
         410         411         416         415
         411         412         417         416
         412         413         418         417
         413         414         419         418
         415         416         421         420
         416         417         422         421
         417         418         423         422
         418         419         424         423
         425         426         431         430
         426         427         432         431
         427         428         433         432
         428         429         434         433
         430         431         436         435
         431         432         437         436
         432         433         438         437
         433         434         439         438
         435         436         441         440
         436         437         442         441
         437         438         443         442
         438         439         444         443
         440         441         446         445
         441         442         447         446
         442         443         448         447
         443         444         449         448
         450         451         456         455
         451         452         457         456
         452         453         458         457
         453         454         459         458
         455         456         461         460
         456         457         462         461
         457         458         463         462
         458         459         464         463
         460         461         466         465
         461         462         467         466
         462         463         468         467
         463         464         469         468
         465         466         471         470
         466         467         472         471
         467         468         473         472
         468         469         474         473
         475         476         481         480
         476         477         482         481
         477         478         483         482
         478         479         484         483
         480         481         486         485
         481         482         487         486
         482         483         488         487
         483         484         489         488
         485         486         491         490
         486         487         492         491
         487         488         493         492
         488         489         494         493
         490         491         496         495
         491         492         497         496
         492         493         498         497
         493         494         499         498
         500         501         506         505
         501         502         507         506
         502         503         508         507
         503         504         509         508
         505         506         511         510
         506         507         512         511
         507         508         513         512
         508         509         514         513
         510         511         516         515
         511         512         517         516
         512         513         518         517
         513         514         519         518
         515         516         521         520
         516         517         522         521
         517         518         523         522
         518         519         524         523
         525         526         531         530
         526         527         532         531
         527         528         533         532
         528         529         534         533
         530         531         536         535
         531         532         537         536
         532         533         538         537
         533         534         539         538
         535         536         541         540
         536         537         542         541
         537         538         543         542
         538         539         544         543
         540         541         546         545
         541         542         547         546
         542         543         548         547
         543         544         549         548
         550         551         556         555
         551         552         557         556
         552         553         558         557
         553         554         559         558
         555         556         561         560
         556         557         562         561
         557         558         563         562
         558         559         564         563
         560         561         566         565
         561         562         567         566
         562         563         568         567
         563         564         569         568
         565         566         571         570
         566         567         572         571
         567         568         573         572
         568         569         574         573
         575         576         581         580
         576         577         582         581
         577         578         583         582
         578         579         584         583
         580         581         586         585
         581         582         587         586
         582         583         588         587
         583         584         589         588
         585         586         591         590
         586         587         592         591
         587         588         593         592
         588         589         594         593
         590         591         596         595
         591         592         597         596
         592         593         598         597
         593         594         599         598
         600         601         606         605
         601         602         607         606
         602         603         608         607
         603         604         609         608
         605         606         611         610
         606         607         612         611
         607         608         613         612
         608         609         614         613
         610         611         616         615
         611         612         617         616
         612         613         618         617
         613         614         619         618
         615         616         621         620
         616         617         622         621
         617         618         623         622
         618         619         624         623
         625         626         631         630
         626         627         632         631
         627         628         633         632
         628         629         634         633
         630         631         636         635
         631         632         637         636
         632         633         638         637
         633         634         639         638
         635         636         641         640
         636         637         642         641
         637         638         643         642
         638         639         644         643
         640         641         646         645
         641         642         647         646
         642         643         648         647
         643         644         649         648
         650         651         656         655
         651         652         657         656
         652         653         658         657
         653         654         659         658
         655         656         661         660
         656         657         662         661
         657         658         663         662
         658         659         664         663
         660         661         666         665
         661         662         667         666
         662         663         668         667
         663         664         669         668
         665         666         671         670
         666         667         672         671
         667         668         673         672
         668         669         674         673
         675         676         681         680
         676         677         682         681
         677         678         683         682
         678         679         684         683
         680         681         686         685
         681         682         687         686
         682         683         688         687
         683         684         689         688
         685         686         691         690
         686         687         692         691
         687         688         693         692
         688         689         694         693
         690         691         696         695
         691         692         697         696
         692         693         698         697
         693         694         699         698
         700         701         706         705
         701         702         707         706
         702         703         708         707
         703         704         709         708
         705         706         711         710
         706         707         712         711
         707         708         713         712
         708         709         714         713
         710         711         716         715
         711         712         717         716
         712         713         718         717
         713         714         719         718
         715         716         721         720
         716         717         722         721
         717         718         723         722
         718         719         724         723
         725         726         731         730
         726         727         732         731
         727         728         733         732
         728         729         734         733
         730         731         736         735
         731         732         737         736
         732         733         738         737
         733         734         739         738
         735         736         741         740
         736         737         742         741
         737         738         743         742
         738         739         744         743
         740         741         746         745
         741         742         747         746
         742         743         748         747
         743         744         749         748
         750         751         756         755
         751         752         757         756
         752         753         758         757
         753         754         759         758
         755         756         761         760
         756         757         762         761
         757         758         763         762
         758         759         764         763
         760         761         766         765
         761         762         767         766
         762         763         768         767
         763         764         769         768
         765         766         771         770
         766         767         772         771
         767         768         773         772
         768         769         774         773
         775         776         781         780
         776         777         782         781
         777         778         783         782
         778         779         784         783
         780         781         786         785
         781         782         787         786
         782         783         788         787
         783         784         789         788
         785         786         791         790
         786         787         792         791
         787         788         793         792
         788         789         794         793
         790         791         796         795
         791         792         797         796
         792         793         798         797
         793         794         799         798
         800         801         806         805
         801         802         807         806
         802         803         808         807
         803         804         809         808
         805         806         811         810
         806         807         812         811
         807         808         813         812
         808         809         814         813
         810         811         816         815
         811         812         817         816
         812         813         818         817
         813         814         819         818
         815         816         821         820
         816         817         822         821
         817         818         823         822
         818         819         824         823
         825         826         831         830
         826         827         832         831
         827         828         833         832
         828         829         834         833
         830         831         836         835
         831         832         837         836
         832         833         838         837
         833         834         839         838
         835         836         841         840
         836         837         842         841
         837         838         843         842
         838         839         844         843
         840         841         846         845
         841         842         847         846
         842         843         848         847
         843         844         849         848
         850         851         856         855
         851         852         857         856
         852         853         858         857
         853         854         859         858
         855         856         861         860
         856         857         862         861
         857         858         863         862
         858         859         864         863
         860         861         866         865
         861         862         867         866
         862         863         868         867
         863         864         869         868
         865         866         871         870
         866         867         872         871
         867         868         873         872
         868         869         874         873
         875         876         881         880
         876         877         882         881
         877         878         883         882
         878         879         884         883
         880         881         886         885
         881         882         887         886
         882         883         888         887
         883         884         889         888
         885         886         891         890
         886         887         892         891
         887         888         893         892
         888         889         894         893
         890         891         896         895
         891         892         897         896
         892         893         898         897
         893         894         899         898
         900         901         906         905
         901         902         907         906
         902         903         908         907
         903         904         909         908
         905         906         911         910
         906         907         912         911
         907         908         913         912
         908         909         914         913
         910         911         916         915
         911         912         917         916
         912         913         918         917
         913         914         919         918
         915         916         921         920
         916         917         922         921
         917         918         923         922
         918         919         924         923
         925         926         931         930
         926         927         932         931
         927         928         933         932
         928         929         934         933
         930         931         936         935
         931         932         937         936
         932         933         938         937
         933         934         939         938
         935         936         941         940
         936         937         942         941
         937         938         943         942
         938         939         944         943
         940         941         946         945
         941         942         947         946
         942         943         948         947
         943         944         949         948
         950         951         956         955
         951         952         957         956
         952         953         958         957
         953         954         959         958
         955         956         961         960
         956         957         962         961
         957         958         963         962
         958         959         964         963
         960         961         966         965
         961         962         967         966
         962         963         968         967
         963         964         969         968
         965         966         971         970
         966         967         972         971
         967         968         973         972
         968         969         974         973
         975         976         981         980
         976         977         982         981
         977         978         983         982
         978         979         984         983
         980         981         986         985
         981         982         987         986
         982         983         988         987
         983         984         989         988
         985         986         991         990
         986         987         992         991
         987         988         993         992
         988         989         994         993
         990         991         996         995
         991         992         997         996
         992         993         998         997
         993         994         999         998
        1000        1001        1006        1005
        1001        1002        1007        1006
        1002        1003        1008        1007
        1003        1004        1009        1008
        1005        1006        1011        1010
        1006        1007        1012        1011
        1007        1008        1013        1012
        1008        1009        1014        1013
        1010        1011        1016        1015
        1011        1012        1017        1016
        1012        1013        1018        1017
        1013        1014        1019        1018
        1015        1016        1021        1020
        1016        1017        1022        1021
        1017        1018        1023        1022
        1018        1019        1024        1023
        1025        1026        1031        1030
        1026        1027        1032        1031
        1027        1028        1033        1032
        1028        1029        1034        1033
        1030        1031        1036        1035
        1031        1032        1037        1036
        1032        1033        1038        1037
        1033        1034        1039        1038
        1035        1036        1041        1040
        1036        1037        1042        1041
        1037        1038        1043        1042
        1038        1039        1044        1043
        1040        1041        1046        1045
        1041        1042        1047        1046
        1042        1043        1048        1047
        1043        1044        1049        1048
        1050        1051        1056        1055
        1051        1052        1057        1056
        1052        1053        1058        1057
        1053        1054        1059        1058
        1055        1056        1061        1060
        1056        1057        1062        1061
        1057        1058        1063        1062
        1058        1059        1064        1063
        1060        1061        1066        1065
        1061        1062        1067        1066
        1062        1063        1068        1067
        1063        1064        1069        1068
        1065        1066        1071        1070
        1066        1067        1072        1071
        1067        1068        1073        1072
        1068        1069        1074        1073
        1075        1076        1081        1080
        1076        1077        1082        1081
        1077        1078        1083        1082
        1078        1079        1084        1083
        1080        1081        1086        1085
        1081        1082        1087        1086
        1082        1083        1088        1087
        1083        1084        1089        1088
        1085        1086        1091        1090
        1086        1087        1092        1091
        1087        1088        1093        1092
        1088        1089        1094        1093
        1090        1091        1096        1095
        1091        1092        1097        1096
        1092        1093        1098        1097
        1093        1094        1099        1098
        1100        1101        1106        1105
        1101        1102        1107        1106
        1102        1103        1108        1107
        1103        1104        1109        1108
        1105        1106        1111        1110
        1106        1107        1112        1111
        1107        1108        1113        1112
        1108        1109        1114        1113
        1110        1111        1116        1115
        1111        1112        1117        1116
        1112        1113        1118        1117
        1113        1114        1119        1118
        1115        1116        1121        1120
        1116        1117        1122        1121
        1117        1118        1123        1122
        1118        1119        1124        1123
        1125        1126        1131        1130
        1126        1127        1132        1131
        1127        1128        1133        1132
        1128        1129        1134        1133
        1130        1131        1136        1135
        1131        1132        1137        1136
        1132        1133        1138        1137
        1133        1134        1139        1138
        1135        1136        1141        1140
        1136        1137        1142        1141
        1137        1138        1143        1142
        1138        1139        1144        1143
        1140        1141        1146        1145
        1141        1142        1147        1146
        1142        1143        1148        1147
        1143        1144        1149        1148
        1150        1151        1156        1155
        1151        1152        1157        1156
        1152        1153        1158        1157
        1153        1154        1159        1158
        1155        1156        1161        1160
        1156        1157        1162        1161
        1157        1158        1163        1162
        1158        1159        1164        1163
        1160        1161        1166        1165
        1161        1162        1167        1166
        1162        1163        1168        1167
        1163        1164        1169        1168
        1165        1166        1171        1170
        1166        1167        1172        1171
        1167        1168        1173        1172
        1168        1169        1174        1173
        1175        1176        1181        1180
        1176        1177        1182        1181
        1177        1178        1183        1182
        1178        1179        1184        1183
        1180        1181        1186        1185
        1181        1182        1187        1186
        1182        1183        1188        1187
        1183        1184        1189        1188
        1185        1186        1191        1190
        1186        1187        1192        1191
        1187        1188        1193        1192
        1188        1189        1194        1193
        1190        1191        1196        1195
        1191        1192        1197        1196
        1192        1193        1198        1197
        1193        1194        1199        1198
        1200        1201        1206        1205
        1201        1202        1207        1206
        1202        1203        1208        1207
        1203        1204        1209        1208
        1205        1206        1211        1210
        1206        1207        1212        1211
        1207        1208        1213        1212
        1208        1209        1214        1213
        1210        1211        1216        1215
        1211        1212        1217        1216
        1212        1213        1218        1217
        1213        1214        1219        1218
        1215        1216        1221        1220
        1216        1217        1222        1221
        1217        1218        1223        1222
        1218        1219        1224        1223
        1225        1226        1231        1230
        1226        1227        1232        1231
        1227        1228        1233        1232
        1228        1229        1234        1233
        1230        1231        1236        1235
        1231        1232        1237        1236
        1232        1233        1238        1237
        1233        1234        1239        1238
        1235        1236        1241        1240
        1236        1237        1242        1241
        1237        1238        1243        1242
        1238        1239        1244        1243
        1240        1241        1246        1245
        1241        1242        1247        1246
        1242        1243        1248        1247
        1243        1244        1249        1248
        1250        1251        1256        1255
        1251        1252        1257        1256
        1252        1253        1258        1257
        1253        1254        1259        1258
        1255        1256        1261        1260
        1256        1257        1262        1261
        1257        1258        1263        1262
        1258        1259        1264        1263
        1260        1261        1266        1265
        1261        1262        1267        1266
        1262        1263        1268        1267
        1263        1264        1269        1268
        1265        1266        1271        1270
        1266        1267        1272        1271
        1267        1268        1273        1272
        1268        1269        1274        1273
        1275        1276        1281        1280
        1276        1277        1282        1281
        1277        1278        1283        1282
        1278        1279        1284        1283
        1280        1281        1286        1285
        1281        1282        1287        1286
        1282        1283        1288        1287
        1283        1284        1289        1288
        1285        1286        1291        1290
        1286        1287        1292        1291
        1287        1288        1293        1292
        1288        1289        1294        1293
        1290        1291        1296        1295
        1291        1292        1297        1296
        1292        1293        1298        1297
        1293        1294        1299        1298
        1300        1301        1306        1305
        1301        1302        1307        1306
        1302        1303        1308        1307
        1303        1304        1309        1308
        1305        1306        1311        1310
        1306        1307        1312        1311
        1307        1308        1313        1312
        1308        1309        1314        1313
        1310        1311        1316        1315
        1311        1312        1317        1316
        1312        1313        1318        1317
        1313        1314        1319        1318
        1315        1316        1321        1320
        1316        1317        1322        1321
        1317        1318        1323        1322
        1318        1319        1324        1323
        1325        1326        1331        1330
        1326        1327        1332        1331
        1327        1328        1333        1332
        1328        1329        1334        1333
        1330        1331        1336        1335
        1331        1332        1337        1336
        1332        1333        1338        1337
        1333        1334        1339        1338
        1335        1336        1341        1340
        1336        1337        1342        1341
        1337        1338        1343        1342
        1338        1339        1344        1343
        1340        1341        1346        1345
        1341        1342        1347        1346
        1342        1343        1348        1347
        1343        1344        1349        1348
        1350        1351        1356        1355
        1351        1352        1357        1356
        1352        1353        1358        1357
        1353        1354        1359        1358
        1355        1356        1361        1360
        1356        1357        1362        1361
        1357        1358        1363        1362
        1358        1359        1364        1363
        1360        1361        1366        1365
        1361        1362        1367        1366
        1362        1363        1368        1367
        1363        1364        1369        1368
        1365        1366        1371        1370
        1366        1367        1372        1371
        1367        1368        1373        1372
        1368        1369        1374        1373
        1375        1376        1381        1380
        1376        1377        1382        1381
        1377        1378        1383        1382
        1378        1379        1384        1383
        1380        1381        1386        1385
        1381        1382        1387        1386
        1382        1383        1388        1387
        1383        1384        1389        1388
        1385        1386        1391        1390
        1386        1387        1392        1391
        1387        1388        1393        1392
        1388        1389        1394        1393
        1390        1391        1396        1395
        1391        1392        1397        1396
        1392        1393        1398        1397
        1393        1394        1399        1398
        1400        1401        1406        1405
        1401        1402        1407        1406
        1402        1403        1408        1407
        1403        1404        1409        1408
        1405        1406        1411        1410
        1406        1407        1412        1411
        1407        1408        1413        1412
        1408        1409        1414        1413
        1410        1411        1416        1415
        1411        1412        1417        1416
        1412        1413        1418        1417
        1413        1414        1419        1418
        1415        1416        1421        1420
        1416        1417        1422        1421
        1417        1418        1423        1422
        1418        1419        1424        1423
        1425        1426        1431        1430
        1426        1427        1432        1431
        1427        1428        1433        1432
        1428        1429        1434        1433
        1430        1431        1436        1435
        1431        1432        1437        1436
        1432        1433        1438        1437
        1433        1434        1439        1438
        1435        1436        1441        1440
        1436        1437        1442        1441
        1437        1438        1443        1442
        1438        1439        1444        1443
        1440        1441        1446        1445
        1441        1442        1447        1446
        1442        1443        1448        1447
        1443        1444        1449        1448
        1450        1451        1456        1455
        1451        1452        1457        1456
        1452        1453        1458        1457
        1453        1454        1459        1458
        1455        1456        1461        1460
        1456        1457        1462        1461
        1457        1458        1463        1462
        1458        1459        1464        1463
        1460        1461        1466        1465
        1461        1462        1467        1466
        1462        1463        1468        1467
        1463        1464        1469        1468
        1465        1466        1471        1470
        1466        1467        1472        1471
        1467        1468        1473        1472
        1468        1469        1474        1473
        1475        1476        1481        1480
        1476        1477        1482        1481
        1477        1478        1483        1482
        1478        1479        1484        1483
        1480        1481        1486        1485
        1481        1482        1487        1486
        1482        1483        1488        1487
        1483        1484        1489        1488
        1485        1486        1491        1490
        1486        1487        1492        1491
        1487        1488        1493        1492
        1488        1489        1494        1493
        1490        1491        1496        1495
        1491        1492        1497        1496
        1492        1493        1498        1497
        1493        1494        1499        1498
        1500        1501        1506        1505
        1501        1502        1507        1506
        1502        1503        1508        1507
        1503        1504        1509        1508
        1505        1506        1511        1510
        1506        1507        1512        1511
        1507        1508        1513        1512
        1508        1509        1514        1513
        1510        1511        1516        1515
        1511        1512        1517        1516
        1512        1513        1518        1517
        1513        1514        1519        1518
        1515        1516        1521        1520
        1516        1517        1522        1521
        1517        1518        1523        1522
        1518        1519        1524        1523
        1525        1526        1531        1530
        1526        1527        1532        1531
        1527        1528        1533        1532
        1528        1529        1534        1533
        1530        1531        1536        1535
        1531        1532        1537        1536
        1532        1533        1538        1537
        1533        1534        1539        1538
        1535        1536        1541        1540
        1536        1537        1542        1541
        1537        1538        1543        1542
        1538        1539        1544        1543
        1540        1541        1546        1545
        1541        1542        1547        1546
        1542        1543        1548        1547
        1543        1544        1549        1548
        1550        1551        1556        1555
        1551        1552        1557        1556
        1552        1553        1558        1557
        1553        1554        1559        1558
        1555        1556        1561        1560
        1556        1557        1562        1561
        1557        1558        1563        1562
        1558        1559        1564        1563
        1560        1561        1566        1565
        1561        1562        1567        1566
        1562        1563        1568        1567
        1563        1564        1569        1568
        1565        1566        1571        1570
        1566        1567        1572        1571
        1567        1568        1573        1572
        1568        1569        1574        1573
        1575        1576        1581        1580
        1576        1577        1582        1581
        1577        1578        1583        1582
        1578        1579        1584        1583
        1580        1581        1586        1585
        1581        1582        1587        1586
        1582        1583        1588        1587
        1583        1584        1589        1588
        1585        1586        1591        1590
        1586        1587        1592        1591
        1587        1588        1593        1592
        1588        1589        1594        1593
        1590        1591        1596        1595
        1591        1592        1597        1596
        1592        1593        1598        1597
        1593        1594        1599        1598
 </DataArray>
 <DataArray  type="Int32"  Name="offsets"  format="ascii"> 
           4
           8
          12
          16
          20
          24
          28
          32
          36
          40
          44
          48
          52
          56
          60
          64
          68
          72
          76
          80
          84
          88
          92
          96
         100
         104
         108
         112
         116
         120
         124
         128
         132
         136
         140
         144
         148
         152
         156
         160
         164
         168
         172
         176
         180
         184
         188
         192
         196
         200
         204
         208
         212
         216
         220
         224
         228
         232
         236
         240
         244
         248
         252
         256
         260
         264
         268
         272
         276
         280
         284
         288
         292
         296
         300
         304
         308
         312
         316
         320
         324
         328
         332
         336
         340
         344
         348
         352
         356
         360
         364
         368
         372
         376
         380
         384
         388
         392
         396
         400
         404
         408
         412
         416
         420
         424
         428
         432
         436
         440
         444
         448
         452
         456
         460
         464
         468
         472
         476
         480
         484
         488
         492
         496
         500
         504
         508
         512
         516
         520
         524
         528
         532
         536
         540
         544
         548
         552
         556
         560
         564
         568
         572
         576
         580
         584
         588
         592
         596
         600
         604
         608
         612
         616
         620
         624
         628
         632
         636
         640
         644
         648
         652
         656
         660
         664
         668
         672
         676
         680
         684
         688
         692
         696
         700
         704
         708
         712
         716
         720
         724
         728
         732
         736
         740
         744
         748
         752
         756
         760
         764
         768
         772
         776
         780
         784
         788
         792
         796
         800
         804
         808
         812
         816
         820
         824
         828
         832
         836
         840
         844
         848
         852
         856
         860
         864
         868
         872
         876
         880
         884
         888
         892
         896
         900
         904
         908
         912
         916
         920
         924
         928
         932
         936
         940
         944
         948
         952
         956
         960
         964
         968
         972
         976
         980
         984
         988
         992
         996
        1000
        1004
        1008
        1012
        1016
        1020
        1024
        1028
        1032
        1036
        1040
        1044
        1048
        1052
        1056
        1060
        1064
        1068
        1072
        1076
        1080
        1084
        1088
        1092
        1096
        1100
        1104
        1108
        1112
        1116
        1120
        1124
        1128
        1132
        1136
        1140
        1144
        1148
        1152
        1156
        1160
        1164
        1168
        1172
        1176
        1180
        1184
        1188
        1192
        1196
        1200
        1204
        1208
        1212
        1216
        1220
        1224
        1228
        1232
        1236
        1240
        1244
        1248
        1252
        1256
        1260
        1264
        1268
        1272
        1276
        1280
        1284
        1288
        1292
        1296
        1300
        1304
        1308
        1312
        1316
        1320
        1324
        1328
        1332
        1336
        1340
        1344
        1348
        1352
        1356
        1360
        1364
        1368
        1372
        1376
        1380
        1384
        1388
        1392
        1396
        1400
        1404
        1408
        1412
        1416
        1420
        1424
        1428
        1432
        1436
        1440
        1444
        1448
        1452
        1456
        1460
        1464
        1468
        1472
        1476
        1480
        1484
        1488
        1492
        1496
        1500
        1504
        1508
        1512
        1516
        1520
        1524
        1528
        1532
        1536
        1540
        1544
        1548
        1552
        1556
        1560
        1564
        1568
        1572
        1576
        1580
        1584
        1588
        1592
        1596
        1600
        1604
        1608
        1612
        1616
        1620
        1624
        1628
        1632
        1636
        1640
        1644
        1648
        1652
        1656
        1660
        1664
        1668
        1672
        1676
        1680
        1684
        1688
        1692
        1696
        1700
        1704
        1708
        1712
        1716
        1720
        1724
        1728
        1732
        1736
        1740
        1744
        1748
        1752
        1756
        1760
        1764
        1768
        1772
        1776
        1780
        1784
        1788
        1792
        1796
        1800
        1804
        1808
        1812
        1816
        1820
        1824
        1828
        1832
        1836
        1840
        1844
        1848
        1852
        1856
        1860
        1864
        1868
        1872
        1876
        1880
        1884
        1888
        1892
        1896
        1900
        1904
        1908
        1912
        1916
        1920
        1924
        1928
        1932
        1936
        1940
        1944
        1948
        1952
        1956
        1960
        1964
        1968
        1972
        1976
        1980
        1984
        1988
        1992
        1996
        2000
        2004
        2008
        2012
        2016
        2020
        2024
        2028
        2032
        2036
        2040
        2044
        2048
        2052
        2056
        2060
        2064
        2068
        2072
        2076
        2080
        2084
        2088
        2092
        2096
        2100
        2104
        2108
        2112
        2116
        2120
        2124
        2128
        2132
        2136
        2140
        2144
        2148
        2152
        2156
        2160
        2164
        2168
        2172
        2176
        2180
        2184
        2188
        2192
        2196
        2200
        2204
        2208
        2212
        2216
        2220
        2224
        2228
        2232
        2236
        2240
        2244
        2248
        2252
        2256
        2260
        2264
        2268
        2272
        2276
        2280
        2284
        2288
        2292
        2296
        2300
        2304
        2308
        2312
        2316
        2320
        2324
        2328
        2332
        2336
        2340
        2344
        2348
        2352
        2356
        2360
        2364
        2368
        2372
        2376
        2380
        2384
        2388
        2392
        2396
        2400
        2404
        2408
        2412
        2416
        2420
        2424
        2428
        2432
        2436
        2440
        2444
        2448
        2452
        2456
        2460
        2464
        2468
        2472
        2476
        2480
        2484
        2488
        2492
        2496
        2500
        2504
        2508
        2512
        2516
        2520
        2524
        2528
        2532
        2536
        2540
        2544
        2548
        2552
        2556
        2560
        2564
        2568
        2572
        2576
        2580
        2584
        2588
        2592
        2596
        2600
        2604
        2608
        2612
        2616
        2620
        2624
        2628
        2632
        2636
        2640
        2644
        2648
        2652
        2656
        2660
        2664
        2668
        2672
        2676
        2680
        2684
        2688
        2692
        2696
        2700
        2704
        2708
        2712
        2716
        2720
        2724
        2728
        2732
        2736
        2740
        2744
        2748
        2752
        2756
        2760
        2764
        2768
        2772
        2776
        2780
        2784
        2788
        2792
        2796
        2800
        2804
        2808
        2812
        2816
        2820
        2824
        2828
        2832
        2836
        2840
        2844
        2848
        2852
        2856
        2860
        2864
        2868
        2872
        2876
        2880
        2884
        2888
        2892
        2896
        2900
        2904
        2908
        2912
        2916
        2920
        2924
        2928
        2932
        2936
        2940
        2944
        2948
        2952
        2956
        2960
        2964
        2968
        2972
        2976
        2980
        2984
        2988
        2992
        2996
        3000
        3004
        3008
        3012
        3016
        3020
        3024
        3028
        3032
        3036
        3040
        3044
        3048
        3052
        3056
        3060
        3064
        3068
        3072
        3076
        3080
        3084
        3088
        3092
        3096
        3100
        3104
        3108
        3112
        3116
        3120
        3124
        3128
        3132
        3136
        3140
        3144
        3148
        3152
        3156
        3160
        3164
        3168
        3172
        3176
        3180
        3184
        3188
        3192
        3196
        3200
        3204
        3208
        3212
        3216
        3220
        3224
        3228
        3232
        3236
        3240
        3244
        3248
        3252
        3256
        3260
        3264
        3268
        3272
        3276
        3280
        3284
        3288
        3292
        3296
        3300
        3304
        3308
        3312
        3316
        3320
        3324
        3328
        3332
        3336
        3340
        3344
        3348
        3352
        3356
        3360
        3364
        3368
        3372
        3376
        3380
        3384
        3388
        3392
        3396
        3400
        3404
        3408
        3412
        3416
        3420
        3424
        3428
        3432
        3436
        3440
        3444
        3448
        3452
        3456
        3460
        3464
        3468
        3472
        3476
        3480
        3484
        3488
        3492
        3496
        3500
        3504
        3508
        3512
        3516
        3520
        3524
        3528
        3532
        3536
        3540
        3544
        3548
        3552
        3556
        3560
        3564
        3568
        3572
        3576
        3580
        3584
        3588
        3592
        3596
        3600
        3604
        3608
        3612
        3616
        3620
        3624
        3628
        3632
        3636
        3640
        3644
        3648
        3652
        3656
        3660
        3664
        3668
        3672
        3676
        3680
        3684
        3688
        3692
        3696
        3700
        3704
        3708
        3712
        3716
        3720
        3724
        3728
        3732
        3736
        3740
        3744
        3748
        3752
        3756
        3760
        3764
        3768
        3772
        3776
        3780
        3784
        3788
        3792
        3796
        3800
        3804
        3808
        3812
        3816
        3820
        3824
        3828
        3832
        3836
        3840
        3844
        3848
        3852
        3856
        3860
        3864
        3868
        3872
        3876
        3880
        3884
        3888
        3892
        3896
        3900
        3904
        3908
        3912
        3916
        3920
        3924
        3928
        3932
        3936
        3940
        3944
        3948
        3952
        3956
        3960
        3964
        3968
        3972
        3976
        3980
        3984
        3988
        3992
        3996
        4000
        4004
        4008
        4012
        4016
        4020
        4024
        4028
        4032
        4036
        4040
        4044
        4048
        4052
        4056
        4060
        4064
        4068
        4072
        4076
        4080
        4084
        4088
        4092
        4096
 </DataArray>
 <DataArray  type="UInt8"  Name="types"  format="ascii">
 9
 9
 9
 9
 9
 9
 9
 9
 9
 9
 9
 9
 9
 9
 9
 9
 9
 9
 9
 9
 9
 9
 9
 9
 9
 9
 9
 9
 9
 9
 9
 9
 9
 9
 9
 9
 9
 9
 9
 9
 9
 9
 9
 9
 9
 9
 9
 9
 9
 9
 9
 9
 9
 9
 9
 9
 9
 9
 9
 9
 9
 9
 9
 9
 9
 9
 9
 9
 9
 9
 9
 9
 9
 9
 9
 9
 9
 9
 9
 9
 9
 9
 9
 9
 9
 9
 9
 9
 9
 9
 9
 9
 9
 9
 9
 9
 9
 9
 9
 9
 9
 9
 9
 9
 9
 9
 9
 9
 9
 9
 9
 9
 9
 9
 9
 9
 9
 9
 9
 9
 9
 9
 9
 9
 9
 9
 9
 9
 9
 9
 9
 9
 9
 9
 9
 9
 9
 9
 9
 9
 9
 9
 9
 9
 9
 9
 9
 9
 9
 9
 9
 9
 9
 9
 9
 9
 9
 9
 9
 9
 9
 9
 9
 9
 9
 9
 9
 9
 9
 9
 9
 9
 9
 9
 9
 9
 9
 9
 9
 9
 9
 9
 9
 9
 9
 9
 9
 9
 9
 9
 9
 9
 9
 9
 9
 9
 9
 9
 9
 9
 9
 9
 9
 9
 9
 9
 9
 9
 9
 9
 9
 9
 9
 9
 9
 9
 9
 9
 9
 9
 9
 9
 9
 9
 9
 9
 9
 9
 9
 9
 9
 9
 9
 9
 9
 9
 9
 9
 9
 9
 9
 9
 9
 9
 9
 9
 9
 9
 9
 9
 9
 9
 9
 9
 9
 9
 9
 9
 9
 9
 9
 9
 9
 9
 9
 9
 9
 9
 9
 9
 9
 9
 9
 9
 9
 9
 9
 9
 9
 9
 9
 9
 9
 9
 9
 9
 9
 9
 9
 9
 9
 9
 9
 9
 9
 9
 9
 9
 9
 9
 9
 9
 9
 9
 9
 9
 9
 9
 9
 9
 9
 9
 9
 9
 9
 9
 9
 9
 9
 9
 9
 9
 9
 9
 9
 9
 9
 9
 9
 9
 9
 9
 9
 9
 9
 9
 9
 9
 9
 9
 9
 9
 9
 9
 9
 9
 9
 9
 9
 9
 9
 9
 9
 9
 9
 9
 9
 9
 9
 9
 9
 9
 9
 9
 9
 9
 9
 9
 9
 9
 9
 9
 9
 9
 9
 9
 9
 9
 9
 9
 9
 9
 9
 9
 9
 9
 9
 9
 9
 9
 9
 9
 9
 9
 9
 9
 9
 9
 9
 9
 9
 9
 9
 9
 9
 9
 9
 9
 9
 9
 9
 9
 9
 9
 9
 9
 9
 9
 9
 9
 9
 9
 9
 9
 9
 9
 9
 9
 9
 9
 9
 9
 9
 9
 9
 9
 9
 9
 9
 9
 9
 9
 9
 9
 9
 9
 9
 9
 9
 9
 9
 9
 9
 9
 9
 9
 9
 9
 9
 9
 9
 9
 9
 9
 9
 9
 9
 9
 9
 9
 9
 9
 9
 9
 9
 9
 9
 9
 9
 9
 9
 9
 9
 9
 9
 9
 9
 9
 9
 9
 9
 9
 9
 9
 9
 9
 9
 9
 9
 9
 9
 9
 9
 9
 9
 9
 9
 9
 9
 9
 9
 9
 9
 9
 9
 9
 9
 9
 9
 9
 9
 9
 9
 9
 9
 9
 9
 9
 9
 9
 9
 9
 9
 9
 9
 9
 9
 9
 9
 9
 9
 9
 9
 9
 9
 9
 9
 9
 9
 9
 9
 9
 9
 9
 9
 9
 9
 9
 9
 9
 9
 9
 9
 9
 9
 9
 9
 9
 9
 9
 9
 9
 9
 9
 9
 9
 9
 9
 9
 9
 9
 9
 9
 9
 9
 9
 9
 9
 9
 9
 9
 9
 9
 9
 9
 9
 9
 9
 9
 9
 9
 9
 9
 9
 9
 9
 9
 9
 9
 9
 9
 9
 9
 9
 9
 9
 9
 9
 9
 9
 9
 9
 9
 9
 9
 9
 9
 9
 9
 9
 9
 9
 9
 9
 9
 9
 9
 9
 9
 9
 9
 9
 9
 9
 9
 9
 9
 9
 9
 9
 9
 9
 9
 9
 9
 9
 9
 9
 9
 9
 9
 9
 9
 9
 9
 9
 9
 9
 9
 9
 9
 9
 9
 9
 9
 9
 9
 9
 9
 9
 9
 9
 9
 9
 9
 9
 9
 9
 9
 9
 9
 9
 9
 9
 9
 9
 9
 9
 9
 9
 9
 9
 9
 9
 9
 9
 9
 9
 9
 9
 9
 9
 9
 9
 9
 9
 9
 9
 9
 9
 9
 9
 9
 9
 9
 9
 9
 9
 9
 9
 9
 9
 9
 9
 9
 9
 9
 9
 9
 9
 9
 9
 9
 9
 9
 9
 9
 9
 9
 9
 9
 9
 9
 9
 9
 9
 9
 9
 9
 9
 9
 9
 9
 9
 9
 9
 9
 9
 9
 9
 9
 9
 9
 9
 9
 9
 9
 9
 9
 9
 9
 9
 9
 9
 9
 9
 9
 9
 9
 9
 9
 9
 9
 9
 9
 9
 9
 9
 9
 9
 9
 9
 9
 9
 9
 9
 9
 9
 9
 9
 9
 9
 9
 9
 9
 9
 9
 9
 9
 9
 9
 9
 9
 9
 9
 9
 9
 9
 9
 9
 9
 9
 9
 9
 9
 9
 9
 9
 9
 9
 9
 9
 9
 9
 9
 9
 9
 9
 9
 9
 9
 9
 9
 9
 9
 9
 9
 9
 9
 9
 9
 9
 9
 9
 9
 9
 9
 9
 9
 9
 9
 9
 9
 9
 9
 9
 9
 9
 9
 9
 9
 9
 9
 9
 9
 9
 9
 9
 9
 9
 9
 9
 9
 9
 9
 9
 9
 9
 9
 9
 9
 9
 9
 9
 9
 9
 9
 9
 9
 9
 9
 9
 9
 9
 9
 9
 9
 9
 9
 9
 9
 9
 9
 9
 9
 9
 9
 9
 9
 9
 9
 9
 9
 9
 9
 9
 9
 9
 9
 9
 9
 9
 9
 9
 9
 9
 9
 9
 9
 9
 9
 9
 9
 9
 9
 9
 9
 9
 9
 9
 9
 9
 9
 9
 9
 9
 9
 9
 9
 9
 9
 9
 9
 9
 9
 9
 9
 9
 9
 9
 9
 9
 9
 9
 9
 9
 9
 9
 9
 9
 9
 9
 9
 9
 9
 9
 9
 9
 9
 9
 9
 9
 9
 9
 9
 9
 9
 9
 9
 9
 9
 9
 9
 9
 9
 9
 9
 9
 9
 9
 9
 9
 9
 9
 </DataArray>
 </Cells> 
 <PointData>
 <DataArray  type="Float64" Name="disp" NumberOfComponents="3" format="ascii">
   0.0000000000000000        0.0000000000000000        0.0000000000000000     
   6.0958431561235274E-003   3.7905688959378996E-003   0.0000000000000000     
   1.1665747240480816E-002   7.3240352394896083E-003   0.0000000000000000     
   1.6709712253071871E-002   1.0600399030655128E-002   0.0000000000000000     
   2.1227738193896679E-002   1.3619660269434454E-002   0.0000000000000000     
   0.0000000000000000        0.0000000000000000        0.0000000000000000     
   4.8910323288115050E-003   3.0222420606006444E-003   0.0000000000000000     
   9.5733767253728466E-003   6.0606929432842818E-003   0.0000000000000000     
   1.4047033189684029E-002   9.1153526480509100E-003   0.0000000000000000     
   1.8312001721745047E-002   1.2186221174900534E-002   0.0000000000000000     
   0.0000000000000000        0.0000000000000000        0.0000000000000000     
   3.9534348231431340E-003   2.4252010534697175E-003   0.0000000000000000     
   7.9103355855502898E-003   5.0630607495474721E-003   0.0000000000000000     
   1.1870702287221473E-002   7.9135790882332649E-003   0.0000000000000000     
   1.5834534928156674E-002   1.0976756069527095E-002   0.0000000000000000     
   0.0000000000000000        0.0000000000000000        0.0000000000000000     
   3.2830506391184149E-003   1.9994458745451194E-003   0.0000000000000000     
   6.6766238210131477E-003   4.3311386582791829E-003   0.0000000000000000     
   1.0180719545684199E-002   6.9950783512021915E-003   0.0000000000000000     
   1.3795337813131565E-002   9.9912649533141426E-003   0.0000000000000000     
   0.0000000000000000        0.0000000000000000        0.0000000000000000     
   2.8798797767373473E-003   1.7449765238268496E-003   0.0000000000000000     
   5.8722414317614168E-003   3.8649266694794119E-003   0.0000000000000000     
   8.9770849650722094E-003   6.3598504369576873E-003   0.0000000000000000     
   1.2194410376669721E-002   9.2297478262616754E-003   0.0000000000000000     
   2.1227738193896679E-002   1.3619660269434454E-002   0.0000000000000000     
   2.5432723265773546E-002   1.6612539477362576E-002   0.0000000000000000     
   2.9537565671520754E-002   1.9809757175974475E-002   0.0000000000000000     
   3.3542265411138306E-002   2.3211313365270148E-002   0.0000000000000000     
   3.7446822484626191E-002   2.6817208045249605E-002   0.0000000000000000     
   1.8312001721745047E-002   1.2186221174900534E-002   0.0000000000000000     
   2.2406511486891750E-002   1.5341681840335460E-002   0.0000000000000000     
   2.6368791650459990E-002   1.8650117960858012E-002   0.0000000000000000     
   3.0198842212449770E-002   2.2111529536468180E-002   0.0000000000000000     
   3.3896663172861080E-002   2.5725916567165972E-002   0.0000000000000000     
   1.5834534928156674E-002   1.0976756069527095E-002   0.0000000000000000     
   1.9730063718168409E-002   1.4211384314689398E-002   0.0000000000000000     
   2.3485518867069188E-002   1.7576256444980610E-002   0.0000000000000000     
   2.7100900374859009E-002   2.1071372460400729E-002   0.0000000000000000     
   3.0576208241537867E-002   2.4696732360949766E-002   0.0000000000000000     
   1.3795337813131565E-002   9.9912649533141426E-003   0.0000000000000000     
   1.7403379959603525E-002   1.3221646900424388E-002   0.0000000000000000     
   2.0887747321348342E-002   1.6588172628342276E-002   0.0000000000000000     
   2.4248439898366021E-002   2.0090842137067803E-002   0.0000000000000000     
   2.7485457690656565E-002   2.3729655426600983E-002   0.0000000000000000     
   1.2194410376669721E-002   9.2297478262616754E-003   0.0000000000000000     
   1.5426460211197091E-002   1.2372469597540429E-002   0.0000000000000000     
   1.8575477013297453E-002   1.5685866510943006E-002   0.0000000000000000     
   2.1641460782970807E-002   1.9169938566469404E-002   0.0000000000000000     
   2.4624411520217153E-002   2.2824685764119626E-002   0.0000000000000000     
   3.7446822484626191E-002   2.6817208045249605E-002   0.0000000000000000     
   4.1255692608922707E-002   3.0622648227595639E-002   0.0000000000000000     
   4.4973331500966135E-002   3.4622840923991045E-002   0.0000000000000000     
   4.8599739160756474E-002   3.8817786134435830E-002   0.0000000000000000     
   5.2134915588293737E-002   4.3207483858929988E-002   0.0000000000000000     
   3.3896663172861080E-002   2.5725916567165972E-002   0.0000000000000000     
   3.7485548153673845E-002   2.9522156162839115E-002   0.0000000000000000     
   4.0988790776867984E-002   3.3529125433375342E-002   0.0000000000000000     
   4.4406391042443517E-002   3.7746824378774670E-002   0.0000000000000000     
   4.7738348950400411E-002   4.2175252999037072E-002   0.0000000000000000     
   3.0576208241537867E-002   2.4696732360949766E-002   0.0000000000000000     
   3.3940990816596586E-002   2.8497061558240007E-002   0.0000000000000000     
   3.7224796449525983E-002   3.2517085463883759E-002   0.0000000000000000     
   4.0427625140326058E-002   3.6756804077881032E-002   0.0000000000000000     
   4.3549476888996796E-002   4.1216217400231819E-002   0.0000000000000000     
   2.7485457690656565E-002   2.3729655426600983E-002   0.0000000000000000     
   3.0622020597690935E-002   2.7547364413798306E-002   0.0000000000000000     
   3.3681348518940113E-002   3.1586721015516288E-002   0.0000000000000000     
   3.6663441454404103E-002   3.5847725231754932E-002   0.0000000000000000     
   3.9568299404082900E-002   4.0330377062514230E-002   0.0000000000000000     
   2.4624411520217153E-002   2.2824685764119626E-002   0.0000000000000000     
   2.7528637496956884E-002   2.6673064729514018E-002   0.0000000000000000     
   3.0358446985110386E-002   3.0738032088272929E-002   0.0000000000000000     
   3.3113839984677651E-002   3.5019587840396355E-002   0.0000000000000000     
   3.5794816495658695E-002   3.9517731985884305E-002   0.0000000000000000     
   5.2134915588293737E-002   4.3207483858929988E-002   0.0000000000000000     
   5.5575879193609200E-002   4.7796857869695293E-002   0.0000000000000000     
   5.8919648386734164E-002   5.2590831938953517E-002   0.0000000000000000     
   6.2166223167668642E-002   5.7589406066704665E-002   0.0000000000000000     
   6.5315603536412623E-002   6.2792580252948732E-002   0.0000000000000000     
   4.7738348950400411E-002   4.2175252999037072E-002   0.0000000000000000     
   5.0980105172050927E-002   4.6807922048263666E-002   0.0000000000000000     
   5.4127100378707285E-002   5.1638342280555555E-002   0.0000000000000000     
   5.7179334570369486E-002   5.6666513695912746E-002   0.0000000000000000     
   6.0136807747037530E-002   6.1892436294335232E-002   0.0000000000000000     
   4.3549476888996796E-002   4.1216217400231819E-002   0.0000000000000000     
   4.6585681901129640E-002   4.5882612764901728E-002   0.0000000000000000     
   4.9531570382315954E-002   5.0743277505856388E-002   0.0000000000000000     
   5.2387142332555765E-002   5.5798211623095784E-002   0.0000000000000000     
   5.5152397751849061E-002   6.1047415116619916E-002   0.0000000000000000     
   3.9568299404082900E-002   4.0330377062514230E-002   0.0000000000000000     
   4.2392609380845311E-002   4.5020930019609481E-002   0.0000000000000000     
   4.5133058397560183E-002   4.9905637614856002E-002   0.0000000000000000     
   4.7789646454227480E-002   5.4984499848253772E-002   0.0000000000000000     
   5.0362373550847217E-002   6.0257516719802812E-002   0.0000000000000000     
   3.5794816495658695E-002   3.9517731985884305E-002   0.0000000000000000     
   3.8400887611197976E-002   4.4222873812386931E-002   0.0000000000000000     
   4.0931564424439952E-002   4.9125422607554405E-002   0.0000000000000000     
   4.3386846935384624E-002   5.4225378371386718E-002   0.0000000000000000     
   4.5766735144031991E-002   5.9522741103883871E-002   0.0000000000000000     
   6.5315603536412623E-002   6.2792580252948732E-002   0.0000000000000000     
   6.8372234901342185E-002   6.8186725364973805E-002   0.0000000000000000     
   7.1340562670833454E-002   7.3758212270068013E-002   0.0000000000000000     
   7.4220586844886388E-002   7.9507040968231343E-002   0.0000000000000000     
   7.7012307423501000E-002   8.5433211459463795E-002   0.0000000000000000     
   6.0136807747037530E-002   6.1892436294335232E-002   0.0000000000000000     
   6.3005696544548295E-002   6.7307641146498107E-002   0.0000000000000000     
   6.5792177598738649E-002   7.2903659323076478E-002   0.0000000000000000     
   6.8496250909608591E-002   7.8680490824070332E-002   0.0000000000000000     
   7.1117916477158108E-002   8.4638135649479682E-002   0.0000000000000000     
   5.5152397751849061E-002   6.1047415116619916E-002   0.0000000000000000     
   5.7833792752257293E-002   6.6485123633323928E-002   0.0000000000000000     
   6.0437783445841865E-002   7.2105572820102895E-002   0.0000000000000000     
   6.2964369832602812E-002   7.7908762676956858E-002   0.0000000000000000     
   6.5413551912540099E-002   8.3894693203885803E-002   0.0000000000000000     
   5.0362373550847217E-002   6.0257516719802812E-002   0.0000000000000000     
   5.2856523524469172E-002   6.5719172825451269E-002   0.0000000000000000     
   5.5277380212143117E-002   7.1363952761147292E-002   0.0000000000000000     
   5.7624943613869044E-002   7.7191856526890923E-002   0.0000000000000000     
   5.9899213729646968E-002   8.3202884122682147E-002   0.0000000000000000     
   4.5766735144031991E-002   5.9522741103883871E-002   0.0000000000000000     
   4.8073888861183946E-002   6.5009788722880116E-002   0.0000000000000000     
   5.0310967897642389E-002   7.0678799146209656E-002   0.0000000000000000     
   5.2477972253407307E-002   7.6529772373872540E-002   0.0000000000000000     
   5.4574901928478713E-002   8.2562708405868726E-002   0.0000000000000000     
   7.7012307423501000E-002   8.5433211459463795E-002   0.0000000000000000     
   7.9705802175637441E-002   9.1528611710141969E-002   0.0000000000000000     
   8.2291148870255848E-002   9.7785129686642464E-002   0.0000000000000000     
   8.4768347507356220E-002  0.10420276538896529        0.0000000000000000     
   8.7137398086938558E-002  0.11078151881711044        0.0000000000000000     
   7.1117916477158108E-002   8.4638135649479682E-002   0.0000000000000000     
   7.3646394467019760E-002   9.0765495694800538E-002   0.0000000000000000     
   7.6070905044826109E-002   9.7051472855528911E-002   0.0000000000000000     
   7.8391448210577086E-002  0.10349606713166479        0.0000000000000000     
   8.0608023964272760E-002  0.11009927852320817        0.0000000000000000     
   6.5413551912540099E-002   8.3894693203885803E-002   0.0000000000000000     
   6.7775039919692859E-002   9.0050618852282938E-002   0.0000000000000000     
   7.0038544088100216E-002   9.6363794073541439E-002   0.0000000000000000     
   7.2204064417762157E-002  0.10283421886766132        0.0000000000000000     
   7.4271600908678681E-002  0.10946189323464262        0.0000000000000000     
   5.9899213729646968E-002   8.3202884122682147E-002   0.0000000000000000     
   6.2091738533656744E-002   8.9383981182589139E-002   0.0000000000000000     
   6.4194066000078223E-002   9.5722093340680062E-002   0.0000000000000000     
   6.6206196128911404E-002  0.10221722059695494        0.0000000000000000     
   6.8128128920156336E-002  0.10886936295141375        0.0000000000000000     
   5.4574901928478713E-002   8.2562708405868726E-002   0.0000000000000000     
   5.6596490308911389E-002   8.8765582685719130E-002   0.0000000000000000     
   5.8537470780760111E-002   9.5126370656944764E-002   0.0000000000000000     
   6.0397843344024892E-002  0.10164507231954556        0.0000000000000000     
   6.2177607998705732E-002  0.10832168767352157        0.0000000000000000     
   8.7137398086938558E-002  0.11078151881711044        0.0000000000000000     
   8.9414013733011236E-002  0.11750659710158687        0.0000000000000000     
   9.1613907569582639E-002  0.12436320737290354        0.0000000000000000     
   9.3737079596652756E-002  0.13135134963106040        0.0000000000000000     
   9.5783529814221585E-002  0.13847102387605753        0.0000000000000000     
   8.0608023964272760E-002  0.11009927852320817        0.0000000000000000     
   8.2738700676171284E-002  0.11684876606786684        0.0000000000000000     
   8.4801546716530840E-002  0.12373218880334860        0.0000000000000000     
   8.6796562085351456E-002  0.13074954672965344        0.0000000000000000     
   8.8723746782633117E-002  0.13790083984678128        0.0000000000000000     
   7.4271600908678681E-002  0.10946189323464262        0.0000000000000000     
   7.6258978772886468E-002  0.11623577642997401        0.0000000000000000     
   7.8184023222422225E-002  0.12314482770914427        0.0000000000000000     
   8.0046734257285923E-002  0.13018904707215340        0.0000000000000000     
   8.1847111877477563E-002  0.13736843451900141        0.0000000000000000     
   6.8128128920156336E-002  0.10886936295141375        0.0000000000000000     
   6.9974848023156830E-002  0.11566762818790834        0.0000000000000000     
   7.1761337087256766E-002  0.12260112409029057        0.0000000000000000     
   7.3487596112456116E-002  0.12966985065856040        0.0000000000000000     
   7.5153625098754936E-002  0.13687380789271786        0.0000000000000000     
   6.2177607998705732E-002  0.10832168767352157        0.0000000000000000     
   6.3886308426982341E-002  0.11514432134166984        0.0000000000000000     
   6.5533488311034463E-002  0.12210107794678744        0.0000000000000000     
   6.7119147650862077E-002  0.12919195748887438        0.0000000000000000     
   6.8643286446465196E-002  0.13641695996793068        0.0000000000000000     
   9.5783529814221585E-002  0.13847102387605753        0.0000000000000000     
   9.7728485256191086E-002  0.14571368105973556        0.0000000000000000     
   9.9547172956463176E-002  0.15307077213393527        0.0000000000000000     
  0.10123959291503788       0.16054229709865658        0.0000000000000000     
  0.10280574513191518       0.16812825595389952        0.0000000000000000     
   8.8723746782633117E-002  0.13790083984678128        0.0000000000000000     
   9.0554014486850479E-002  0.14517367814230800        0.0000000000000000     
   9.2258278876478181E-002  0.15255567160380937        0.0000000000000000     
   9.3836539951516210E-002  0.16004682023128541        0.0000000000000000     
   9.5288797711964565E-002  0.16764712402473608        0.0000000000000000     
   8.1847111877477563E-002  0.13736843451900141        0.0000000000000000     
   8.3556243524362583E-002  0.14466913987910585        0.0000000000000000     
   8.5145216639306312E-002  0.15207731298188454        0.0000000000000000     
   8.6614031222308804E-002  0.15959295382733732        0.0000000000000000     
   8.7962687273370033E-002  0.16721606241546427        0.0000000000000000     
   7.5153625098754936E-002  0.13687380789271786        0.0000000000000000     
   7.6735172368727358E-002  0.14420006627012921        0.0000000000000000     
   7.8207986244947639E-002  0.15163569626816067        0.0000000000000000     
   7.9572066727415708E-002  0.15918069788681233        0.0000000000000000     
   8.0827413816131607E-002  0.16683507112608417        0.0000000000000000     
   6.8643286446465196E-002  0.13641695996793068        0.0000000000000000     
   7.0090801019944859E-002  0.14376645731537793        0.0000000000000000     
   7.1446587693402092E-002  0.15123082146263786        0.0000000000000000     
   7.2710646466836892E-002  0.15881005240971044        0.0000000000000000     
   7.3882977340249262E-002  0.16650415015659564        0.0000000000000000     
   0.0000000000000000        0.0000000000000000        0.0000000000000000     
   2.8798797767373473E-003   1.7449765238268496E-003   0.0000000000000000     
   5.8722414317614168E-003   3.8649266694794119E-003   0.0000000000000000     
   8.9770849650722094E-003   6.3598504369576873E-003   0.0000000000000000     
   1.2194410376669721E-002   9.2297478262616754E-003   0.0000000000000000     
   0.0000000000000000        0.0000000000000000        0.0000000000000000     
   2.6101006501307593E-003   1.5891284861514585E-003   0.0000000000000000     
   5.2892503283366822E-003   3.5571057671251495E-003   0.0000000000000000     
   8.0374490346177673E-003   5.9039318429210726E-003   0.0000000000000000     
   1.0854696768974019E-002   8.6296067135392292E-003   0.0000000000000000     
   0.0000000000000000        0.0000000000000000        0.0000000000000000     
   2.3398916734294764E-003   1.4592372463554965E-003   0.0000000000000000     
   4.7197124212805244E-003   3.3003569351933858E-003   0.0000000000000000     
   7.1394622435531430E-003   5.5233590665136681E-003   0.0000000000000000     
   9.5991411402473348E-003   8.1282436403163436E-003   0.0000000000000000     
   0.0000000000000000        0.0000000000000000        0.0000000000000000     
   2.0692528466334991E-003   1.3553028044389626E-003   0.0000000000000000     
   4.1636277105929443E-003   3.0946801736841199E-003   0.0000000000000000     
   6.2831245918783338E-003   5.2181321077354710E-003   0.0000000000000000     
   8.4277434904896711E-003   7.7256586065930178E-003   0.0000000000000000     
   0.0000000000000000        0.0000000000000000        0.0000000000000000     
   1.7981841697428274E-003   1.2773251604018573E-003   0.0000000000000000     
   3.6209961962739403E-003   2.9400754825973517E-003   0.0000000000000000     
   5.4684360795933399E-003   4.9882509665864832E-003   0.0000000000000000     
   7.3405038197010240E-003   7.4218516123692509E-003   0.0000000000000000     
   1.2194410376669721E-002   9.2297478262616754E-003   0.0000000000000000     
   1.5426460211197091E-002   1.2372469597540429E-002   0.0000000000000000     
   1.8575477013297453E-002   1.5685866510943006E-002   0.0000000000000000     
   2.1641460782970807E-002   1.9169938566469404E-002   0.0000000000000000     
   2.4624411520217153E-002   2.2824685764119626E-002   0.0000000000000000     
   1.0854696768974019E-002   8.6296067135392292E-003   0.0000000000000000     
   1.3687621251489640E-002   1.1651798638631994E-002   0.0000000000000000     
   1.6482850202248843E-002   1.4888175877851743E-002   0.0000000000000000     
   1.9240383621251623E-002   1.8338738431198473E-002   0.0000000000000000     
   2.1960221508497985E-002   2.2003486298672183E-002   0.0000000000000000     
   9.5991411402473348E-003   8.1282436403163436E-003   0.0000000000000000     
   1.2075179859021696E-002   1.1047580256293548E-002   0.0000000000000000     
   1.4544009147534825E-002   1.4213938514137416E-002   0.0000000000000000     
   1.7005629005786720E-002   1.7627318413847948E-002   0.0000000000000000     
   1.9460039433777380E-002   2.1287719955425142E-002   0.0000000000000000     
   8.4277434904896711E-003   7.7256586065930178E-003   0.0000000000000000     
   1.0589136033793255E-002   1.0559814450525092E-002   0.0000000000000000     
   1.2758953849155395E-002   1.3663154419800030E-002   0.0000000000000000     
   1.4937196936576091E-002   1.7035678514417830E-002   0.0000000000000000     
   1.7123865296055338E-002   2.0677386734378498E-002   0.0000000000000000     
   7.3405038197010240E-003   7.4218516123692509E-003   0.0000000000000000     
   9.2294897758043205E-003   1.0188501221326630E-002   0.0000000000000000     
   1.1127684307110560E-002   1.3235823594839588E-002   0.0000000000000000     
   1.3035087413619743E-002   1.6563818732908128E-002   0.0000000000000000     
   1.4951699095331868E-002   2.0172486635532248E-002   0.0000000000000000     
   2.4624411520217153E-002   2.2824685764119626E-002   0.0000000000000000     
   2.7528637496956884E-002   2.6673064729514018E-002   0.0000000000000000     
   3.0358446985110386E-002   3.0738032088272929E-002   0.0000000000000000     
   3.3113839984677651E-002   3.5019587840396355E-002   0.0000000000000000     
   3.5794816495658695E-002   3.9517731985884305E-002   0.0000000000000000     
   2.1960221508497985E-002   2.2003486298672183E-002   0.0000000000000000     
   2.4625911650320100E-002   2.5880619821783437E-002   0.0000000000000000     
   2.7221001833050151E-002   2.9968339342042773E-002   0.0000000000000000     
   2.9745492056688125E-002   3.4266644859450204E-002   0.0000000000000000     
   3.2199382321234038E-002   3.8775536374005715E-002   0.0000000000000000     
   1.9460039433777380E-002   2.1287719955425142E-002   0.0000000000000000     
   2.1878913193706245E-002   2.5176487007002851E-002   0.0000000000000000     
   2.4233923047772766E-002   2.9274963436714919E-002   0.0000000000000000     
   2.6525068995976935E-002   3.3583149244561350E-002   0.0000000000000000     
   2.8752351038318743E-002   3.8101044430542144E-002   0.0000000000000000     
   1.7123865296055338E-002   2.0677386734378498E-002   0.0000000000000000     
   1.9287642127115326E-002   2.4560666285172263E-002   0.0000000000000000     
   2.1397210629278237E-002   2.8657904372289364E-002   0.0000000000000000     
   2.3452570802544061E-002   3.2969100995729805E-002   0.0000000000000000     
   2.5453722646912820E-002   3.7494256155493587E-002   0.0000000000000000     
   1.4951699095331868E-002   2.0172486635532248E-002   0.0000000000000000     
   1.6852098450547338E-002   2.4033157656291666E-002   0.0000000000000000     
   1.8710864577566561E-002   2.8117162148766108E-002   0.0000000000000000     
   2.0527997476389535E-002   3.2424500112955564E-002   0.0000000000000000     
   2.2303497147016255E-002   3.6955171548860043E-002   0.0000000000000000     
   3.5794816495658695E-002   3.9517731985884305E-002   0.0000000000000000     
   3.8400887611197976E-002   4.4222873812386931E-002   0.0000000000000000     
   4.0931564424439952E-002   4.9125422607554405E-002   0.0000000000000000     
   4.3386846935384624E-002   5.4225378371386718E-002   0.0000000000000000     
   4.5766735144031991E-002   5.9522741103883871E-002   0.0000000000000000     
   3.2199382321234038E-002   3.8775536374005715E-002   0.0000000000000000     
   3.4584718731103782E-002   4.3490551905076003E-002   0.0000000000000000     
   3.6903547390713283E-002   4.8407229472027767E-002   0.0000000000000000     
   3.9155868300062520E-002   5.3525569074860994E-002   0.0000000000000000     
   4.1341681459151507E-002   5.8845570713575691E-002   0.0000000000000000     
   2.8752351038318743E-002   3.8101044430542144E-002   0.0000000000000000     
   3.0918304879478917E-002   4.2826072059518668E-002   0.0000000000000000     
   3.3025466224138170E-002   4.7755655196352276E-002   0.0000000000000000     
   3.5073835072296500E-002   5.2889793841042990E-002   0.0000000000000000     
   3.7063411423953897E-002   5.8228487993590802E-002   0.0000000000000000     
   2.5453722646912820E-002   3.7494256155493587E-002   0.0000000000000000     
   2.7401646056323375E-002   4.2229434275714899E-002   0.0000000000000000     
   2.9297320924714609E-002   4.7170699780527951E-002   0.0000000000000000     
   3.1140747252086546E-002   5.2318052669932717E-002   0.0000000000000000     
   3.2931925038439155E-002   5.7671492943929217E-002   0.0000000000000000     
   2.2303497147016255E-002   3.6955171548860043E-002   0.0000000000000000     
   2.4034742261637144E-002   4.1700638553664710E-002   0.0000000000000000     
   2.5719111492442610E-002   4.6652363224554752E-002   0.0000000000000000     
   2.7356604839432662E-002   5.1810345561530156E-002   0.0000000000000000     
   2.8947222302607292E-002   5.7174585564590923E-002   0.0000000000000000     
   4.5766735144031991E-002   5.9522741103883871E-002   0.0000000000000000     
   4.8073888861183946E-002   6.5009788722880116E-002   0.0000000000000000     
   5.0310967897642389E-002   7.0678799146209656E-002   0.0000000000000000     
   5.2477972253407307E-002   7.6529772373872540E-002   0.0000000000000000     
   5.4574901928478713E-002   8.2562708405868726E-002   0.0000000000000000     
   4.1341681459151507E-002   5.8845570713575691E-002   0.0000000000000000     
   4.3460977346342897E-002   6.4356683884497320E-002   0.0000000000000000     
   4.5513746439999357E-002   7.0048358083951281E-002   0.0000000000000000     
   4.7499988740120867E-002   7.5920593311937623E-002   0.0000000000000000     
   4.9419704246707448E-002   8.1973389568456317E-002   0.0000000000000000     
   3.7063411423953897E-002   5.8228487993590802E-002   0.0000000000000000     
   3.8992877563887314E-002   6.3759570869189638E-002   0.0000000000000000     
   4.0860915776873681E-002   6.9470875683033409E-002   0.0000000000000000     
   4.2667526062913012E-002   7.5362402435122128E-002   0.0000000000000000     
   4.4412708422005280E-002   8.1434151125455809E-002   0.0000000000000000     
   3.2931925038439155E-002   5.7671492943929217E-002   0.0000000000000000     
   3.4669589513817205E-002   6.3218449676957125E-002   0.0000000000000000     
   3.6352475908265382E-002   6.8946351943456066E-002   0.0000000000000000     
   3.7980584221783728E-002   7.4855199743426068E-002   0.0000000000000000     
   3.9553914454372209E-002   8.0944993076867131E-002   0.0000000000000000     
   2.8947222302607292E-002   5.7174585564590923E-002   0.0000000000000000     
   3.0491113196132541E-002   6.2733320307799725E-002   0.0000000000000000     
   3.1988426834174445E-002   6.8474786865219239E-002   0.0000000000000000     
   3.3439163216733007E-002   7.4398985236849430E-002   0.0000000000000000     
   3.4843322343808228E-002   8.0505915422690338E-002   0.0000000000000000     
   5.4574901928478713E-002   8.2562708405868726E-002   0.0000000000000000     
   5.6596490308911389E-002   8.8765582685719130E-002   0.0000000000000000     
   5.8537470780760111E-002   9.5126370656944764E-002   0.0000000000000000     
   6.0397843344024892E-002  0.10164507231954556        0.0000000000000000     
   6.2177607998705732E-002  0.10832168767352157        0.0000000000000000     
   4.9419704246707448E-002   8.1973389568456317E-002   0.0000000000000000     
   5.1270497479053032E-002   8.8195992705135659E-002   0.0000000000000000     
   5.3049972956451585E-002   9.4577648573603942E-002   0.0000000000000000     
   5.4758130678903089E-002  0.10111835717386114        0.0000000000000000     
   5.6394970646407555E-002  0.10781811850590722        0.0000000000000000     
   4.4412708422005280E-002   8.1434151125455809E-002   0.0000000000000000     
   4.6094962277677919E-002   8.7675780584301394E-002   0.0000000000000000     
   4.7712787053458341E-002   9.4076949641925922E-002   0.0000000000000000     
   4.9266182749346528E-002  0.10063765829832941        0.0000000000000000     
   5.0755149365342499E-002  0.10735790655351182        0.0000000000000000     
   3.9553914454372209E-002   8.0944993076867131E-002   0.0000000000000000     
   4.1069884704786022E-002   8.7204946323216334E-002   0.0000000000000000     
   4.2525913071780358E-002   9.3624273861910773E-002   0.0000000000000000     
   4.3921999555355203E-002  0.10020297569295045        0.0000000000000000     
   4.5258144155510570E-002  0.10694105181633536        0.0000000000000000     
   3.4843322343808228E-002   8.0505915422690338E-002   0.0000000000000000     
   3.6195264760377363E-002   8.6783489921880480E-002   0.0000000000000000     
   3.7489351011417656E-002   9.3219621233558453E-002   0.0000000000000000     
   3.8725581096929126E-002   9.9814309357724243E-002   0.0000000000000000     
   3.9903955016911755E-002  0.10656755429437785        0.0000000000000000     
   6.2177607998705732E-002  0.10832168767352157        0.0000000000000000     
   6.3886308426982341E-002  0.11514432134166984        0.0000000000000000     
   6.5533488311034463E-002  0.12210107794678744        0.0000000000000000     
   6.7119147650862077E-002  0.12919195748887438        0.0000000000000000     
   6.8643286446465196E-002  0.13641695996793068        0.0000000000000000     
   5.6394970646407555E-002  0.10781811850590722        0.0000000000000000     
   5.7964993240369106E-002  0.11466387688737575        0.0000000000000000     
   5.9472698842191855E-002  0.12164257663590029        0.0000000000000000     
   6.0918087451875838E-002  0.12875421775148074        0.0000000000000000     
   6.2301159069421019E-002  0.13599880023411720        0.0000000000000000     
   5.0755149365342499E-002  0.10735790655351182        0.0000000000000000     
   5.2182535719323180E-002  0.11422431582114342        0.0000000000000000     
   5.3551190629165489E-002  0.12122350751489443        0.0000000000000000     
   5.4861114094869441E-002  0.12835548163476490        0.0000000000000000     
   5.6112306116435043E-002  0.13562023818075478        0.0000000000000000     
   4.5258144155510570E-002  0.10694105181633536        0.0000000000000000     
   4.6538935863844569E-002  0.11382563814297275        0.0000000000000000     
   4.7768963671955350E-002  0.12084387058376991        0.0000000000000000     
   4.8948227579842921E-002  0.12799574913872677        0.0000000000000000     
   5.0076727587507260E-002  0.13528127380784341        0.0000000000000000     
   3.9903955016911755E-002  0.10656755429437785        0.0000000000000000     
   4.1034193673933281E-002  0.11346784385286382        0.0000000000000000     
   4.2126017970561452E-002  0.12050366584252668        0.0000000000000000     
   4.3179427906796235E-002  0.12767502026336644        0.0000000000000000     
   4.4194423482637669E-002  0.13498190711538310        0.0000000000000000     
   6.8643286446465196E-002  0.13641695996793068        0.0000000000000000     
   7.0090801019944859E-002  0.14376645731537793        0.0000000000000000     
   7.1446587693402092E-002  0.15123082146263786        0.0000000000000000     
   7.2710646466836892E-002  0.15881005240971044        0.0000000000000000     
   7.3882977340249262E-002  0.16650415015659564        0.0000000000000000     
   6.2301159069421019E-002  0.13599880023411720        0.0000000000000000     
   6.3615228444886568E-002  0.14336993317375321        0.0000000000000000     
   6.4853610328331562E-002  0.15086122566033244        0.0000000000000000     
   6.6016304719756058E-002  0.15847267769385481        0.0000000000000000     
   6.7103311619160014E-002  0.16620428927432040        0.0000000000000000     
   5.6112306116435043E-002  0.13562023818075478        0.0000000000000000     
   5.7300553610423972E-002  0.14301211400415606        0.0000000000000000     
   5.8421643493397922E-002  0.15052544595626069        0.0000000000000000     
   5.9475575765356892E-002  0.15816023403706869        0.0000000000000000     
   6.0462350426300882E-002  0.16591647824658001        0.0000000000000000     
   5.0076727587507260E-002  0.13528127380784341        0.0000000000000000     
   5.1146776516557087E-002  0.14269299980658648        0.0000000000000000     
   5.2150687188601136E-002  0.15022348235042271        0.0000000000000000     
   5.3088459603639386E-002  0.15787272143935208        0.0000000000000000     
   5.3960093761671851E-002  0.16564071707337452        0.0000000000000000     
   4.4194423482637669E-002  0.13498190711538310        0.0000000000000000     
   4.5153897163285925E-002  0.14241259058104447        0.0000000000000000     
   4.6040741413941232E-002  0.14995533484281839        0.0000000000000000     
   4.6854956234603555E-002  0.15761013990070488        0.0000000000000000     
   4.7596541625272930E-002  0.16537700575470390        0.0000000000000000     
   0.0000000000000000        0.0000000000000000        0.0000000000000000     
   1.7981841697428274E-003   1.2773251604018573E-003   0.0000000000000000     
   3.6209961962739403E-003   2.9400754825973517E-003   0.0000000000000000     
   5.4684360795933399E-003   4.9882509665864832E-003   0.0000000000000000     
   7.3405038197010240E-003   7.4218516123692509E-003   0.0000000000000000     
   0.0000000000000000        0.0000000000000000        0.0000000000000000     
   1.5349511226612910E-003   1.2181501676885378E-003   0.0000000000000000     
   3.0991608778948043E-003   2.8219708666863052E-003   0.0000000000000000     
   4.6926292657005391E-003   4.8114620969933004E-003   0.0000000000000000     
   6.3153562860784971E-003   7.1866238586095268E-003   0.0000000000000000     
   0.0000000000000000        0.0000000000000000        0.0000000000000000     
   1.2878191852927175E-003   1.1706236797433608E-003   0.0000000000000000     
   2.6054647550268228E-003   2.7257943307042003E-003   0.0000000000000000     
   3.9529367092023156E-003   4.6655119528825201E-003   0.0000000000000000     
   5.3302350478191957E-003   6.9897765462783182E-003   0.0000000000000000     
   0.0000000000000000        0.0000000000000000        0.0000000000000000     
   1.0567883576371078E-003   1.1347456965663260E-003   0.0000000000000000     
   2.1399078276699967E-003   2.6515458746510403E-003   0.0000000000000000     
   3.2493584100986663E-003   4.5504005342541414E-003   0.0000000000000000     
   4.3851401049231171E-003   6.8313096753756311E-003   0.0000000000000000     
   0.0000000000000000        0.0000000000000000        0.0000000000000000     
   8.4185863969446191E-004   1.1105162181574342E-003   0.0000000000000000     
   1.7024900958243260E-003   2.5992254985268224E-003   0.0000000000000000     
   2.5818943683895926E-003   4.4661278411081643E-003   0.0000000000000000     
   3.4800714573902610E-003   6.7112232459014612E-003   0.0000000000000000     
   7.3405038197010240E-003   7.4218516123692509E-003   0.0000000000000000     
   9.2294897758043205E-003   1.0188501221326630E-002   0.0000000000000000     
   1.1127684307110560E-002   1.3235823594839588E-002   0.0000000000000000     
   1.3035087413619743E-002   1.6563818732908128E-002   0.0000000000000000     
   1.4951699095331868E-002   2.0172486635532248E-002   0.0000000000000000     
   6.3153562860784971E-003   7.1866238586095268E-003   0.0000000000000000     
   7.9546082409097160E-003   9.8979768393730773E-003   0.0000000000000000     
   9.5976514320752337E-003   1.2896041727122054E-002   0.0000000000000000     
   1.1244485859575049E-002   1.6180818521856460E-002   0.0000000000000000     
   1.2895111523409161E-002   1.9752307223576290E-002   0.0000000000000000     
   5.3302350478191957E-003   6.9897765462783182E-003   0.0000000000000000     
   6.7228585849642671E-003   9.6525775753393602E-003   0.0000000000000000     
   8.1163061347243274E-003   1.2607904504513408E-002   0.0000000000000000     
   9.5105776970993792E-003   1.5855757333800461E-002   0.0000000000000000     
   1.0905673272089422E-002   1.9396136063200529E-002   0.0000000000000000     
   4.3851401049231171E-003   6.8313096753756311E-003   0.0000000000000000     
   5.5342408079679687E-003   9.4523034292254750E-003   0.0000000000000000     
   6.6836484150578400E-003   1.2371411927013643E-002   0.0000000000000000     
   7.8333629261927336E-003   1.5588635168740135E-002   0.0000000000000000     
   8.9833843413726442E-003   1.9103973154404947E-002   0.0000000000000000     
   3.4800714573902610E-003   6.7112232459014612E-003   0.0000000000000000     
   4.3887549099208244E-003   9.2971544010314235E-003   0.0000000000000000     
   5.2996782730757750E-003   1.2186563994622760E-002   0.0000000000000000     
   6.2128415468551109E-003   1.5379452026675473E-002   0.0000000000000000     
   7.1282447312588362E-003   1.8875818497189563E-002   0.0000000000000000     
   1.4951699095331868E-002   2.0172486635532248E-002   0.0000000000000000     
   1.6852098450547338E-002   2.4033157656291666E-002   0.0000000000000000     
   1.8710864577566561E-002   2.8117162148766108E-002   0.0000000000000000     
   2.0527997476389535E-002   3.2424500112955564E-002   0.0000000000000000     
   2.2303497147016255E-002   3.6955171548860043E-002   0.0000000000000000     
   1.2895111523409161E-002   1.9752307223576290E-002   0.0000000000000000     
   1.4533027033471653E-002   2.3584203771821622E-002   0.0000000000000000     
   1.6141730999656590E-002   2.7650204106132517E-002   0.0000000000000000     
   1.7721223421963993E-002   3.1950308226508996E-002   0.0000000000000000     
   1.9271504300393847E-002   3.6484516132951027E-002   0.0000000000000000     
   1.0905673272089422E-002   1.9396136063200529E-002   0.0000000000000000     
   1.2291172745357633E-002   2.3204047283222669E-002   0.0000000000000000     
   1.3656656002567194E-002   2.7254497584375974E-002   0.0000000000000000     
   1.5002123043718106E-002   3.1547486966660439E-002   0.0000000000000000     
   1.6327573868810365E-002   3.6083015430076061E-002   0.0000000000000000     
   8.9833843413726442E-003   1.9103973154404947E-002   0.0000000000000000     
   1.0126535586205285E-002   2.2892688190494816E-002   0.0000000000000000     
   1.1255639586298364E-002   2.6930042583496471E-002   0.0000000000000000     
   1.2370696341651874E-002   3.1216036333409913E-002   0.0000000000000000     
   1.3471705852265819E-002   3.5750669440235139E-002   0.0000000000000000     
   7.1282447312588362E-003   1.8875818497189563E-002   0.0000000000000000     
   8.0391155560146105E-003   2.2650126493638064E-002   0.0000000000000000     
   8.9386817508500978E-003   2.6676839103494013E-002   0.0000000000000000     
   9.8269433157652936E-003   3.0955956326757406E-002   0.0000000000000000     
   1.0703900250760205E-002   3.5487478163428260E-002   0.0000000000000000     
   2.2303497147016255E-002   3.6955171548860043E-002   0.0000000000000000     
   2.4034742261637144E-002   4.1700638553664710E-002   0.0000000000000000     
   2.5719111492442610E-002   4.6652363224554752E-002   0.0000000000000000     
   2.7356604839432662E-002   5.1810345561530156E-002   0.0000000000000000     
   2.8947222302607292E-002   5.7174585564590923E-002   0.0000000000000000     
   1.9271504300393847E-002   3.6484516132951027E-002   0.0000000000000000     
   2.0786205860345783E-002   4.1238819854212724E-002   0.0000000000000000     
   2.2258960327219437E-002   4.6199211419048168E-002   0.0000000000000000     
   2.3689767701014809E-002   5.1365690827457351E-002   0.0000000000000000     
   2.5078627981731893E-002   5.6738258079440274E-002   0.0000000000000000     
   1.6327573868810365E-002   3.6083015430076061E-002   0.0000000000000000     
   1.7624649217374829E-002   4.0843113138203560E-002   0.0000000000000000     
   1.8884989828942350E-002   4.5809810254623648E-002   0.0000000000000000     
   2.0108595703512928E-002   5.0983106779336325E-002   0.0000000000000000     
   2.1295466841086561E-002   5.6363002712341591E-002   0.0000000000000000     
   1.3471705852265819E-002   3.5750669440235139E-002   0.0000000000000000     
   1.4550072332724285E-002   4.0513518405637210E-002   0.0000000000000000     
   1.5597199997611354E-002   4.5484159731281198E-002   0.0000000000000000     
   1.6613088846927027E-002   5.0662593417167098E-002   0.0000000000000000     
   1.7597738880671301E-002   5.6048819463294902E-002   0.0000000000000000     
   1.0703900250760205E-002   3.5487478163428260E-002   0.0000000000000000     
   1.1562475206394149E-002   4.0250035656513673E-002   0.0000000000000000     
   1.2395590833226448E-002   4.5222259849020799E-002   0.0000000000000000     
   1.3203247131257098E-002   5.0404150740949637E-002   0.0000000000000000     
   1.3985444100486105E-002   5.5795708332300180E-002   0.0000000000000000     
   2.8947222302607292E-002   5.7174585564590923E-002   0.0000000000000000     
   3.0491113196132541E-002   6.2733320307799725E-002   0.0000000000000000     
   3.1988426834174445E-002   6.8474786865219239E-002   0.0000000000000000     
   3.3439163216733007E-002   7.4398985236849430E-002   0.0000000000000000     
   3.4843322343808228E-002   8.0505915422690338E-002   0.0000000000000000     
   2.5078627981731893E-002   5.6738258079440274E-002   0.0000000000000000     
   2.6427375782848306E-002   6.2306263628460694E-002   0.0000000000000000     
   2.7737845717841676E-002   6.8059057927982364E-002   0.0000000000000000     
   2.9010037786711993E-002   7.3996640978005263E-002   0.0000000000000000     
   3.0243951989459256E-002   8.0119012778529453E-002   0.0000000000000000     
   2.1295466841086561E-002   5.6363002712341591E-002   0.0000000000000000     
   2.2448304445979474E-002   6.1939360505683203E-002   0.0000000000000000     
   2.3569809722507881E-002   6.7702042611404903E-002   0.0000000000000000     
   2.4659982670671793E-002   7.3651049029506657E-002   0.0000000000000000     
   2.5718823290471194E-002   7.9786379759988521E-002   0.0000000000000000     
   1.7597738880671301E-002   5.6048819463294902E-002   0.0000000000000000     
   1.8553899185526031E-002   6.1632610939467265E-002   0.0000000000000000     
   1.9484318848173064E-002   6.7403740915486829E-002   0.0000000000000000     
   2.0388997868612407E-002   7.3362209391353600E-002   0.0000000000000000     
   2.1267936246844050E-002   7.9508016367067585E-002   0.0000000000000000     
   1.3985444100486105E-002   5.5795708332300180E-002   0.0000000000000000     
   1.4744160001487976E-002   6.1386014929812882E-002   0.0000000000000000     
   1.5481373094837212E-002   6.7164152840228183E-002   0.0000000000000000     
   1.6197083380533828E-002   7.3130122063546091E-002   0.0000000000000000     
   1.6891290858577813E-002   7.9283922599766604E-002   0.0000000000000000     
   3.4843322343808228E-002   8.0505915422690338E-002   0.0000000000000000     
   3.6195264760377363E-002   8.6783489921880480E-002   0.0000000000000000     
   3.7489351011417656E-002   9.3219621233558453E-002   0.0000000000000000     
   3.8725581096929126E-002   9.9814309357724243E-002   0.0000000000000000     
   3.9903955016911755E-002  0.10656755429437785        0.0000000000000000     
   3.0243951989459256E-002   8.0119012778529453E-002   0.0000000000000000     
   3.1430967890118469E-002   8.6412666773295607E-002   0.0000000000000000     
   3.2562465052724608E-002   9.2864096406044538E-002   0.0000000000000000     
   3.3638443477277701E-002   9.9473301676776191E-002   0.0000000000000000     
   3.4658903163777705E-002  0.10624028258549062        0.0000000000000000     
   2.5718823290471194E-002   7.9786379759988521E-002   0.0000000000000000     
   2.6736859539675868E-002   8.6093732270463491E-002   0.0000000000000000     
   2.7704619376055572E-002   9.2558804028544536E-002   0.0000000000000000     
   2.8622102799610308E-002   9.9181595034231712E-002   0.0000000000000000     
   2.9489309810340071E-002  0.10596210528752496        0.0000000000000000     
   2.1267936246844050E-002   7.9508016367067585E-002   0.0000000000000000     
   2.2112939709049571E-002   8.5826686413384104E-002   0.0000000000000000     
   2.2915813981410547E-002   9.2303744101058502E-002   0.0000000000000000     
   2.3676559063926968E-002   9.8939189430090738E-002   0.0000000000000000     
   2.4395174956598840E-002  0.10573302240048091        0.0000000000000000     
   1.6891290858577813E-002   7.9283922599766604E-002   0.0000000000000000     
   1.7559208398239576E-002   8.5611529202057460E-002   0.0000000000000000     
   1.8196048868789533E-002   9.2098916623586394E-002   0.0000000000000000     
   1.8801812270227682E-002   9.8746084864353365E-002   0.0000000000000000     
   1.9376498602554020E-002  0.10555303392435843        0.0000000000000000     
   3.9903955016911755E-002  0.10656755429437785        0.0000000000000000     
   4.1034193673933281E-002  0.11346784385286382        0.0000000000000000     
   4.2126017970561452E-002  0.12050366584252668        0.0000000000000000     
   4.3179427906796235E-002  0.12767502026336644        0.0000000000000000     
   4.4194423482637669E-002  0.13498190711538310        0.0000000000000000     
   3.4658903163777705E-002  0.10624028258549062        0.0000000000000000     
   3.5638383532334207E-002  0.11315463637666076        0.0000000000000000     
   3.6591424003056705E-002  0.12020596029475956        0.0000000000000000     
   3.7518024575945226E-002  0.12739425433978707        0.0000000000000000     
   3.8418185250999756E-002  0.13471951851174321        0.0000000000000000     
   2.9489309810340071E-002  0.10596210528752496        0.0000000000000000     
   3.0321579821792222E-002  0.11288971914020773        0.0000000000000000     
   3.1134252247514090E-002  0.11995382094406333        0.0000000000000000     
   3.1927327087505689E-002  0.12715441069909181        0.0000000000000000     
   3.2700804341767017E-002  0.13449148840529315        0.0000000000000000     
   2.4395174956598840E-002  0.10573302240048091        0.0000000000000000     
   2.5083782542307326E-002  0.11267309214350471        0.0000000000000000     
   2.5754502703933587E-002  0.11974724779043799        0.0000000000000000     
   2.6407335441477629E-002  0.12695548934128076        0.0000000000000000     
   2.7042280754939443E-002  0.13429781679603292        0.0000000000000000     
   1.9376498602554020E-002  0.10555303392435843        0.0000000000000000     
   1.9924991693879533E-002  0.11250475538655176        0.0000000000000000     
   2.0452175372315209E-002  0.11958624083388353        0.0000000000000000     
   2.0958049637861045E-002  0.12679749026635381        0.0000000000000000     
   2.1442614490517039E-002  0.13413850368396249        0.0000000000000000     
   4.4194423482637669E-002  0.13498190711538310        0.0000000000000000     
   4.5153897163285925E-002  0.14241259058104447        0.0000000000000000     
   4.6040741413941232E-002  0.14995533484281839        0.0000000000000000     
   4.6854956234603555E-002  0.15761013990070488        0.0000000000000000     
   4.7596541625272930E-002  0.16537700575470390        0.0000000000000000     
   3.8418185250999756E-002  0.13471951851174321        0.0000000000000000     
   3.9266426537354661E-002  0.14216762991510870        0.0000000000000000     
   4.0037268944144298E-002  0.14972446565436420        0.0000000000000000     
   4.0730712471368662E-002  0.15739002572950969        0.0000000000000000     
   4.1346757119027758E-002  0.16516431014054511        0.0000000000000000     
   3.2700804341767017E-002  0.13449148840529315        0.0000000000000000     
   3.3428875625507469E-002  0.14195486139635788        0.0000000000000000     
   3.4085732553936446E-002  0.14953433700597643        0.0000000000000000     
   3.4671375127053962E-002  0.15722991523414886        0.0000000000000000     
   3.5185803344859989E-002  0.16504159608087515        0.0000000000000000     
   2.7042280754939443E-002  0.13429781679603292        0.0000000000000000     
   2.7641244427744356E-002  0.14177428502479192        0.0000000000000000     
   2.8186132243317695E-002  0.14938494889765511        0.0000000000000000     
   2.8676944201659452E-002  0.15712980841462248        0.0000000000000000     
   2.9113680302769632E-002  0.16500886357569405        0.0000000000000000     
   2.1442614490517039E-002  0.13413850368396249        0.0000000000000000     
   2.1903532944065326E-002  0.14162590080041090        0.0000000000000000     
   2.2338468012288025E-002  0.14927630132940020        0.0000000000000000     
   2.2747419695185140E-002  0.15708970527093052        0.0000000000000000     
   2.3130387992756671E-002  0.16506611262500170        0.0000000000000000     
   0.0000000000000000        0.0000000000000000        0.0000000000000000     
   8.4185863969446191E-004   1.1105162181574342E-003   0.0000000000000000     
   1.7024900958243260E-003   2.5992254985268224E-003   0.0000000000000000     
   2.5818943683895926E-003   4.4661278411081643E-003   0.0000000000000000     
   3.4800714573902610E-003   6.7112232459014612E-003   0.0000000000000000     
   0.0000000000000000        0.0000000000000000        0.0000000000000000     
   6.3411118676519481E-004   1.0943915184470270E-003   0.0000000000000000     
   1.2786384637217818E-003   2.5629916801135598E-003   0.0000000000000000     
   1.9335818308697608E-003   4.4058004849995992E-003   0.0000000000000000     
   2.5989412882091324E-003   6.6228179331051440E-003   0.0000000000000000     
   0.0000000000000000        0.0000000000000000        0.0000000000000000     
   4.2462715414972165E-004   1.0828278713654468E-003   0.0000000000000000     
   8.5377983559433432E-004   2.5370028971932646E-003   0.0000000000000000     
   1.2874580443338380E-003   4.3625250774834519E-003   0.0000000000000000     
   1.7256617803682334E-003   6.5593944122360097E-003   0.0000000000000000     
   0.0000000000000000        0.0000000000000000        0.0000000000000000     
   2.1340654184804237E-004   1.0758252769126940E-003   0.0000000000000000     
   4.2791421144198398E-004   2.5212591497659354E-003   0.0000000000000000     
   6.4352300878182500E-004   4.3363016185597250E-003   0.0000000000000000     
   8.6023293386756515E-004   6.5209526832940585E-003   0.0000000000000000     
   0.0000000000000000        0.0000000000000000        0.0000000000000000     
   4.4934986015708915E-007   1.0733837350887685E-003   0.0000000000000000     
   1.0415912647307175E-006   2.5157604378315736E-003   0.0000000000000000     
   1.7767242137208309E-006   4.3271301082284143E-003   0.0000000000000000     
   2.6547487071275106E-006   6.5074927462792920E-003   0.0000000000000000     
   3.4800714573902610E-003   6.7112232459014612E-003   0.0000000000000000     
   4.3887549099208244E-003   9.2971544010314235E-003   0.0000000000000000     
   5.2996782730757750E-003   1.2186563994622760E-002   0.0000000000000000     
   6.2128415468551109E-003   1.5379452026675473E-002   0.0000000000000000     
   7.1282447312588362E-003   1.8875818497189563E-002   0.0000000000000000     
   2.5989412882091324E-003   6.6228179331051440E-003   0.0000000000000000     
   3.2717558102517601E-003   9.1809765279738925E-003   0.0000000000000000     
   3.9490643715095119E-003   1.2047208773149538E-002   0.0000000000000000     
   4.6308669719823852E-003   1.5221514668632084E-002   0.0000000000000000     
   5.3171636116703816E-003   1.8703894214421531E-002   0.0000000000000000     
   1.7256617803682334E-003   6.5593944122360097E-003   0.0000000000000000     
   2.1685984283897038E-003   9.0976158472695686E-003   0.0000000000000000     
   2.6164753730904332E-003   1.1947194328402752E-002   0.0000000000000000     
   3.0692926144704224E-003   1.5108129855635572E-002   0.0000000000000000     
   3.5270501525296698E-003   1.8580422428968010E-002   0.0000000000000000     
   8.6023293386756515E-004   6.5209526832940585E-003   0.0000000000000000     
   1.0792827643346535E-003   9.0470723589184537E-003   0.0000000000000000     
   1.3019112778185390E-003   1.1886520660382408E-002   0.0000000000000000     
   1.5281184743192217E-003   1.5039297587685933E-002   0.0000000000000000     
   1.7579043538367011E-003   1.8505403140829015E-002   0.0000000000000000     
   2.6547487071275106E-006   6.5074927462792920E-003   0.0000000000000000     
   3.8088180866104867E-006   9.0293460629205409E-003   0.0000000000000000     
   5.3720856938293336E-006   1.1865187769088497E-002   0.0000000000000000     
   7.3445515287843714E-006   1.5015017864783160E-002   0.0000000000000000     
   9.7262155914756019E-006   1.8478836350004531E-002   0.0000000000000000     
   7.1282447312588362E-003   1.8875818497189563E-002   0.0000000000000000     
   8.0391155560146105E-003   2.2650126493638064E-002   0.0000000000000000     
   8.9386817508500978E-003   2.6676839103494013E-002   0.0000000000000000     
   9.8269433157652936E-003   3.0955956326757406E-002   0.0000000000000000     
   1.0703900250760205E-002   3.5487478163428260E-002   0.0000000000000000     
   5.3171636116703816E-003   1.8703894214421531E-002   0.0000000000000000     
   6.0008615144324434E-003   2.2467615980687521E-002   0.0000000000000000     
   6.6748679041275134E-003   2.6485948537599724E-002   0.0000000000000000     
   7.3391827807555935E-003   3.0758891885158120E-002   0.0000000000000000     
   7.9938061443166810E-003   3.5286446023362721E-002   0.0000000000000000     
   3.5270501525296698E-003   1.8580422428968010E-002   0.0000000000000000     
   3.9837223211056233E-003   2.2336410439678323E-002   0.0000000000000000     
   4.4332834540357314E-003   2.6348432279044730E-002   0.0000000000000000     
   4.8757335513199915E-003   3.0616487947067231E-002   0.0000000000000000     
   5.3110726129584054E-003   3.5140577443745831E-002   0.0000000000000000     
   1.7579043538367011E-003   1.8505403140829015E-002   0.0000000000000000     
   1.9876979760341520E-003   2.2256509870610449E-002   0.0000000000000000     
   2.2139284005747474E-003   2.6264290327829030E-002   0.0000000000000000     
   2.4365956274584894E-003   3.0528744512484742E-002   0.0000000000000000     
   2.6556996566853754E-003   3.5049872424577591E-002   0.0000000000000000     
   9.7262155914756019E-006   1.8478836350004531E-002   0.0000000000000000     
   1.2788479218026874E-005   2.2227914273483917E-002   0.0000000000000000     
   1.6802743744564016E-005   2.6233522683952626E-002   0.0000000000000000     
   2.1769009171085706E-005   3.0495661581410656E-002   0.0000000000000000     
   2.7687275497592818E-005   3.5014330965858008E-002   0.0000000000000000     
   1.0703900250760205E-002   3.5487478163428260E-002   0.0000000000000000     
   1.1562475206394149E-002   4.0250035656513673E-002   0.0000000000000000     
   1.2395590833226448E-002   4.5222259849020799E-002   0.0000000000000000     
   1.3203247131257098E-002   5.0404150740949637E-002   0.0000000000000000     
   1.3985444100486105E-002   5.5795708332300180E-002   0.0000000000000000     
   7.9938061443166810E-003   3.5286446023362721E-002   0.0000000000000000     
   8.6340437470931626E-003   4.0047092112543668E-002   0.0000000000000000     
   9.2552013413674163E-003   4.5019311313031107E-002   0.0000000000000000     
   9.8572789271394491E-003   5.0203103624825038E-002   0.0000000000000000     
   1.0440276504409252E-002   5.5598469047925467E-002   0.0000000000000000     
   5.3110726129584054E-003   3.5140577443745831E-002   0.0000000000000000     
   5.7369638635300611E-003   3.9899114995437884E-002   0.0000000000000000     
   6.1510705276140477E-003   4.4870514828500720E-002   0.0000000000000000     
   6.5533926052103678E-003   5.0054776942934358E-002   0.0000000000000000     
   6.9439300963190197E-003   5.5451901338738778E-002   0.0000000000000000     
   2.6556996566853754E-003   3.5049872424577591E-002   0.0000000000000000     
   2.8712355557048465E-003   3.9806104305196321E-002   0.0000000000000000     
   3.0831983919663414E-003   4.4775870395429664E-002   0.0000000000000000     
   3.2915881654698607E-003   4.9959170695277597E-002   0.0000000000000000     
   3.4964048762154039E-003   5.5356005204740141E-002   0.0000000000000000     
   2.7687275497592818E-005   3.5014330965858008E-002   0.0000000000000000     
   3.6858823617518335E-005   3.9768060041818994E-002   0.0000000000000000     
   5.1584934424295779E-005   4.4735378013817897E-002   0.0000000000000000     
   7.1865607917925069E-005   4.9916284881854754E-002   0.0000000000000000     
   9.7700844098406450E-005   5.5310780645929522E-002   0.0000000000000000     
   1.3985444100486105E-002   5.5795708332300180E-002   0.0000000000000000     
   1.4744160001487976E-002   6.1386014929812882E-002   0.0000000000000000     
   1.5481373094837212E-002   6.7164152840228183E-002   0.0000000000000000     
   1.6197083380533828E-002   7.3130122063546091E-002   0.0000000000000000     
   1.6891290858577813E-002   7.9283922599766604E-002   0.0000000000000000     
   1.0440276504409252E-002   5.5598469047925467E-002   0.0000000000000000     
   1.1004892539335506E-002   6.1193654336814805E-002   0.0000000000000000     
   1.1551825498076882E-002   6.6976906245975465E-002   0.0000000000000000     
   1.2081075380633376E-002   7.2948224775407466E-002   0.0000000000000000     
   1.2592642187004994E-002   7.9107609925110803E-002   0.0000000000000000     
   6.9439300963190197E-003   5.5451901338738778E-002   0.0000000000000000     
   7.3219024445388249E-003   6.1049611020567815E-002   0.0000000000000000     
   7.6865290934686080E-003   6.6835628993075283E-002   0.0000000000000000     
   8.0378100431083687E-003   7.2809955256261105E-002   0.0000000000000000     
   8.3757452934581055E-003   7.8972589810125393E-002   0.0000000000000000     
   3.4964048762154039E-003   5.5356005204740141E-002   0.0000000000000000     
   3.6951897170979290E-003   6.0953884981071918E-002   0.0000000000000000     
   3.8854838810123949E-003   6.6740321081527526E-002   0.0000000000000000     
   4.0672873679587999E-003   7.2715313506107021E-002   0.0000000000000000     
   4.2406001779371448E-003   7.8878862254810361E-002   0.0000000000000000     
   9.7700844098406450E-005   5.5310780645929522E-002   0.0000000000000000     
   1.2475435701281810E-004   6.0906476218327094E-002   0.0000000000000000     
   1.4868986070824060E-004   6.6690982511332320E-002   0.0000000000000000     
   1.6950735518467182E-004   7.2664299524945200E-002   0.0000000000000000     
   1.8720684044211291E-004   7.8826427259165721E-002   0.0000000000000000     
   1.6891290858577813E-002   7.9283922599766604E-002   0.0000000000000000     
   1.7559208398239576E-002   8.5611529202057460E-002   0.0000000000000000     
   1.8196048868789533E-002   9.2098916623586394E-002   0.0000000000000000     
   1.8801812270227682E-002   9.8746084864353365E-002   0.0000000000000000     
   1.9376498602554020E-002  0.10555303392435843        0.0000000000000000     
   1.2592642187004994E-002   7.9107609925110803E-002   0.0000000000000000     
   1.3085410953930813E-002   8.5441566844817157E-002   0.0000000000000000     
   1.3558266718149914E-002   9.1936600684258241E-002   0.0000000000000000     
   1.4011209479662293E-002   9.8592711443434053E-002   0.0000000000000000     
   1.4444239238467957E-002  0.10540989912234458        0.0000000000000000     
   8.3757452934581055E-003   7.8972589810125393E-002   0.0000000000000000     
   8.7012927228082067E-003   8.5310105549996809E-002   0.0000000000000000     
   9.0154102094490568E-003   9.1809075371204141E-002   0.0000000000000000     
   9.3180977533806591E-003   9.8469499273747332E-002   0.0000000000000000     
   9.6093553546030101E-003  0.10529137725762645        0.0000000000000000     
   4.2406001779371448E-003   7.8878862254810361E-002   0.0000000000000000     
   4.4068537048717587E-003   8.5217145317596416E-002   0.0000000000000000     
   4.5674793426869692E-003   9.1716340684424039E-002   0.0000000000000000     
   4.7224770913827747E-003   9.8376448355293258E-002   0.0000000000000000     
   4.8718469509591777E-003  0.10519746833020406        0.0000000000000000     
   1.8720684044211291E-004   7.8826427259165721E-002   0.0000000000000000     
   2.0209390012146887E-004   8.5162686147615976E-002   0.0000000000000000     
   2.1447411786364629E-004   9.1658396623917990E-002   0.0000000000000000     
   2.2434749366864363E-004   9.8313558688071775E-002   0.0000000000000000     
   2.3171402753646101E-004  0.10512817234007732        0.0000000000000000     
   1.9376498602554020E-002  0.10555303392435843        0.0000000000000000     
   1.9924991693879533E-002  0.11250475538655176        0.0000000000000000     
   2.0452175372315209E-002  0.11958624083388353        0.0000000000000000     
   2.0958049637861045E-002  0.12679749026635381        0.0000000000000000     
   2.1442614490517039E-002  0.13413850368396249        0.0000000000000000     
   1.4444239238467957E-002  0.10540989912234458        0.0000000000000000     
   1.4855388990295537E-002  0.11237037008738836        0.0000000000000000     
   1.5242691730873668E-002  0.11945633070496386        0.0000000000000000     
   1.5606147460202354E-002  0.12666778097507109        0.0000000000000000     
   1.5945756178281593E-002  0.13400472089771004        0.0000000000000000     
   9.6093553546030101E-003  0.10529137725762645        0.0000000000000000     
   9.8851561453420483E-003  0.11225559746405410        0.0000000000000000     
   1.0141473257823705E-002  0.11934304803424284        0.0000000000000000     
   1.0378306692047987E-002  0.12655372896819272        0.0000000000000000     
   1.0595656448014889E-002  0.13388764026590372        0.0000000000000000     
   4.8718469509591777E-003  0.10519746833020406        0.0000000000000000     
   5.0142931590190631E-003  0.11216043751654894        0.0000000000000000     
   5.1485199531653173E-003  0.11924639282172050        0.0000000000000000     
   5.2745273333979423E-003  0.12645533424571870        0.0000000000000000     
   5.3923152997169353E-003  0.13378726178854355        0.0000000000000000     
   2.3171402753646101E-004  0.10512817234007732        0.0000000000000000     
   2.4280003132658569E-004  0.11208489024487293        0.0000000000000000     
   2.6383181689850464E-004  0.11916636506739683        0.0000000000000000     
   2.9480938425221733E-004  0.12637259680764901        0.0000000000000000     
   3.3573273338772429E-004  0.13370358546562952        0.0000000000000000     
   2.1442614490517039E-002  0.13413850368396249        0.0000000000000000     
   2.1903532944065326E-002  0.14162590080041090        0.0000000000000000     
   2.2338468012288025E-002  0.14927630132940020        0.0000000000000000     
   2.2747419695185140E-002  0.15708970527093052        0.0000000000000000     
   2.3130387992756671E-002  0.16506611262500170        0.0000000000000000     
   1.5945756178281593E-002  0.13400472089771004        0.0000000000000000     
   1.6273248166585250E-002  0.14149726379093611        0.0000000000000000     
   1.6600353706587193E-002  0.14917552297280465        0.0000000000000000     
   1.6927072798287427E-002  0.15703949844331569        0.0000000000000000     
   1.7253405441685941E-002  0.16508919020246923        0.0000000000000000     
   1.0595656448014889E-002  0.13388764026590372        0.0000000000000000     
   1.0807897087419013E-002  0.14137592906408888        0.0000000000000000     
   1.1029403171954950E-002  0.14904974249946124        0.0000000000000000     
   1.1260174701622702E-002  0.15690908057202077        0.0000000000000000     
   1.1500211676422269E-002  0.16495394328176755        0.0000000000000000     
   5.3923152997169353E-003  0.13378726178854355        0.0000000000000000     
   5.5074797065666143E-003  0.14126189661986926        0.0000000000000000     
   5.6256164083912921E-003  0.14889895990936999        0.0000000000000000     
   5.7467254051909722E-003  0.15669845165704582        0.0000000000000000     
   5.8708066969656537E-003  0.16466037186289673        0.0000000000000000     
   3.3573273338772429E-004  0.13370358546562952        0.0000000000000000     
   3.7199602402805047E-004  0.14115516645827719        0.0000000000000000     
   3.8899341589622059E-004  0.14872317520253095        0.0000000000000000     
   3.8672490899223572E-004  0.15640761169839079        0.0000000000000000     
   3.6519050331609501E-004  0.16420847594585672        0.0000000000000000     
   0.0000000000000000        0.0000000000000000        0.0000000000000000     
   4.4934986015708915E-007   1.0733837350887685E-003   0.0000000000000000     
   1.0415912647307175E-006   2.5157604378315736E-003   0.0000000000000000     
   1.7767242137208309E-006   4.3271301082284143E-003   0.0000000000000000     
   2.6547487071275106E-006   6.5074927462792920E-003   0.0000000000000000     
   0.0000000000000000        0.0000000000000000        0.0000000000000000     
  -2.1254254519596414E-004   1.0755229924031364E-003   0.0000000000000000     
  -4.2591101348100408E-004   2.5205656089200678E-003   0.0000000000000000     
  -6.4010540485511967E-004   4.3351278495507945E-003   0.0000000000000000     
  -8.5512571931831117E-004   6.5192097142953162E-003   0.0000000000000000     
   0.0000000000000000        0.0000000000000000        0.0000000000000000     
  -4.2386726670235109E-004   1.0822627953652640E-003   0.0000000000000000     
  -8.5201659133879849E-004   2.5357335105613077E-003   0.0000000000000000     
  -1.2844479739093425E-003   4.3604121455881311E-003   0.0000000000000000     
  -1.7211614144139826E-003   6.5562987004457356E-003   0.0000000000000000     
   0.0000000000000000        0.0000000000000000        0.0000000000000000     
  -6.3352481465900389E-004   1.0936031439751509E-003   0.0000000000000000     
  -1.2772751423086530E-003   2.5612641427552934E-003   0.0000000000000000     
  -1.9312509829489473E-003   4.4029829963404283E-003   0.0000000000000000     
  -2.5954523365798866E-003   6.6187597047305544E-003   0.0000000000000000     
   0.0000000000000000        0.0000000000000000        0.0000000000000000     
  -8.4151518906592235E-004   1.1095440382327979E-003   0.0000000000000000     
  -1.7016866663905673E-003   2.5971575055020249E-003   0.0000000000000000     
  -2.5805144319739340E-003   4.4628404018076818E-003   0.0000000000000000     
  -3.4779984858160228E-003   6.7065927271497683E-003   0.0000000000000000     
   2.6547487071275106E-006   6.5074927462792920E-003   0.0000000000000000     
   3.8088180866104867E-006   9.0293460629205409E-003   0.0000000000000000     
   5.3720856938293336E-006   1.1865187769088497E-002   0.0000000000000000     
   7.3445515287843714E-006   1.5015017864783160E-002   0.0000000000000000     
   9.7262155914756019E-006   1.8478836350004531E-002   0.0000000000000000     
  -8.5512571931831117E-004   6.5192097142953162E-003   0.0000000000000000     
  -1.0719682516643764E-003   9.0447227165232433E-003   0.0000000000000000     
  -1.2916292966871127E-003   1.1883578369604185E-002   0.0000000000000000     
  -1.5141088543865206E-003   1.5035776673538141E-002   0.0000000000000000     
  -1.7394069247626000E-003   1.8501317628325107E-002   0.0000000000000000     
  -1.7211614144139826E-003   6.5562987004457356E-003   0.0000000000000000     
  -2.1621932862282574E-003   9.0934880769739570E-003   0.0000000000000000     
  -2.6075799627277049E-003   1.1942075177012620E-002   0.0000000000000000     
  -3.0573214439123249E-003   1.5102060000561739E-002   0.0000000000000000     
  -3.5114177297821186E-003   1.8573442547621302E-002   0.0000000000000000     
  -2.5954523365798866E-003   6.6187597047305544E-003   0.0000000000000000     
  -3.2668662856050325E-003   9.1756421442726801E-003   0.0000000000000000     
  -3.9424799124279470E-003   1.2040678191313811E-002   0.0000000000000000     
  -4.6222932170486286E-003   1.5213867845853952E-002   0.0000000000000000     
  -5.3063061994670802E-003   1.8695211107893094E-002   0.0000000000000000     
  -3.4779984858160228E-003   6.7065927271497683E-003   0.0000000000000000     
  -4.3859872497947023E-003   9.2911849184194144E-003   0.0000000000000000     
  -5.2963291457878382E-003   1.2179387412507754E-002   0.0000000000000000     
  -6.2090241737954317E-003   1.5371200209414779E-002   0.0000000000000000     
  -7.1240723338174836E-003   1.8866623309140500E-002   0.0000000000000000     
   9.7262155914756019E-006   1.8478836350004531E-002   0.0000000000000000     
   1.2788479218026874E-005   2.2227914273483917E-002   0.0000000000000000     
   1.6802743744564016E-005   2.6233522683952626E-002   0.0000000000000000     
   2.1769009171085706E-005   3.0495661581410656E-002   0.0000000000000000     
   2.7687275497592818E-005   3.5014330965858008E-002   0.0000000000000000     
  -1.7394069247626000E-003   1.8501317628325107E-002   0.0000000000000000     
  -1.9634420196914543E-003   2.2251408470499064E-002   0.0000000000000000     
  -2.1821326510491888E-003   2.6257256436593976E-002   0.0000000000000000     
  -2.3954788188358025E-003   3.0518861526609830E-002   0.0000000000000000     
  -2.6034805230512963E-003   3.5036223740546636E-002   0.0000000000000000     
  -3.5114177297821186E-003   1.8573442547621302E-002   0.0000000000000000     
  -3.9634293710429976E-003   2.2327777283856255E-002   0.0000000000000000     
  -4.4069169184008800E-003   2.6336618674931523E-002   0.0000000000000000     
  -4.8418803718557621E-003   3.0599966720847124E-002   0.0000000000000000     
  -5.2683197314076450E-003   3.5117821421603052E-002   0.0000000000000000     
  -5.3063061994670802E-003   1.8695211107893094E-002   0.0000000000000000     
  -5.9871735748366029E-003   2.2457020713555469E-002   0.0000000000000000     
  -6.6575500583105074E-003   2.6471609398965285E-002   0.0000000000000000     
  -7.3174356498887901E-003   3.0738977164122539E-002   0.0000000000000000     
  -7.9668303495714545E-003   3.5259124009027254E-002   0.0000000000000000     
  -7.1240723338174836E-003   1.8866623309140500E-002   0.0000000000000000     
  -8.0346746310722694E-003   2.2639138759596718E-002   0.0000000000000000     
  -8.9340320707780724E-003   2.6662228608695250E-002   0.0000000000000000     
  -9.8221446529348916E-003   3.0935892856436088E-002   0.0000000000000000     
  -1.0699012377542724E-002   3.5460131502819237E-002   0.0000000000000000     
   2.7687275497592818E-005   3.5014330965858008E-002   0.0000000000000000     
   3.6858823617518335E-005   3.9768060041818994E-002   0.0000000000000000     
   5.1584934424295779E-005   4.4735378013817897E-002   0.0000000000000000     
   7.1865607917925069E-005   4.9916284881854754E-002   0.0000000000000000     
   9.7700844098406450E-005   5.5310780645929522E-002   0.0000000000000000     
  -2.6034805230512963E-003   3.5036223740546636E-002   0.0000000000000000     
  -2.8019532712230582E-003   3.9788187224226459E-002   0.0000000000000000     
  -2.9867125708784789E-003   4.4753596123471351E-002   0.0000000000000000     
  -3.1577584220175564E-003   4.9932450438281310E-002   0.0000000000000000     
  -3.3150908246402915E-003   5.5324750168656345E-002   0.0000000000000000     
  -5.2683197314076450E-003   3.5117821421603052E-002   0.0000000000000000     
  -5.6809876673080181E-003   3.9869690871339299E-002   0.0000000000000000     
  -6.0746368498083717E-003   4.4835083164195884E-002   0.0000000000000000     
  -6.4492672789087015E-003   5.0013998300172773E-002   0.0000000000000000     
  -6.8048789546090111E-003   5.5406436279269992E-002   0.0000000000000000     
  -7.9668303495714545E-003   3.5259124009027254E-002   0.0000000000000000     
  -8.6002443646373619E-003   4.0012570983157525E-002   0.0000000000000000     
  -9.2121879023653822E-003   4.4979839135991496E-002   0.0000000000000000     
  -9.8026609627555102E-003   5.0160928467529134E-002   0.0000000000000000     
  -1.0371663545807751E-002   5.5555838977770493E-002   0.0000000000000000     
  -1.0699012377542724E-002   3.5460131502819237E-002   0.0000000000000000     
  -1.1559723363211091E-002   4.0216827559681124E-002   0.0000000000000000     
  -1.2399365728549510E-002   4.5187864038858189E-002   0.0000000000000000     
  -1.3217939473557982E-002   5.0373240940350415E-002   0.0000000000000000     
  -1.4015444598236511E-002   5.5772958264157811E-002   0.0000000000000000     
   9.7700844098406450E-005   5.5310780645929522E-002   0.0000000000000000     
   1.2475435701281810E-004   6.0906476218327094E-002   0.0000000000000000     
   1.4868986070824060E-004   6.6690982511332320E-002   0.0000000000000000     
   1.6950735518467182E-004   7.2664299524945200E-002   0.0000000000000000     
   1.8720684044211291E-004   7.8826427259165721E-002   0.0000000000000000     
  -3.3150908246402915E-003   5.5324750168656345E-002   0.0000000000000000     
  -3.4642593313441521E-003   6.0918135019458509E-002   0.0000000000000000     
  -3.6108134947266061E-003   6.6700244695549832E-002   0.0000000000000000     
  -3.7547533147876512E-003   7.2671079196930347E-002   0.0000000000000000     
  -3.8960787915272872E-003   7.8830638523600033E-002   0.0000000000000000     
  -6.8048789546090111E-003   5.5406436279269992E-002   0.0000000000000000     
  -7.1467070436006305E-003   6.0999611671591278E-002   0.0000000000000000     
  -7.4799867125748933E-003   6.6780739047240370E-002   0.0000000000000000     
  -7.8047179615318030E-003   7.2749818406217234E-002   0.0000000000000000     
  -8.1209007904713536E-003   7.8906849748521912E-002   0.0000000000000000     
  -1.0371663545807751E-002   5.5555838977770493E-002   0.0000000000000000     
  -1.0922588779756617E-002   6.1150906174725433E-002   0.0000000000000000     
  -1.1458829792836628E-002   6.6932465566403879E-002   0.0000000000000000     
  -1.1980386585047785E-002   7.2900517152805835E-002   0.0000000000000000     
  -1.2487259156390087E-002   7.9055060933931290E-002   0.0000000000000000     
  -1.4015444598236511E-002   5.5772958264157811E-002   0.0000000000000000     
  -1.4791904539812110E-002   6.1372018528860962E-002   0.0000000000000000     
  -1.5547342735511805E-002   6.7155424253040399E-002   0.0000000000000000     
  -1.6281759185335597E-002   7.3123175436696164E-002   0.0000000000000000     
  -1.6995153889283486E-002   7.9275272079828221E-002   0.0000000000000000     
   1.8720684044211291E-004   7.8826427259165721E-002   0.0000000000000000     
   2.0209390012146887E-004   8.5162686147615976E-002   0.0000000000000000     
   2.1447411786364629E-004   9.1658396623917990E-002   0.0000000000000000     
   2.2434749366864363E-004   9.8313558688071775E-002   0.0000000000000000     
   2.3171402753646101E-004  0.10512817234007732        0.0000000000000000     
  -3.8960787915272872E-003   7.8830638523600033E-002   0.0000000000000000     
  -4.0356400208378688E-003   8.5163507742060995E-002   0.0000000000000000     
  -4.1742870986117434E-003   9.1654271918815297E-002   0.0000000000000000     
  -4.3120200248489143E-003   9.8302931053862952E-002   0.0000000000000000     
  -4.4488387995493791E-003  0.10510948514720396        0.0000000000000000     
  -8.1209007904713536E-003   7.8906849748521912E-002   0.0000000000000000     
  -8.4290013874014618E-003   8.5236389802937060E-002   0.0000000000000000     
  -8.7294859403300312E-003   9.1722995298245388E-002   0.0000000000000000     
  -9.0223544492570740E-003   9.8366666234446912E-002   0.0000000000000000     
  -9.3076069141825833E-003  0.10516740261154160        0.0000000000000000     
  -1.2487259156390087E-002   7.9055060933931290E-002   0.0000000000000000     
  -1.2977990199569309E-002   8.5381332330244128E-002   0.0000000000000000     
  -1.3451122407291226E-002   9.1864566762208236E-002   0.0000000000000000     
  -1.3906655779555839E-002   9.8504764229823571E-002   0.0000000000000000     
  -1.4344590316363150E-002  0.10530192473309020        0.0000000000000000     
  -1.6995153889283486E-002   7.9275272079828221E-002   0.0000000000000000     
  -1.7682606457341411E-002   8.5598335323982228E-002   0.0000000000000000     
  -1.8339196499495315E-002   9.2078986310703825E-002   0.0000000000000000     
  -1.8964924015745208E-002   9.8717225039993015E-002   0.0000000000000000     
  -1.9559789006091077E-002  0.10551305151184981        0.0000000000000000     
   2.3171402753646101E-004  0.10512817234007732        0.0000000000000000     
   2.4280003132658569E-004  0.11208489024487293        0.0000000000000000     
   2.6383181689850464E-004  0.11916636506739683        0.0000000000000000     
   2.9480938425221733E-004  0.12637259680764901        0.0000000000000000     
   3.3573273338772429E-004  0.13370358546562952        0.0000000000000000     
  -4.4488387995493791E-003  0.10510948514720396        0.0000000000000000     
  -4.5718328701877010E-003  0.11205892643226668        0.0000000000000000     
  -4.6680916842384386E-003  0.11913624714247945        0.0000000000000000     
  -4.7376152417015916E-003  0.12634144727784224        0.0000000000000000     
  -4.7804035425771637E-003  0.13367452683835512        0.0000000000000000     
  -9.3076069141825833E-003  0.10516740261154160        0.0000000000000000     
  -9.5721151779761121E-003  0.11211251686197082        0.0000000000000000     
  -9.8027510835072152E-003  0.11918932141817595        0.0000000000000000     
  -9.9995146307758926E-003  0.12639781628015700        0.0000000000000000     
  -1.0162405819782148E-002  0.13373800144791395        0.0000000000000000     
  -1.4344590316363150E-002  0.10530192473309020        0.0000000000000000     
  -1.4758046892038646E-002  0.11224566153398539        0.0000000000000000     
  -1.5140146380907825E-002  0.11932558789448638        0.0000000000000000     
  -1.5490888782970684E-002  0.12654170381459323        0.0000000000000000     
  -1.5810274098227228E-002  0.13389400929430589        0.0000000000000000     
  -1.9559789006091077E-002  0.10551305151184981        0.0000000000000000     
  -2.0129628012375309E-002  0.11245836044831034        0.0000000000000000     
  -2.0680277576440271E-002  0.11954504657141073        0.0000000000000000     
  -2.1211737698285972E-002  0.12677310988115098        0.0000000000000000     
  -2.1724008377912409E-002  0.13414255037753109        0.0000000000000000     
   3.3573273338772429E-004  0.13370358546562952        0.0000000000000000     
   3.7199602402805047E-004  0.14115516645827719        0.0000000000000000     
   3.8899341589622059E-004  0.14872317520253095        0.0000000000000000     
   3.8672490899223572E-004  0.15640761169839079        0.0000000000000000     
   3.6519050331609501E-004  0.16420847594585672        0.0000000000000000     
  -4.7804035425771637E-003  0.13367452683835512        0.0000000000000000     
  -4.8289552454329936E-003  0.14110760445776388        0.0000000000000000     
  -4.9157690088369272E-003  0.14861279876981431        0.0000000000000000     
  -5.0408448327889654E-003  0.15619010977450651        0.0000000000000000     
  -5.2041827172891039E-003  0.16383953747184035        0.0000000000000000     
  -1.0162405819782148E-002  0.13373800144791395        0.0000000000000000     
  -1.0325775387052831E-002  0.14117107649678048        0.0000000000000000     
  -1.0523974069114811E-002  0.14865824100209044        0.0000000000000000     
  -1.0757001865968082E-002  0.15619949496384372        0.0000000000000000     
  -1.1024858777612641E-002  0.16379483838204043        0.0000000000000000     
  -1.5810274098227228E-002  0.13389400929430589        0.0000000000000000     
  -1.6118464400831471E-002  0.14134558257532706        0.0000000000000000     
  -1.6435621764937437E-002  0.14885950189935920        0.0000000000000000     
  -1.6761746190545115E-002  0.15643576726640254        0.0000000000000000     
  -1.7096837677654516E-002  0.16407437867645694        0.0000000000000000     
  -2.1724008377912409E-002  0.13414255037753109        0.0000000000000000     
  -2.2207022286768911E-002  0.14163112269340353        0.0000000000000000     
  -2.2650712096304797E-002  0.14921658146162084        0.0000000000000000     
  -2.3055077806520070E-002  0.15689892668218292        0.0000000000000000     
  -2.3420119417414731E-002  0.16467815835508987        0.0000000000000000     
   0.0000000000000000        0.0000000000000000        0.0000000000000000     
  -8.4151518906592235E-004   1.1095440382327979E-003   0.0000000000000000     
  -1.7016866663905673E-003   2.5971575055020249E-003   0.0000000000000000     
  -2.5805144319739340E-003   4.4628404018076818E-003   0.0000000000000000     
  -3.4779984858160228E-003   6.7065927271497683E-003   0.0000000000000000     
   0.0000000000000000        0.0000000000000000        0.0000000000000000     
  -1.0566905002484354E-003   1.1336483358461388E-003   0.0000000000000000     
  -2.1396781840910192E-003   2.6492755459007569E-003   0.0000000000000000     
  -3.2489630515277514E-003   4.5468816301638534E-003   0.0000000000000000     
  -4.3845451025586318E-003   6.8264665886354301E-003   0.0000000000000000     
   0.0000000000000000        0.0000000000000000        0.0000000000000000     
  -1.2879028585318722E-003   1.1694788945231086E-003   0.0000000000000000     
  -2.6056767159164879E-003   2.7234802110507428E-003   0.0000000000000000     
  -3.9533215721538487E-003   4.6620039495829015E-003   0.0000000000000000     
  -5.3308374272439535E-003   6.9850501101195867E-003   0.0000000000000000     
   0.0000000000000000        0.0000000000000000        0.0000000000000000     
  -1.5351522639162321E-003   1.2170357142637068E-003   0.0000000000000000     
  -3.0996822618669742E-003   2.8197715009519826E-003   0.0000000000000000     
  -4.6935899938522260E-003   4.8082073600648270E-003   0.0000000000000000     
  -6.3168754598719864E-003   7.1823432916022414E-003   0.0000000000000000     
   0.0000000000000000        0.0000000000000000        0.0000000000000000     
  -1.7984387164015157E-003   1.2763187950679338E-003   0.0000000000000000     
  -3.6216948219424763E-003   2.9381494156044768E-003   0.0000000000000000     
  -5.4697683166228823E-003   4.9854918616096290E-003   0.0000000000000000     
  -7.3426592004427315E-003   7.4183461330833908E-003   0.0000000000000000     
  -3.4779984858160228E-003   6.7065927271497683E-003   0.0000000000000000     
  -4.3859872497947023E-003   9.2911849184194144E-003   0.0000000000000000     
  -5.2963291457878382E-003   1.2179387412507754E-002   0.0000000000000000     
  -6.2090241737954317E-003   1.5371200209414779E-002   0.0000000000000000     
  -7.1240723338174836E-003   1.8866623309140500E-002   0.0000000000000000     
  -4.3845451025586318E-003   6.8264665886354301E-003   0.0000000000000000     
  -5.5336655430512196E-003   9.4461848663070554E-003   0.0000000000000000     
  -6.6835655788730734E-003   1.2364190908170297E-002   0.0000000000000000     
  -7.8342452100241943E-003   1.5580484714225153E-002   0.0000000000000000     
  -8.9857044365045796E-003   1.9095066284471631E-002   0.0000000000000000     
  -5.3308374272439535E-003   6.9850501101195867E-003   0.0000000000000000     
  -6.7240105296285388E-003   9.6467104548284850E-003   0.0000000000000000     
  -8.1186271277493456E-003   1.2601076745877291E-002   0.0000000000000000     
  -9.5146872216063747E-003   1.5848148983265996E-002   0.0000000000000000     
  -1.0912190811199622E-002   1.9387927166994608E-002   0.0000000000000000     
  -6.3168754598719864E-003   7.1823432916022414E-003   0.0000000000000000     
  -7.9570222095266627E-003   9.8927616839837133E-003   0.0000000000000000     
  -9.6015137924166574E-003   1.2890044925628733E-002   0.0000000000000000     
  -1.1250350208541973E-002   1.6174193016537303E-002   0.0000000000000000     
  -1.2903531457902609E-002   1.9745205956709425E-002   0.0000000000000000     
  -7.3426592004427315E-003   7.4183461330833908E-003   0.0000000000000000     
  -9.2327005827455878E-003   1.0184338553772732E-002   0.0000000000000000     
  -1.1132225572875007E-002   1.3231095447424630E-002   0.0000000000000000     
  -1.3041234170830992E-002   1.6558616814039081E-002   0.0000000000000000     
  -1.4959726376613540E-002   2.0166902653616085E-002   0.0000000000000000     
  -7.1240723338174836E-003   1.8866623309140500E-002   0.0000000000000000     
  -8.0346746310722694E-003   2.2639138759596718E-002   0.0000000000000000     
  -8.9340320707780724E-003   2.6662228608695250E-002   0.0000000000000000     
  -9.8221446529348916E-003   3.0935892856436088E-002   0.0000000000000000     
  -1.0699012377542724E-002   3.5460131502819237E-002   0.0000000000000000     
  -8.9857044365045796E-003   1.9095066284471631E-002   0.0000000000000000     
  -1.0130971124868195E-002   2.2882314246464197E-002   0.0000000000000000     
  -1.1263073141669001E-002   2.6916607227757308E-002   0.0000000000000000     
  -1.2382010486906998E-002   3.1197945228350975E-002   0.0000000000000000     
  -1.3487783160582188E-002   3.5726328248245197E-002   0.0000000000000000     
  -1.0912190811199622E-002   1.9387927166994608E-002   0.0000000000000000     
  -1.2301101641342575E-002   2.3194729998642073E-002   0.0000000000000000     
  -1.3671383456848721E-002   2.7242876179787347E-002   0.0000000000000000     
  -1.5023036257718055E-002   3.1532365710430429E-002   0.0000000000000000     
  -1.6356060043950578E-002   3.6063198590571319E-002   0.0000000000000000     
  -1.2903531457902609E-002   1.9745205956709425E-002   0.0000000000000000     
  -1.4545066180495411E-002   2.3576386016130352E-002   0.0000000000000000     
  -1.6158963016317231E-002   2.7641035464785357E-002   0.0000000000000000     
  -1.7745221965368055E-002   3.1939154302674432E-002   0.0000000000000000     
  -1.9303843027647899E-002   3.6470742529797581E-002   0.0000000000000000     
  -1.4959726376613540E-002   2.0166902653616085E-002   0.0000000000000000     
  -1.6862864742326705E-002   2.4027282298929042E-002   0.0000000000000000     
  -1.8725811820074524E-002   2.8111085082751352E-002   0.0000000000000000     
  -2.0548567609857002E-002   3.2418311005083016E-002   0.0000000000000000     
  -2.2331132111674153E-002   3.6948960065924019E-002   0.0000000000000000     
  -1.0699012377542724E-002   3.5460131502819237E-002   0.0000000000000000     
  -1.1559723363211091E-002   4.0216827559681124E-002   0.0000000000000000     
  -1.2399365728549510E-002   4.5187864038858189E-002   0.0000000000000000     
  -1.3217939473557982E-002   5.0373240940350415E-002   0.0000000000000000     
  -1.4015444598236511E-002   5.5772958264157811E-002   0.0000000000000000     
  -1.3487783160582188E-002   3.5726328248245197E-002   0.0000000000000000     
  -1.4576414175249058E-002   4.0485466537064703E-002   0.0000000000000000     
  -1.5643926543462104E-002   4.5459070344434249E-002   0.0000000000000000     
  -1.6690320265221322E-002   5.0647139670353829E-002   0.0000000000000000     
  -1.7715595340526715E-002   5.6049674514823435E-002   0.0000000000000000     
  -1.6356060043950578E-002   3.6063198590571319E-002   0.0000000000000000     
  -1.7667306312971122E-002   4.0821493851462873E-002   0.0000000000000000     
  -1.8953626562204503E-002   4.5793370524357967E-002   0.0000000000000000     
  -2.0215020791650731E-002   5.0978828609256607E-002   0.0000000000000000     
  -2.1451489001309786E-002   5.6377868106158788E-002   0.0000000000000000     
  -1.9303843027647899E-002   3.6470742529797581E-002   0.0000000000000000     
  -2.0832399776377276E-002   4.1224909502875620E-002   0.0000000000000000     
  -2.2328465784776711E-002   4.6190764578629341E-002   0.0000000000000000     
  -2.3792041052846193E-002   5.1368307757058765E-002   0.0000000000000000     
  -2.5223125580585735E-002   5.6757539038163878E-002   0.0000000000000000     
  -2.2331132111674153E-002   3.6948960065924019E-002   0.0000000000000000     
  -2.4071694565467532E-002   4.1695713491302959E-002   0.0000000000000000     
  -2.5768444211178722E-002   4.6651252507248379E-002   0.0000000000000000     
  -2.7421381048807730E-002   5.1815577113760294E-002   0.0000000000000000     
  -2.9030505078354550E-002   5.7188687310838711E-002   0.0000000000000000     
  -1.4015444598236511E-002   5.5772958264157811E-002   0.0000000000000000     
  -1.4791904539812110E-002   6.1372018528860962E-002   0.0000000000000000     
  -1.5547342735511805E-002   6.7155424253040399E-002   0.0000000000000000     
  -1.6281759185335597E-002   7.3123175436696164E-002   0.0000000000000000     
  -1.6995153889283486E-002   7.9275272079828221E-002   0.0000000000000000     
  -1.7715595340526715E-002   5.6049674514823435E-002   0.0000000000000000     
  -1.8716608778472799E-002   6.1650571915541214E-002   0.0000000000000000     
  -1.9690217588154094E-002   6.7433728910205298E-002   0.0000000000000000     
  -2.0636421769570607E-002   7.3399145498815696E-002   0.0000000000000000     
  -2.1555221322722331E-002   7.9546821681372420E-002   0.0000000000000000     
  -2.1451489001309786E-002   5.6377868106158788E-002   0.0000000000000000     
  -2.2658655950444376E-002   6.1974189516309543E-002   0.0000000000000000     
  -2.3832146398317180E-002   6.7751493340953942E-002   0.0000000000000000     
  -2.4971960344928185E-002   7.3709779580091964E-002   0.0000000000000000     
  -2.6078097790277401E-002   7.9849048233723616E-002   0.0000000000000000     
  -2.5223125580585735E-002   5.6757539038163878E-002   0.0000000000000000     
  -2.6618046055726846E-002   6.2342871331165978E-002   0.0000000000000000     
  -2.7973129166001046E-002   6.8108717545286329E-002   0.0000000000000000     
  -2.9288374911408330E-002   7.4055077680524939E-002   0.0000000000000000     
  -3.0563783291948705E-002   8.0181951736881835E-002   0.0000000000000000     
  -2.9030505078354550E-002   5.7188687310838711E-002   0.0000000000000000     
  -3.0594779094320200E-002   6.2756617360110484E-002   0.0000000000000000     
  -3.2113165891205699E-002   6.8505401523202461E-002   0.0000000000000000     
  -3.3585665469011046E-002   7.4435039800114650E-002   0.0000000000000000     
  -3.5012277827736235E-002   8.0545532190847063E-002   0.0000000000000000     
  -1.6995153889283486E-002   7.9275272079828221E-002   0.0000000000000000     
  -1.7682606457341411E-002   8.5598335323982228E-002   0.0000000000000000     
  -1.8339196499495315E-002   9.2078986310703825E-002   0.0000000000000000     
  -1.8964924015745208E-002   9.8717225039993015E-002   0.0000000000000000     
  -1.9559789006091077E-002  0.10551305151184981        0.0000000000000000     
  -2.1555221322722331E-002   7.9546821681372420E-002   0.0000000000000000     
  -2.2438354992652815E-002   8.5864811592633927E-002   0.0000000000000000     
  -2.3277561524405608E-002   9.2341169367358755E-002   0.0000000000000000     
  -2.4072840917980724E-002   9.8975895005546891E-002   0.0000000000000000     
  -2.4824193173378140E-002  0.10576898850719833        0.0000000000000000     
  -2.6078097790277401E-002   7.9849048233723616E-002   0.0000000000000000     
  -2.7140740637438564E-002   8.6158173944681837E-002   0.0000000000000000     
  -2.8150070789485396E-002   9.2626031355799596E-002   0.0000000000000000     
  -2.9106088246417909E-002   9.9252620467076863E-002   0.0000000000000000     
  -3.0008793008236098E-002  0.10603794127851365        0.0000000000000000     
  -3.0563783291948705E-002   8.0181951736881835E-002   0.0000000000000000     
  -3.1789763391698665E-002   8.6478422380125985E-002   0.0000000000000000     
  -3.2956724294734688E-002   9.2933572276026333E-002   0.0000000000000000     
  -3.4064666001056794E-002   9.9547401424582946E-002   0.0000000000000000     
  -3.5113588510664970E-002  0.10631990982579580        0.0000000000000000     
  -3.5012277827736235E-002   8.0545532190847063E-002   0.0000000000000000     
  -3.6385423255433098E-002   8.6825556898966288E-002   0.0000000000000000     
  -3.7697522040153475E-002   9.3263792128038994E-002   0.0000000000000000     
  -3.8948574181897351E-002   9.9860237878065125E-002   0.0000000000000000     
  -4.0138579680664727E-002  0.10661489414904474        0.0000000000000000     
  -1.9559789006091077E-002  0.10551305151184981        0.0000000000000000     
  -2.0129628012375309E-002  0.11245836044831034        0.0000000000000000     
  -2.0680277576440271E-002  0.11954504657141073        0.0000000000000000     
  -2.1211737698285972E-002  0.12677310988115098        0.0000000000000000     
  -2.1724008377912409E-002  0.13414255037753109        0.0000000000000000     
  -2.4824193173378140E-002  0.10576898850719833        0.0000000000000000     
  -2.5549858471109663E-002  0.11271405597975541        0.0000000000000000     
  -2.6268076991687081E-002  0.11980470353066053        0.0000000000000000     
  -2.6978848735110403E-002  0.12704093115991366        0.0000000000000000     
  -2.7682173701379608E-002  0.13442273886751477        0.0000000000000000     
  -3.0008793008236098E-002  0.10603794127851365        0.0000000000000000     
  -3.0881738200365286E-002  0.11297619050313035        0.0000000000000000     
  -3.1748476948230790E-002  0.12006156485394734        0.0000000000000000     
  -3.2609009251832619E-002  0.12729406433096466        0.0000000000000000     
  -3.3463335111170764E-002  0.13467368893418225        0.0000000000000000     
  -3.5113588510664970E-002  0.10631990982579580        0.0000000000000000     
  -3.6125267200142176E-002  0.11324476401843510        0.0000000000000000     
  -3.7121477446071395E-002  0.12031563054127119        0.0000000000000000     
  -3.8102219248452619E-002  0.12753250939430397        0.0000000000000000     
  -3.9067492607285856E-002  0.13489540057753352        0.0000000000000000     
  -4.0138579680664727E-002  0.10661489414904474        0.0000000000000000     
  -4.1280445470440331E-002  0.11351977652566972        0.0000000000000000     
  -4.2387078485208896E-002  0.12056690059263203        0.0000000000000000     
  -4.3458478724970419E-002  0.12775626634993167        0.0000000000000000     
  -4.4494646189724894E-002  0.13508787379756865        0.0000000000000000     
  -2.1724008377912409E-002  0.13414255037753109        0.0000000000000000     
  -2.2207022286768911E-002  0.14163112269340353        0.0000000000000000     
  -2.2650712096304797E-002  0.14921658146162084        0.0000000000000000     
  -2.3055077806520070E-002  0.15689892668218292        0.0000000000000000     
  -2.3420119417414731E-002  0.16467815835508987        0.0000000000000000     
  -2.7682173701379608E-002  0.13442273886751477        0.0000000000000000     
  -2.8338688564109007E-002  0.14194294343403752        0.0000000000000000     
  -2.8909029996912881E-002  0.14959436164005560        0.0000000000000000     
  -2.9393197999791239E-002  0.15737699348556891        0.0000000000000000     
  -2.9791192572744062E-002  0.16529083897057756        0.0000000000000000     
  -3.3463335111170764E-002  0.13467368893418225        0.0000000000000000     
  -3.4260702752095647E-002  0.14219629138025655        0.0000000000000000     
  -3.4950360400457695E-002  0.14985772438584399        0.0000000000000000     
  -3.5532308056256907E-002  0.15765798795094463        0.0000000000000000     
  -3.6006545719493292E-002  0.16559708207555837        0.0000000000000000     
  -3.9067492607285856E-002  0.13489540057753352        0.0000000000000000     
  -3.9973064850728823E-002  0.14239116653206066        0.0000000000000000     
  -4.0774703306939226E-002  0.15000666969898616        0.0000000000000000     
  -4.1472407975917093E-002  0.15774191007831004        0.0000000000000000     
  -4.2066178857662409E-002  0.16559688767003231        0.0000000000000000     
  -4.4494646189724894E-002  0.13508787379756865        0.0000000000000000     
  -4.5475774860008512E-002  0.14252756888944978        0.0000000000000000     
  -4.6382058716357484E-002  0.15004119757948195        0.0000000000000000     
  -4.7213497758771775E-002  0.15762875986766511        0.0000000000000000     
  -4.7970091987251433E-002  0.16529025575399933        0.0000000000000000     
   0.0000000000000000        0.0000000000000000        0.0000000000000000     
  -1.7984387164015157E-003   1.2763187950679338E-003   0.0000000000000000     
  -3.6216948219424763E-003   2.9381494156044768E-003   0.0000000000000000     
  -5.4697683166228823E-003   4.9854918616096290E-003   0.0000000000000000     
  -7.3426592004427315E-003   7.4183461330833908E-003   0.0000000000000000     
   0.0000000000000000        0.0000000000000000        0.0000000000000000     
  -2.0695334439599228E-003   1.3544482535735821E-003   0.0000000000000000     
  -4.1644205445347119E-003   3.0930979941330601E-003   0.0000000000000000     
  -6.2846613017243655E-003   5.2159492216784327E-003   0.0000000000000000     
  -8.4302557155288872E-003   7.7230019362097002E-003   0.0000000000000000     
   0.0000000000000000        0.0000000000000000        0.0000000000000000     
  -2.3402076745636532E-003   1.4585442064184446E-003   0.0000000000000000     
  -4.7205655780353951E-003   3.2991012756625653E-003   0.0000000000000000     
  -7.1410737104152262E-003   5.5216712077323605E-003   0.0000000000000000     
  -9.6017320717031451E-003   8.1262540026278349E-003   0.0000000000000000     
   0.0000000000000000        0.0000000000000000        0.0000000000000000     
  -2.6104614082127077E-003   1.5886066536025208E-003   0.0000000000000000     
  -5.2901299224445289E-003   3.5561592601929932E-003   0.0000000000000000     
  -8.0390055426954616E-003   5.9026578197714161E-003   0.0000000000000000     
  -1.0857088268965512E-002   8.6281023323377896E-003   0.0000000000000000     
   0.0000000000000000        0.0000000000000000        0.0000000000000000     
  -2.8802946449070850E-003   1.7446355951258113E-003   0.0000000000000000     
  -5.8731135777621100E-003   3.8642719477243442E-003   0.0000000000000000     
  -8.9784567985650762E-003   6.3589090577955967E-003   0.0000000000000000     
  -1.2196324307315981E-002   9.2285469253395713E-003   0.0000000000000000     
  -7.3426592004427315E-003   7.4183461330833908E-003   0.0000000000000000     
  -9.2327005827455878E-003   1.0184338553772732E-002   0.0000000000000000     
  -1.1132225572875007E-002   1.3231095447424630E-002   0.0000000000000000     
  -1.3041234170830992E-002   1.6558616814039081E-002   0.0000000000000000     
  -1.4959726376613540E-002   2.0166902653616085E-002   0.0000000000000000     
  -8.4302557155288872E-003   7.7230019362097002E-003   0.0000000000000000     
  -1.0592727004595888E-002   1.0556763864086546E-002   0.0000000000000000     
  -1.2763598387572983E-002   1.3659742731668652E-002   0.0000000000000000     
  -1.4942869864460175E-002   1.7031938538956019E-002   0.0000000000000000     
  -1.7130541435257465E-002   2.0673351285948646E-002   0.0000000000000000     
  -9.6017320717031451E-003   8.1262540026278349E-003   0.0000000000000000     
  -1.2078782830388135E-002   1.1045360414816149E-002   0.0000000000000000     
  -1.4548468154959181E-002   1.4211501198764472E-002   0.0000000000000000     
  -1.7010788045416277E-002   1.7624676354472811E-002   0.0000000000000000     
  -1.9465742501759423E-002   2.1284885881941159E-002   0.0000000000000000     
  -1.0857088268965512E-002   8.6281023323377896E-003   0.0000000000000000     
  -1.3690868060122333E-002   1.1650128205961542E-002   0.0000000000000000     
  -1.6486834875033593E-002   1.4886370848712098E-002   0.0000000000000000     
  -1.9244988713699288E-002   1.8336830260589458E-002   0.0000000000000000     
  -2.1965329576119415E-002   2.2001506441593627E-002   0.0000000000000000     
  -1.2196324307315981E-002   9.2285469253395713E-003   0.0000000000000000     
  -1.5428982693798480E-002   1.2371067237522728E-002   0.0000000000000000     
  -1.8578698547796223E-002   1.5684351681511523E-002   0.0000000000000000     
  -2.1645471869309211E-002   1.9168400257305967E-002   0.0000000000000000     
  -2.4629302658337446E-002   2.2823212964906050E-002   0.0000000000000000     
  -1.4959726376613540E-002   2.0166902653616085E-002   0.0000000000000000     
  -1.6862864742326705E-002   2.4027282298929042E-002   0.0000000000000000     
  -1.8725811820074524E-002   2.8111085082751352E-002   0.0000000000000000     
  -2.0548567609857002E-002   3.2418311005083016E-002   0.0000000000000000     
  -2.2331132111674153E-002   3.6948960065924019E-002   0.0000000000000000     
  -1.7130541435257465E-002   2.0673351285948646E-002   0.0000000000000000     
  -1.9295851765901505E-002   2.4556694184833316E-002   0.0000000000000000     
  -2.1408039522328962E-002   2.8654680447796819E-002   0.0000000000000000     
  -2.3467104704539832E-002   3.2967310074839148E-002   0.0000000000000000     
  -2.5473047312534119E-002   3.7494583065960305E-002   0.0000000000000000     
  -1.9465742501759423E-002   2.1284885881941159E-002   0.0000000000000000     
  -2.1885381690284877E-002   2.5173897011638358E-002   0.0000000000000000     
  -2.4241755777288886E-002   2.9273476974033250E-002   0.0000000000000000     
  -2.6534864762771462E-002   3.3583625769125831E-002   0.0000000000000000     
  -2.8764708646732595E-002   3.8104343396916110E-002   0.0000000000000000     
  -2.1965329576119415E-002   2.2001506441593627E-002   0.0000000000000000     
  -2.4631454515476815E-002   2.5878890779344164E-002   0.0000000000000000     
  -2.7226960584954309E-002   2.9967474661460655E-002   0.0000000000000000     
  -2.9751847784551894E-002   3.4267258087943092E-002   0.0000000000000000     
  -3.2206116114269580E-002   3.8778241058791456E-002   0.0000000000000000     
  -2.4629302658337446E-002   2.2823212964906050E-002   0.0000000000000000     
  -2.7534070241477315E-002   2.6671675487950745E-002   0.0000000000000000     
  -3.0363653945325208E-002   3.0736673510079023E-002   0.0000000000000000     
  -3.3118053769881133E-002   3.5018207031290882E-002   0.0000000000000000     
  -3.5797269715145075E-002   3.9516276051586335E-002   0.0000000000000000     
  -2.2331132111674153E-002   3.6948960065924019E-002   0.0000000000000000     
  -2.4071694565467532E-002   4.1695713491302959E-002   0.0000000000000000     
  -2.5768444211178722E-002   4.6651252507248379E-002   0.0000000000000000     
  -2.7421381048807730E-002   5.1815577113760294E-002   0.0000000000000000     
  -2.9030505078354550E-002   5.7188687310838711E-002   0.0000000000000000     
  -2.5473047312534119E-002   3.7494583065960305E-002   0.0000000000000000     
  -2.7424497871546612E-002   4.2231930223104543E-002   0.0000000000000000     
  -2.9320086906812124E-002   4.7174782348216135E-002   0.0000000000000000     
  -3.1159814418330635E-002   5.2323139441295061E-002   0.0000000000000000     
  -3.2943680406102169E-002   5.7677001502341341E-002   0.0000000000000000     
  -2.8764708646732595E-002   3.8104343396916110E-002   0.0000000000000000     
  -3.0930116885919269E-002   4.2831584104640066E-002   0.0000000000000000     
  -3.3029918937078483E-002   4.7761302139533654E-002   0.0000000000000000     
  -3.5064114800210218E-002   5.2893497501596887E-002   0.0000000000000000     
  -3.7032704475314503E-002   5.8228170190829764E-002   0.0000000000000000     
  -3.2206116114269580E-002   3.8778241058791456E-002   0.0000000000000000     
  -3.4588551608585504E-002   4.3494675135909502E-002   0.0000000000000000     
  -3.6897940301977808E-002   4.8410811881200944E-002   0.0000000000000000     
  -3.9134282194446500E-002   5.3526651294665786E-002   0.0000000000000000     
  -4.1297577285991566E-002   5.8842193376304024E-002   0.0000000000000000     
  -3.5797269715145075E-002   3.9516276051586335E-002   0.0000000000000000     
  -3.8399802039545308E-002   4.4221203316912872E-002   0.0000000000000000     
  -4.0924151001510103E-002   4.9123311573218018E-002   0.0000000000000000     
  -4.3370316601039453E-002   5.4222600820501760E-002   0.0000000000000000     
  -4.5738298838133358E-002   5.9519071058764111E-002   0.0000000000000000     
  -2.9030505078354550E-002   5.7188687310838711E-002   0.0000000000000000     
  -3.0594779094320200E-002   6.2756617360110484E-002   0.0000000000000000     
  -3.2113165891205699E-002   6.8505401523202461E-002   0.0000000000000000     
  -3.3585665469011046E-002   7.4435039800114650E-002   0.0000000000000000     
  -3.5012277827736235E-002   8.0545532190847063E-002   0.0000000000000000     
  -3.2943680406102169E-002   5.7677001502341341E-002   0.0000000000000000     
  -3.4673786815151895E-002   6.3224361459776959E-002   0.0000000000000000     
  -3.6352235590505037E-002   6.8953212242023929E-002   0.0000000000000000     
  -3.7979026732161594E-002   7.4863553849082276E-002   0.0000000000000000     
  -3.9554160240121539E-002   8.0955386280951974E-002   0.0000000000000000     
  -3.7032704475314503E-002   5.8228170190829764E-002   0.0000000000000000     
  -3.8940000967149391E-002   6.3755037486799268E-002   0.0000000000000000     
  -4.0790317280472964E-002   6.9463816669072337E-002   0.0000000000000000     
  -4.2583653415285229E-002   7.5354507737649012E-002   0.0000000000000000     
  -4.4320009371586200E-002   8.1427110692529267E-002   0.0000000000000000     
  -4.1297577285991566E-002   5.8842193376304024E-002   0.0000000000000000     
  -4.3393421550312686E-002   6.4348645441177410E-002   0.0000000000000000     
  -4.5427410961109478E-002   7.0037214804347686E-002   0.0000000000000000     
  -4.7399545518381977E-002   7.5907901465814859E-002   0.0000000000000000     
  -4.9309825222130191E-002   8.1960705425578942E-002   0.0000000000000000     
  -4.5738298838133358E-002   5.9519071058764111E-002   0.0000000000000000     
  -4.8034048564641746E-002   6.5005185322911399E-002   0.0000000000000000     
  -5.0263516632414580E-002   7.0673406647849976E-002   0.0000000000000000     
  -5.2426703041451840E-002   7.6523735033579829E-002   0.0000000000000000     
  -5.4523607791753519E-002   8.2556170480100985E-002   0.0000000000000000     
  -3.5012277827736235E-002   8.0545532190847063E-002   0.0000000000000000     
  -3.6385423255433098E-002   8.6825556898966288E-002   0.0000000000000000     
  -3.7697522040153475E-002   9.3263792128038994E-002   0.0000000000000000     
  -3.8948574181897351E-002   9.9860237878065125E-002   0.0000000000000000     
  -4.0138579680664727E-002  0.10661489414904474        0.0000000000000000     
  -3.9554160240121539E-002   8.0955386280951974E-002   0.0000000000000000     
  -4.1072202906020663E-002   8.7216745172222776E-002   0.0000000000000000     
  -4.2527721521494664E-002   9.3635666157484435E-002   0.0000000000000000     
  -4.3920716086543569E-002  0.10021214923673696        0.0000000000000000     
  -4.5251186601167372E-002  0.10694619440998032        0.0000000000000000     
  -4.4320009371586200E-002   8.1427110692529267E-002   0.0000000000000000     
  -4.5994585020840091E-002   8.7669154870915367E-002   0.0000000000000000     
  -4.7602580234511173E-002   9.4068169610009578E-002   0.0000000000000000     
  -4.9143995012599438E-002  0.10062415490981194        0.0000000000000000     
  -5.0618829355104880E-002  0.10733711077032239        0.0000000000000000     
  -4.9309825222130191E-002   8.1960705425578942E-002   0.0000000000000000     
  -5.1152569599891416E-002   8.8182785995044075E-002   0.0000000000000000     
  -5.2922098179203007E-002   9.4561302485614451E-002   0.0000000000000000     
  -5.4618410960064964E-002  0.10109625489729007        0.0000000000000000     
  -5.6241507942477252E-002  0.10778764323007091        0.0000000000000000     
  -5.4523607791753519E-002   8.2556170480100985E-002   0.0000000000000000     
  -5.6546156643174625E-002   8.8757638544608886E-002   0.0000000000000000     
  -5.8486275355570147E-002   9.5115064784299014E-002   0.0000000000000000     
  -6.0343963928940113E-002  0.10162844919917136        0.0000000000000000     
  -6.2119222363284501E-002  0.10829779178922593        0.0000000000000000     
  -4.0138579680664727E-002  0.10661489414904474        0.0000000000000000     
  -4.1280445470440331E-002  0.11351977652566972        0.0000000000000000     
  -4.2387078485208896E-002  0.12056690059263203        0.0000000000000000     
  -4.3458478724970419E-002  0.12775626634993167        0.0000000000000000     
  -4.4494646189724894E-002  0.13508787379756865        0.0000000000000000     
  -4.5251186601167372E-002  0.10694619440998032        0.0000000000000000     
  -4.6522320589292433E-002  0.11382805165512953        0.0000000000000000     
  -4.7737305574845096E-002  0.12084797095009958        0.0000000000000000     
  -4.8896141557825380E-002  0.12800595229489048        0.0000000000000000     
  -4.9998828538233266E-002  0.13530199568950224        0.0000000000000000     
  -5.0618829355104880E-002  0.10733711077032239        0.0000000000000000     
  -5.2025940134731129E-002  0.11419641303710992        0.0000000000000000     
  -5.3364184224181779E-002  0.12119143755574356        0.0000000000000000     
  -5.4633561623456860E-002  0.12832218432622322        0.0000000000000000     
  -5.5834072332556349E-002  0.13558865334854903        0.0000000000000000     
  -5.6241507942477252E-002  0.10778764323007091        0.0000000000000000     
  -5.7791304106756432E-002  0.11462486067161090        0.0000000000000000     
  -5.9267714433218960E-002  0.12159730040956390        0.0000000000000000     
  -6.0670738921864878E-002  0.12870496244392990        0.0000000000000000     
  -6.2000377572694138E-002  0.13594784677470897        0.0000000000000000     
  -6.2119222363284501E-002  0.10829779178922593        0.0000000000000000     
  -6.3818412505368335E-002  0.11511339455863244        0.0000000000000000     
  -6.5447896201956637E-002  0.12206555951156065        0.0000000000000000     
  -6.7007673453049421E-002  0.12915428664801054        0.0000000000000000     
  -6.8497744258646659E-002  0.13637957596798209        0.0000000000000000     
  -4.4494646189724894E-002  0.13508787379756865        0.0000000000000000     
  -4.5475774860008512E-002  0.14252756888944978        0.0000000000000000     
  -4.6382058716357484E-002  0.15004119757948195        0.0000000000000000     
  -4.7213497758771775E-002  0.15762875986766511        0.0000000000000000     
  -4.7970091987251433E-002  0.16529025575399933        0.0000000000000000     
  -4.9998828538233266E-002  0.13530199568950224        0.0000000000000000     
  -5.1051970473286912E-002  0.14268100730245373        0.0000000000000000     
  -5.2062171320204499E-002  0.15008789330226388        0.0000000000000000     
  -5.3029431078985986E-002  0.15752265368893267        0.0000000000000000     
  -5.3953749749631408E-002  0.16498528846246013        0.0000000000000000     
  -5.5834072332556349E-002  0.13558865334854903        0.0000000000000000     
  -5.6984789383916191E-002  0.14292699062110228        0.0000000000000000     
  -5.8104785809972304E-002  0.15027334214226443        0.0000000000000000     
  -5.9194061610724699E-002  0.15762770791203548        0.0000000000000000     
  -6.0252616786173378E-002  0.16499008793041542        0.0000000000000000     
  -6.2000377572694138E-002  0.13594784677470897        0.0000000000000000     
  -6.3274231591896310E-002  0.14326551884539540        0.0000000000000000     
  -6.4509902185660897E-002  0.15059754409948356        0.0000000000000000     
  -6.5707389353987913E-002  0.15794392253697345        0.0000000000000000     
  -6.6866693096877372E-002  0.16530465415786511        0.0000000000000000     
  -6.8497744258646659E-002  0.13637957596798209        0.0000000000000000     
  -6.9920297097227316E-002  0.14369659197533308        0.0000000000000000     
  -7.1277520447270315E-002  0.15106049917392128        0.0000000000000000     
  -7.2569414308775670E-002  0.15847129756374664        0.0000000000000000     
  -7.3795978681743341E-002  0.16592898714480925        0.0000000000000000     
   0.0000000000000000        0.0000000000000000        0.0000000000000000     
  -2.8802946449070850E-003   1.7446355951258113E-003   0.0000000000000000     
  -5.8731135777621100E-003   3.8642719477243442E-003   0.0000000000000000     
  -8.9784567985650762E-003   6.3589090577955967E-003   0.0000000000000000     
  -1.2196324307315981E-002   9.2285469253395713E-003   0.0000000000000000     
   0.0000000000000000        0.0000000000000000        0.0000000000000000     
  -3.2834771416634348E-003   1.9992294882131582E-003   0.0000000000000000     
  -6.6774298621705384E-003   4.3306895368986596E-003   0.0000000000000000     
  -1.0181858161521310E-002   6.9943801460565025E-003   0.0000000000000000     
  -1.3796762039715752E-002   9.9903013156866886E-003   0.0000000000000000     
   0.0000000000000000        0.0000000000000000        0.0000000000000000     
  -3.9537786554984036E-003   2.4249867900894063E-003   0.0000000000000000     
  -7.9109920938522094E-003   5.0626622263579826E-003   0.0000000000000000     
  -1.1871640315061414E-002   7.9130263088057311E-003   0.0000000000000000     
  -1.5835723319126020E-002   1.0976079037432654E-002   0.0000000000000000     
   0.0000000000000000        0.0000000000000000        0.0000000000000000     
  -4.8911991864119915E-003   3.0219075007545523E-003   0.0000000000000000     
  -9.5738002728071193E-003   6.0601900161023139E-003   0.0000000000000000     
  -1.4047803259185383E-002   9.1148475460432858E-003   0.0000000000000000     
  -1.8313208145546780E-002   1.2185880090577467E-002   0.0000000000000000     
   0.0000000000000000        0.0000000000000000        0.0000000000000000     
  -6.0957387344042014E-003   3.7899916202085997E-003   0.0000000000000000     
  -1.1665854399035275E-002   7.3232729061316545E-003   0.0000000000000000     
  -1.6710346993893222E-002   1.0599843857769164E-002   0.0000000000000000     
  -2.1229216518978040E-002   1.3619704475121130E-002   0.0000000000000000     
  -1.2196324307315981E-002   9.2285469253395713E-003   0.0000000000000000     
  -1.5428982693798480E-002   1.2371067237522728E-002   0.0000000000000000     
  -1.8578698547796223E-002   1.5684351681511523E-002   0.0000000000000000     
  -2.1645471869309211E-002   1.9168400257305967E-002   0.0000000000000000     
  -2.4629302658337446E-002   2.2823212964906050E-002   0.0000000000000000     
  -1.3796762039715752E-002   9.9903013156866886E-003   0.0000000000000000     
  -1.7405194377061489E-002   1.3220457879604306E-002   0.0000000000000000     
  -2.0890208053866152E-002   1.6586854671624449E-002   0.0000000000000000     
  -2.4251803070129734E-002   2.0089491691747115E-002   0.0000000000000000     
  -2.7489979425852244E-002   2.3728368939972305E-002   0.0000000000000000     
  -1.5835723319126020E-002   1.0976079037432654E-002   0.0000000000000000     
  -1.9731570755556281E-002   1.4210580502310886E-002   0.0000000000000000     
  -2.3487512273862452E-002   1.7575290793512569E-002   0.0000000000000000     
  -2.7103547874044544E-002   2.1070209911037700E-002   0.0000000000000000     
  -3.0579677556102546E-002   2.4695337854886278E-002   0.0000000000000000     
  -1.8313208145546780E-002   1.2185880090577467E-002   0.0000000000000000     
  -2.2408111829282852E-002   1.5341435105642462E-002   0.0000000000000000     
  -2.6370611207785138E-002   1.8649660047175876E-002   0.0000000000000000     
  -3.0200706281053633E-002   2.2110554915177712E-002   0.0000000000000000     
  -3.3898397049088341E-002   2.5724119709647969E-002   0.0000000000000000     
  -2.1229216518978040E-002   1.3619704475121130E-002   0.0000000000000000     
  -2.5434817598241205E-002   1.6613021689599040E-002   0.0000000000000000     
  -2.9539504855634197E-002   1.9809962432614382E-002   0.0000000000000000     
  -3.3543278291157011E-002   2.3210526704167161E-002   0.0000000000000000     
  -3.7446137904809648E-002   2.6814714504257375E-002   0.0000000000000000     
  -2.4629302658337446E-002   2.2823212964906050E-002   0.0000000000000000     
  -2.7534070241477315E-002   2.6671675487950745E-002   0.0000000000000000     
  -3.0363653945325208E-002   3.0736673510079023E-002   0.0000000000000000     
  -3.3118053769881133E-002   3.5018207031290882E-002   0.0000000000000000     
  -3.5797269715145075E-002   3.9516276051586335E-002   0.0000000000000000     
  -2.7489979425852244E-002   2.3728368939972305E-002   0.0000000000000000     
  -3.0627220397412658E-002   2.7545852077840386E-002   0.0000000000000000     
  -3.3686009261189934E-002   3.1584306766891709E-002   0.0000000000000000     
  -3.6666346017184076E-002   3.5843733007126281E-002   0.0000000000000000     
  -3.9568230665395096E-002   4.0324130798544112E-002   0.0000000000000000     
  -3.0579677556102546E-002   2.4695337854886278E-002   0.0000000000000000     
  -3.3944896512409083E-002   2.8495021489395370E-002   0.0000000000000000     
  -3.7228199935336791E-002   3.2513607678902046E-002   0.0000000000000000     
  -4.0429587824885656E-002   3.6751096423406314E-002   0.0000000000000000     
  -4.3549060181055692E-002   4.1207487722908165E-002   0.0000000000000000     
  -3.3898397049088341E-002   2.5724119709647969E-002   0.0000000000000000     
  -3.7487098586466601E-002   2.9519183722615722E-002   0.0000000000000000     
  -4.0990225967765782E-002   3.3524576246110063E-002   0.0000000000000000     
  -4.4407779192985851E-002   3.7740297280130980E-002   0.0000000000000000     
  -4.7739758262126827E-002   4.2166346824678499E-002   0.0000000000000000     
  -3.7446137904809648E-002   2.6814714504257375E-002   0.0000000000000000     
  -4.1253826619585231E-002   3.0618338777501430E-002   0.0000000000000000     
  -4.4972087358476909E-002   3.4617212468515735E-002   0.0000000000000000     
  -4.8600920121484668E-002   3.8811335577300293E-002   0.0000000000000000     
  -5.2140324908608524E-002   4.3200708103855096E-002   0.0000000000000000     
  -3.5797269715145075E-002   3.9516276051586335E-002   0.0000000000000000     
  -3.8399802039545308E-002   4.4221203316912872E-002   0.0000000000000000     
  -4.0924151001510103E-002   4.9123311573218018E-002   0.0000000000000000     
  -4.3370316601039453E-002   5.4222600820501760E-002   0.0000000000000000     
  -4.5738298838133358E-002   5.9519071058764111E-002   0.0000000000000000     
  -3.9568230665395096E-002   4.0324130798544112E-002   0.0000000000000000     
  -4.2389642873869204E-002   4.5012961981050356E-002   0.0000000000000000     
  -4.5128562310652598E-002   4.9897688394550180E-002   0.0000000000000000     
  -4.7784988975745298E-002   5.4978310039043604E-002   0.0000000000000000     
  -5.0358922869147268E-002   6.0254826914530615E-002   0.0000000000000000     
  -4.3549060181055692E-002   4.1207487722908165E-002   0.0000000000000000     
  -4.6583848806627706E-002   4.5871744461722139E-002   0.0000000000000000     
  -4.9531185504382548E-002   5.0732829524162797E-002   0.0000000000000000     
  -5.2391070274320210E-002   5.5790742910230139E-002   0.0000000000000000     
  -5.5163503116440700E-002   6.1045484619924158E-002   0.0000000000000000     
  -4.7739758262126827E-002   4.2166346824678499E-002   0.0000000000000000     
  -5.0982419837820821E-002   4.6797550758928226E-002   0.0000000000000000     
  -5.4132020582699954E-002   5.1628734962055847E-002   0.0000000000000000     
  -5.7188560496764233E-002   5.6659899434061342E-002   0.0000000000000000     
  -6.0152039580013646E-002   6.1891044174944725E-002   0.0000000000000000     
  -5.2140324908608524E-002   4.3200708103855096E-002   0.0000000000000000     
  -5.5585355967448541E-002   4.7790380872668625E-002   0.0000000000000000     
  -5.8931067545604815E-002   5.2585404708229339E-002   0.0000000000000000     
  -6.2177459643077339E-002   5.7585779610537235E-002   0.0000000000000000     
  -6.5324532259866105E-002   6.2791505579592330E-002   0.0000000000000000     
  -4.5738298838133358E-002   5.9519071058764111E-002   0.0000000000000000     
  -4.8034048564641746E-002   6.5005185322911399E-002   0.0000000000000000     
  -5.0263516632414580E-002   7.0673406647849976E-002   0.0000000000000000     
  -5.2426703041451840E-002   7.6523735033579829E-002   0.0000000000000000     
  -5.4523607791753519E-002   8.2556170480100985E-002   0.0000000000000000     
  -5.0358922869147268E-002   6.0254826914530615E-002   0.0000000000000000     
  -5.2856245418114206E-002   6.5720134940008987E-002   0.0000000000000000     
  -5.5282838049901743E-002   7.1367130034476547E-002   0.0000000000000000     
  -5.7638700764509915E-002   7.7195812197933256E-002   0.0000000000000000     
  -5.9923833561938693E-002   8.3206181430379125E-002   0.0000000000000000     
  -5.5163503116440700E-002   6.1045484619924158E-002   0.0000000000000000     
  -5.7854375518707583E-002   6.6488972100477980E-002   0.0000000000000000     
  -6.0469578969084468E-002   7.2113122799124754E-002   0.0000000000000000     
  -6.3009113467571348E-002   7.7917936715864458E-002   0.0000000000000000     
  -6.5472979014168209E-002   8.3903413850697106E-002   0.0000000000000000     
  -6.0152039580013646E-002   6.1891044174944725E-002   0.0000000000000000     
  -6.3028438866421899E-002   6.7311696804318352E-002   0.0000000000000000     
  -6.5823739389962735E-002   7.2911384941794596E-002   0.0000000000000000     
  -6.8537941150636134E-002   7.8690108587373450E-002   0.0000000000000000     
  -7.1171044148442122E-002   8.4647867741054927E-002   0.0000000000000000     
  -6.5324532259866105E-002   6.2791505579592330E-002   0.0000000000000000     
  -6.8378435461257173E-002   6.8188309051530102E-002   0.0000000000000000     
  -7.1345319312536570E-002   7.3761916462486088E-002   0.0000000000000000     
  -7.4225183813704299E-002   7.9512327812460218E-002   0.0000000000000000     
  -7.7018028964760343E-002   8.5439543101452575E-002   0.0000000000000000     
  -5.4523607791753519E-002   8.2556170480100985E-002   0.0000000000000000     
  -5.6546156643174625E-002   8.8757638544608886E-002   0.0000000000000000     
  -5.8486275355570147E-002   9.5115064784299014E-002   0.0000000000000000     
  -6.0343963928940113E-002  0.10162844919917136        0.0000000000000000     
  -6.2119222363284501E-002  0.10829779178922593        0.0000000000000000     
  -5.9923833561938693E-002   8.3206181430379125E-002   0.0000000000000000     
  -6.2127681028026946E-002   8.9385285319181496E-002   0.0000000000000000     
  -6.4239687748613564E-002   9.5720171451707706E-002   0.0000000000000000     
  -6.6259853723698539E-002  0.10221083982795770        0.0000000000000000     
  -6.8188178953281872E-002  0.10885729044793155        0.0000000000000000     
  -6.5472979014168209E-002   8.3903413850697106E-002   0.0000000000000000     
  -6.7849477631785643E-002   9.0057299118333642E-002   0.0000000000000000     
  -7.0126911343334208E-002   9.6367337433484926E-002   0.0000000000000000     
  -7.2305280148813877E-002  0.10283352879615107        0.0000000000000000     
  -7.4384584048224678E-002  0.10945587320633193        0.0000000000000000     
  -7.1171044148442122E-002   8.4647867741054927E-002   0.0000000000000000     
  -7.3711546454450716E-002   9.0773679942065269E-002   0.0000000000000000     
  -7.6147946139732067E-002   9.7056562729630771E-002   0.0000000000000000     
  -7.8480243204286121E-002  0.10349651610375135        0.0000000000000000     
  -8.0708437648112905E-002  0.11009354006442705        0.0000000000000000     
  -7.7018028964760343E-002   8.5439543101452575E-002   0.0000000000000000     
  -7.9713887496022151E-002   9.1534427790376419E-002   0.0000000000000000     
  -8.2302792137807113E-002   9.7787847340145104E-002   0.0000000000000000     
  -8.4784742890115242E-002  0.10419980175075862        0.0000000000000000     
  -8.7159739752946552E-002  0.11077029102221694        0.0000000000000000     
  -6.2119222363284501E-002  0.10829779178922593        0.0000000000000000     
  -6.3818412505368335E-002  0.11511339455863244        0.0000000000000000     
  -6.5447896201956637E-002  0.12206555951156065        0.0000000000000000     
  -6.7007673453049421E-002  0.12915428664801054        0.0000000000000000     
  -6.8497744258646659E-002  0.13637957596798209        0.0000000000000000     
  -6.8188178953281872E-002  0.10885729044793155        0.0000000000000000     
  -7.0038297624776841E-002  0.11565073162887063        0.0000000000000000     
  -7.1823843925596667E-002  0.12258237168801640        0.0000000000000000     
  -7.3544817855741379E-002  0.12965221062536883        0.0000000000000000     
  -7.5201219415210990E-002  0.13686024844092792        0.0000000000000000     
  -7.4384584048224678E-002  0.10945587320633193        0.0000000000000000     
  -7.6381991759191914E-002  0.11622558881302153        0.0000000000000000     
  -7.8314671999340960E-002  0.12313389376521376        0.0000000000000000     
  -8.0182624768671704E-002  0.13018078806290859        0.0000000000000000     
  -8.1985850067184229E-002  0.13736627170610607        0.0000000000000000     
  -8.0708437648112905E-002  0.11009354006442705        0.0000000000000000     
  -8.2849494908613597E-002  0.11683796611108510        0.0000000000000000     
  -8.4920380423189432E-002  0.12372012574315272        0.0000000000000000     
  -8.6921094191840395E-002  0.13074001896062984        0.0000000000000000     
  -8.8851636214566446E-002  0.13789764576351649        0.0000000000000000     
  -8.7159739752946552E-002  0.11077029102221694        0.0000000000000000     
  -8.9440807073041889E-002  0.11748786352306141        0.0000000000000000     
  -9.1640969197142180E-002  0.12434106762183327        0.0000000000000000     
  -9.3760226125247384E-002  0.13132990331853253        0.0000000000000000     
  -9.5798577857357542E-002  0.13845437061315918        0.0000000000000000     
  -6.8497744258646659E-002  0.13637957596798209        0.0000000000000000     
  -6.9920297097227316E-002  0.14369659197533308        0.0000000000000000     
  -7.1277520447270315E-002  0.15106049917392128        0.0000000000000000     
  -7.2569414308775670E-002  0.15847129756374664        0.0000000000000000     
  -7.3795978681743341E-002  0.16592898714480925        0.0000000000000000     
  -7.5201219415210990E-002  0.13686024844092792        0.0000000000000000     
  -7.6777162099924467E-002  0.14417902185629730        0.0000000000000000     
  -7.8256759405800819E-002  0.15158106759308057        0.0000000000000000     
  -7.9640011332840030E-002  0.15906638565127773        0.0000000000000000     
  -8.0926917881042129E-002  0.16663497603088870        0.0000000000000000     
  -8.1985850067184229E-002  0.13736627170610607        0.0000000000000000     
  -8.3699002800003100E-002  0.14467162033367006        0.0000000000000000     
  -8.5296737872252740E-002  0.15207810958446444        0.0000000000000000     
  -8.6779055283933204E-002  0.15958573945848917        0.0000000000000000     
  -8.8145955035044493E-002  0.16719450995574431        0.0000000000000000     
  -8.8851636214566446E-002  0.13789764576351649        0.0000000000000000     
  -9.0685819197463130E-002  0.14517438740745131        0.0000000000000000     
  -9.2397455846626064E-002  0.15255162514807280        0.0000000000000000     
  -9.3986546162055123E-002  0.16002935898538104        0.0000000000000000     
  -9.5453090143750419E-002  0.16760758891937605        0.0000000000000000     
  -9.5798577857357542E-002  0.13845437061315918        0.0000000000000000     
  -9.7737611292304669E-002  0.14568732307764101        0.0000000000000000     
  -9.9558913328920765E-002  0.15300161428390577        0.0000000000000000     
 -0.10126248396720586       0.16039724423195337        0.0000000000000000     
 -0.10284832320715993       0.16787421292178389        0.0000000000000000     
 </DataArray>
 <DataArray  type="Float64" Name="stress" NumberOfComponents="3" format="ascii">
   13416396009.508530        4024918802.8525586        2894119511.7275043     
   11766187665.037254        1890234380.5855706        1715889327.9588597     
   10313301825.214510        413291640.48034620        810742053.86432385     
   9057738490.0402966       -405909417.46311569        178677689.44389445     
   7999497659.5146084       -567368793.24481201       -180303765.30242595     
   10539695039.866203        3161908511.9598608        2225824725.8282938     
   9667270019.4803257        1589427877.0746429        1446751240.7275896     
   8943516673.9937229        512519491.85366583        863150375.08421242     
   8368435003.4063902       -68816643.703069210        475022128.89816201     
   7942025007.7183285       -154580529.59556627        282366502.16943794     
   8337656657.9575338        2501296997.3872604        1712397586.8300543     
   8021271275.3233919        1424497043.9837139        1275721499.0231569     
   7804906737.8392687        681099907.74688625        956907740.45680499     
   7688563045.5051603        271105588.67677689        755956311.13100064     
   7672240198.3210678        194514086.77338648        672867211.04574192     
   6810280863.7825184        2043084259.1347554        1353838094.7327855     
   6828191432.5664568        1395441881.3127842        1202800102.8455617     
   6897472016.7511530        919032888.16000843        1092014149.9821036     
   7018122616.3366089        613857279.67642784        1021480236.1424111     
   7190143231.3228245        479915055.86204386        991198361.32648528     
   5957567657.3411598        1787270297.2023478        1150146249.5364876     
   6088030491.2095156        1502262389.0618527        1227987052.1948044     
   6221212510.7293749        1226318433.0930314        1268469603.6601067     
   6357113715.9007387        959438429.29588258        1271593903.9323945     
   6495734106.7236004        701622377.67040682        1237359953.0116668     
   7999497659.5146084       -567368793.24481201       -180303765.30242595     
   7917515458.8063154       -199729732.37597609       -78310398.048748627     
   7793960762.9255295        29334344.584547043       -8963221.6186732259     
   7628833571.8722439        119823437.63674545        27737763.987799793     
   7422133885.6464653        71737546.780630112        31792558.770668983     
   7942025007.7183285       -154580529.59556627        282366502.16943794     
   7739544664.5235949        16754443.190827370        281072211.08394146     
   7513614600.0103989        109923678.24901009        265034175.38996416     
   7264234814.1787395        124927175.57897997        234252395.08750859     
   6991405307.0286140        61764935.180733681        188726870.17656943     
   7672240198.3210678        194514086.77338648        672867211.04574192     
   7400411558.9688158        184889925.37601471        589428497.78410554     
   7123255972.1521339        157509272.43053484        509148486.12911409     
   6840773437.8710165        112372127.93694592        432027176.08076489     
   6552963956.1254692        49478491.895250082        358064567.63905936     
   7190143231.3228245        479915055.86204386        991198361.32648528     
   6900116142.1419792        304676714.17958307        846758462.05174732     
   6622884879.3507347        172091127.12912083        723379710.59877586     
   6358449442.9490862        82158294.710652590        621062106.96757162     
   6106809832.9370375        34878216.924181700        539805651.15813327     
   6495734106.7236004        701622377.67040682        1237359953.0116668     
   6238658414.0430822        376114809.60153437        1053062103.8868641     
   6012501321.6061954        153669242.34476209        907727848.79895127     
   5817262829.4129438        34285675.900094748        801357187.74792778     
   5652942937.4633150        17964110.267527342        733950120.73379445     
   7422133885.6464653        71737546.780630112        31792558.770668983     
   7219616217.4299526       -19441460.854654789        14679452.334316291     
   7029430788.0022345       -69513005.860619545        2034484.3893273768     
   6851577597.3633108       -78477088.237270355       -6142345.0643059276     
   6686056645.5131845       -46333707.984600067       -9851036.0265783388     
   6991405307.0286140        61764935.180733681        188726870.17656943     
   6809091801.1782560        2164337.7720689774        180371842.66458660     
   6634672088.6900921       -31123615.095963955        175803014.58291566     
   6468146169.5641146       -38098923.423372507        175020385.93155864     
   6309514043.8003244       -18761587.210145712        178023956.71051189     
   6552963956.1254692        49478491.895250082        358064567.63905936     
   6388906215.3239985        20871785.518021822        353289432.72039992     
   6228303822.4581089        3782905.5927376747        351618558.17101043     
   6071156777.5278034       -1788147.8806066513        353051943.99088562     
   5917465080.5330801        4158625.0979967117        357589590.18002689     
   6106809832.9370375        34878216.924181700        539805651.15813327     
   5959059459.8671732        36680882.383206367        533432222.50176048     
   5810325989.3062878        35206556.205488443        529481115.15360826     
   5660609421.2543774        30455238.391023159        527952329.11367643     
   5509909755.7114458        22426928.939818144        528845864.38196588     
   5652942937.4633150        17964110.267527342        733950120.73379445     
   5519551534.8077850        49591628.367622614        720800212.00866723     
   5380738589.2346287        63147336.742289305        709390685.53071296     
   5236504100.7438393        58631235.391518593        699721541.29993272     
   5086848069.3354206        36043324.315323114        691792779.31632864     
   6686056645.5131845       -46333707.984600067       -9851036.0265783388     
   6511419791.6419010       -6412316.2030503750       -3526417.3772298493     
   6331382203.6863623        15506628.630990028        3852616.3643240249     
   6145943881.6465816        19423126.517552853        12286065.198075598     
   5955104825.5225439        5337177.4565925598        21773929.124031276     
   6309514043.8003244       -18761587.210145712        178023956.71051189     
   6133954704.3890619        2511110.7149002552        174606272.87591141     
   5955125874.3448801        12885506.530215740        173728114.42370334     
   5773027553.6677837        12361600.235814333        175389481.35389215     
   5587659742.3577652        939391.83167600632        179590373.66647467     
   5917465080.5330801        4158625.0979967117        357589590.18002689     
   5745226427.8395386        8055580.8438479900        346916054.55469245     
   5571849527.9644070        8158379.3177440166        340267154.60194898     
   5397334380.9076958        4467020.5196986198        337642890.32179356     
   5221680986.6693935       -3018495.5503120422        339043261.71422720     
   5509909755.7114458        22426928.939818144        528845864.38196588     
   5345234961.9933205        10221094.183784485        513402927.65911996     
   5181553164.5449448        1325246.9935755730        503469736.89906305     
   5018864363.3663139       -4260612.6308140755        499046292.10178411     
   4857168558.4574318       -6536484.6893734932        500132593.26729029     
   5086848069.3354206        36043324.315323114        691792779.31632864     
   4933980306.8504162        9007650.7347140312        674066892.18919337     
   4784236784.0864925       -7613890.4422910213        663335861.31503749     
   4637617501.0436459       -13821299.215703487        659599686.69385970     
   4494122457.7218781       -9614575.5855178833        662858368.32566226     
   5955104825.5225439        5337177.4565925598        21773929.124031276     
   5781667085.7968693       -7645610.8237550259        14001503.641332723     
   5610915420.2836485       -11674818.395915985        10912445.490424566     
   5442849828.9828806       -6750445.2599024773        12506754.671326982     
   5277470311.8945560        7127508.5842556953        18784431.184014030     
   5587659742.3577652        939391.83167600632        179590373.66647467     
   5427575559.2504425       -5264994.6087617874        174565247.87310752     
   5269200031.7229948       -5773862.4496169090        173564474.79900971     
   5112533159.7754269       -587211.69087481499        176588054.44417349     
   4957574943.4077339        10294957.667457819        183635986.80860528     
   5221680986.6693935       -3018495.5503120422        339043261.71422720     
   5073067461.2874727       -3009349.8187303543        335625113.87219489     
   4925185172.8528509       -562747.59615683556        335572304.13688803     
   4778034121.3655367        4321311.1174349785        338884832.50831974     
   4631614306.8255177        11642826.322021961        345562698.98647946     
   4857168558.4574318       -6536484.6893734932        500132593.26729029     
   4718142791.9079657       -878676.45365929604        497181101.63858014     
   4578870843.6732216        3958526.1644663811        496935933.50406706     
   4439352713.7532034        7975123.1650090218        499397088.86376011     
   4299588402.1479053        11171114.547963858        504564567.71764976     
   4494122457.7218781       -9614575.5855178833        662858368.32566226     
   4362801551.1119156        1127025.4864430428        659233211.17227125     
   4230257044.1840959        7789958.8322291374        657655362.90054941     
   4096488936.9384303        10374224.451849222        658124823.51049173     
   3961497229.3749123        8879822.3453013897        660641593.00210619     
   5277470311.8945560        7127508.5842556953        18784431.184014030     
   5070593497.0052013        9685693.7351598740        16633716.425554438     
   4861775280.8574743        5772541.3581552505        16904551.111359604     
   4651015663.4513798       -4611948.5467414856        19596935.241416719     
   4438314644.7869263       -21467775.979501486        24710868.815733470     
   4957574943.4077339        10294957.667457819        183635986.80860528     
   4757370419.6679821        8337982.3557245731        178181520.03864539     
   4555941689.2768497        2300318.2060658932        176479995.58471948     
   4353288752.2343435       -7818034.7815101147        178531413.44684455     
   4149411608.5404692       -22017076.606968403        184335773.62501192     
   4631614306.8255177        11642826.322021961        345562698.98647946     
   4441886053.8690376        6311884.4377467632        337641207.24649984     
   4251650788.8681850       -709097.59444189072        334804050.69434899     
   4060908511.8229451       -9420119.7745940685        337051229.33003086     
   3869659222.7333255       -19821182.102661133        344382743.15355444     
   4299588402.1479053        11171114.547963858        504564567.71764976     
   4124140399.6083918        3607399.9812781811        495012778.04914188     
   3948902579.6314907       -3255706.0433619022        491876716.44025701     
   3773874942.2171965       -9418203.5259730816        495156382.89099109     
   3599057487.3655176       -14880092.466549873        504851777.40133983     
   3961497229.3749123        8879822.3453013897        660641593.00210619     
   3804133456.8860354        224528.98629593849        650296232.44656456     
   3647697061.5667629       -5339507.1406877041        647697992.82243240     
   3492188043.4170890       -7812286.0356755257        652846874.12970769     
   3337606402.4370236       -7193807.6986346245        665742876.36838543     
   4438314644.7869263       -21467775.979501486        24710868.815733470     
   4291894621.8872132       -18514938.170336008        13097091.159881728     
   4147366132.0123563       -9256990.2783324718        9302202.2498949580     
   4004729175.1623607        6306067.6965422630        13326202.085785968     
   3863983751.3372178        28174235.754271030        25169090.667554758     
   4149411608.5404692       -22017076.606968403        184335773.62501192     
   4021742295.3222709       -13465156.151665926        176446272.00577408     
   3895223746.8684778       -1077353.1483392715        173869408.47734255     
   3769855963.1790905        15146332.403001785        176605183.03969491     
   3645638944.2540989        35205900.502339602        184653595.69284591     
   3869659222.7333255       -19821182.102661133        344382743.15355444     
   3753579903.0392809       -7818393.8483896255        339353287.93373919     
   3637910579.8491764        5551049.4190270901        337130220.14965171     
   3522651253.1630268        20287147.699616194        337713539.80126518     
   3407801922.9808226        36389900.993360281        341103246.88860130     
   3599057487.3655176       -14880092.466549873        504851777.40133983     
   3487407445.0382376       -1574651.2605428696        501818138.94376022     
   3375426630.9544535        10628217.423767090        499084637.26681674     
   3263115045.1141639        21728513.586394310        496651272.37050778     
   3150472687.5173640        31726237.227320313        494518044.25482959     
   3337606402.4370236       -7193807.6986346245        665742876.36838543     
   3223224921.3191490        5266071.6118968725        663840825.03583765     
   3107771900.1843109        14154150.865882874        659732659.82884777     
   2991247339.0325079        19470430.063331842        653418380.74740243     
   2873651237.8637495        21214909.204250097        644897987.79151893     
   3863983751.3372178        28174235.754271030        25169090.667554758     
   3617408698.5678234        14370940.052988291        27362552.250024348     
   3366355799.5368390       -14358509.853604555        27690844.112424277     
   3110825054.2442465       -58014113.965538025        26153966.254751340     
   2850816462.6900849       -116595872.28273368        22751918.676994648     
   3645638944.2540989        35205900.502339602        184653595.69284591     
   3398157087.9888835        16687592.992141485        178187086.22753724     
   3148470560.7565670       -9179617.7417255640        173976284.97989443     
   2896579362.5571389       -42395731.699322581        172021191.94989699     
   2642483493.3905773       -82960748.880663395        172321807.13755259     
   3407801922.9808226        36389900.993360281        341103246.88860130     
   3171187200.1847191        16688762.763743639        328628804.21908796     
   2934640981.7159991       -2784027.7079535723        322530947.70495164     
   2698163267.5746436       -22028470.421749830        322809677.34620005     
   2461754057.7606630       -41044565.377661824        329464993.14281654     
   3150472687.5173640        31726237.227320313        494518044.25482959     
   2936499035.1553226        14374449.367781401        478687706.22466266     
   2724867062.4151325        4828260.2477512360        473354832.28759634     
   2515576769.2967811        3087669.8672127724        478519422.44364583     
   2308628155.8002954        9152678.2261772156        494181476.69279605     
   2873651237.8637495        21214909.204250097        644897987.79151893     
   2694092592.9006858        9744652.8042372465        628363792.24426568     
   2519148802.8539572        13657246.125350833        626447938.72784054     
   2348819867.7235470        32952689.167550445        639150427.24225378     
   2183105787.5094943        67630981.930886149        666471257.78749824     
   5957567657.3411598        1787270297.2023478        1150146249.5364876     
   6088030491.2095156        1502262389.0618527        1227987052.1948044     
   6221212510.7293749        1226318433.0930314        1268469603.6601067     
   6357113715.9007387        959438429.29588258        1271593903.9323945     
   6495734106.7236004        701622377.67040682        1237359953.0116668     
   5434182616.8119793        1630254785.0435936        1033627634.7620991     
   5489436706.9136972        1372521305.7016101        1114012675.8709953     
   5546877324.8715973        1122076252.5468936        1167608989.3989124     
   5606504470.6856775        878919625.57944453        1194416575.3458512     
   5668318144.3559351        643051424.79926229        1194435433.7118115     
   4894791320.3734999        1468437396.1120501        936587833.93055987     
   4905035305.6001148        1247037937.2360382        1018895679.3954926     
   4916933160.8875866        1031151378.5628871        1084984320.8914833     
   4930484886.2359161        820777720.09259725        1134853758.4185317     
   4945690481.6451073        615916961.82516897        1168503991.9766381     
   4339393768.0257254        1301818130.4077177        859026847.04187000     
   4334826287.2687674        1125812283.6651371        942636062.76829696     
   4331380018.7773457        953543811.14101124        1020595598.1378186     
   4329054962.5514584        785012712.83534038        1092905453.1504345     
   4327851118.5911083        620218988.74812484        1159565627.8061445     
   3767989959.7686534        1130396987.9305961        800944674.09602880     
   3778809651.9196544        1008844344.9889058        885233825.98940837     
   3790217898.5408711        889253550.28126502        974442821.13791883     
   3802214699.6323009        771624603.80767369        1068571659.5415601     
   3814800055.1939468        655957505.56813145        1167620341.2003324     
   6495734106.7236004        701622377.67040682        1237359953.0116668     
   6238658414.0430822        376114809.60153437        1053062103.8868641     
   6012501321.6061954        153669242.34476209        907727848.79895127     
   5817262829.4129438        34285675.900094748        801357187.74792778     
   5652942937.4633150        17964110.267527342        733950120.73379445     
   5668318144.3559351        643051424.79926229        1194435433.7118115     
   5518086995.2359657        383532330.97378182        1073460484.4813963     
   5392018254.8258171        204554599.51437712        980481942.20449805     
   5290111923.1254902        106118230.42104602        915499806.88111556     
   5212368000.1349878        88223223.693790674        878514078.51125109     
   4945690481.6451073        615916961.82516897        1168503991.9766381     
   4870969055.8474741        412985896.17161846        1102969719.1844995     
   4813653847.2258568        268075554.43811560        1054464666.2625064     
   4773744855.7802534        181185936.62466240        1022988833.2106560     
   4751242081.5106649        152317042.73125672        1008542220.0289521     
   4327851118.5911083        620218988.74812484        1159565627.8061445     
   4297304595.8776093        464475505.19504154        1141589807.9961751     
   4277408098.8063164        344232107.11598074        1129676020.9729762     
   4268161627.3772292        259488794.51094103        1123824266.7365513     
   4269565181.5903492        210245567.37992477        1124034545.2868969     
   3814800055.1939468        655957505.56813145        1167620341.2003324     
   3797093615.3263731        538001158.04405439        1189320750.9164207     
   3783281009.5671959        433024257.54797089        1206116006.3359094     
   3773362237.9164205        341026804.07988727        1218006107.4587979     
   3767337300.3740425        262008797.63979578        1224991054.2850862     
   5652942937.4633150        17964110.267527342        733950120.73379445     
   5519551534.8077850        49591628.367622614        720800212.00866723     
   5380738589.2346287        63147336.742289305        709390685.53071296     
   5236504100.7438393        58631235.391518593        699721541.29993272     
   5086848069.3354206        36043324.315323114        691792779.31632864     
   5212368000.1349878        88223223.693790674        878514078.51125109     
   5076192008.2273197        86142988.857473135        854816765.58275306     
   4937838921.3896694        76805770.921213150        835015790.89076185     
   4797308739.6220369        60211569.885005236        819111154.43528008     
   4654601462.9244184        36360385.748851061        807102856.21630597     
   4751242081.5106649        152317042.73125672        1008542220.0289521     
   4618441374.6061010        118377017.23510170        978082692.21600223     
   4486708020.7592020        87994835.264487505        953675458.62889457     
   4356042019.9699602        61170496.819407940        935320519.26762772     
   4226443372.2383852        37904001.899871111        923017874.13220465     
   4269565181.5903492        210245567.37992477        1124034545.2868969     
   4146299633.9441304        146293713.50050235        1090597991.9084151     
   4027345887.3432193        96714529.772103786        1065369688.7451094     
   3912703941.7876139        61508016.194730282        1048349635.7969791     
   3802373797.2773180        40674172.768379688        1039537833.0640274     
   3767337300.3740425        262008797.63979578        1224991054.2850862     
   3659766786.2414079        169893077.65367806        1192362664.6599913     
   3559752521.1417270        102964854.44407070        1170098481.2394080     
   3467294505.0749979        61224128.010969639        1158198504.0233343     
   3382392738.0412226        44670898.354381323        1156662733.0117733     
   5086848069.3354206        36043324.315323114        691792779.31632864     
   4933980306.8504162        9007650.7347140312        674066892.18919337     
   4784236784.0864925       -7613890.4422910213        663335861.31503749     
   4637617501.0436459       -13821299.215703487        659599686.69385970     
   4494122457.7218781       -9614575.5855178833        662858368.32566226     
   4654601462.9244184        36360385.748851061        807102856.21630597     
   4520570947.1142998        15241601.380755186        793517673.71187603     
   4388802826.1254654        1664133.0836017132        786062388.73226178     
   4259297099.9579167       -4372019.1425986290        784737001.27746534     
   4132053768.6116505       -2866855.2978539467        789541511.34748471     
   4226443372.2383852        37904001.899871111        923017874.13220465     
   4108778792.4512644        21960713.548715830        912567910.53404975     
   3992514762.5856304        10685924.935855389        907382885.73255301     
   3877651282.6414871        4079636.0612957478        907462799.72770977     
   3764188352.6188345        2141846.9250328541        912807652.51952302     
   3802373797.2773180        40674172.768379688        1039537833.0640274     
   3698603842.8613043        29164987.238599777        1031217602.6557217     
   3595372593.4669828        19451485.114463329        1027297352.3159112     
   3492680049.0943584        11533666.395983219        1027777082.0445946     
   3390526209.7434258        5411531.0831410885        1032656791.8417724     
   3382392738.0412226        44670898.354381323        1156662733.0117733     
   3290046098.3444262        36854422.450410008        1149466750.0768890     
   3197376318.7695260        27960813.619430184        1145805788.4823372     
   3104383399.3165269        17990071.861453772        1145679848.2281175     
   3011067339.9854250        6942197.1764720678        1149088929.3142323     
   4494122457.7218781       -9614575.5855178833        662858368.32566226     
   4362801551.1119156        1127025.4864430428        659233211.17227125     
   4230257044.1840959        7789958.8322291374        657655362.90054941     
   4096488936.9384303        10374224.451849222        658124823.51049173     
   3961497229.3749123        8879822.3453013897        660641593.00210619     
   4132053768.6116505       -2866855.2978539467        789541511.34748471     
   4005625977.7484317        1478653.7816712856        783425011.59838498     
   3878647231.4638357        3987644.7899460793        780501159.38644052     
   3751117529.7578654        4660117.7269787788        780769954.71165490     
   3623036872.6305237        3496072.5927598476        784231397.57402754     
   3764188352.6188345        2141846.9250328541        912807652.51952302     
   3645926073.6608992        1072982.8596827984        904984562.55393481     
   3527785484.1780643        409750.37801003456        901499458.78099418     
   3409766584.1703334        152149.48000979424        902352341.20070028     
   3291869373.6377048        300180.16569042206        907543209.81305420     
   3390526209.7434258        5411531.0831410885        1032656791.8417724     
   3283701838.8493176       -89987.279518604279        1023911864.0389203     
   3177671802.3267889       -2943724.4035792351        1020650261.0842031     
   3072436100.1758380       -3149680.2890423536        1022871982.9776280     
   2967994732.3964701       -707854.93590807915        1030577029.7191869     
   3011067339.9854250        6942197.1764720678        1149088929.3142323     
   2918953273.3136873       -2010256.6359351873        1140206916.0533381     
   2828306185.9100051       -6072779.5548181534        1137953566.2960727     
   2739126077.7743754       -5245371.5801898241        1142328880.0424345     
   2651412948.9068079        471967.28797543049        1153332857.2924204     
   3961497229.3749123        8879822.3453013897        660641593.00210619     
   3804133456.8860354        224528.98629593849        650296232.44656456     
   3647697061.5667629       -5339507.1406877041        647697992.82243240     
   3492188043.4170890       -7812286.0356755257        652846874.12970769     
   3337606402.4370236       -7193807.6986346245        665742876.36838543     
   3623036872.6305237        3496072.5927598476        784231397.57402754     
   3484829622.1385288       -761130.71947717667        776392974.98368049     
   3347136944.5391507       -3303091.0563299656        774528273.75642943     
   3209958839.8323879       -4129808.4177979231        778637293.89227998     
   3073295308.0182362       -3241282.8038915396        788720035.39122581     
   3291869373.6377048        300180.16569042206        907543209.81305420     
   3167751789.2331486       -1078989.8726106882        901730120.19807649     
   3043735973.4442182       -2118931.1921585798        900117352.37788892     
   2919821926.2709103       -2819643.7929601669        902704906.35249162     
   2796009647.7132301       -3181127.6750123501        909492782.12188137     
   2967994732.3964701       -707854.93590807915        1030577029.7191869     
   2852899958.1698976       -729048.47309637070        1026307668.0897559     
   2737494148.2819562       -1787027.5481891632        1024465228.6868092     
   2621777302.7326503       -3881792.1611577272        1025049711.5103468     
   2505749421.5219817       -7013342.3120080233        1028061116.5603669     
   2651412948.9068079        471967.28797543049        1153332857.2924204     
   2540274128.9487662        288693.47903740406        1150125618.6587195     
   2428411469.0523653       -2307380.1244235039        1147571902.6831937     
   2315824969.2176175       -7316253.5223792791        1145671709.3658395     
   2202514629.4445095       -14737926.714864492        1144425038.7066607     
   3337606402.4370236       -7193807.6986346245        665742876.36838543     
   3223224921.3191490        5266071.6118968725        663840825.03583765     
   3107771900.1843109        14154150.865882874        659732659.82884777     
   2991247339.0325079        19470430.063331842        653418380.74740243     
   2873651237.8637495        21214909.204250097        644897987.79151893     
   3073295308.0182362       -3241282.8038915396        788720035.39122581     
   2955667558.2871714        3494967.7807862759        783022309.78482246     
   2837615558.9684391        8817053.0732485056        778354405.74868560     
   2719139310.0620456        12724973.073496699        774716323.28281152     
   2600238811.5679879        15218727.781541228        772108062.38720906     
   2796009647.7132301       -3181127.6750123501        909492782.12188137     
   2684381159.2110014        605153.13641786575        900754554.40913951     
   2572975711.5504112        5134903.4199631214        896282083.71137536     
   2461793304.7314529        10408123.175622463        896075370.02858591     
   2350833938.7541313        16424812.403402448        900134413.36077738     
   2505749421.5219817       -7013342.3120080233        1028061116.5603669     
   2409365724.0906367       -3403372.3212087154        1017037558.9087919     
   2313852357.9302197        3107701.9060291052        1013515693.7169132     
   2219209323.0407381        12519880.369709849        1017495520.9847240     
   2125436619.4221907        24833163.069842696        1028977040.7122236     
   2202514629.4445095       -14737926.714864492        1144425038.7066607     
   2130621252.9260745       -8530608.5920946598        1131871323.2837820     
   2060245498.1078730        2735448.5314543247        1130055235.7652998     
   1991387364.9898973        19060244.655758619        1138976776.1512303     
   1924046853.5721612        40443779.780856133        1158635944.4415584     
   2873651237.8637495        21214909.204250097        644897987.79151893     
   2694092592.9006858        9744652.8042372465        628363792.24426568     
   2519148802.8539572        13657246.125350833        626447938.72784054     
   2348819867.7235470        32952689.167550445        639150427.24225378     
   2183105787.5094943        67630981.930886149        666471257.78749824     
   2600238811.5679879        15218727.781541228        772108062.38720906     
   2453958609.8046341        12018004.168376327        765111883.08713758     
   2309763822.0198817        15768660.483874917        767187810.49751222     
   2167654448.2137227        26470696.728021502        778335844.61833239     
   2027630488.3861682        44124112.900852203        798555985.44959366     
   2350833938.7541313        16424812.403402448        900134413.36077738     
   2221985793.5608106        16739705.588175297        899725235.88053286     
   2092693621.4083509        15574508.909162164        902841929.79034626     
   1962957422.2967551        12929222.366359115        909484495.09021282     
   1832777196.2260303        8803845.9597744942        919652931.78013110     
   2125436619.4221907        24833163.069842696        1028977040.7122236     
   1998174144.1692181        23909757.063647985        1032203850.6244526     
   1867938201.0193708        13074791.401214600        1033410296.6063519     
   1734728789.9726591       -7671733.9174532890        1032596378.6579063     
   1598545911.0290694       -38329818.892349839        1029762096.7791407     
   1924046853.5721612        40443779.780856133        1158635944.4415584     
   1782523661.6298499        33528158.594784498        1162547727.3188984     
   1635497560.8529353        8269507.9600321651        1158892910.9455185     
   1482968551.2414119       -35332172.123403847        1147671495.3214238     
   1324936632.7952933       -97276881.655519009        1128883480.4465964     
   3767989959.7686534        1130396987.9305961        800944674.09602880     
   3778809651.9196544        1008844344.9889058        885233825.98940837     
   3790217898.5408711        889253550.28126502        974442821.13791883     
   3802214699.6323009        771624603.80767369        1068571659.5415601     
   3814800055.1939468        655957505.56813145        1167620341.2003324     
   3207711943.1212578        962313582.93637741        757155619.96351254     
   3235675182.8014998        868269133.40829313        853516018.05644131     
   3263360489.6400557        773298241.07459164        951795872.51359212     
   3290767863.6369281        677400905.93527365        1051995183.3349651     
   3317897304.7921147        580577127.99033809        1154113950.5205607     
   2685691765.6025114        805707529.68075347        722473989.51479697     
   2722226018.8379703        736599513.37406778        829894731.94339108     
   2757615851.9198437        663676763.22209883        936234543.84529901     
   2791861264.8481326        586939279.22484696        1041493425.2205211     
   2824962257.6228361        506387061.38231164        1145671376.0690565     
   2201929427.2124147        660578828.16372442        696899782.74988234     
   2238462160.0290661        613835484.88623023        814369967.65025902     
   2272983985.3802323        560389116.72378659        927758835.13304090     
   2305494903.2659140        500239723.67639315        1037066385.1982280     
   2335994913.6861100        433387305.74405015        1142292617.8458209     
   1756424927.9509676        526927478.38529032        680432999.66876829     
   1784383606.3747869        499977047.94478023        806941725.17704403     
   1809464890.0212214        463435301.57965416        926368746.37681663     
   1831668778.8902712        417302239.28991222        1038714063.2680860     
   1850995272.9819362        361577861.07555491        1143977675.8508523     
   3814800055.1939468        655957505.56813145        1167620341.2003324     
   3797093615.3263731        538001158.04405439        1189320750.9164207     
   3783281009.5671959        433024257.54797089        1206116006.3359094     
   3773362237.9164205        341026804.07988727        1218006107.4587979     
   3767337300.3740425        262008797.63979578        1224991054.2850862     
   3317897304.7921147        580577127.99033809        1154113950.5205607     
   3293030033.0906949        473422309.77943075        1182567388.6790676     
   3271914083.4118438        378771898.31042159        1207924988.3435626     
   3254549455.7555642        296625893.58331263        1230186749.5140443     
   3240936150.1218548        226984295.59810388        1249352672.1905131     
   2824962257.6228361        506387061.38231164        1145671376.0690565     
   2798103627.8092480        411584614.60107547        1180711578.5698490     
   2774853807.9324012        328811534.27564287        1214465258.3792162     
   2755212797.9922948        258067820.40601456        1246932415.4971576     
   2739180597.9889297        199353472.99219036        1278113049.9236736     
   2335994913.6861100        433387305.74405015        1142292617.8458209     
   2312314399.4820313        352488072.50899011        1183753320.5887644     
   2292100183.1288648        283143165.44363737        1225736816.4428704     
   2275352264.6266112        225352584.54799294        1268243105.4081380     
   2262070643.9752688        179116329.82205641        1311272187.4845674     
   1850995272.9819362        361577861.07555491        1143977675.8508523     
   1835662348.1090455        296132683.50317371        1191692614.7358143     
   1823653209.0012379        241766791.81440485        1241739662.5345254     
   1814967855.6585131        198480186.00924605        1294118819.2469859     
   1809606288.0808730        166272866.08770168        1348830084.8731942     
   3767337300.3740425        262008797.63979578        1224991054.2850862     
   3659766786.2414079        169893077.65367806        1192362664.6599913     
   3559752521.1417270        102964854.44407070        1170098481.2394080     
   3467294505.0749979        61224128.010969639        1158198504.0233343     
   3382392738.0412226        44670898.354381323        1156662733.0117733     
   3240936150.1218548        226984295.59810388        1249352672.1905131     
   3162605395.3336964        152835660.45387268        1232112434.7199469     
   3090352899.3497682        98947887.990402102        1222853863.2694170     
   3024178662.1700702        65320978.207698226        1221576957.8389232     
   2964082683.7945995        51954931.105757594        1228281718.4284658     
   2739180597.9889297        199353472.99219036        1278113049.9236736     
   2683282344.8753228        141129745.38886714        1274536642.6741233     
   2631984360.3372216        98240246.370561481        1276559361.2601359     
   2585286644.3746257        70684975.937272310        1284181205.6817102     
   2543189196.9875355        58463934.089003325        1297402175.9388463     
   2262070643.9752688        179116329.82205641        1311272187.4845674     
   2221797634.8662868        134775332.45866323        1319635288.5225232     
   2184646904.1040869        100841929.58454347        1331214975.2115664     
   2150618451.6886678        77316121.199695110        1346011247.5517001     
   2119712277.6200280        64197907.304113388        1364024105.5429184     
   1809606288.0808730        166272866.08770168        1348830084.8731942     
   1778151265.3065886        133772421.66326237        1367408372.2651455     
   1748340530.6503611        106752937.63234591        1386820705.1237104     
   1720174084.1121926        85214413.994958639        1407067083.4488871     
   1693651925.6920817        69156850.751096070        1428147507.2406797     
   3382392738.0412226        44670898.354381323        1156662733.0117733     
   3290046098.3444262        36854422.450410008        1149466750.0768890     
   3197376318.7695260        27960813.619430184        1145805788.4823372     
   3104383399.3165269        17990071.861453772        1145679848.2281175     
   3011067339.9854250        6942197.1764720678        1149088929.3142323     
   2964082683.7945995        51954931.105757594        1228281718.4284658     
   2880209303.4063244        40838392.179189801        1220160827.7543952     
   2796444078.7935228        30082372.504198790        1215784360.5209939     
   2712787009.9561930        19686872.080783367        1215152316.7282608     
   2629238096.8943372        9651890.9089460373        1218264696.3761947     
   2543189196.9875355        58463934.089003325        1297402175.9388463     
   2468387367.6230268        44226819.654409766        1288859555.7880933     
   2394124989.6875677        31787876.649976730        1284270761.1783452     
   2320402063.1811533        21147105.075698018        1283635792.1096010     
   2247218588.1037874        12304504.931578875        1286954648.5818613     
   2119712277.6200280        64197907.304113388        1364024105.5429184     
   2054580290.9945345        47019704.876073599        1355562934.1779854     
   1990419051.4516611        33077326.056768537        1351264990.4543934     
   1927228558.9914093        22370770.846205354        1351130274.3721385     
   1865008813.6137788        14900039.244372964        1355158785.9312274     
   1693651925.6920817        69156850.751096070        1428147507.2406797     
   1638788073.5208445        49217047.844175637        1420270962.9240699     
   1585326264.0858049        33950720.724577665        1416767048.3491354     
   1533266497.3869596        23357869.392295718        1417635763.5158770     
   1482608773.4243100        17438493.847332180        1422877108.4242957     
   3011067339.9854250        6942197.1764720678        1149088929.3142323     
   2918953273.3136873       -2010256.6359351873        1140206916.0533381     
   2828306185.9100051       -6072779.5548181534        1137953566.2960727     
   2739126077.7743754       -5245371.5801898241        1142328880.0424345     
   2651412948.9068079        471967.28797543049        1153332857.2924204     
   2629238096.8943372        9651890.9089460373        1218264696.3761947     
   2554053410.6108079        4014613.1513777971        1210335174.7897942     
   2480005690.7808847        2167223.5725003481        1208034549.3703477     
   2407094937.4045701        4109722.1723172665        1211362820.1178589     
   2335321150.4818654        9842108.9508299828        1220319987.0323250     
   2247218588.1037874        12304504.931578875        1286954648.5818613     
   2186106804.1036963        9125459.7974210978        1279592603.7197607     
   2125801973.7427616        8636260.1271215677        1276859687.6879451     
   2066304097.0209877        10836905.920689464        1278755900.4864151     
   2007613173.9383736        15727397.178121328        1285281242.1151721     
   1865008813.6137788        14900039.244372964        1355158785.9312274     
   1815113453.7923505        13322283.302192926        1347979202.8432376     
   1765695034.7956328        13334330.109044075        1344428981.2488642     
   1716753556.6236248        14936179.664929867        1344508121.1481044     
   1668289019.2763274        18127831.969850540        1348216622.5409589     
   1482608773.4243100        17438493.847332180        1422877108.4242957     
   1441073359.6767747        16605083.665697813        1415494972.1602271     
   1399684873.9394963        16261433.518256426        1410742430.0531030     
   1358443316.2124836        16407543.405031621        1408619482.1029227     
   1317348686.4957304        17043413.326007843        1409126128.3096871     
   2651412948.9068079        471967.28797543049        1153332857.2924204     
   2540274128.9487662        288693.47903740406        1150125618.6587195     
   2428411469.0523653       -2307380.1244235039        1147571902.6831937     
   2315824969.2176175       -7316253.5223792791        1145671709.3658395     
   2202514629.4445095       -14737926.714864492        1144425038.7066607     
   2335321150.4818654        9842108.9508299828        1220319987.0323250     
   2227606963.8754287        6114743.8023033142        1213542796.3619442     
   2119627701.7899444        1503793.7236222029        1209564283.6129858     
   2011383364.2254126       -3990741.2852160931        1208384448.7854564     
   1902873951.1818330       -10368861.224221945        1210003291.8793561     
   2007613173.9383736        15727397.178121328        1285281242.1151721     
   1909452635.7214110        10294645.201371908        1275469324.6106298     
   1811485786.4847043        5507523.1588120461        1270601240.2907662     
   1713712626.2282600        1366031.0504561663        1270676989.1555846     
   1616133154.9520745       -2129831.1237055659        1275696571.2050848     
   1668289019.2763274        18127831.969850540        1348216622.5409589     
   1585811144.4867036        12828397.676221907        1335905203.4047811     
   1503985723.1366463        9703808.1811516881        1330682772.7165394     
   1422812755.2261572        8754063.4846434593        1332549330.4762309     
   1342292240.7552352        9979163.5866873860        1341504876.6838603     
   1317348686.4957304        17043413.326007843        1409126128.3096871     
   1256682490.1713202        13716001.226885676        1394850432.7444003     
   1197127511.7457800        14092648.790666282        1389808880.8903029     
   1138683751.2191117        18173356.017352164        1394001472.7473922     
   1081351208.5913181        25958122.906956971        1407428208.3156743     
   2202514629.4445095       -14737926.714864492        1144425038.7066607     
   2130621252.9260745       -8530608.5920946598        1131871323.2837820     
   2060245498.1078730        2735448.5314543247        1130055235.7652998     
   1991387364.9898973        19060244.655758619        1138976776.1512303     
   1924046853.5721612        40443779.780856133        1158635944.4415584     
   1902873951.1818330       -10368861.224221945        1210003291.8793561     
   1855736360.9482265        1721184.1346168518        1201131270.3241420     
   1808901177.0430064        14819250.588083029        1199206980.9522247     
   1762368399.4661884        28925338.136214614        1204230423.7636063     
   1716138028.2177598        44039446.778987825        1216201598.7582815     
   1616133154.9520745       -2129831.1237055659        1275696571.2050848     
   1582923077.5144174        12594459.424530089        1269088492.2503982     
   1548800191.0333169        24276053.161281884        1265638249.7578967     
   1513764495.5087719        32914950.086555123        1265345843.7275882     
   1477815990.9407811        38511150.200342894        1268211274.1594687     
   1342292240.7552352        9979163.5866873860        1341504876.6838603     
   1312181402.6246574        24089217.277661443        1335742989.0625494     
   1279942540.0787981        31105856.251033366        1329349042.1823211     
   1245575653.1176515        31029080.506775975        1322323036.0431738     
   1209080741.7412250        23858890.044926524        1314664970.6451144     
   1081351208.5913181        25958122.906956971        1407428208.3156743     
   1043511336.2789447        36205457.694013655        1401094760.7605944     
   1002328224.1794451        35308659.857318044        1390339358.2254944     
   957801872.29282975        23267729.396902263        1375162000.7103705     
   909932280.61908913        82666.312736153603        1355562688.2152267     
   1924046853.5721612        40443779.780856133        1158635944.4415584     
   1782523661.6298499        33528158.594784498        1162547727.3188984     
   1635497560.8529353        8269507.9600321651        1158892910.9455185     
   1482968551.2414119       -35332172.123403847        1147671495.3214238     
   1324936632.7952933       -97276881.655519009        1128883480.4465964     
   1716138028.2177598        44039446.778987825        1216201598.7582815     
   1563180593.6582525        29534160.798334897        1211049454.0956988     
   1411502329.2779732        19292775.415102363        1206419798.5462801     
   1261103235.0769238        13315290.629316032        1202312632.1100302     
   1111983311.0551088        11601706.440957785        1198727954.7869430     
   1477815990.9407811        38511150.200342894        1268211274.1594687     
   1336535994.8037577        23349703.737014472        1261907627.4731026     
   1203317247.8597922        35059087.917212844        1264215558.2637794     
   1078159750.1088929        73639302.740972996        1275135066.5315173     
   961063501.55105925        139090348.20826849        1294666152.2763093     
   1209080741.7412250        23858890.044926524        1314664970.6451144     
   1102589865.0663671        14974787.410826206        1315122247.4510953     
   1010942316.5983993        55568445.466363430        1332280190.0980234     
   934138096.33733118        145639864.21156409        1366138798.5858841     
   872177204.28316307        285189043.64642513        1416698072.9146957     
   909932280.61908913        82666.312736153603        1355562688.2152267     
   861342204.44607520        4409411.8197674751        1370693314.0296965     
   834377535.49378657        80820848.062541395        1410613694.0489950     
   829038273.76223338        229316975.04111269        1475323828.2731245     
   845324419.25140738        449897792.75543058        1564823716.7020915     
   1756424927.9509676        526927478.38529032        680432999.66876829     
   1784383606.3747869        499977047.94478023        806941725.17704403     
   1809464890.0212214        463435301.57965416        926368746.37681663     
   1831668778.8902712        417302239.28991222        1038714063.2680860     
   1850995272.9819362        361577861.07555491        1143977675.8508523     
   1326916518.6872940        398074955.60618818        669996699.20290995     
   1340130419.0074925        375458312.78194010        792280687.22541022     
   1351177702.3695812        345619613.43065840        909304137.71910679     
   1360058368.7735593        308558857.55234337        1021067050.6839987     
   1366772418.2194278        264276045.14699465        1127569426.1200871     
   891142450.29051626        267342735.08715490        662513940.28376245     
   894814906.16337705        250620879.97605366        781402431.60964131     
   897031522.89740241        229046227.73550123        896851552.18641520     
   897792300.49259233        202618778.36549747        1008861302.0140835     
   897097238.94894707        171338531.86604291        1117431681.0926473     
   449102722.76063520        134730816.82819057        657984722.91132593     
   448437067.84244090        125464749.52712098        774306958.32973695     
   447026351.60468608        113715144.49418269        889010989.77874172     
   444870574.04737067        99482001.729375646        1002096817.2583408     
   441969735.17049432        82765321.232699364        1113564440.7685335     
   797336.09765025659        239200.82929507698        656409047.08560026     
   996904.04468412674       -10078.564857873833        770994267.38569725     
   1162188.4914320312       -373636.29329724616        885782450.49608719     
   1293189.4378939832       -851472.35602319241        1000773596.4167703     
   1389906.8840700639       -1443586.7530353758        1115967705.1477466     
   1850995272.9819362        361577861.07555491        1143977675.8508523     
   1835662348.1090455        296132683.50317371        1191692614.7358143     
   1823653209.0012379        241766791.81440485        1241739662.5345254     
   1814967855.6585131        198480186.00924605        1294118819.2469859     
   1809606288.0808730        166272866.08770168        1348830084.8731942     
   1366772418.2194278        264276045.14699465        1127569426.1200871     
   1361155007.1263187        216789490.52651387        1183101916.9895165     
   1358031045.4835577        177614434.07386065        1239631473.4792066     
   1357400533.2911456        146750875.78903550        1297158095.5891576     
   1359263470.5490811        124198815.67203653        1355681783.3193688     
   897097238.94894707        171338531.86604291        1117431681.0926473     
   897380932.22565377        140666277.37447301        1179812998.2460196     
   899327738.63797343        115537733.33494630        1241856337.7261646     
   902937658.18590558        95952899.747461617        1303561699.5330815     
   908210690.86945081        81911776.612019837        1364929083.6667707     
   441969735.17049432        82765321.232699364        1113564440.7685335     
   444340123.40704995        67763044.047050536        1181825858.5053248     
   447543288.46448284        55536689.597658917        1248414255.2753997     
   451579230.34279376        46086257.884527147        1313329631.0787578     
   456447949.04198134        39411748.907651380        1376571985.9153998     
   1389906.8840700639       -1443586.7530353758        1115967705.1477466     
   2032580.6705076701       -1920209.4557537525        1189140497.7674308     
   2677694.9630873138       -2388697.1379990587        1259305226.1269114     
   3325249.7618092685       -2849049.7997699752        1326461890.2261865     
   3975245.0666726045       -3301267.4410692742        1390610490.0652575     
   1809606288.0808730        166272866.08770168        1348830084.8731942     
   1778151265.3065886        133772421.66326237        1367408372.2651455     
   1748340530.6503611        106752937.63234591        1386820705.1237104     
   1720174084.1121926        85214413.994958639        1407067083.4488871     
   1693651925.6920817        69156850.751096070        1428147507.2406797     
   1359263470.5490811        124198815.67203653        1355681783.3193688     
   1333017469.4708145        98737829.039891362        1375997940.2840149     
   1307920055.1965160        77105465.087640405        1397862501.2884541     
   1283971227.7261868        59301723.815285027        1421275466.3326871     
   1261170987.0598252        45326605.222824156        1446236835.4167130     
   908210690.86945081        81911776.612019837        1364929083.6667707     
   889214735.98200214        64102555.120610684        1386404792.0043404     
   870871666.58443153        48469618.595462203        1410143262.9548838     
   853181482.67674077        35012967.036580175        1436144496.5184009     
   836144184.25892937        23732600.443961591        1464408492.6948907     
   456447949.04198134        39411748.907651380        1376571985.9153998     
   446743064.84014976        29866599.905416712        1398628927.4261236     
   437195364.81410766        20845398.155813426        1423662990.1229994     
   427804848.96385574        12348143.658844844        1451674174.0060301     
   418571517.28939313        4374836.4145055115        1482662479.0752122     
   3975245.0666726045       -3301267.4410692742        1390610490.0652575     
   5602456.0452586105       -3970036.6056874678        1412670346.5493624     
   6891149.8855434973       -5767196.2313093971        1438421682.7928014     
   7841326.5875297803       -8692746.3179265764        1467864498.7955732     
   8452986.1512172520       -12746686.865539983        1500998794.5576782     
   1693651925.6920817        69156850.751096070        1428147507.2406797     
   1638788073.5208445        49217047.844175637        1420270962.9240699     
   1585326264.0858049        33950720.724577665        1416767048.3491354     
   1533266497.3869596        23357869.392295718        1417635763.5158770     
   1482608773.4243100        17438493.847332180        1422877108.4242957     
   1261170987.0598252        45326605.222824156        1446236835.4167130     
   1219642020.6361282        29008771.558074415        1442715303.4354334     
   1179124403.2248907        16062101.268188596        1444242907.0777752     
   1139618134.8261127        6486594.3531675339        1450819646.3437421     
   1101123215.4397910        282250.81300139427        1462445521.2333283     
   836144184.25892937        23732600.443961591        1464408492.6948907     
   809882977.53118980        11616598.205906153        1464786163.7045815     
   784242426.09217238        1569446.9302585125        1470889476.2198396     
   759222529.94187629       -6408853.3829841912        1482718430.2406690     
   734823289.08030164       -12318302.733824402        1500273025.7670653     
   418571517.28939313        4374836.4145055115        1482662479.0752122     
   409510944.20602977       -2959472.2123259306        1486483543.7315137     
   400680332.68765014       -9527242.2892120034        1496706755.7753310     
   392079682.73425418       -15328473.816152468        1513332115.2066612     
   383708994.34584379       -20363166.793139637        1536359622.0255089     
   8452986.1512172520       -12746686.865539983        1500998794.5576782     
   18525920.660645381       -14719439.696631532        1507807443.5162311     
   28438123.011322618       -17227966.390226424        1521694745.7442436     
   38189593.203247570       -20272266.946329605        1542660701.2417197     
   47780331.236418843       -23852341.364943311        1570705310.0086551     
   1482608773.4243100        17438493.847332180        1422877108.4242957     
   1441073359.6767747        16605083.665697813        1415494972.1602271     
   1399684873.9394963        16261433.518256426        1410742430.0531030     
   1358443316.2124836        16407543.405031621        1408619482.1029227     
   1317348686.4957304        17043413.326007843        1409126128.3096871     
   1101123215.4397910        282250.81300139427        1462445521.2333283     
   1066156822.0421387       -3100706.2626144886        1460743252.0987787     
   1031341384.2482578       -5980477.9923263788        1462052838.3596539     
   996676902.05815089       -8357064.3761273623        1466374280.0159521     
   962163375.47181547       -10230465.414021313        1473707577.0676718     
   734823289.08030164       -12318302.733824402        1500273025.7670653     
   707518090.99961853       -17923154.213290006        1504255322.6211309     
   680367876.11621714       -23011395.035148442        1511631736.1091013     
   653372644.43009698       -27583025.199402779        1522402266.2309713     
   626532395.94126081       -31638044.706043959        1536566912.9867475     
   383708994.34584379       -20363166.793139637        1536359622.0255089     
   365157166.54921085       -27862260.186333656        1546031183.7272847     
   346764349.54337138       -34831317.610214457        1559479123.3014433     
   328530543.32832193       -41270339.064796150        1576703440.7479825     
   310455747.90406817       -47179324.550058827        1597704136.0669036     
   47780331.236418843       -23852341.364943311        1570705310.0086551     
   39074048.690917969       -32918024.181742013        1586070835.4172394     
   30530804.529722981       -41440245.717520408        1605594999.9366834     
   22150598.752825461       -49419005.972308278        1629277803.5669882     
   13933431.360236749       -56854304.946065381        1657119246.3081508     
   1317348686.4957304        17043413.326007843        1409126128.3096871     
   1256682490.1713202        13716001.226885676        1394850432.7444003     
   1197127511.7457800        14092648.790666282        1389808880.8903029     
   1138683751.2191117        18173356.017352164        1394001472.7473922     
   1081351208.5913181        25958122.906956971        1407428208.3156743     
   962163375.47181547       -10230465.414021313        1473707577.0676718     
   923285206.70951319       -12381143.965361416        1466243107.8336260     
   884936597.81993103       -12766622.940970242        1466032962.1943698     
   847117548.80306447       -11386902.340858221        1473077140.1499059     
   809828059.65892005       -8241982.1650092304        1487375641.7002320     
   626532395.94126081       -31638044.706043959        1536566912.9867475     
   603785625.83707631       -34308978.380792439        1535235069.0534251     
   580986757.57945633       -37153572.566991568        1539177728.5984960     
   558135791.16839850       -40171827.264651000        1548394891.6219606     
   535232726.60390753       -43363742.473753005        1562886558.1238191     
   310455747.90406817       -47179324.550058827        1597704136.0669036     
   298183747.55400473       -52067502.019419774        1601826316.4037962     
   285277991.02435213       -59068200.087411538        1609243180.1026814     
   271738478.31511295       -68181418.754024640        1619954727.1635642     
   257565209.42628121       -79407158.019280985        1633960957.5864403     
   13933431.360236749       -56854304.946065381        1657119246.3081508     
   6479571.8603032678       -65656714.881227672        1666016849.8847399     
  -2189701.8453732319       -78510505.502200365        1676229316.7069280     
  -12074389.756797291       -95415676.808998778        1687756646.7747118     
  -23174491.873962879       -116372228.80160090        1700598840.0880928     
   1081351208.5913181        25958122.906956971        1407428208.3156743     
   1043511336.2789447        36205457.694013655        1401094760.7605944     
   1002328224.1794451        35308659.857318044        1390339358.2254944     
   957801872.29282975        23267729.396902263        1375162000.7103705     
   909932280.61908913        82666.312736153603        1355562688.2152267     
   809828059.65892005       -8241982.1650092304        1487375641.7002320     
   763469133.00017190       -10150865.697705060        1479358535.6609657     
   715042422.87255681       -18952360.793294698        1472015547.0244503     
   664547929.27606773       -34646467.451794147        1465346675.7906947     
   611985652.21070898       -57233185.673195183        1459351921.9596896     
   535232726.60390753       -43363742.473753005        1562886558.1238191     
   494914952.40672290       -53060782.283818334        1554673825.9716582     
   453804851.05891925       -65398912.595945507        1552231283.6050260     
   411902422.56049556       -80378133.410140246        1555558931.0239282     
   369207666.91145360       -97998444.726395771        1564656768.2283628     
   257565209.42628121       -79407158.019280985        1633960957.5864403     
   237848794.49859223       -92524292.064340249        1627040631.6926742     
   218615508.73853931       -104030995.55061404        1630986567.9672177     
   199865352.14611703       -113927268.47811830        1645798766.4100702     
   181598324.72132513       -122213110.84685495        1671477227.0212357     
  -23174491.873962879       -116372228.80160090        1700598840.0880928     
  -7729340.7242177203       -128541395.03926432        1696458952.8240161     
   9474395.9114151224       -134848609.65730417        1708281400.1110280     
   28436718.032926463       -135293872.65574870        1736066181.9491286     
   49157625.640322424       -129877184.03457642        1779813298.3383114     
   909932280.61908913        82666.312736153603        1355562688.2152267     
   861342204.44607520        4409411.8197674751        1370693314.0296965     
   834377535.49378657        80820848.062541395        1410613694.0489950     
   829038273.76223338        229316975.04111269        1475323828.2731245     
   845324419.25140738        449897792.75543058        1564823716.7020915     
   611985652.21070898       -57233185.673195183        1459351921.9596896     
   611452491.33257437       -56537119.469345778        1504676757.5809116     
   618046926.82599914       -32082398.693626404        1563016545.9864068     
   631768958.69099426        16130976.653988421        1634371287.1761687     
   652618586.92754591        88103006.573464841        1718740981.1502070     
   369207666.91145360       -97998444.726395771        1564656768.2283628     
   383089131.55516779       -111025744.75763080        1623261700.9989734     
   389600381.72127974       -148620426.38087377        1683106785.1332960     
   388741417.40979064       -210782489.59611860        1744192020.6313314     
   380512238.62069309       -297511934.40339160        1806517407.4930656     
   181598324.72132513       -122213110.84685495        1671477227.0212357     
   176252125.11385959       -159056464.04507959        1726448144.2838769     
   149037900.17962113       -268793234.99921298        1770884411.4896712     
   99955649.918617696       -451423423.70922971        1804786028.6386187     
   29005374.330842137       -706947030.17515421        1828152995.7307043     
   49157625.640322424       -129877184.03457642        1779813298.3383114     
  -9058527.9913531765       -200629277.33169979        1814236087.4356227     
  -103640517.79896903       -392600824.54862326        1826349425.0555251     
  -234588343.78251341       -705791825.68530965        1816153311.1980145     
  -401902005.94200140       -1140202280.7418079        1783647745.8630936     
   797336.09765025659        239200.82929507698        656409047.08560026     
   996904.04468412674       -10078.564857873833        770994267.38569725     
   1162188.4914320312       -373636.29329724616        885782450.49608719     
   1293189.4378939832       -851472.35602319241        1000773596.4167703     
   1389906.8840700639       -1443586.7530353758        1115967705.1477466     
  -447570110.56125081       -134271033.16837522        657794348.56337631     
  -446502641.29904753       -125426894.52427876        773999627.94740641     
  -444734176.18310529       -114246103.03438656        888571079.83167827     
  -442264715.21342462       -100728658.69869879        1001508704.2161916     
  -439094258.39000511       -84874561.517215312        1112812501.1009459     
  -889796018.07888079       -266938805.42366424        662148063.10144520     
  -893108619.81594110       -250575640.43564823        780831227.48243749     
  -894984946.34523797       -229424891.42175457        896043774.05361915     
  -895424997.66677165       -203486558.38198310        1007785702.8149914     
  -894428773.78054190       -172760641.31633413        1116057013.7665527     
  -1325880386.4552395       -397764115.93657190        669470190.69980693     
  -1338821031.5059967       -375456316.29896641        791489065.99078977     
  -1349590121.9949658       -345910001.45540124        908200533.16191089     
  -1358187657.9221470       -309125171.40587604        1019604592.2131698     
  -1364613639.2875404       -265101826.15039119        1125701243.1445670     
  -1755823215.6903272       -526746964.70709813        679760731.35846126     
  -1783639876.3692145       -500068922.11423314        805973143.47246349     
  -1808549703.1322887       -463701433.13532615        925041357.15655220     
  -1830552695.9795508       -417644497.77037746        1036965372.4107277     
  -1849648854.9110003       -361898116.01938689        1141745189.2349896     
   1389906.8840700639       -1443586.7530353758        1115967705.1477466     
   2032580.6705076701       -1920209.4557537525        1189140497.7674308     
   2677694.9630873138       -2388697.1379990587        1259305226.1269114     
   3325249.7618092685       -2849049.7997699752        1326461890.2261865     
   3975245.0666726045       -3301267.4410692742        1390610490.0652575     
  -439094258.39000511       -84874561.517215312        1112812501.1009459     
  -440187400.24908417       -70479886.583448812        1180935341.9054768     
  -442100445.19902319       -58818221.952548504        1247299166.2498569     
  -444833393.23982215       -49889567.624515250        1311903974.1340873     
  -448386244.37148052       -43693923.599345937        1374749765.5581648     
  -894428773.78054190       -172760641.31633413        1116057013.7665527     
  -893689023.28498423       -142424056.34603596        1178170501.8927615     
  -894591519.47728848       -117561627.00194439        1239774021.3588731     
  -897136262.35745454       -98173353.284059137        1300867572.1648874     
  -901323251.92548251       -84259235.192379504        1361451154.3108046     
  -1364613639.2875404       -265101826.15039119        1125701243.1445670     
  -1358472288.4371927       -217752718.74351612        1180845977.7292850     
  -1354795527.8717082       -178618912.28618556        1236729791.4539585     
  -1353583357.5910883       -147700406.77840370        1293352684.3185890     
  -1354835777.5953319       -124997202.22016537        1350714656.3231757     
  -1849648854.9110003       -361898116.01938689        1141745189.2349896     
  -1834537195.7057090       -296465873.77588797        1188961769.4150467     
  -1822712470.3822834       -241990077.80527556        1238166476.5351140     
  -1814174678.9407232       -198470728.10754836        1289359310.5951912     
  -1808923821.3810298       -165907824.68270785        1342540271.5952790     
   3975245.0666726045       -3301267.4410692742        1390610490.0652575     
   5602456.0452586105       -3970036.6056874678        1412670346.5493624     
   6891149.8855434973       -5767196.2313093971        1438421682.7928014     
   7841326.5875297803       -8692746.3179265764        1467864498.7955732     
   8452986.1512172520       -12746686.865539983        1500998794.5576782     
  -448386244.37148052       -43693923.599345937        1374749765.5581648     
  -435446318.95372868       -34765405.728678375        1395589276.8028929     
  -423146903.05126429       -27971919.575633690        1419224637.7718105     
  -411487996.66408736       -23313465.140214503        1445655848.4649184     
  -400469599.79219693       -20790042.422417194        1474882908.8822145     
  -901323251.92548251       -84259235.192379504        1361451154.3108046     
  -879629555.02611732       -66501113.173688740        1380717995.8763359     
  -858878360.01902735       -51884664.129247904        1401885057.1309140     
  -839069666.90421152       -40409888.059054583        1424952338.0745378     
  -820203475.68167138       -32076784.963112921        1449919838.7072077     
  -1354835777.5953319       -124997202.22016537        1350714656.3231757     
  -1326947252.1719069       -99177158.940719426        1368056503.7696922     
  -1300303221.0177438       -77505429.892144799        1386402940.8701103     
  -1274903684.1328440       -59982015.074448705        1405753967.6244328     
  -1250748641.5172062       -46606914.487625718        1426109584.0326562     
  -1808923821.3810298       -165907824.68270785        1342540271.5952790     
  -1777399410.3910975       -132793543.02977067        1357604800.4829617     
  -1747421486.0474153       -104834216.86433196        1372778288.9894025     
  -1718990048.3499830       -82029846.186393797        1388060737.1146026     
  -1692105097.2988014       -64380430.995957434        1403452144.8585618     
   8452986.1512172520       -12746686.865539983        1500998794.5576782     
   18525920.660645381       -14719439.696631532        1507807443.5162311     
   28438123.011322618       -17227966.390226424        1521694745.7442436     
   38189593.203247570       -20272266.946329605        1542660701.2417197     
   47780331.236418843       -23852341.364943311        1570705310.0086551     
  -400469599.79219693       -20790042.422417194        1474882908.8822145     
  -372124271.44202769       -14071685.093109265        1476748021.6612329     
  -343799847.75149637       -7423009.9625940621        1483584527.9343457     
  -315496328.72060400       -844017.03087615967        1495392427.7015519     
  -287213714.34934962        5665293.7020500302        1512171720.9628501     
  -820203475.68167138       -32076784.963112921        1449919838.7072077     
  -779606495.70609844       -18473540.138005644        1447004547.3889928     
  -738890592.89104939       -4473885.8479803205        1446953389.7895036     
  -698055767.23652577        9922177.9069628716        1449766365.9087391     
  -657102018.74252689        24714651.126820683        1455443475.7467005     
  -1250748641.5172062       -46606914.487625718        1426109584.0326562     
  -1203920752.1315668       -27925004.831320822        1418577020.6995072     
  -1156834112.4073379       -8380594.0463871956        1411801331.3097160     
  -1109488722.3445206        12026317.867175877        1405782515.8632805     
  -1061884581.9431138        33295730.909371853        1400520574.3602035     
  -1692105097.2988014       -64380430.995957434        1403452144.8585618     
  -1645067040.7184331       -42426079.173057437        1391465441.5927777     
  -1597630406.3003626       -19143134.557817161        1378128352.4949830     
  -1549795194.0445879        5468402.8497676253        1363440877.5651784     
  -1501561403.9511118        31408533.049692929        1347403016.8033612     
   47780331.236418843       -23852341.364943311        1570705310.0086551     
   39074048.690917969       -32918024.181742013        1586070835.4172394     
   30530804.529722981       -41440245.717520408        1605594999.9366834     
   22150598.752825461       -49419005.972308278        1629277803.5669882     
   13933431.360236749       -56854304.946065381        1657119246.3081508     
  -287213714.34934962        5665293.7020500302        1512171720.9628501     
  -282495332.68436843        4661435.3283088654        1515335308.1649382     
  -278048727.21345216        2751656.3076861054        1522806500.0081391     
  -273873897.93660188       -64043.359824389219        1534585296.4924529     
  -269970844.85381693       -3785663.6742182523        1550671697.6178789     
  -657102018.74252689        24714651.126820683        1455443475.7467005     
  -638533357.06634414        31900301.936350018        1445897841.0675313     
  -620671286.16259313        36730650.171105802        1440808776.5597274     
  -603515806.03127646        39205695.831080258        1440176282.2232871     
  -587066916.67239261        39325438.916280597        1444000358.0582137     
  -1061884581.9431138        33295730.909371853        1400520574.3602035     
  -1029040024.4550084        48798575.642382801        1377758434.1250136     
  -997336872.31770182        60496735.872731984        1359601829.5914412     
  -966775125.53119659        68390211.600410342        1346050760.7594872     
  -937354784.09549332        72479002.825416088        1337105227.6291502     
  -1501561403.9511118        31408533.049692929        1347403016.8033612     
  -1454015334.8503597        55356256.446416080        1310917087.3373888     
  -1408045485.6787765        74049913.412573457        1279185659.1032865     
  -1363651856.4363608        87489503.948171198        1252208732.1010554     
  -1320834447.1231163        95675028.053201556        1229986306.3306928     
   13933431.360236749       -56854304.946065381        1657119246.3081508     
   6479571.8603032678       -65656714.881227672        1666016849.8847399     
  -2189701.8453732319       -78510505.502200365        1676229316.7069280     
  -12074389.756797291       -95415676.808998778        1687756646.7747118     
  -23174491.873962879       -116372228.80160090        1700598840.0880928     
  -269970844.85381693       -3785663.6742182523        1550671697.6178789     
  -270168485.78967535       -10295036.628657475        1548014070.5325513     
  -271121302.90583527       -19321663.517437175        1549094124.4092114     
  -272829296.20229983       -30865544.340565600        1553911859.2478578     
  -275292465.67906475       -44926679.098027907        1562467275.0484900     
  -587066916.67239261        39325438.916280597        1444000358.0582137     
  -573086002.71163917        37185803.842312962        1430324444.6739879     
  -559400026.90574563        34063041.585481137        1422809029.9681361     
  -546008989.25470984        29957152.145788580        1421454113.9406562     
  -532912889.75853252        24868135.523235321        1426259696.5915570     
  -937354784.09549332        72479002.825416088        1337105227.6291502     
  -902272978.90558946        76785806.531684637        1312947972.3090415     
  -867025873.84509921        81643609.806569934        1297374033.3836958     
  -831613468.91402328        87052412.650075078        1290383410.8531158     
  -796035764.11236537        93012215.062188983        1291976104.7172978     
  -1320834447.1231163        95675028.053201556        1229986306.3306928     
  -1257729414.3715186        108504971.43947589        1195884653.4377167     
  -1193998843.7238955        123420041.14583188        1172789134.6558959     
  -1129642735.1802454        140420237.17228138        1160699749.9852262     
  -1064661088.7405630        159505559.51883334        1159616499.4257097     
  -23174491.873962879       -116372228.80160090        1700598840.0880928     
  -7729340.7242177203       -128541395.03926432        1696458952.8240161     
   9474395.9114151224       -134848609.65730417        1708281400.1110280     
   28436718.032926463       -135293872.65574870        1736066181.9491286     
   49157625.640322424       -129877184.03457642        1779813298.3383114     
  -275292465.67906475       -44926679.098027907        1562467275.0484900     
  -222556377.55747482       -40245360.853261873        1555143428.6668706     
  -167625986.40543485       -28249699.173663262        1556654010.5242565     
  -110501292.22294343       -8939694.0592266507        1566999020.6206439     
  -51182295.010001130        17684654.490046114        1586178458.9560318     
  -532912889.75853252        24868135.523235321        1426259696.5915570     
  -463251311.27105433        40290304.268643022        1416260228.2277260     
  -390959712.20855916        64479208.264106184        1407967281.7908096     
  -316038092.57104576        97434847.509629175        1401380857.2808130     
  -238486452.35851717        139157222.00520423        1396500954.6977334     
  -796035764.11236537        93012215.062188983        1291976104.7172978     
  -729814141.86495626        113065600.32644823        1279809351.5065789     
  -660526781.49796152        143338112.65598848        1262221213.9106941     
  -588173683.01138484        183829752.05080554        1239211691.9296401     
  -512754846.40522397        234540518.51090181        1210780785.5634215     
  -1064661088.7405630        159505559.51883334        1159616499.4257097     
  -1022244869.3391761        178080527.32016814        1145790798.5034325     
  -976327194.27364445        208327014.00198156        1119415806.8839052     
  -926908063.54395378        250245019.56432593        1080491524.5671256     
  -873987477.15011764        303834544.00715661        1029017951.5530932     
   49157625.640322424       -129877184.03457642        1779813298.3383114     
  -9058527.9913531765       -200629277.33169979        1814236087.4356227     
  -103640517.79896903       -392600824.54862326        1826349425.0555251     
  -234588343.78251341       -705791825.68530965        1816153311.1980145     
  -401902005.94200140       -1140202280.7418079        1783647745.8630936     
  -51182295.010001130        17684654.490046114        1586178458.9560318     
  -137767864.30815408       -26056722.329269491        1565723269.0627649     
  -244082476.47098839       -135561575.36418998        1539521660.9470470     
  -370126131.49850553       -310829904.61472082        1507573634.6088769     
  -515898829.39070594       -551861710.08086038        1469879190.0482621     
  -238486452.35851717        139157222.00520423        1396500954.6977334     
  -306118485.16611159        136623447.31082046        1340577378.0103476     
  -376842767.52713710        123782174.10500035        1295470416.3554685     
  -450659299.44159460        100633402.38774040        1261180069.7331071     
  -527568080.90947831        67177132.159060121        1237706338.1432505     
  -512754846.40522397        234540518.51090181        1210780785.5634215     
  -514110390.56523007        287411231.58855551        1138798414.2783778     
  -501921390.96741402        385430423.85894752        1094195691.2808087     
  -476187847.61177349        528598095.32208395        1076972616.5707064     
  -436909760.49831206        716914245.97796559        1087129190.1480796     
  -873987477.15011764        303834544.00715661        1029017951.5530932     
  -761743580.50550508        426306630.50394690        960386377.86685562     
  -619318346.79181385        649383173.89766955        935697485.72304797     
  -446711776.00905311        973064174.18829012        954951275.12167680     
  -243923868.15720898        1397349631.3758519        1018147746.0627356     
  -1755823215.6903272       -526746964.70709813        679760731.35846126     
  -1783639876.3692145       -500068922.11423314        805973143.47246349     
  -1808549703.1322887       -463701433.13532615        925041357.15655220     
  -1830552695.9795508       -417644497.77037746        1036965372.4107277     
  -1849648854.9110003       -361898116.01938689        1141745189.2349896     
  -2201758751.8973780       -660527625.56921339        696117340.60940254     
  -2238274525.4019437       -613944895.58188498        813373985.14515960     
  -2272748033.0001240       -560554612.57326865        926489813.46158516     
  -2305179274.6919169       -500356776.54336387        1035464825.5586799     
  -2335568250.4773240       -433351387.49217135        1140299021.4364436     
  -2685821241.1896262       -805746372.35688782        721637673.98462451     
  -2722455035.4896359       -736684627.36602545        828929888.26447237     
  -2757911131.8926864       -663697222.71862900        935084668.53557122     
  -2792189530.3987751       -586784158.41469789        1040102014.7979214     
  -2825290231.0079041       -505945434.45423287        1143981927.0515230     
  -3208010683.5670729       -962403205.07012188        756321731.48412740     
  -3236181406.6322913       -868288117.46665514        852640852.83040226     
  -3264038999.8099761       -773129263.57140768        950825922.37851059     
  -3291583463.1001258       -676926643.38438022        1050876940.1284524     
  -3318814796.5027413       -579680256.90557098        1152793906.0802276     
  -3768327079.0297174       -1130498123.7089152        800169513.10791087     
  -3779453638.8299093       -1008755365.8837736        884506878.84294891     
  -3791131636.7519927       -888850735.13160467        973713574.99040270     
  -3803361072.7959681       -770784231.45240927        1067789601.5502723     
  -3816141946.9618363       -654555854.84618688        1166734958.5225580     
  -1849648854.9110003       -361898116.01938689        1141745189.2349896     
  -1834537195.7057090       -296465873.77588797        1188961769.4150467     
  -1822712470.3822834       -241990077.80527556        1238166476.5351140     
  -1814174678.9407232       -198470728.10754836        1289359310.5951912     
  -1808923821.3810298       -165907824.68270785        1342540271.5952790     
  -2335568250.4773240       -433351387.49217135        1140299021.4364436     
  -2312822310.7429137       -352542178.27016598        1181428076.1973026     
  -2293527420.0918989       -283236465.99281347        1222892996.6608956     
  -2277683578.5242825       -225434250.66011888        1264693782.8272226     
  -2265290786.0400615       -179135532.27207720        1306830434.6962824     
  -2825290231.0079041       -505945434.45423287        1143981927.0515230     
  -2799630757.1365938       -411175482.17138571        1178831988.6580653     
  -2777586447.5502105       -328456077.50496221        1212365654.7300649     
  -2759157302.2487531       -257787220.45496166        1244582925.2675214     
  -2744343321.2322245       -199168911.02138674        1275483800.2704353     
  -3318814796.5027413       -579680256.90557098        1152793906.0802276     
  -3294962534.8867493       -472365785.47954845        1181173506.7973340     
  -3274889552.7572145       -377648912.34171832        1206584450.7426205     
  -3258595850.1141376       -295529637.49208045        1229026737.9160879     
  -3246081426.9575181       -226007960.93063521        1248500368.3177361     
  -3816141946.9618363       -654555854.84618688        1166734958.5225580     
  -3798817643.9933805       -536113088.19465423        1188452630.6151087     
  -3785436735.7129126       -430814970.50308156        1205549384.6985641     
  -3775999222.1204343       -338661501.77147126        1218025220.7729235     
  -3770505103.2159438       -259652681.99982357        1225880138.8381865     
  -1808923821.3810298       -165907824.68270785        1342540271.5952790     
  -1777399410.3910975       -132793543.02977067        1357604800.4829617     
  -1747421486.0474153       -104834216.86433196        1372778288.9894025     
  -1718990048.3499830       -82029846.186393797        1388060737.1146026     
  -1692105097.2988014       -64380430.995957434        1403452144.8585618     
  -2265290786.0400615       -179135532.27207720        1306830434.6962824     
  -2226663384.7393227       -134631425.93825936        1312657452.1902902     
  -2190957458.3326688       -99865569.251389503        1321210927.6859572     
  -2158173006.8200994       -74837962.211468458        1332490861.1832819     
  -2128310030.2016137       -59548604.818495154        1346497252.6822650     
  -2744343321.2322245       -199168911.02138674        1275483800.2704353     
  -2691134362.8123946       -141031409.96420455        1270469153.4149616     
  -2642221867.5344839       -97215452.713415742        1270798462.9440465     
  -2597605835.3984942       -67721039.269025803        1276471728.8576889     
  -2557286266.4044189       -52548169.631028056        1287488951.1558893     
  -3246081426.9575181       -226007960.93063521        1248500368.3177361     
  -3170812344.6103144       -151993495.10760295        1231039904.1569753     
  -3101214713.6528630       -96883867.250414729        1221540894.7636709     
  -3037288534.0851650       -60679077.359065771        1220003340.1378245     
  -2979033805.9072204       -43379125.433563471        1226427240.2794352     
  -3770505103.2159438       -259652681.99982357        1225880138.8381865     
  -3665697330.1330810       -167517681.36845505        1194369704.4163303     
  -3567935996.6878047       -98870812.862374663        1173438223.1448309     
  -3477221102.8801169       -53712076.481590271        1163085695.0236886     
  -3393552648.7100153       -32041472.226092100        1163312120.0529034     
  -1692105097.2988014       -64380430.995957434        1403452144.8585618     
  -1645067040.7184331       -42426079.173057437        1391465441.5927777     
  -1597630406.3003626       -19143134.557817161        1378128352.4949830     
  -1549795194.0445879        5468402.8497676253        1363440877.5651784     
  -1501561403.9511118        31408533.049692929        1347403016.8033612     
  -2128310030.2016137       -59548604.818495154        1346497252.6822650     
  -2083245885.1995342       -44494125.449386477        1338520300.2199476     
  -2038421954.4499283       -30240360.255186200        1331967618.3264477     
  -1993838237.9527953       -16787309.235896230        1326839207.0017624     
  -1949494735.7081332       -4134972.3915107250        1323135066.2458963     
  -2557286266.4044189       -52548169.631028056        1287488951.1558893     
  -2506268443.2639799       -42015285.800713658        1282776492.0585010     
  -2456129626.4661894       -34412423.112562299        1282262959.9307566     
  -2406869816.0110469       -29739581.566568375        1285948354.7726562     
  -2358489011.8985505       -27996761.162733316        1293832676.5842004     
  -2979033805.9072204       -43379125.433563471        1226427240.2794352     
  -2914134714.9117694       -34989560.227047443        1224234017.1084380     
  -2850753422.3491430       -31659323.129941821        1229014377.3079119     
  -2788889928.2193418       -33388414.142255306        1240768320.8778577     
  -2728544232.5223627       -40176833.263975978        1259495847.8182759     
  -3393552648.7100153       -32041472.226092100        1163312120.0529034     
  -3306844700.1429052       -23416948.728384614        1162892875.3697574     
  -3222293342.0987945       -21981060.307342887        1172221870.4579136     
  -3139898574.5776811       -27733806.962954283        1191299105.3173652     
  -3059660397.5795665       -40675188.695234418        1220124579.9481187     
  -1501561403.9511118        31408533.049692929        1347403016.8033612     
  -1454015334.8503597        55356256.446416080        1310917087.3373888     
  -1408045485.6787765        74049913.412573457        1279185659.1032865     
  -1363651856.4363608        87489503.948171198        1252208732.1010554     
  -1320834447.1231163        95675028.053201556        1229986306.3306928     
  -1949494735.7081332       -4134972.3915107250        1323135066.2458963     
  -1892540783.8869152        10321912.784574270        1298696486.6767759     
  -1836651180.3679109        21230970.286618590        1278930432.1732128     
  -1781825925.1511104        28592200.114644051        1263836902.7352092     
  -1728065018.2365232        32405602.268631816        1253415898.3627622     
  -2358489011.8985505       -27996761.162733316        1293832676.5842004     
  -2292361394.9749012       -23100979.492698550        1282038630.4767175     
  -2226786254.7265034       -20046786.740164042        1274835133.2684815     
  -2161763591.1533566       -18834182.905128598        1272222184.9594903     
  -2097293404.2554560       -19463167.987590790        1274199785.5497463     
  -2728544232.5223627       -40176833.263975978        1259495847.8182759     
  -2653477168.1143169       -44912420.385400772        1260943518.7372167     
  -2578450708.7545633       -49783357.667789936        1266899762.3890924     
  -2503464854.4431005       -54789645.111150742        1277364578.7739022     
  -2428519605.1799273       -59931282.715477705        1292337967.8916445     
  -3059660397.5795665       -40675188.695234418        1220124579.9481187     
  -2975888103.3051620       -55112409.893528700        1235411151.4582703     
  -2891644542.4520860       -67978742.496256828        1255124319.5350432     
  -2806929715.0203409       -79274186.503424048        1279264084.1784375     
  -2721743621.0099273       -88998741.915019393        1307830445.3884556     
  -1320834447.1231163        95675028.053201556        1229986306.3306928     
  -1257729414.3715186        108504971.43947589        1195884653.4377167     
  -1193998843.7238955        123420041.14583188        1172789134.6558959     
  -1129642735.1802454        140420237.17228138        1160699749.9852262     
  -1064661088.7405630        159505559.51883334        1159616499.4257097     
  -1728065018.2365232        32405602.268631816        1253415898.3627622     
  -1639794583.3565490        45506700.864670753        1231832679.0975480     
  -1551162104.7551715        59814611.865391433        1218538753.0792160     
  -1462167582.4323971        75329335.270764530        1213534120.3077655     
  -1372811016.3882215        92050871.080810606        1216818780.7831979     
  -2097293404.2554560       -19463167.987590790        1274199785.5497463     
  -1991619969.7164505       -8419634.9225809574        1264827590.0418940     
  -1885847985.6306727        2952396.6316738129        1261027846.9166536     
  -1779977451.9981213        14652926.675172687        1262800556.1740258     
  -1674008368.8187952        26681955.207919955        1270145717.8140039     
  -2428519605.1799273       -59931282.715477705        1292337967.8916445     
  -2313205573.4512358       -53274035.922303438        1294869386.2707574     
  -2198056486.3503962       -47166604.555307269        1300256416.1682110     
  -2083072343.8774102       -41608988.614486694        1308499057.5840051     
  -1968253146.0322769       -36601188.099844694        1319597310.5181396     
  -2721743621.0099273       -88998741.915019393        1307830445.3884556     
  -2604551394.5608945       -89056502.134489775        1321958067.7841341     
  -2487787606.9143419       -90542391.695553422        1336224460.8338830     
  -2371452258.0702686       -93456410.598219395        1350629624.5377016     
  -2255545348.0286760       -97798558.842484593        1365173558.8955934     
  -1064661088.7405630        159505559.51883334        1159616499.4257097     
  -1022244869.3391761        178080527.32016814        1145790798.5034325     
  -976327194.27364445        208327014.00198156        1119415806.8839052     
  -926908063.54395378        250245019.56432593        1080491524.5671256     
  -873987477.15011764        303834544.00715661        1029017951.5530932     
  -1372811016.3882215        92050871.080810606        1216818780.7831979     
  -1359333417.3499165        89316827.422231317        1212407939.2512813     
  -1344036690.1869893        92646544.179056466        1203203375.3973019     
  -1326920834.8994391        102040021.35129398        1189205089.2212625     
  -1307985851.4872713        117497258.93892187        1170413080.7231624     
  -1674008368.8187952        26681955.207919955        1270145717.8140039     
  -1667310623.3573105        9286530.1253101826        1273187020.2096665     
  -1660476077.3107345       -7652893.0069947243        1279190168.6584554     
  -1653504730.6790621       -24136314.188979208        1288155163.1603727     
  -1646396583.4622996       -40163733.420661926        1300082003.7154179     
  -1968253146.0322769       -36601188.099844694        1319597310.5181396     
  -1946176487.3613615       -62010364.570613980        1328128041.3785906     
  -1925645355.6448736       -92571297.556156158        1347376186.6673615     
  -1906659750.8828304       -128283987.05650598        1377341746.3844502     
  -1889219673.0752163       -169148433.07162559        1418024720.5298605     
  -2255545348.0286760       -97798558.842484593        1365173558.8955934     
  -2195931009.3620653       -124573856.66553235        1377231002.7580528     
  -2139544525.1894140       -162108669.46844888        1407761429.4240222     
  -2086385895.5107279       -210402997.25124848        1456764838.8934979     
  -2036455120.3260105       -269456840.01393920        1524241231.1664882     
  -873987477.15011764        303834544.00715661        1029017951.5530932     
  -761743580.50550508        426306630.50394690        960386377.86685562     
  -619318346.79181385        649383173.89766955        935697485.72304797     
  -446711776.00905311        973064174.18829012        954951275.12167680     
  -243923868.15720898        1397349631.3758519        1018147746.0627356     
  -1307985851.4872713        117497258.93892187        1170413080.7231624     
  -1115399408.6794195        207942116.77507514        1151240236.5098183     
  -909538347.33917868        342635703.05252546        1157317568.2628305     
  -690402667.46655250        521578017.77126628        1188645075.9821990     
  -457992369.06152648        744769060.93132818        1245222759.6679385     
  -1646396583.4622996       -40163733.420661926        1300082003.7154179     
  -1426874753.2799988        2231748.1181957126        1310643384.0154998     
  -1210985023.1019912        32520229.642741203        1327762434.7058682     
  -998727392.92828250        50701711.152970195        1351439155.7865162     
  -790101862.75886250        56776192.648892045        1381673547.2574623     
  -1889219673.0752163       -169148433.07162559        1418024720.5298605     
  -1696169614.3072412       -190824475.46667522        1438595820.3839023     
  -1523658374.0802469       -280963246.33166635        1447032085.0521572     
  -1371685952.3942389       -439564745.66658902        1443333514.5346193     
  -1240252349.2491999       -666628973.47144103        1427500108.8313043     
  -2036455120.3260105       -269456840.01393920        1524241231.1664882     
  -1923283991.7611511       -371226553.97954953        1535097545.6150265     
  -1847558400.2739558       -597814724.87072158        1515126519.3017042     
  -1809278345.8644242       -949221352.68742967        1464328152.2265182     
  -1808443828.5325534       -1425446437.4296794        1382702444.3894753     
  -3768327079.0297174       -1130498123.7089152        800169513.10791087     
  -3779453638.8299093       -1008755365.8837736        884506878.84294891     
  -3791131636.7519927       -888850735.13160467        973713574.99040270     
  -3803361072.7959681       -770784231.45240927        1067789601.5502723     
  -3816141946.9618363       -654555854.84618688        1166734958.5225580     
  -4339741430.8272305       -1301922429.2481692        858348930.52108407     
  -4335563521.1916227       -1125732661.4609964        942029182.51234043     
  -4332492975.5572929       -953234107.01142323        1020048078.2813283     
  -4330529793.9242430       -784426765.89945006        1092405617.8280478     
  -4329673976.2924728       -619310638.12507677        1159101801.1524982     
  -4895224742.2092848       -1468567422.6627853        936027895.38875580     
  -4905830039.2369728       -1246956947.7433105        1018402453.4436113     
  -4918098626.1453285       -1030890772.4260623        1084584968.6415138     
  -4932030502.9343548       -820368896.71104193        1134575440.9824629     
  -4947625669.6040459       -615391320.59824681        1168373870.4664600     
  -5434777013.1758776       -1630433103.9527633        1033206407.7109259     
  -5490253192.9659624       -1372428224.7307167        1113626691.6367612     
  -5547948588.5161028       -1121820731.3755236        1167324246.0709586     
  -5607863199.8262987       -878610623.88718367        1194299071.0135195     
  -5669997026.8965492       -642797902.26569653        1194551166.4644423     
  -5958398243.7270117       -1787519473.1181035        1149884467.4875946     
  -6088832982.3785896       -1502146492.4232137        1227701897.0917902     
  -6222042862.6696119       -1226023983.8598049        1268265910.5696638     
  -6358027884.6000786       -959151947.42787588        1271576507.9212158     
  -6496788048.1699886       -701530383.12742662        1237633689.1464460     
  -3816141946.9618363       -654555854.84618688        1166734958.5225580     
  -3798817643.9933805       -536113088.19465423        1188452630.6151087     
  -3785436735.7129126       -430814970.50308156        1205549384.6985641     
  -3775999222.1204343       -338661501.77147126        1218025220.7729235     
  -3770505103.2159438       -259652681.99982357        1225880138.8381865     
  -4329673976.2924728       -619310638.12507677        1159101801.1524982     
  -4298939196.9031096       -463100772.46925354        1141166233.0399024     
  -4278879438.5536709       -342474310.27985048        1129451849.6438031     
  -4269494701.2441592       -257431251.55686665        1123958650.9642010     
  -4270784984.9745727       -207971596.30030203        1124686637.0010953     
  -4947625669.6040459       -615391320.59824681        1168373870.4664600     
  -4872502977.4349365       -412121125.03048348        1102931498.0714571     
  -4814786932.6576929       -266873087.43559885        1054552413.1185437     
  -4774477535.2723103       -179647207.81358838        1023236615.6077188     
  -4751574785.2787905       -150443486.16445446        1008984105.5389861     
  -5669997026.8965492       -642797902.26569653        1194551166.4644423     
  -5519508985.5888605       -383174145.87834311        1073748425.7097723     
  -5393159218.0249701       -204011301.97032213        980851075.12278473     
  -5290947724.2048807       -105309370.54163480        915859114.70347929     
  -5212874504.1285934       -87068351.592284441        878772544.45185637     
  -6496788048.1699886       -701530383.12742662        1237633689.1464460     
  -6239957221.3648806       -376259835.01282954        1053617015.9548484     
  -6013996294.6555109       -153888953.88402748        908347835.65652633     
  -5818905268.0418787       -34417739.741011858        801826148.25147986     
  -5654684141.5239830       -17846192.583787918        734051953.73970866     
  -3770505103.2159438       -259652681.99982357        1225880138.8381865     
  -3665697330.1330810       -167517681.36845505        1194369704.4163303     
  -3567935996.6878047       -98870812.862374663        1173438223.1448309     
  -3477221102.8801169       -53712076.481590271        1163085695.0236886     
  -3393552648.7100153       -32041472.226092100        1163312120.0529034     
  -4270784984.9745727       -207971596.30030203        1124686637.0010953     
  -4149640798.1630273       -144142115.24796724        1092484509.7439997     
  -4032564787.2567105       -93873220.546390057        1068801944.4153106     
  -3919556952.2556229       -57164912.195574045        1053638941.0150273     
  -3810617293.1597624       -34017190.195518255        1046995499.5431517     
  -4751574785.2787905       -150443486.16445446        1008984105.5389861     
  -4619978159.6584206       -116684717.16710854        979564926.46773636     
  -4489471446.2109213       -86558988.745994329        956605918.10294247     
  -4360054644.9362898       -60066300.901107311        940107080.44460416     
  -4231727755.8345270       -37206653.632447958        930068413.49272144     
  -5212874504.1285934       -87068351.592284441        878772544.45185637     
  -5076709414.6192570       -85145487.125886917        855610954.58753860     
  -4938655973.5504351       -76928117.461189985        836850144.20772660     
  -4798714180.9221220       -62416242.598189592        822490113.31241906     
  -4656884036.7343149       -41609862.536884785        812530861.90161920     
  -5654684141.5239830       -17846192.583787918        734051953.73970866     
  -5519834563.0455408       -49524425.124296427        720622594.10340881     
  -5380118369.2752552       -64980606.691977739        709534622.72966468     
  -5235535560.2131138       -64214737.286818504        700788039.61847293     
  -5086086135.8591242       -47226816.908828259        694382844.76983821     
  -3393552648.7100153       -32041472.226092100        1163312120.0529034     
  -3306844700.1429052       -23416948.728384614        1162892875.3697574     
  -3222293342.0987945       -21981060.307342887        1172221870.4579136     
  -3139898574.5776811       -27733806.962954283        1191299105.3173652     
  -3059660397.5795665       -40675188.695234418        1220124579.9481187     
  -3810617293.1597624       -34017190.195518255        1046995499.5431517     
  -3698931070.1821938       -19243532.251034498        1041886878.2045853     
  -3589241308.5873675       -11124745.582350016        1044825043.3073555     
  -3481548008.3752766       -9660830.1894559860        1055809994.8514588     
  -3375851169.5459270       -14851786.072365046        1074841732.8368988     
  -4231727755.8345270       -37206653.632447958        930068413.49272144     
  -4099924553.6749740       -17742249.809733391        920457232.82903910     
  -3969957683.7578988       -4398953.4619445801        917191385.27672791     
  -3841827146.0833054        2823235.4109063148        920270870.83578658     
  -3715532940.6511917        3924316.8088307381        929695689.50621653     
  -4656884036.7343149       -41609862.536884785        812530861.90161920     
  -4509825150.6212454       -18913101.404477835        798603939.24312139     
  -4364442467.6103926       -1803683.9461307526        789320896.36603200     
  -4220735987.7017612        9718389.8381469250        784681733.27034676     
  -4078705710.8953519        15653119.948359013        784686449.95606863     
  -5086086135.8591242       -47226816.908828259        694382844.76983821     
  -4928632861.0210085       -22756087.035269737        676326997.44683111     
  -4772695660.1448460       -3338937.0349028111        661213576.57526553     
  -4618274533.2306499        11024633.092253447        649042582.15514076     
  -4465369480.2784090        20334623.346217871        639814014.18645895     
  -3059660397.5795665       -40675188.695234418        1220124579.9481187     
  -2975888103.3051620       -55112409.893528700        1235411151.4582703     
  -2891644542.4520860       -67978742.496256828        1255124319.5350432     
  -2806929715.0203409       -79274186.503424048        1279264084.1784375     
  -2721743621.0099273       -88998741.915019393        1307830445.3884556     
  -3375851169.5459270       -14851786.072365046        1074841732.8368988     
  -3279854923.6707621       -25473155.479999781        1082211273.9151075     
  -3183523910.2404141       -34978633.037033439        1093676676.9371266     
  -3086858129.2548904       -43368218.743479609        1109237941.9029560     
  -2989857580.7141924       -50641912.599337339        1128895068.8125985     
  -3715532940.6511917        3924316.8088307381        929695689.50621653     
  -3608257699.2404346       -3164687.6276926994        928988951.29174101     
  -3500784189.2979898       -9592796.9585890770        932047340.39826787     
  -3393112410.8238640       -15360011.183872461        938870856.82579279     
  -3285242363.8180485       -20466330.303530574        949459500.57431996     
  -4078705710.8953519        15653119.948359013        784686449.95606863     
  -3961096430.0141802        11812993.663390875        775744183.58817244     
  -3843425379.6248136        8178765.7390816212        770236309.91846359     
  -3725692559.7272539        4750436.1754145622        768162828.94694698     
  -3607897970.3214984        1528004.9723973274        769523740.67361975     
  -4465369480.2784090        20334623.346217871        639814014.18645895     
  -4338371115.9919987        19459888.393259048        622476970.80439889     
  -4211447481.2208810        18336055.055980206        608243585.49771953     
  -4084598575.9650617        16963123.334374666        597113858.26641583     
  -3957824400.2245412        15341093.228450298        589087789.11049414     
  -2721743621.0099273       -88998741.915019393        1307830445.3884556     
  -2604551394.5608945       -89056502.134489775        1321958067.7841341     
  -2487787606.9143419       -90542391.695553422        1336224460.8338830     
  -2371452258.0702686       -93456410.598219395        1350629624.5377016     
  -2255545348.0286760       -97798558.842484593        1365173558.8955934     
  -2989857580.7141924       -50641912.599337339        1128895068.8125985     
  -2869958916.6998491       -51133621.938843727        1133951302.5694036     
  -2750452679.6642442       -52933421.207496047        1141050782.8270037     
  -2631338869.6073842       -56041310.405289769        1150193509.5854003     
  -2512617486.5292726       -60457289.532232523        1161379482.8445914     
  -3285242363.8180485       -20466330.303530574        949459500.57431996     
  -3157195902.6763115       -19759580.894449353        945486359.48660803     
  -3029505856.6895881       -20240882.002067924        945460940.74641919     
  -2902172225.8578706       -21910233.626371503        949383244.35375130     
  -2775195010.1811585       -24767635.767372131        957253270.30860555     
  -3607897970.3214984        1528004.9723973274        769523740.67361975     
  -3466262352.4902992        5065620.9986920357        756563238.53575027     
  -3324947137.9903741        7535225.9207327366        749454934.59212792     
  -3183952326.8217192        8936819.7385380268        748198828.84275639     
  -3043277918.9843397        9270402.4521023035        752794921.28763044     
  -3957824400.2245412        15341093.228450298        589087789.11049414     
  -3797158266.1418033        23341983.740566969        567181939.71682525     
  -3636776523.5666070        30394902.560885906        553032764.36413407     
  -3476679172.4989395        36499849.689434290        546640263.05241227     
  -3316866212.9388108        41656825.126192808        548004435.78166819     
  -2255545348.0286760       -97798558.842484593        1365173558.8955934     
  -2195931009.3620653       -124573856.66553235        1377231002.7580528     
  -2139544525.1894140       -162108669.46844888        1407761429.4240222     
  -2086385895.5107279       -210402997.25124848        1456764838.8934979     
  -2036455120.3260105       -269456840.01393920        1524241231.1664882     
  -2512617486.5292726       -60457289.532232523        1161379482.8445914     
  -2408574614.7646537       -73001333.446795344        1165396384.9212873     
  -2306595037.8192425       -92423026.758721471        1181831963.3679066     
  -2206678755.6930413       -118722369.46800184        1210686218.1844480     
  -2108825768.3860486       -151899361.57465059        1251959149.3709087     
  -2775195010.1811585       -24767635.767372131        957253270.30860555     
  -2644021623.7002106       -28269831.287956357        954588283.55341780     
  -2513746972.3637156       -34767810.623377323        958287666.73456681     
  -2384371056.1716785       -44261573.773652554        968351419.85204983     
  -2255893875.1240907       -56751120.738776326        984779542.90586972     
  -3043277918.9843397        9270402.4521023035        752794921.28763044     
  -2902272036.1687374        9620649.8110003471        744806698.65444088     
  -2761000328.8228378        10856978.937560439        737128539.52400172     
  -2619462796.9466324        12979389.831798553        729760443.89631212     
  -2477659440.5401320        15987882.493701220        722702411.77137113     
  -3316866212.9388108        41656825.126192808        548004435.78166819     
  -3183325852.1702366        40670109.850057125        536051630.22436011     
  -3048355107.1966023        44451341.924116373        518354581.73621321     
  -2911953978.0179105        53000521.348365068        494913290.31722885     
  -2774122464.6341696        66317648.122786522        465727755.96740443     
  -2036455120.3260105       -269456840.01393920        1524241231.1664882     
  -1923283991.7611511       -371226553.97954953        1535097545.6150265     
  -1847558400.2739558       -597814724.87072158        1515126519.3017042     
  -1809278345.8644242       -949221352.68742967        1464328152.2265182     
  -1808443828.5325534       -1425446437.4296794        1382702444.3894753     
  -2108825768.3860486       -151899361.57465059        1251959149.3709087     
  -2050302870.3038087       -231645998.70475811        1209926063.5768526     
  -2012642359.7689621       -380933927.65950918        1151600969.6729076     
  -1995844236.7815149       -599763148.43893993        1076983867.6590803     
  -1999908501.3414695       -888133661.04301095        986074757.53536522     
  -2255893875.1240907       -56751120.738776326        984779542.90586972     
  -2210489685.6616707       -102015824.47451949        909204064.65452385     
  -2169364734.2163858       -161544654.93403590        831871910.94527066     
  -2132519020.7882259       -235337612.11732990        752783081.77810562     
  -2099952545.3772120       -323394696.02439743        671937577.15303755     
  -2477659440.5401320        15987882.493701220        722702411.77137113     
  -2403844437.8347526        17663968.711145759        632931548.84804511     
  -2317725523.6162286        60353093.305712104        555939343.11879194     
  -2219302697.8845778        144055256.27738476        491725794.58361155     
  -2108575960.6397958        268770457.62616384        440290903.24248689     
  -2774122464.6341696        66317648.122786522        465727755.96740443     
  -2630367126.8230324        127393380.85225797        381108516.15741563     
  -2457724727.9684873        284759317.05974531        323803266.19347095     
  -2256195268.0705495        538415456.74520779        293812006.07556862     
  -2025778747.1292102        888361799.90868247        291134735.80371428     
  -5958398243.7270117       -1787519473.1181035        1149884467.4875946     
  -6088832982.3785896       -1502146492.4232137        1227701897.0917902     
  -6222042862.6696119       -1226023983.8598049        1268265910.5696638     
  -6358027884.6000786       -959151947.42787588        1271576507.9212158     
  -6496788048.1699886       -701530383.12742662        1237633689.1464460     
  -6811230281.6526079       -2043369084.4957824        1353684338.1983907     
  -6829001674.2134085       -1395563355.0989718        1202660502.0211718     
  -6898142174.5242558       -918987984.86898303        1091915867.7242756     
  -7018651782.5851498       -613642973.80581498        1021450435.3077011     
  -7190530498.3960876       -479528321.90946698        991264204.77144945     
  -8338414974.7425833       -2501524492.4227748        1712228283.3229439     
  -8022001255.4793406       -1424829484.6040637        1275670220.9019415     
  -7805550610.0767441       -681344722.98751402        956923978.36790574     
  -7689063038.5347967       -271070207.57312632        755989555.72083592     
  -7672538540.8534975       -194005938.36090136        672866952.96073234     
  -10539952322.996943       -3161985696.8990827        2225516302.8612537     
  -9667831726.1763821       -1589944880.9384882        1446731053.7340987     
  -8944268169.3270741       -513094198.21539783        863290242.50055373     
  -8369261652.4490194        68566351.270188808        475193869.16061926     
  -7942812175.5422096        155036767.51827288        282441933.71429420     
  -13415842326.415680       -4024752697.9247041        2893548396.8133211     
  -11766493086.304539       -1890909544.1022475        1715843000.5176432     
  -10314294852.275249       -414236410.55263615        811014660.12222016     
  -9059247624.3278141        405266702.72413254        179063375.62705064     
  -8001351402.4622326        567599795.72805595       -180010852.96786353     
  -6496788048.1699886       -701530383.12742662        1237633689.1464460     
  -6239957221.3648806       -376259835.01282954        1053617015.9548484     
  -6013996294.6555109       -153888953.88402748        908347835.65652633     
  -5818905268.0418787       -34417739.741011858        801826148.25147986     
  -5654684141.5239830       -17846192.583787918        734051953.73970866     
  -7190530498.3960876       -479528321.90946698        991264204.77144945     
  -6901020168.4894419       -304373316.35020113        847002570.15875447     
  -6624344924.2738647       -172001929.76115966        723773570.24365866     
  -6360504765.7493544       -82414162.142343044        621577205.02616346     
  -6109499692.9159088       -35610013.493750811        540413474.50626659     
  -7672538540.8534975       -194005938.36090136        672866952.96073234     
  -7400962588.4043846       -184150639.52468491        589400973.73238862     
  -7124186907.2416725       -156962911.64313030        509252771.00596702     
  -6842211497.3653555       -112442754.71623302        432422344.78146964     
  -6555036358.7754364       -50590168.743993998        358909695.05889797     
  -7942812175.5422096        155036767.51827288        282441933.71429420     
  -7739784481.1097078       -15591804.536285400        280812226.67574847     
  -7513522243.5589294       -108771899.52993727        264785437.94345057     
  -7264025462.8898840       -124503517.46268272        234361567.51740059     
  -6991294139.1025600       -62786658.334516525        189540615.39759895     
  -8001351402.4622326        567599795.72805595       -180010852.96786353     
  -7917485846.6054106        201303188.61500216       -78763671.011164114     
  -7792350933.2256432       -27428893.421578884       -9628428.9438917711     
  -7625946662.3229342       -118596450.38168573        27394873.233954020     
  -7418273033.8972855       -72199482.265317440        32306235.522372652     
  -5654684141.5239830       -17846192.583787918        734051953.73970866     
  -5519834563.0455408       -49524425.124296427        720622594.10340881     
  -5380118369.2752552       -64980606.691977739        709534622.72966468     
  -5235535560.2131138       -64214737.286818504        700788039.61847293     
  -5086086135.8591242       -47226816.908828259        694382844.76983821     
  -6109499692.9159088       -35610013.493750811        540413474.50626659     
  -5959412080.7781572       -37411462.846599340        533579651.44158870     
  -5808575334.4610300       -36715798.268195629        529231362.19359708     
  -5656989453.9645271       -33523019.758544683        527368606.76229328     
  -5504654439.2886448       -27833127.317635536        527991385.14767647     
  -6555036358.7754364       -50590168.743993998        358909695.05889797     
  -6389298868.5379953       -22391281.577067137        353867680.60128742     
  -6226929725.2336512       -5420217.5204744339        351455345.51449573     
  -6067928928.8624039        323023.42579460144        351672689.79852259     
  -5912296479.4242601       -5161558.7382707596        354519713.45337057     
  -6991294139.1025600       -62786658.334516525        189540615.39759895     
  -6809494926.3250484       -4463881.3157029152        181486681.58250344     
  -6635181541.5931129        28906135.551196098        176206572.69235808     
  -6468353984.9067469        37323392.266191244        173700288.72716379     
  -6309012256.2659550        20787888.829267263        173967829.68692622     
  -7418273033.8972855       -72199482.265317440        32306235.522372652     
  -7220000254.1393280        16370737.937495232        16436654.385236932     
  -7033330783.5394163        66263260.946818352        3485043.7271862146     
  -6858264622.0975533        77478086.762650967       -6548596.4517796170     
  -6694801769.8137379        50015215.384984016       -13664266.151664367     
  -5086086135.8591242       -47226816.908828259        694382844.76983821     
  -4928632861.0210085       -22756087.035269737        676326997.44683111     
  -4772695660.1448460       -3338937.0349028111        661213576.57526553     
  -4618274533.2306499        11024633.092253447        649042582.15514076     
  -4465369480.2784090        20334623.346217871        639814014.18645895     
  -5504654439.2886448       -27833127.317635536        527991385.14767647     
  -5343475307.4089308       -18523093.205780029        513050152.21797293     
  -5182407788.9329052       -9585103.7728836536        501531158.81383574     
  -5021451883.8605614       -1019159.0189316273        493434404.93526000     
  -4860607592.1919060        7174741.0560727119        488759890.58224994     
  -5912296479.4242601       -5161558.7382707596        354519713.45337057     
  -5746020596.0054550       -10600952.038873911        344331632.23496079     
  -5578451865.4320583       -11730854.824180365        338045603.61623502     
  -5409590287.7040758       -8551267.0941932201        335661627.59719908     
  -5239435862.8215055       -1062188.8489050865        337179704.17784953     
  -6309012256.2659550        20787888.829267263        173967829.68692622     
  -6136268726.8105659        1010336.4654560089        170171437.49778897     
  -5960827889.6423197       -9776190.1888172626        170756910.98246869     
  -5782689744.7612047       -11571691.133543015        175724250.14095670     
  -5601854292.1672268       -4376166.3687150478        185073454.97325286     
  -6694801769.8137379        50015215.384984016       -13664266.151664367     
  -6514219699.8242769        16310772.307209492       -9430431.9935285710     
  -6329535861.5636749       -3721109.8667812347       -334919.08746384573     
  -6140750255.0319366       -10080431.136972904        13622272.566536454     
  -5947862880.2290573       -2767191.5033612251        32441142.968465846     
  -4465369480.2784090        20334623.346217871        639814014.18645895     
  -4338371115.9919987        19459888.393259048        622476970.80439889     
  -4211447481.2208810        18336055.055980206        608243585.49771953     
  -4084598575.9650617        16963123.334374666        597113858.26641583     
  -3957824400.2245412        15341093.228450298        589087789.11049414     
  -4860607592.1919060        7174741.0560727119        488759890.58224994     
  -4724865913.8298111        6975532.3149755001        477037353.55573076     
  -4589581187.8821373        5253148.8591482639        468780894.00161362     
  -4454753414.3488874        2007590.6885743141        463990511.91990584     
  -4320382593.2300577       -2761142.1967279911        462666207.31060207     
  -5239435862.8215055       -1062188.8489050865        337179704.17784953     
  -5093915386.3922281       -275226.18069100380        330625746.79121745     
  -4949234085.2764940       -2285514.5576143265        327900286.27402675     
  -4805391959.4743118       -7093053.9797143936        329003322.62626356     
  -4662389008.9856682       -14697844.446935415        333934855.84793955     
  -5601854292.1672268       -4376166.3687150478        185073454.97325286     
  -5445519533.6792574       -2292387.0937354565        183242150.51087537     
  -5290406173.4039574       -4279935.1943202019        185601762.31495336     
  -5136514211.3413267       -10338810.670460939        192152290.38550225     
  -4983843647.4913673       -20469013.522175550        202893734.72250035     
  -5947862880.2290573       -2767191.5033612251        32441142.968465846     
  -5779678355.6908913        924049.57583856583        34886564.714685693     
  -5613097452.2645149       -730113.05092811584        41885322.124403805     
  -5448120169.9499416       -7729679.3837122917        53437415.197598957     
  -5284746508.7471542       -20074649.422435522        69542843.934284210     
  -3957824400.2245412        15341093.228450298        589087789.11049414     
  -3797158266.1418033        23341983.740566969        567181939.71682525     
  -3636776523.5666070        30394902.560885906        553032764.36413407     
  -3476679172.4989395        36499849.689434290        546640263.05241227     
  -3316866212.9388108        41656825.126192808        548004435.78166819     
  -4320382593.2300577       -2761142.1967279911        462666207.31060207     
  -4141667883.4891849        5173785.7290053368        447016258.23416722     
  -3962891499.8672342        13314293.258327007        437508376.98910606     
  -3784053442.3642073        21660380.391234875        434142563.57541776     
  -3605153710.9801078        30212047.127732038        436918817.99309635     
  -4662389008.9856682       -14697844.446935415        333934855.84793955     
  -4470238884.1855173       -8212827.2872402668        324944550.04211801     
  -4277681020.1156759       -368679.22857618332        320481705.85806507     
  -4084715416.7761488        8834599.7290399075        320546323.29578334     
  -3891342074.1669340        19397009.585606813        325138402.35527295     
  -4983843647.4913673       -20469013.522175550        202893734.72250035     
  -4782871268.2307978       -16817855.308172226        200966815.14066973     
  -4581145084.3119335       -10654014.899830818        201952750.97100958     
  -4378665095.7347651       -1977492.2971577644        205851542.21351683     
  -4175431302.4993067        9211712.4998257160        212663188.86819777     
  -5284746508.7471542       -20074649.422435522        69542843.934284210     
  -5079565035.6250420       -20641298.333800554        75083053.529827297     
  -4873283692.4559994       -17541713.755419970        81921512.327937528     
  -4665902479.2400637       -10775895.687381029        90058220.328619361     
  -4457421395.9772110       -343844.12962532043        99493177.531864494     
  -3316866212.9388108        41656825.126192808        548004435.78166819     
  -3183325852.1702366        40670109.850057125        536051630.22436011     
  -3048355107.1966023        44451341.924116373        518354581.73621321     
  -2911953978.0179105        53000521.348365068        494913290.31722885     
  -2774122464.6341696        66317648.122786522        465727755.96740443     
  -3605153710.9801078        30212047.127732038        436918817.99309635     
  -3483435635.3386230        22675793.611924410        428862271.85030526     
  -3361075996.3449268        17278084.603492022        418967335.05743700     
  -3238074793.9990125        14018920.102443099        407234007.61448902     
  -3114432028.3008947        12898300.108756900        393662289.52146423     
  -3891342074.1669340        19397009.585606813        325138402.35527295     
  -3770286705.7075100        8659091.2136509418        320057824.63201725     
  -3649378594.7487226       -2569685.4937639236        317044708.53943491     
  -3528617741.2905607       -14289320.536603212        316099054.07754087     
  -3408004145.3330417       -26499813.914905787        317220861.24632776     
  -4175431302.4993067        9211712.4998257160        212663188.86819777     
  -4043879063.2769065       -1379997.3447780609        209638288.56948096     
  -3913262902.4079900       -15091968.367642879        212586702.18220723     
  -3783582819.8925519       -31924200.568783760        221508429.70638084     
  -3654838815.7305927       -51876693.948176622        236403471.14199474     
  -4457421395.9772110       -343844.12962532043        99493177.531864494     
  -4304212708.0468121       -7441472.0633637905        97603663.662705943     
  -4152728919.3227410       -20288764.018196583        105593315.98576041     
  -4002970029.8049917       -38885719.994097948        123462134.50100785     
  -3854936039.4935675       -63232339.991094589        151210119.20846352     
  -2774122464.6341696        66317648.122786522        465727755.96740443     
  -2630367126.8230324        127393380.85225797        381108516.15741563     
  -2457724727.9684873        284759317.05974531        323803266.19347095     
  -2256195268.0705495        538415456.74520779        293812006.07556862     
  -2025778747.1292102        888361799.90868247        291134735.80371428     
  -3114432028.3008947        12898300.108756900        393662289.52146423     
  -2914846399.7419639        61573304.080899239        347857273.61607522     
  -2698091720.1785913        167478478.06784260        320546351.99924791     
  -2464167989.6107893        330613822.06956172        311729524.67098826     
  -2213075208.0385437        550979336.08607483        321406791.63128716     
  -3408004145.3330417       -26499813.914905787        317220861.24632776     
  -3177787927.6191182        2214550.8220669031        296559057.53341943     
  -2942120668.9397173        49099052.110643506        285571452.55158770     
  -2701002369.2948570        114153689.95076096        284258046.30083990     
  -2454433028.6845140        197378464.34246922        292618838.78117704     
  -3654838815.7305927       -51876693.948176622        236403471.14199474     
  -3419191710.4544935       -50682878.924224973        227213867.90943798     
  -3189811574.2518811       -70378960.811898589        218878567.85048255     
  -2966698407.1227512       -110964939.61118472        211397570.96512917     
  -2749852209.0671139       -172440815.32211173        204770877.25336915     
  -3854936039.4935675       -63232339.991094589        151210119.20846352     
  -3639057748.2480927       -97118985.157997608        139821704.74414319     
  -3441164436.1150556       -190955560.69970393        120467697.89593565     
  -3261256103.0944891       -344742066.61629021        93148098.663852781     
  -3099332749.1863618       -558478502.90770721        57862907.047882080     
 </DataArray>
 <DataArray  type="Float64" Name="VM" NumberOfComponents="1" format="ascii">
   12935514366.766060     
   11340552644.688732     
   10210020133.264402     
   9272528647.2074718     
   8303617514.6208401     
   10130161530.878775     
   9321814716.0000801     
   8826127452.9896564     
   8443237875.0985336     
   8035330193.5732479     
   7982165504.2645674     
   7734733577.1289835     
   7668869687.4327383     
   7669256637.2110376     
   7665963569.3176842     
   6491438504.7302856     
   6586599748.5415211     
   6757086854.1192141     
   6960819332.4159641     
   7171139569.9535122     
   5657532410.4673519     
   5890581034.0029316     
   6115979057.4471321     
   6331272452.4867840     
   6536242200.0241899     
   8303617514.6208401     
   8020392995.6972589     
   7779350561.9121037     
   7569785625.1313276     
   7386731639.6106806     
   8035330193.5732479     
   7746493744.1173019     
   7473372248.2641344     
   7214002803.6076775     
   6968399591.9676437     
   7665963569.3176842     
   7380670148.9590597     
   7100795905.5992594     
   6826422115.4340858     
   6557757593.9678049     
   7171139569.9535122     
   6910363640.2677813     
   6657500610.1804600     
   6408695995.5068636     
   6160805029.4317188     
   6536242200.0241899     
   6327929259.9928141     
   6141804246.1581650     
   5963957878.2141218     
   5785376808.1590757     
   7386731639.6106806     
   7229401264.4490166     
   7064444673.3087873     
   6891159501.1979256     
   6709365186.3958578     
   6968399591.9676437     
   6815174295.0221615     
   6657256002.5918827     
   6494358491.0977345     
   6326434505.4337797     
   6557757593.9678049     
   6407780477.6093130     
   6256127281.4104853     
   6102765026.3127804     
   5947723320.7090263     
   6160805029.4317188     
   6012221002.4426441     
   5864948148.8761816     
   5719023720.6735001     
   5574501948.4696035     
   5785376808.1590757     
   5634966172.3410740     
   5488739515.9866056     
   5346608347.3907719     
   5208618553.4713526     
   6709365186.3958578     
   6514631179.9117460     
   6323646669.4537106     
   6136292272.2767963     
   5952557503.2222204     
   6326434505.4337797     
   6140151922.6623106     
   5956299167.7258739     
   5774852422.0371046     
   5595842330.1450777     
   5947723320.7090263     
   5772561191.5592813     
   5598880394.2379827     
   5426705863.9955740     
   5256098748.9415483     
   5574501948.4696035     
   5413663714.9058237     
   5253767547.5273552     
   5094854531.0507994     
   4937031068.5026484     
   5208618553.4713526     
   5065856073.7806406     
   4923966858.8423328     
   4782990722.7056313     
   4643121992.2054863     
   5952557503.2222204     
   5785544507.5735874     
   5616793731.1181192     
   5446271269.9548693     
   5274010527.4753275     
   5595842330.1450777     
   5438621094.0728426     
   5280653352.4495478     
   5121967182.3215961     
   4962638794.8787336     
   5256098748.9415483     
   5107760938.8841076     
   4959641847.3113861     
   4811809447.1630468     
   4664365154.9190578     
   4937031068.5026484     
   4796518012.2002363     
   4657121885.7739162     
   4518927316.5353222     
   4382044070.5364685     
   4643121992.2054863     
   4509200254.6092472     
   4377181004.2719727     
   4247142120.2095127     
   4119187262.2138476     
   5274010527.4753275     
   5065839520.7935143     
   4858979799.9634171     
   4653447145.5343695     
   4449293244.6815996     
   4962638794.8787336     
   4763215502.5269098     
   4565037285.5504446     
   4368161929.4205198     
   4172696777.1844616     
   4664365154.9190578     
   4477092766.3469706     
   4291367034.6095638     
   4107326565.8097248     
   3925194902.2717295     
   4382044070.5364685     
   4210556088.7265406     
   4041352095.7178903     
   3874700431.6324825     
   3711012863.6470542     
   4119187262.2138476     
   3967270199.9973159     
   3818865975.3289623     
   3674417975.3352380     
   3534588954.8003221     
   4449293244.6815996     
   4301241798.9771538     
   4152033627.7175021     
   4001646436.4793148     
   3850220757.0959644     
   4172696777.1844616     
   4040067530.2693539     
   3907384987.9475489     
   3774720132.0100427     
   3642233602.6894751     
   3925194902.2717295     
   3803189732.8295922     
   3681738765.2754421     
   3560922658.3009315     
   3440854962.3164420     
   3711012863.6470542     
   3594853119.5979366     
   3479223987.8021126     
   3364145767.5616689     
   3249642496.2355452     
   3534588954.8003221     
   3419691040.8133249     
   3304572619.6536393     
   3189132422.7279778     
   3073277973.6179242     
   3850220757.0959644     
   3610555744.0143185     
   3373898892.5784206     
   3140560778.6841612     
   2911133023.9228096     
   3642233602.6894751     
   3403864703.7001953     
   3167436840.2160273     
   2933180164.0196943     
   2701464107.4532971     
   3440854962.3164420     
   3213685463.0536079     
   2988707781.1097016     
   2766337821.9400630     
   2547273222.0426221     
   3249642496.2355452     
   3044412654.6569333     
   2843230881.2975569     
   2647132648.4158330     
   2457918549.9803424     
   3073277973.6179242     
   2901120477.7897649     
   2736640940.2540145     
   2581894754.9535089     
   2440375187.0310163     
   5657532410.4673519     
   5890581034.0029316     
   6115979057.4471321     
   6331272452.4867840     
   6536242200.0241899     
   5151128752.5349483     
   5310972978.9635134     
   5467432313.9889488     
   5617616767.2995815     
   5760065423.0265865     
   4643187067.8773193     
   4755223977.1641064     
   4868364755.9255857     
   4979980350.7961226     
   5088150757.0346680     
   4133974916.2592516     
   4224175635.2665863     
   4320275938.0667877     
   4420625027.8118553     
   4523773733.2936325     
   3625018386.0296640     
   3719657958.7048235     
   3825529415.3217568     
   3942574655.5813017     
   4070705683.9480619     
   6536242200.0241899     
   6327929259.9928141     
   6141804246.1581650     
   5963957878.2141218     
   5785376808.1590757     
   5760065423.0265865     
   5651280262.3232737     
   5558486828.8801889     
   5472621639.6905146     
   5388141846.3517914     
   5088150757.0346680     
   5053205119.2308350     
   5028756519.9579554     
   5009595923.5689240     
   4992522296.8166075     
   4523773733.2936325     
   4538309534.4733829     
   4557499130.1743908     
   4578858039.2870941     
   4600662328.5541687     
   4070705683.9480619     
   4111930927.5622535     
   4150496381.9924755     
   4185494096.0922389     
   4216184611.4337940     
   5785376808.1590757     
   5634966172.3410740     
   5488739515.9866056     
   5346608347.3907719     
   5208618553.4713526     
   5388141846.3517914     
   5246904103.8960457     
   5108879713.6070995     
   4974110205.4465160     
   4842689212.9423714     
   4992522296.8166075     
   4864898127.7226582     
   4740461524.2173119     
   4619183485.8756714     
   4501105104.5703630     
   4600662328.5541687     
   4491640777.5092096     
   4386844361.7178764     
   4285963554.5985293     
   4188909069.5436997     
   4216184611.4337940     
   4131122573.4570456     
   4052567302.3684144     
   3979681999.8976302     
   3912171728.7374978     
   5208618553.4713526     
   5065856073.7806406     
   4923966858.8423328     
   4782990722.7056313     
   4643121992.2054863     
   4842689212.9423714     
   4717616363.1008091     
   4594341269.5297070     
   4472995541.2718868     
   4353831641.2347889     
   4501105104.5703630     
   4392112737.4135361     
   4285750308.7975912     
   4182205507.3686571     
   4081753257.8226542     
   4188909069.5436997     
   4094249684.7545085     
   4002894785.0111833     
   3915053094.8400235     
   3830990664.9409075     
   3912171728.7374978     
   3829925620.3603749     
   3751427541.9318738     
   3676876228.0101862     
   3606506259.4234204     
   4643121992.2054863     
   4509200254.6092472     
   4377181004.2719727     
   4247142120.2095127     
   4119187262.2138476     
   4353831641.2347889     
   4228520187.0659099     
   4105605894.3156242     
   3985251429.4582334     
   3867660618.2385902     
   4081753257.8226542     
   3968104994.2120605     
   3857710318.4900274     
   3750827726.0456133     
   3647782880.3728657     
   3830990664.9409075     
   3732047666.0828295     
   3637601105.8389812     
   3548006761.8672118     
   3463720714.0396504     
   3606506259.4234204     
   3525106456.8826413     
   3449832372.3083611     
   3381117082.9308133     
   3319528506.7816353     
   4119187262.2138476     
   3967270199.9973159     
   3818865975.3289623     
   3674417975.3352380     
   3534588954.8003221     
   3867660618.2385902     
   3735645679.1756520     
   3607502553.6456065     
   3483667238.7145219     
   3364721958.5155754     
   3647782880.3728657     
   3532339474.5587234     
   3420733309.8559422     
   3313341113.3104043     
   3210623910.6354527     
   3463720714.0396504     
   3361702082.8644791     
   3263028715.3450470     
   3167978728.0249939     
   3076870489.1528058     
   3319528506.7816353     
   3228099470.1309390     
   3139037220.3702040     
   3052496187.5699973     
   2968648582.4789596     
   3534588954.8003221     
   3419691040.8133249     
   3304572619.6536393     
   3189132422.7279778     
   3073277973.6179242     
   3364721958.5155754     
   3250388404.4659004     
   3137614880.2529817     
   3026522043.9711494     
   2917251058.8273907     
   3210623910.6354527     
   3104569924.2126765     
   3002829185.6891842     
   2905815748.2221203     
   2814036933.2995996     
   3076870489.1528058     
   2986025943.0682206     
   2903166170.4006529     
   2828984612.4197130     
   2764362032.3580651     
   2968648582.4789596     
   2898481200.2299542     
   2840784716.8118696     
   2796396769.0265627     
   2766421519.2348976     
   3073277973.6179242     
   2901120477.7897649     
   2736640940.2540145     
   2581894754.9535089     
   2440375187.0310163     
   2917251058.8273907     
   2783658417.8343911     
   2657925336.1194854     
   2541548197.8883247     
   2436563137.6744113     
   2814036933.2995996     
   2707179749.6222467     
   2606220852.7910404     
   2511866961.8355284     
   2424932744.5088129     
   2764362032.3580651     
   2672420269.3968482     
   2582392629.7263680     
   2494276859.4542966     
   2408177756.6936054     
   2766421519.2348976     
   2678302010.7049112     
   2586598970.3351865     
   2490841257.4839058     
   2391012194.4341278     
   3625018386.0296640     
   3719657958.7048235     
   3825529415.3217568     
   3942574655.5813017     
   4070705683.9480619     
   3138230786.2011628     
   3255689952.8213830     
   3382559249.6161242     
   3518371439.3078289     
   3662670347.0101871     
   2695204779.2028971     
   2830914830.6321831     
   2973945499.3755517     
   3123213035.5618367     
   3277804750.5315585     
   2299416785.0795240     
   2450113195.6745667     
   2605560600.0523534     
   2763831843.4206929     
   2923491666.8306770     
   1956052079.5371189     
   2120216002.8519390     
   2285791487.1563025     
   2449810790.0615745     
   2610306094.5205312     
   4070705683.9480619     
   4111930927.5622535     
   4150496381.9924755     
   4185494096.0922389     
   4216184611.4337940     
   3662670347.0101871     
   3701969541.2168169     
   3739896942.9772158     
   3775549464.1466627     
   3808174587.5195537     
   3277804750.5315585     
   3321049367.1393328     
   3364565994.8830066     
   3407533733.8124385     
   3449276140.7847161     
   2923491666.8306770     
   2976541323.3515882     
   3031862963.5625486     
   3088782434.0925994     
   3146772428.2839761     
   2610306094.5205312     
   2678459458.2334790     
   2751184397.8796730     
   2827984812.3191295     
   2908515248.9588919     
   4216184611.4337940     
   4131122573.4570456     
   4052567302.3684144     
   3979681999.8976302     
   3912171728.7374978     
   3808174587.5195537     
   3754514069.3202782     
   3706804897.3827071     
   3664577996.7412295     
   3627742369.4476485     
   3449276140.7847161     
   3422654197.2234821     
   3401064162.2183995     
   3384276374.9780965     
   3372284343.8932137     
   3146772428.2839761     
   3143154067.1407695     
   3143079240.4560442     
   3146442255.3231640     
   3153237336.5149264     
   2908515248.9588919     
   2924254837.0290618     
   2941303336.5599642     
   2959592891.1647396     
   2979081702.3489327     
   3912171728.7374978     
   3829925620.3603749     
   3751427541.9318738     
   3676876228.0101862     
   3606506259.4234204     
   3627742369.4476485     
   3556125366.9369335     
   3488735529.7230163     
   3425781677.5185990     
   3367508815.3089595     
   3372284343.8932137     
   3311978283.2789583     
   3256500414.4855275     
   3206057655.2793002     
   3160893651.1500220     
   3153237336.5149264     
   3104763738.4211292     
   3061825532.7842345     
   3024608377.3761005     
   2993335461.7837954     
   2979081702.3489327     
   2942601091.0532045     
   2912434660.8383203     
   2888721408.7689395     
   2871639985.9945350     
   3606506259.4234204     
   3525106456.8826413     
   3449832372.3083611     
   3381117082.9308133     
   3319528506.7816353     
   3367508815.3089595     
   3302678475.2621956     
   3243932892.9230099     
   3191618724.4017100     
   3146169078.4269757     
   3160893651.1500220     
   3109866347.2397370     
   3064614433.1483665     
   3025390499.7337403     
   2992495128.0537968     
   2993335461.7837954     
   2953265425.1873479     
   2918352318.8027043     
   2888759316.3121653     
   2864670764.8521428     
   2871639985.9945350     
   2839703692.5884461     
   2811975090.5524426     
   2788543574.9237709     
   2769504514.8991098     
   3319528506.7816353     
   3228099470.1309390     
   3139037220.3702040     
   3052496187.5699973     
   2968648582.4789596     
   3146169078.4269757     
   3060507684.2784839     
   2979727108.5341196     
   2904184016.6784110     
   2834270862.5629053     
   2992495128.0537968     
   2916663196.9491744     
   2848651755.3066802     
   2788966094.9865470     
   2738163294.3932805     
   2864670764.8521428     
   2801525704.9001384     
   2749476814.8033729     
   2709073740.4754572     
   2680925044.0744700     
   2769504514.8991098     
   2720114986.6131711     
   2685358143.8520584     
   2665700202.3901672     
   2661669945.2743130     
   2968648582.4789596     
   2898481200.2299542     
   2840784716.8118696     
   2796396769.0265627     
   2766421519.2348976     
   2834270862.5629053     
   2787241526.2207108     
   2749514260.4026508     
   2721454517.2208548     
   2703503360.8033943     
   2738163294.3932805     
   2705110872.5431514     
   2677180072.4790435     
   2654438014.2895980     
   2636966121.4907551     
   2680925044.0744700     
   2653944027.1710315     
   2626958964.1614819     
   2599882127.9454193     
   2572669842.2718377     
   2661669945.2743130     
   2634700272.2250953     
   2601854780.1918802     
   2562977082.1472106     
   2518045302.6988564     
   2766421519.2348976     
   2678302010.7049112     
   2586598970.3351865     
   2490841257.4839058     
   2391012194.4341278     
   2703503360.8033943     
   2607328316.2713437     
   2516311870.6307154     
   2431138356.0775499     
   2352570234.5473938     
   2636966121.4907551     
   2555953547.1879249     
   2490328746.7171950     
   2442614291.1062846     
   2416153111.7557755     
   2572669842.2718377     
   2527460619.5145411     
   2508750135.3092589     
   2521266122.1251369     
   2571845791.0434809     
   2518045302.6988564     
   2524783615.8674288     
   2569975829.2075334     
   2660736623.5844560     
   2807613150.0592289     
   1956052079.5371189     
   2120216002.8519390     
   2285791487.1563025     
   2449810790.0615745     
   2610306094.5205312     
   1654583214.7114565     
   1821230748.8643651     
   1989633792.9425263     
   2157091338.9444795     
   2321840195.6429391     
   1394324462.9252119     
   1571946094.1616828     
   1750626790.8979232     
   1928361787.9233670     
   2103899643.6374671     
   1207546834.9803190     
   1399724244.2520769     
   1591524943.8174160     
   1782173946.2191904     
   1971214059.7437210     
   1136934040.9741943     
   1335401619.3607967     
   1534220835.9107006     
   1733391725.0044847     
   1932914322.7347686     
   2610306094.5205312     
   2678459458.2334790     
   2751184397.8796730     
   2827984812.3191295     
   2908515248.9588919     
   2321840195.6429391     
   2409117467.8828077     
   2498929343.1809821     
   2590893607.4498363     
   2684738890.0649099     
   2103899643.6374671     
   2207877812.8511424     
   2311894147.9904132     
   2415715877.4191141     
   2519177893.1326756     
   1971214059.7437210     
   2088553857.4691236     
   2203210998.6500602     
   2315111294.7731719     
   2424202941.4635935     
   1932914322.7347686     
   2059654604.9910598     
   2181185051.7042980     
   2297505622.8092656     
   2408616289.3922672     
   2908515248.9588919     
   2924254837.0290618     
   2941303336.5599642     
   2959592891.1647396     
   2979081702.3489327     
   2684738890.0649099     
   2708353093.0784564     
   2734558658.5230713     
   2763336561.9374628     
   2794681576.2519321     
   2519177893.1326756     
   2550326604.4785285     
   2585356457.4798064     
   2624272314.3291130     
   2667083267.8763652     
   2424202941.4635935     
   2460816391.6257601     
   2502580614.9903879     
   2549502028.2682891     
   2601586852.8527064     
   2408616289.3922672     
   2446830994.3107347     
   2491443618.4064426     
   2542456248.0753055     
   2599871885.7588501     
   2979081702.3489327     
   2942601091.0532045     
   2912434660.8383203     
   2888721408.7689395     
   2871639985.9945350     
   2794681576.2519321     
   2774395464.0371313     
   2762094469.3725815     
   2757899974.1150265     
   2761956250.5676079     
   2667083267.8763652     
   2661471926.1427569     
   2665399664.7672215     
   2678934022.9611001     
   2702152149.3099875     
   2601586852.8527064     
   2607262910.7004356     
   2623899048.0407033     
   2651507815.4930573     
   2690104727.6503439     
   2599871885.7588501     
   2611758492.4686575     
   2635955264.8652263     
   2672461359.2961345     
   2721274899.6896639     
   2871639985.9945350     
   2839703692.5884461     
   2811975090.5524426     
   2788543574.9237709     
   2769504514.8991098     
   2761956250.5676079     
   2746146093.7753663     
   2735445893.7982602     
   2729931238.6818142     
   2729679188.2522221     
   2702152149.3099875     
   2702209516.5446339     
   2708168698.9468617     
   2720074375.9243488     
   2737969996.7761078     
   2690104727.6503439     
   2704612251.1332016     
   2725704019.5213165     
   2753393423.7413306     
   2787692822.3490376     
   2721274899.6896639     
   2747864389.4778061     
   2781675850.9030237     
   2822705445.3726950     
   2870949549.8023911     
   2769504514.8991098     
   2720114986.6131711     
   2685358143.8520584     
   2665700202.3901672     
   2661669945.2743130     
   2729679188.2522221     
   2704375481.7940331     
   2691157995.9962697     
   2690214235.0250020     
   2701744418.6071529     
   2737969996.7761078     
   2730803839.1109138     
   2732712201.2272434     
   2743743955.4165654     
   2763947785.4332767     
   2787692822.3490376     
   2793688046.0640345     
   2805479331.5937638     
   2823079519.8896971     
   2846503660.2623711     
   2870949549.8023911     
   2886453645.6978288     
   2904346905.2840309     
   2924664998.3194447     
   2947455161.6888170     
   2661669945.2743130     
   2634700272.2250953     
   2601854780.1918802     
   2562977082.1472106     
   2518045302.6988564     
   2701744418.6071529     
   2675115522.8981690     
   2650601047.4065995     
   2628225866.8094597     
   2608055225.8145719     
   2763947785.4332767     
   2743182266.4115925     
   2732793456.8513732     
   2732859850.3361182     
   2743456247.2731090     
   2846503660.2623711     
   2833535465.9034123     
   2839314975.9020376     
   2863853423.9160228     
   2907166327.1207972     
   2947455161.6888170     
   2941004595.1268959     
   2962132263.5419698     
   3010770292.9551506     
   3086887613.7477102     
   2518045302.6988564     
   2524783615.8674288     
   2569975829.2075334     
   2660736623.5844560     
   2807613150.0592289     
   2608055225.8145719     
   2683988970.1710062     
   2780629763.3925724     
   2898742777.1859326     
   3039471529.8834562     
   2743456247.2731090     
   2847200801.6022310     
   2954712238.7653565     
   3066611557.6973376     
   3183869544.7136631     
   2907166327.1207972     
   3004374709.4639249     
   3089112700.2376299     
   3167120835.8123674     
   3247699309.6426425     
   3086887613.7477102     
   3148471772.2712021     
   3182898691.2597952     
   3206687045.2425833     
   3247696833.6879492     
   1136934040.9741943     
   1335401619.3607967     
   1534220835.9107006     
   1733391725.0044847     
   1932914322.7347686     
   1206785908.1300709     
   1398684863.3806593     
   1590190933.4254127     
   1780520896.6241386     
   1969211647.8727872     
   1393123241.4615448     
   1570264981.2740152     
   1748423674.6023178     
   1925586098.6253495     
   2100494407.4948242     
   1653287168.0577445     
   1819369454.4890175     
   1987132388.8298249     
   2153871552.9387503     
   2317821749.2820001     
   1954923767.2730608     
   2118555023.8357306     
   2283494798.7466145     
   2446777756.2864265     
   2606440662.7402773     
   1932914322.7347686     
   2059654604.9910598     
   2181185051.7042980     
   2297505622.8092656     
   2408616289.3922672     
   1969211647.8727872     
   2086032801.5134521     
   2200039648.5405807     
   2311157563.4499202     
   2419334284.9848566     
   2100494407.4948242     
   2203619536.3421245     
   2306526384.0765381     
   2408980266.8834558     
   2510813842.5679927     
   2317821749.2820001     
   2404213767.5725393     
   2492766588.7158594     
   2583091558.9052758     
   2674910064.2015462     
   2606440662.7402773     
   2674029044.6129942     
   2745711253.1664672     
   2820975384.7981539     
   2899458453.6071582     
   2408616289.3922672     
   2446830994.3107347     
   2491443618.4064426     
   2542456248.0753055     
   2599871885.7588501     
   2419334284.9848566     
   2453302254.2597580     
   2492106582.0067515     
   2535751402.3642168     
   2584244789.2937055     
   2510813842.5679927     
   2537483154.6139112     
   2567420218.9482245     
   2600621397.0915909     
   2637092297.8099632     
   2674910064.2015462     
   2693280166.0590725     
   2713365869.4464030     
   2735130455.1014142     
   2758553329.3311324     
   2899458453.6071582     
   2910331253.8141270     
   2921445394.3324084     
   2932709501.8918853     
   2944054994.9804864     
   2599871885.7588501     
   2611758492.4686575     
   2635955264.8652263     
   2672461359.2961345     
   2721274899.6896639     
   2584244789.2937055     
   2583755450.6174688     
   2592059135.3737254     
   2609189126.9142857     
   2635173790.1605978     
   2637092297.8099632     
   2622058723.3003325     
   2612220501.4930749     
   2607637644.3936357     
   2608367508.1254721     
   2758553329.3311324     
   2730140615.6932898     
   2703366315.9428477     
   2678269285.7695928     
   2654889325.7499800     
   2944054994.9804864     
   2906334464.8506212     
   2867040109.3717370     
   2826178166.9272394     
   2783759985.3145576     
   2721274899.6896639     
   2747864389.4778061     
   2781675850.9030237     
   2822705445.3726950     
   2870949549.8023911     
   2635173790.1605978     
   2640050276.8329268     
   2652339094.1304345     
   2672048927.8642402     
   2699189639.6658425     
   2608367508.1254721     
   2588623878.5594440     
   2576270451.2233620     
   2571332892.3869734     
   2573847668.6053715     
   2654889325.7499800     
   2608864747.1257157     
   2569869203.3567848     
   2537913960.6017547     
   2513041365.8397574     
   2783759985.3145576     
   2711682980.0845437     
   2645994893.6229634     
   2586616738.0559974     
   2533520704.8226800     
   2870949549.8023911     
   2886453645.6978288     
   2904346905.2840309     
   2924664998.3194447     
   2947455161.6888170     
   2699189639.6658425     
   2694319634.2929015     
   2695870803.9927855     
   2703866431.7764935     
   2718335580.5866075     
   2573847668.6053715     
   2547274045.9732380     
   2531066999.2238879     
   2525267414.7092137     
   2529924364.1982870     
   2513041365.8397574     
   2461863416.3812113     
   2424608177.5351562     
   2401420638.7268853     
   2392482398.0683727     
   2533520704.8226800     
   2453680259.4818501     
   2390508773.2304378     
   2344377738.7175217     
   2315792714.6603951     
   2947455161.6888170     
   2941004595.1268959     
   2962132263.5419698     
   3010770292.9551506     
   3086887613.7477102     
   2718335580.5866075     
   2701408414.0895782     
   2700680702.8184419     
   2716203305.6907511     
   2748039997.2523289     
   2529924364.1982870     
   2500453703.7256503     
   2475748661.9919920     
   2455966545.0248671     
   2441325947.5141549     
   2392482398.0683727     
   2354074194.7379284     
   2308923403.7475228     
   2257166882.1073895     
   2199126851.0363364     
   2315792714.6603951     
   2279747533.0151262     
   2226945331.6634922     
   2157804684.9888000     
   2073246478.5429413     
   3086887613.7477102     
   3148471772.2712021     
   3182898691.2597952     
   3206687045.2425833     
   3247696833.6879492     
   2748039997.2523289     
   2714873334.8136473     
   2674929125.1511121     
   2633798987.0100579     
   2601467401.1055007     
   2441325947.5141549     
   2354918379.7626071     
   2288822779.0898447     
   2242832532.6126823     
   2216761668.7893414     
   2199126851.0363364     
   2094101548.4794557     
   2045905692.1724555     
   2058517148.9166265     
   2136266049.5895557     
   2073246478.5429413     
   1963097794.0853956     
   1958064858.2905476     
   2077710359.2430501     
   2337264698.6283216     
   1954923767.2730608     
   2118555023.8357306     
   2283494798.7466145     
   2446777756.2864265     
   2606440662.7402773     
   2298576498.8185868     
   2448949914.8054485     
   2603988445.7140560     
   2761767284.9047952     
   2920855407.3453927     
   2694634489.4708576     
   2830238358.5299497     
   2973096007.2138424     
   3122124603.8660417     
   3276413729.5141363     
   3137868766.5023570     
   3255433267.9333282     
   3382360889.4203424     
   3518183886.5902357     
   3662446014.5591288     
   3624781653.9779997     
   3719727182.7577367     
   3825877540.1964860     
   3943173460.5037341     
   4071525029.0871358     
   2606440662.7402773     
   2674029044.6129942     
   2745711253.1664672     
   2820975384.7981539     
   2899458453.6071582     
   2920855407.3453927     
   2974118778.8705239     
   3029402938.7164478     
   3086024349.7823997     
   3143446383.9355526     
   3276413729.5141363     
   3320360326.7457581     
   3364527628.2531009     
   3408091511.6000299     
   3450373519.4044800     
   3662446014.5591288     
   3702565669.2571020     
   3741430196.6540585     
   3778133560.1375756     
   3811921233.9173107     
   4071525029.0871358     
   4113282854.6900725     
   4152632654.1241546     
   4188655212.1536341     
   4220598634.1391110     
   2899458453.6071582     
   2910331253.8141270     
   2921445394.3324084     
   2932709501.8918853     
   2944054994.9804864     
   3143446383.9355526     
   3137767573.2260814     
   3135005813.1802316     
   3135026931.8517108     
   3137782064.2159920     
   3450373519.4044800     
   3424154662.5484657     
   3402750159.3218522     
   3385907540.4077892     
   3373570370.3932991     
   3811921233.9173107     
   3760530259.6284175     
   3715231888.0546227     
   3675558212.5216227     
   3641382651.0300260     
   4220598634.1391110     
   4138947564.8836250     
   4064240368.4421902     
   3995683648.8340387     
   3932985771.4659600     
   2944054994.9804864     
   2906334464.8506212     
   2867040109.3717370     
   2826178166.9272394     
   2783759985.3145576     
   3137782064.2159920     
   3102275088.3738542     
   3068688504.6103768     
   3037055876.5881171     
   3007414990.6904187     
   3373570370.3932991     
   3333825399.5580611     
   3298761961.7328138     
   3268534375.8557806     
   3243336733.8748312     
   3641382651.0300260     
   3589942603.9698792     
   3545274810.6321917     
   3507766138.7674985     
   3477920774.2691851     
   3932985771.4659600     
   3862032305.7054067     
   3799360533.8274202     
   3745695069.9066367     
   3702004312.1609111     
   2783759985.3145576     
   2711682980.0845437     
   2645994893.6229634     
   2586616738.0559974     
   2533520704.8226800     
   3007414990.6904187     
   2942989890.3990760     
   2884392717.7310147     
   2831698892.0108314     
   2785033583.4226642     
   3243336733.8748312     
   3183295113.0791311     
   3128890033.1874986     
   3080342410.0768132     
   3037919311.8120041     
   3477920774.2691851     
   3419608135.0774121     
   3367139368.9806652     
   3320866608.7391601     
   3281183811.6929674     
   3702004312.1609111     
   3643303604.6441679     
   3591054174.2011027     
   3545725813.3118691     
   3507825363.1189327     
   2533520704.8226800     
   2453680259.4818501     
   2390508773.2304378     
   2344377738.7175217     
   2315792714.6603951     
   2785033583.4226642     
   2705153235.0111532     
   2637607609.2786975     
   2582972675.6899805     
   2541927562.9473767     
   3037919311.8120041     
   2957907838.0790715     
   2886619615.5523357     
   2824643703.3703470     
   2772632719.1619415     
   3281183811.6929674     
   3203214718.6283379     
   3130814971.8643880     
   3064434126.4604774     
   3004551693.0135117     
   3507825363.1189327     
   3435460113.2295384     
   3365787024.0171704     
   3299014041.3585310     
   3235360386.1714344     
   2315792714.6603951     
   2279747533.0151262     
   2226945331.6634922     
   2157804684.9888000     
   2073246478.5429413     
   2541927562.9473767     
   2527246568.2853947     
   2506518192.4365087     
   2479749247.6178846     
   2447022207.5848308     
   2772632719.1619415     
   2767401317.1249809     
   2766498578.9097433     
   2769978721.8457494     
   2777903715.2482152     
   3004551693.0135117     
   2993749718.1061659     
   2997446873.0634265     
   3016359582.5379272     
   3051325276.3705177     
   3235360386.1714344     
   3202244799.1539640     
   3194130242.5323496     
   3213220357.8200827     
   3262047466.9358912     
   2073246478.5429413     
   1963097794.0853956     
   1958064858.2905476     
   2077710359.2430501     
   2337264698.6283216     
   2447022207.5848308     
   2344217678.7532573     
   2296617382.7631688     
   2312451010.6375260     
   2399432365.0488458     
   2777903715.2482152     
   2681887247.3472586     
   2606872273.7423692     
   2555352741.2228017     
   2529705286.9320631     
   3051325276.3705177     
   2966211129.9200726     
   2872992994.9659219     
   2778746054.1342359     
   2696127150.1552677     
   3262047466.9358912     
   3192558504.1496968     
   3090822217.3762503     
   2981589254.5036349     
   2908629396.0260592     
   3624781653.9779997     
   3719727182.7577367     
   3825877540.1964860     
   3943173460.5037341     
   4071525029.0871358     
   4133840786.9518127     
   4224447484.8005757     
   4320968041.9265804     
   4421750814.7602177     
   4525346418.8560009     
   4643209302.9994564     
   4755643155.5648355     
   4869227972.9132214     
   4981328124.1221189     
   5090016979.6293850     
   5151370630.9419470     
   5311492646.7937002     
   5468304054.9474010     
   5618897483.0273762     
   5761792316.7479515     
   5658063756.6289854     
   5891160149.6596823     
   6116704478.3445244     
   6332211040.2910042     
   6537424344.3649635     
   4071525029.0871358     
   4113282854.6900725     
   4152632654.1241546     
   4188655212.1536341     
   4220598634.1391110     
   4525346418.8560009     
   4539964713.0279360     
   4559350398.9473276     
   4581004653.5672932     
   4603196139.2404232     
   5090016979.6293850     
   5054942269.3388195     
   5030377696.9198027     
   5011110337.1085157     
   4993936271.4044485     
   5761792316.7479515     
   5652935146.6284809     
   5560011512.8662624     
   5473977097.4442606     
   5389293892.3534479     
   6537424344.3649635     
   6329385338.4225655     
   6143421930.4420614     
   5965680602.2633123     
   5787171455.6568718     
   4220598634.1391110     
   4138947564.8836250     
   4064240368.4421902     
   3995683648.8340387     
   3932985771.4659600     
   4603196139.2404232     
   4496968413.6196156     
   4395321818.7607832     
   4297976088.1384945     
   4204870219.0583868     
   4993936271.4044485     
   4867994968.1116600     
   4745474356.0719614     
   4626358836.1899338     
   4510713631.6803904     
   5389293892.3534479     
   5248254915.2254381     
   5110506212.2151175     
   4976093430.4469576     
   4845115809.9946651     
   5787171455.6568718     
   5635206332.3322048     
   5487313635.4235592     
   5343413630.2183161     
   5203537786.9508114     
   3932985771.4659600     
   3862032305.7054067     
   3799360533.8274202     
   3745695069.9066367     
   3702004312.1609111     
   4204870219.0583868     
   4107050727.3558197     
   4014701190.4012465     
   3928338001.9852118     
   3848676204.4936156     
   4510713631.6803904     
   4390749229.9179144     
   4273972369.3773136     
   4160671292.0643892     
   4051269379.7078695     
   4845115809.9946651     
   4708172742.1064749     
   4572698510.0555735     
   4438795078.6557674     
   4306637695.4899693     
   5203537786.9508114     
   5054902367.2380991     
   4906557801.9740438     
   4758493964.4200029     
   4610729401.8452034     
   3702004312.1609111     
   3643303604.6441679     
   3591054174.2011027     
   3545725813.3118691     
   3507825363.1189327     
   3848676204.4936156     
   3766708466.5158010     
   3689590586.8062572     
   3617724258.3198195     
   3551564877.5078077     
   4051269379.7078695     
   3949326024.2405577     
   3850731928.3610163     
   3755764233.1811123     
   3664753666.2166467     
   4306637695.4899693     
   4188383219.9108586     
   4072249002.2245917     
   3958374499.2474380     
   3846939478.0095901     
   4610729401.8452034     
   4479810217.2526398     
   4350141171.1317043     
   4221747944.0328965     
   4094679469.1522732     
   3507825363.1189327     
   3435460113.2295384     
   3365787024.0171704     
   3299014041.3585310     
   3235360386.1714344     
   3551564877.5078077     
   3456886475.7766571     
   3365737911.2045178     
   3278483876.0138168     
   3195528529.6990423     
   3664753666.2166467     
   3547918390.9724274     
   3434921357.1612115     
   3326181301.3371415     
   3222202233.2047801     
   3846939478.0095901     
   3708061883.2320671     
   3572874553.4755039     
   3441727931.8194809     
   3315107754.5339622     
   4094679469.1522732     
   3933532129.1512837     
   3775598299.0669351     
   3621046161.8570800     
   3470220953.5306487     
   3235360386.1714344     
   3202244799.1539640     
   3194130242.5323496     
   3213220357.8200827     
   3262047466.9358912     
   3195528529.6990423     
   3115313453.4028201     
   3050560695.7377224     
   3003136253.6544671     
   2975247113.2069635     
   3222202233.2047801     
   3106544681.4787669     
   2997946116.8739843     
   2897371536.7560482     
   2805998147.5803118     
   3315107754.5339622     
   3180472972.1894560     
   3046849563.6493869     
   2914344481.0740151     
   2783084758.2528830     
   3470220953.5306487     
   3335676513.3665838     
   3199378482.4192591     
   3061280385.5793419     
   2921443784.2845659     
   3262047466.9358912     
   3192558504.1496968     
   3090822217.3762503     
   2981589254.5036349     
   2908629396.0260592     
   2975247113.2069635     
   2859059375.1478715     
   2721710959.4063301     
   2574054968.7346067     
   2435007112.2921576     
   2805998147.5803118     
   2674158380.6195126     
   2541224778.8898258     
   2408569354.6559129     
   2278107027.7635999     
   2783084758.2528830     
   2650103501.1141806     
   2538224116.0227737     
   2447680814.9300051     
   2380466614.9718537     
   2921443784.2845659     
   2775947182.4564619     
   2671311361.0678077     
   2618025053.7825494     
   2635691366.0457940     
   5658063756.6289854     
   5891160149.6596823     
   6116704478.3445244     
   6332211040.2910042     
   6537424344.3649635     
   6492129207.1796446     
   6587240188.8369255     
   6757694531.9052534     
   6961405545.4257793     
   7171710214.9575453     
   7982682310.6354475     
   7735286861.2779608     
   7669399633.6708775     
   7669775366.9305191     
   7666499705.5327091     
   10130169715.756598     
   9322160032.5671291     
   8826650370.5825691     
   8443963484.3998260     
   8036358000.8412857     
   12934677382.239866     
   11340585345.730585     
   10210629165.889372     
   9273716143.5193634     
   8305574690.3474102     
   6537424344.3649635     
   6329385338.4225655     
   6143421930.4420614     
   5965680602.2633123     
   5787171455.6568718     
   7171710214.9575453     
   6911474238.4159918     
   6659104652.4413166     
   6410748159.4268446     
   6163264993.0519466     
   7666499705.5327091     
   7381561299.8034372     
   7102003835.4837856     
   6827892185.1074152     
   6559412255.8465424     
   8036358000.8412857     
   7747283151.6322355     
   7473815740.8669453     
   7214010421.6235037     
   6967851379.1657887     
   8305574690.3474102     
   8021192641.9512482     
   7778690633.2247000     
   7567494225.1001673     
   7382650145.9095125     
   5787171455.6568718     
   5635206332.3322048     
   5487313635.4235592     
   5343413630.2183161     
   5203537786.9508114     
   6163264993.0519466     
   6012251107.1749935     
   5862413026.2148638     
   5713787452.1262760     
   5566426873.6307526     
   6559412255.8465424     
   6407514636.5083323     
   6253918327.5633736     
   6098585304.4382219     
   5941532825.6625557     
   6967851379.1657887     
   6814518071.5504360     
   6656681859.6353626     
   6494069032.0996904     
   6326611513.9733133     
   7382650145.9095125     
   7228255591.3390255     
   7066697998.3623743     
   6897339367.7868185     
   6719990650.8756809     
   5203537786.9508114     
   5054902367.2380991     
   4906557801.9740438     
   4758493964.4200029     
   4610729401.8452034     
   5566426873.6307526     
   5407749545.8630123     
   5249987519.8270626     
   5093161585.7498341     
   4937316065.9368258     
   5941532825.6625557     
   5771624086.8600550     
   5603271125.8061619     
   5436495887.8209839     
   5271356037.7995367     
   6326611513.9733133     
   6143848106.7560472     
   5963284689.2166061     
   5784924902.2625542     
   5608835223.6766462     
   6719990650.8756809     
   6522410834.3692732     
   6327676153.8217983     
   6135761615.2048426     
   5946745236.4298820     
   4610729401.8452034     
   4479810217.2526398     
   4350141171.1317043     
   4221747944.0328965     
   4094679469.1522732     
   4937316065.9368258     
   4800006138.1887951     
   4663438582.0613623     
   4527652473.4130239     
   4392717182.2539253     
   5271356037.7995367     
   5125866971.9297361     
   4980579032.7133923     
   4835544111.0520592     
   4690852555.0465908     
   5608835223.6766462     
   5453616970.8914108     
   5298029562.4303017     
   5142134497.8988533     
   4986040485.4865198     
   5946745236.4298820     
   5780456268.8108988     
   5613201269.0269556     
   5445046150.7713690     
   5276112948.1127043     
   4094679469.1522732     
   3933532129.1512837     
   3775598299.0669351     
   3621046161.8570800     
   3470220953.5306487     
   4392717182.2539253     
   4215962325.8221197     
   4041248587.9381428     
   3868712054.4508066     
   3698602341.6898437     
   4690852555.0465908     
   4501461619.7557364     
   4313363365.7521553     
   4126659029.7782917     
   3941515536.4065976     
   4986040485.4865198     
   4787156332.7450962     
   4589177589.1151361     
   4392172324.3604774     
   4196242508.0014625     
   5276112948.1127043     
   5070943757.5087690     
   4866605522.7276564     
   4663133521.1903305     
   4460579518.2341614     
   3470220953.5306487     
   3335676513.3665838     
   3199378482.4192591     
   3061280385.5793419     
   2921443784.2845659     
   3698602341.6898437     
   3572897455.7549372     
   3446999307.2776523     
   3320879074.0327578     
   3194516254.2387090     
   3941515536.4065976     
   3815114036.6843963     
   3689193003.5572939     
   3563801570.6323495     
   3439007159.5595365     
   4196242508.0014625     
   4059461032.7647042     
   3923056816.9182205     
   3787205857.3637290     
   3652204376.6985950     
   4460579518.2341614     
   4303818323.1262894     
   4146657113.7956095     
   3989404903.3633213     
   3832671010.0877476     
   2921443784.2845659     
   2775947182.4564619     
   2671311361.0678077     
   2618025053.7825494     
   2635691366.0457940     
   3194516254.2387090     
   3007093543.2751975     
   2840399647.4854074     
   2699563532.7377305     
   2594329545.6018066     
   3439007159.5595365     
   3220127359.8787904     
   3007921748.8322058     
   2803423293.3231602     
   2608549276.3115950     
   3652204376.6985950     
   3416873520.1772094     
   3177904802.8484817     
   2935724773.5587339     
   2691287718.9306130     
   3832671010.0877476     
   3599639165.8434420     
   3356263490.3856993     
   3107470997.2217302     
   2863022068.1382799     
 </DataArray>
 <DataArray  type="Float64" Name="strain" NumberOfComponents="3" format="ascii">
  0.20348200614421269        0.0000000000000000       0.12541184550819184     
  0.18665195584769306       -2.7327031982093429E-002   7.4355204211550591E-002
  0.16982190555117344       -4.4678315118066782E-002   3.5132155667454035E-002
  0.15299185525465384       -5.2053849407920072E-002   7.7426998759020926E-003
  0.13616180495813421       -4.9453634851653244E-002  -7.8131631631051246E-003
  0.15985204143797074        0.0000000000000000        9.6452404785892731E-002
  0.15317402760596555       -2.1845885479490915E-002   6.2692553764862213E-002
  0.14649601377396038       -3.6175591839074185E-002   3.7403182920315872E-002
  0.13981799994195521       -4.2989119078749784E-002   2.0584292252253687E-002
  0.13313998610994998       -4.2286467198517752E-002   1.2235881760675645E-002
  0.12645445931235594        0.0000000000000000        7.4203895429302349E-002
  0.12656536936880464       -1.6364738976888400E-002   5.5281264957670127E-002
  0.12667627942525339       -2.7672868560081575E-002   4.1466002086461548E-002
  0.12678718948170212       -3.3924388749579523E-002   3.2758106815676695E-002
  0.12689809953815087       -3.5119299545382232E-002   2.9157579145315485E-002
  0.10328925976736819        0.0000000000000000        5.8666317438420705E-002
  0.10682598113621036       -1.0883592474285882E-002   5.2121337789974347E-002
  0.11036270250505252       -1.9170145281088964E-002   4.7320613165891159E-002
  0.11389942387389468       -2.4859658420409249E-002   4.4264143566171150E-002
  0.11743614524273686       -2.7952131892246726E-002   4.2951928990814361E-002
   9.0356442803007586E-002   0.0000000000000000        4.9839670813247791E-002
   9.3955862908182669E-002  -5.4024459716833671E-003   5.3212772261774864E-002
   9.7555283013357766E-002  -1.0667422002096357E-002   5.4967016158604623E-002
  0.10115470311853289       -1.5794928091238981E-002   5.5102402503737095E-002
  0.10475412322370797       -2.0784964239111220E-002   5.3618931297172226E-002
  0.13616180495813421       -4.9453634851653244E-002  -7.8131631631051246E-003
  0.13295723964198514       -4.2916406166964509E-002  -3.3934505821124408E-003
  0.12975267432583609       -3.8480898071551861E-002  -3.8840627014250645E-004
  0.12654810900968702       -3.6147110565415468E-002   1.2019697728046577E-003
  0.12334354369353795       -3.5915043648555162E-002   1.3776775467289892E-003
  0.13313998610994998       -4.2286467198517752E-002   1.2235881760675645E-002
  0.12890863885943912       -3.8418482602770851E-002   1.2179795813637463E-002
  0.12467729160892826       -3.5736011695901827E-002   1.1484814266898447E-002
  0.12044594435841742       -3.4239054477910702E-002   1.0150937120458706E-002
  0.11621459710790658       -3.3927610948797510E-002   8.1781643743180088E-003
  0.12689809953815087       -3.5119299545382232E-002   2.9157579145315485E-002
  0.12241574302260019       -3.3920559038577172E-002   2.5541901570644572E-002
  0.11793338650704956       -3.2991125320251752E-002   2.2063101065594944E-002
  0.11345102999149888       -3.2330998390405985E-002   1.8721177630166480E-002
  0.10896867347594824       -3.1940178249039844E-002   1.5516131264359238E-002
  0.11743614524273686       -2.7952131892246726E-002   4.2951928990814361E-002
  0.11347855213146842       -2.9422635474383514E-002   3.6692866688909052E-002
  0.10952095902019997       -3.0246238944601662E-002   3.1346454125946957E-002
  0.10556336590893151       -3.0422942302901219E-002   2.6912691301928103E-002
  0.10160577279766304       -2.9952745549282157E-002   2.3391578216852442E-002
  0.10475412322370797       -2.0784964239111220E-002   5.3618931297172226E-002
  0.10209706618604369       -2.4924711910189835E-002   4.5632691168430779E-002
   9.9440009148379457E-002  -2.7501352568951611E-002   3.9334873447954555E-002
   9.6782952110715248E-002  -2.8514886215396468E-002   3.4725478135743539E-002
   9.4125895073050955E-002  -2.7965312849524457E-002   3.1804505231797758E-002
  0.12334354369353795       -3.5915043648555162E-002   1.3776775467289892E-003
  0.12042414426143916       -3.6422105434727348E-002   6.3610960115370596E-004
  0.11750474482934034       -3.6305704037688159E-002   8.8160990204186329E-005
  0.11458534539724152       -3.5565839457437722E-002  -2.6616828611992355E-004
  0.11166594596514273       -3.4202511693975923E-002  -4.2687822781839468E-004
  0.11621459710790658       -3.3927610948797510E-002   8.1781643743180088E-003
  0.11347404166411060       -3.4009386709690129E-002   7.8161131821320867E-003
  0.11073348622031469       -3.3692087361716527E-002   7.6181306319263453E-003
  0.10799293077651878       -3.2975712904876789E-002   7.5842167237008748E-003
  0.10525237533272280       -3.1860263339170719E-002   7.7143714574555156E-003
  0.10896867347594824       -3.1940178249039844E-002   1.5516131264359238E-002
  0.10637741132780987       -3.1596667984652965E-002   1.5309208751217329E-002
  0.10378614917967147       -3.1078470685744920E-002   1.5236804187410451E-002
  0.10119488703153309       -3.0385586352315797E-002   1.5298917572938378E-002
   9.8603624883394692E-002  -2.9518014984365459E-002   1.5495548907801165E-002
  0.10160577279766304       -2.9952745549282157E-002   2.3391578216852442E-002
   9.9134253252536858E-002  -2.9183949259615760E-002   2.3115396308409621E-002
   9.6662733707410686E-002  -2.8464854009773298E-002   2.2944181656656359E-002
   9.4191214162284514E-002  -2.7795459799754837E-002   2.2877934261592646E-002
   9.1719694617158329E-002  -2.7175766629560255E-002   2.2916654123218520E-002
   9.4125895073050955E-002  -2.7965312849524457E-002   3.1804505231797758E-002
   9.1744567438291638E-002  -2.6771230534578548E-002   3.1234675853708913E-002
   8.9363239803532363E-002  -2.5851237333801656E-002   3.0740263039664227E-002
   8.6981912168773060E-002  -2.5205333247193887E-002   3.0321266789663754E-002
   8.4600584534013729E-002  -2.4833518274755051E-002   2.9977687103707573E-002
  0.11166594596514273       -3.4202511693975923E-002  -4.2687822781839468E-004
  0.10855572477504694       -3.2663970894927008E-002  -1.5281141967996015E-004
  0.10544550358495108       -3.1398467207915309E-002   1.6694670912070775E-004
  0.10233528239485526       -3.0406000632940362E-002   5.3239615858327594E-004
   9.9225061204759435E-002  -2.9686571170002840E-002   9.4353692870802197E-004
  0.10525237533272280       -3.1860263339170719E-002   7.7143714574555156E-003
  0.10222002285290988       -3.0627921676696979E-002   7.5662718246228278E-003
   9.9187670373096920E-002  -2.9560870929554138E-002   7.5282182916938112E-003
   9.6155317893283992E-002  -2.8659111097742017E-002   7.6002108586686601E-003
   9.3122965413471037E-002  -2.7922642181260893E-002   7.7822495255472357E-003
   9.8603624883394692E-002  -2.9518014984365459E-002   1.5495548907801165E-002
   9.5713495893106404E-002  -2.8591872458466894E-002   1.5033029030703339E-002
   9.2823366902818061E-002  -2.7723274651192967E-002   1.4744910032751121E-002
   8.9933237912529773E-002  -2.6912221562543501E-002   1.4631191913944387E-002
   8.7043108922241444E-002  -2.6158713192518834E-002   1.4691874674283179E-002
   9.1719694617158329E-002  -2.7175766629560255E-002   2.2916654123218520E-002
   8.9036143895636424E-002  -2.6555823240236864E-002   2.2247460198561865E-002
   8.6352593174114534E-002  -2.5885678372831795E-002   2.1817021932292732E-002
   8.3669042452592643E-002  -2.5165332027345139E-002   2.1625339324410645E-002
   8.0985491731070738E-002  -2.4394784203776720E-002   2.1672412374915913E-002
   8.4600584534013729E-002  -2.4833518274755051E-002   2.9977687103707573E-002
   8.2187966860500034E-002  -2.4519774022006849E-002   2.9209565328198378E-002
   7.9775349186986325E-002  -2.4048082094470645E-002   2.8744553990318292E-002
   7.7362731513472616E-002  -2.3418442492146620E-002   2.8582653090067252E-002
   7.4950113839958893E-002  -2.2630855215034690E-002   2.8723862627445362E-002
   9.9225061204759435E-002  -2.9686571170002840E-002   9.4353692870802197E-004
   9.6399346150733256E-002  -2.9035762276046928E-002   6.0673182445775131E-004
   9.3573631096707049E-002  -2.8249157408016839E-002   4.7287263791839784E-004
   9.0747916042680857E-002  -2.7326756565912776E-002   5.4195936909083586E-004
   8.7922200988654664E-002  -2.6268559749735187E-002   8.1399201797394127E-004
   9.3122965413471037E-002  -2.7922642181260893E-002   7.7822495255472357E-003
   9.0485917627217860E-002  -2.7225627706398248E-002   7.5644940745013267E-003
   8.7848869840964655E-002  -2.6442231199441918E-002   7.5211272412904207E-003
   8.5211822054711492E-002  -2.5572452660391716E-002   7.6521490259141844E-003
   8.2574774268458273E-002  -2.4616292089247704E-002   7.9575594283728956E-003
   8.7043108922241444E-002  -2.6158713192518834E-002   1.4691874674283179E-002
   8.4566171103884868E-002  -2.5415493136749540E-002   1.4543754934461778E-002
   8.2089233285528307E-002  -2.4635304990866871E-002   1.4541466512598480E-002
   7.9612295467171759E-002  -2.3818148754870431E-002   1.4685009408693855E-002
   7.7135357648815184E-002  -2.2964024428760554E-002   1.4974383622747445E-002
   8.0985491731070738E-002  -2.4394784203776720E-002   2.1672412374915913E-002
   7.8640106580734392E-002  -2.3605358567100818E-002   2.1544514404338473E-002
   7.6294721430398019E-002  -2.2828378782291665E-002   2.1533890451842907E-002
   7.3949336280061673E-002  -2.2063844849349201E-002   2.1640540517429606E-002
   7.1603951129725271E-002  -2.1311756768273460E-002   2.1864464601098157E-002
   7.4950113839958893E-002  -2.2630855215034690E-002   2.8723862627445362E-002
   7.2707724057766376E-002  -2.1795223997452193E-002   2.8566772484131753E-002
   7.0465334275573790E-002  -2.1021452573716660E-002   2.8498399059023807E-002
   6.8222944493381260E-002  -2.0309540943827996E-002   2.8518742352121311E-002
   6.5980554711188688E-002  -1.9659489107786199E-002   2.8627802363424604E-002
   8.7922200988654664E-002  -2.6268559749735187E-002   8.1399201797394127E-004
   8.4461463148077565E-002  -2.5191539256106676E-002   7.2079437844069227E-004
   8.1000725307500465E-002  -2.4212667381651454E-002   7.3253054815891616E-004
   7.7539987466923366E-002  -2.3331944126369256E-002   8.4920052712805782E-004
   7.4079249626346266E-002  -2.2549369490259652E-002   1.0708043153484503E-003
   8.2574774268458273E-002  -2.4616292089247704E-002   7.9575594283728956E-003
   7.9247817082687744E-002  -2.3647885725744500E-002   7.7211992016746334E-003
   7.5920859896917159E-002  -2.2741369809616482E-002   7.6474664753378441E-003
   7.2593902711146602E-002  -2.1896744340863552E-002   7.7363612493632633E-003
   6.9266945525375989E-002  -2.1114009319485150E-002   7.9878835237505164E-003
   7.7135357648815184E-002  -2.2964024428760554E-002   1.4974383622747445E-002
   7.3999874808961891E-002  -2.2104232195382739E-002   1.4631118980681659E-002
   7.0864391969108625E-002  -2.1270072237581622E-002   1.4508175530088457E-002
   6.7728909129255388E-002  -2.0461544555357959E-002   1.4605553270968005E-002
   6.4593426289402067E-002  -1.9678649148710980E-002   1.4923252203320692E-002
   7.1603951129725271E-002  -2.1311756768273460E-002   2.1864464601098157E-002
   6.8717636326900144E-002  -2.0560578665020660E-002   2.1450553715462815E-002
   6.5831321524074990E-002  -1.9798774665546817E-002   2.1314657712411138E-002
   6.2945006721249808E-002  -1.9026344769852200E-002   2.1456776591942946E-002
   6.0058691918424709E-002  -1.8243288977936756E-002   2.1876910354058060E-002
   6.5980554711188688E-002  -1.9659489107786199E-002   2.8627802363424604E-002
   6.3401101636502449E-002  -1.9016925134658580E-002   2.8179503406017797E-002
   6.0821648561816155E-002  -1.8327477093511943E-002   2.8066913022305406E-002
   5.8242195487129861E-002  -1.7591144984346701E-002   2.8290031212287334E-002
   5.5662742412443567E-002  -1.6807928807162364E-002   2.8848857975963371E-002
   7.4079249626346266E-002  -2.2549369490259652E-002   1.0708043153484503E-003
   7.1624151722305240E-002  -2.1768055412275000E-002   5.6754061692820823E-004
   6.9169053818264270E-002  -2.0891113831367325E-002   4.0309543082878152E-004
   6.6713955914223300E-002  -1.9918544747536099E-002   5.7746875705072531E-004
   6.4258858010182274E-002  -1.8850348160781571E-002   1.0906605955940396E-003
   6.9266945525375989E-002  -2.1114009319485150E-002   7.9878835237505164E-003
   6.7096364036129508E-002  -2.0333130745805783E-002   7.6460051202502100E-003
   6.4925782546882999E-002  -1.9494074620148044E-002   7.5343410340181771E-003
   6.2755201057636503E-002  -1.8596840942512093E-002   7.6528912650534464E-003
   6.0584619568389952E-002  -1.7641429712898171E-002   8.0016558133566562E-003
   6.4593426289402067E-002  -1.9678649148710980E-002   1.4923252203320692E-002
   6.2598757019896631E-002  -1.8898206079336233E-002   1.4705309143795364E-002
   6.0604087750391139E-002  -1.8097035408928763E-002   1.4608976206484908E-002
   5.8609418480885703E-002  -1.7275137137488197E-002   1.4634253391388158E-002
   5.6614749211380239E-002  -1.6432511265014771E-002   1.4781140698506057E-002
   6.0058691918424709E-002  -1.8243288977936756E-002   2.1876910354058060E-002
   5.8131330673606679E-002  -1.7463281412866904E-002   2.1745452687562943E-002
   5.6203969428788726E-002  -1.6699996197709482E-002   2.1627000948228725E-002
   5.4276608183970759E-002  -1.5953433332464247E-002   2.1521555136055338E-002
   5.2349246939152799E-002  -1.5223592817131482E-002   2.1429115251042616E-002
   5.5662742412443567E-002  -1.6807928807162364E-002   2.8848857975963371E-002
   5.3694084997259667E-002  -1.6028356746397465E-002   2.8766435751552966E-002
   5.1725427582075767E-002  -1.5302956986490174E-002   2.8588415259250072E-002
   4.9756770166891812E-002  -1.4631729527440344E-002   2.8314796499054107E-002
   4.7788112751707912E-002  -1.4014674369247915E-002   2.7945579470965820E-002
   6.4258858010182274E-002  -1.8850348160781571E-002   1.0906605955940396E-003
   6.0218290275865449E-002  -1.7847527825289311E-002   1.1857105975010551E-003
   5.6177722541548680E-002  -1.7071087495244275E-002   1.1999365782050520E-003
   5.2137154807231800E-002  -1.6521027170646865E-002   1.1333385377058913E-003
   4.8096587072915087E-002  -1.6197346851495986E-002   9.8591647600310139E-004
   6.0584619568389952E-002  -1.7641429712898171E-002   8.0016558133566562E-003
   5.6552513501520685E-002  -1.6712658890075394E-002   7.7214404031932804E-003
   5.2520407434651417E-002  -1.5895346432811597E-002   7.5389723491287586E-003
   4.8488301367782261E-002  -1.5189492341107738E-002   7.4542516511622026E-003
   4.4456195300912937E-002  -1.4595096614963943E-002   7.4672783092939454E-003
   5.6614749211380239E-002  -1.6432511265014771E-002   1.4781140698506057E-002
   5.2769676189259929E-002  -1.5577789954861199E-002   1.4240581516160478E-002
   4.8924603167139757E-002  -1.4719605370379224E-002   1.3976341067214570E-002
   4.5079530145019475E-002  -1.3857957511569048E-002   1.3988419351668668E-002
   4.1234457122899359E-002  -1.2992846378431011E-002   1.4276816369522050E-002
   5.2349246939152799E-002  -1.5223592817131482E-002   2.1429115251042616E-002
   4.8869778339083132E-002  -1.4442921019646920E-002   2.0743133936402050E-002
   4.5390309739013451E-002  -1.3543864307946477E-002   2.0512042732462508E-002
   4.1910841138943625E-002  -1.2526422682030362E-002   2.0735841639224654E-002
   3.8431372538874034E-002  -1.1390596141898524E-002   2.1414530656687830E-002
   4.7788112751707912E-002  -1.4014674369247915E-002   2.7945579470965820E-002
   4.4852819950990247E-002  -1.3308052084432809E-002   2.7229097663918178E-002
   4.1917527150272527E-002  -1.2368123245513937E-002   2.7146077344873093E-002
   3.8982234349554695E-002  -1.1194887852491894E-002   2.7696518513830995E-002
   3.6046941548837141E-002  -9.7883459053660360E-003   2.8880421170791593E-002
   9.0356442803007586E-002   0.0000000000000000        4.9839670813247791E-002
   9.3955862908182669E-002  -5.4024459716833671E-003   5.3212772261774864E-002
   9.7555283013357766E-002  -1.0667422002096357E-002   5.4967016158604623E-002
  0.10115470311853289       -1.5794928091238981E-002   5.5102402503737095E-002
  0.10475412322370797       -2.0784964239111220E-002   5.3618931297172226E-002
   8.2418436354981681E-002   0.0000000000000000        4.4790530839690965E-002
   8.4628005253386915E-002  -4.5718284395416522E-003   4.8273882621076458E-002
   8.6837574151792149E-002  -9.0331157485764244E-003   5.0596389540619541E-002
   8.9047143050197397E-002  -1.3383861927104309E-002   5.1758051598320219E-002
   9.1256711948602617E-002  -1.7624066975125308E-002   5.1758868794178500E-002
   7.4237668358998088E-002   0.0000000000000000        4.0585472803657596E-002
   7.5515398740488390E-002  -3.7412109073999378E-003   4.4152146107138010E-002
   7.6793129121978679E-002  -7.3988094950564812E-003   4.7015987238630944E-002
   7.8070859503468953E-002  -1.0972795762969629E-002   4.9176996198136369E-002
   7.9348589884959270E-002  -1.4463169711139385E-002   5.0635172985654321E-002
   6.5814138815056836E-002   0.0000000000000000        3.7224496705147700E-002
   6.6618043369487109E-002  -2.9105933752582233E-003   4.0847562719959533E-002
   6.7421947923917369E-002  -5.7645032415365432E-003   4.4225809252638804E-002
   6.8225852478347615E-002  -8.5617295988349544E-003   4.7359236303185497E-002
   6.9029757032777861E-002  -1.1302272447153466E-002   5.0247843871599591E-002
   5.7147847723157910E-002   0.0000000000000000        3.4707602544161248E-002
   5.7935939140383044E-002  -2.0799758431165076E-003   3.8360132459541028E-002
   5.8724030557608192E-002  -4.1301969880166035E-003   4.2225855582643149E-002
   5.9512121974833319E-002  -6.1506634347002782E-003   4.6304771913467602E-002
   6.0300213392058460E-002  -8.1413751831675429E-003   5.0596881452014401E-002
  0.10475412322370797       -2.0784964239111220E-002   5.3618931297172226E-002
  0.10209706618604369       -2.4924711910189835E-002   4.5632691168430779E-002
   9.9440009148379457E-002  -2.7501352568951611E-002   3.9334873447954555E-002
   9.6782952110715248E-002  -2.8514886215396468E-002   3.4725478135743539E-002
   9.4125895073050955E-002  -2.7965312849524457E-002   3.1804505231797758E-002
   9.1256711948602617E-002  -1.7624066975125308E-002   5.1758868794178500E-002
   9.0050454932397189E-002  -2.1198229459950133E-002   4.6516620994193840E-002
   8.8844197916191719E-002  -2.3550847948889463E-002   4.2487550828861582E-002
   8.7637940899986264E-002  -2.4681922441943345E-002   3.9671658298181672E-002
   8.6431683883780835E-002  -2.4591452939111760E-002   3.8068943402154214E-002
   7.9348589884959270E-002  -1.4463169711139385E-002   5.0635172985654321E-002
   7.9117888116599810E-002  -1.7471747009710398E-002   4.7795354497994984E-002
   7.8887186348240365E-002  -1.9600343328827357E-002   4.5693468871375278E-002
   7.8656484579880906E-002  -2.0848958668490222E-002   4.4329516105795094E-002
   7.8425782811521461E-002  -2.1217593028699043E-002   4.3703496201254591E-002
   6.9029757032777861E-002  -1.1302272447153466E-002   5.0247843871599591E-002
   6.9299365738651614E-002  -1.3745264559470687E-002   4.9468891679834252E-002
   6.9568974444525367E-002  -1.5649838708765237E-002   4.8952627575495636E-002
   6.9838583150399119E-002  -1.7015994895037131E-002   4.8699051558583888E-002
   7.0108191856272858E-002  -1.7843733118286329E-002   4.8708163629098869E-002
   6.0300213392058460E-002  -8.1413751831675429E-003   5.0596881452014401E-002
   6.0594887798552613E-002  -1.0018782109230958E-002   5.1537232539711569E-002
   6.0889562205046752E-002  -1.1699334088703136E-002   5.2265026941222745E-002
   6.1184236611540911E-002  -1.3183031121583984E-002   5.2780264656547907E-002
   6.1478911018035064E-002  -1.4469873207873615E-002   5.3082945685687069E-002
   9.4125895073050955E-002  -2.7965312849524457E-002   3.1804505231797758E-002
   9.1744567438291638E-002  -2.6771230534578548E-002   3.1234675853708913E-002
   8.9363239803532363E-002  -2.5851237333801656E-002   3.0740263039664227E-002
   8.6981912168773060E-002  -2.5205333247193887E-002   3.0321266789663754E-002
   8.4600584534013729E-002  -2.4833518274755051E-002   2.9977687103707573E-002
   8.6431683883780835E-002  -2.4591452939111760E-002   3.8068943402154214E-002
   8.4172485192834642E-002  -2.3945243560178717E-002   3.7042059841919300E-002
   8.1913286501888422E-002  -2.3409098424928127E-002   3.6184017605266350E-002
   7.9654087810942256E-002  -2.2983017533360097E-002   3.5494816692195473E-002
   7.7394889119996063E-002  -2.2667000885474575E-002   3.4974457102706594E-002
   7.8425782811521461E-002  -2.1217593028699043E-002   4.3703496201254591E-002
   7.6382137823926180E-002  -2.1119256585778814E-002   4.2383583329360097E-002
   7.4338492836330927E-002  -2.0966959516054554E-002   4.1325936540585431E-002
   7.2294847848735633E-002  -2.0760701819526335E-002   4.0530555834930537E-002
   7.0251202861140394E-002  -2.0500483496194072E-002   3.9997441212395533E-002
   7.0108191856272858E-002  -1.7843733118286329E-002   4.8708163629098869E-002
   6.8373525331566334E-002  -1.8293269611378948E-002   4.7259246316031317E-002
   6.6638858806859796E-002  -1.8524820607181032E-002   4.6166019845621409E-002
   6.4904192282153245E-002  -1.8538386105692563E-002   4.5428484217869096E-002
   6.3169525757446734E-002  -1.8333966106913596E-002   4.5046639432774524E-002
   6.1478911018035064E-002  -1.4469873207873615E-002   5.3082945685687069E-002
   6.0146647715755078E-002  -1.5467282636979073E-002   5.1669048801932960E-002
   5.8814384413475099E-002  -1.6082681698307458E-002   5.0704267520374345E-002
   5.7482121111195113E-002  -1.6316070391858825E-002   5.0188601841011149E-002
   5.6149857808915141E-002  -1.6167448717633093E-002   5.0122051763843517E-002
   8.4600584534013729E-002  -2.4833518274755051E-002   2.9977687103707573E-002
   8.2187966860500034E-002  -2.4519774022006849E-002   2.9209565328198378E-002
   7.9775349186986325E-002  -2.4048082094470645E-002   2.8744553990318292E-002
   7.7362731513472616E-002  -2.3418442492146620E-002   2.8582653090067252E-002
   7.4950113839958893E-002  -2.2630855215034690E-002   2.8723862627445362E-002
   7.7394889119996063E-002  -2.2667000885474575E-002   3.4974457102706594E-002
   7.5266641111667892E-002  -2.2348828045892249E-002   3.4385765860847961E-002
   7.3138393103339749E-002  -2.1916278579233964E-002   3.4062703511731345E-002
   7.1010145095011606E-002  -2.1369352485499562E-002   3.4005270055356834E-002
   6.8881897086683450E-002  -2.0708049764689151E-002   3.4213465491724340E-002
   7.0251202861140394E-002  -2.0500483496194072E-002   3.9997441212395533E-002
   6.8369842973110828E-002  -2.0177882069777726E-002   3.9544609456475491E-002
   6.6488483085081235E-002  -1.9784475063997230E-002   3.9319925048410628E-002
   6.4607123197051641E-002  -1.9320262478852507E-002   3.9323387988200759E-002
   6.2725763309022076E-002  -1.8785244314343627E-002   3.9554998275846000E-002
   6.3169525757446734E-002  -1.8333966106913596E-002   4.5046639432774524E-002
   6.1497572444828744E-002  -1.8006936093663193E-002   4.4686096115081272E-002
   5.9825619132210732E-002  -1.7652671548760525E-002   4.4516218600356150E-002
   5.8153665819592727E-002  -1.7271172472205408E-002   4.4537006888599101E-002
   5.6481712506974723E-002  -1.6862438863998110E-002   4.4748460979810140E-002
   5.6149857808915141E-002  -1.6167448717633093E-002   5.0122051763843517E-002
   5.4649829526821722E-002  -1.5835990117548632E-002   4.9810225836665195E-002
   5.3149801244728283E-002  -1.5520868033523795E-002   4.9651584167567944E-002
   5.1649772962634843E-002  -1.5222082465558404E-002   4.9646126756551757E-002
   5.0149744680541397E-002  -1.4939633413652592E-002   4.9793853603616739E-002
   7.4950113839958893E-002  -2.2630855215034690E-002   2.8723862627445362E-002
   7.2707724057766376E-002  -2.1795223997452193E-002   2.8566772484131753E-002
   7.0465334275573790E-002  -2.1021452573716660E-002   2.8498399059023807E-002
   6.8222944493381260E-002  -2.0309540943827996E-002   2.8518742352121311E-002
   6.5980554711188688E-002  -1.9659489107786199E-002   2.8627802363424604E-002
   6.8881897086683450E-002  -2.0708049764689151E-002   3.4213465491724340E-002
   6.6753039693565511E-002  -2.0003485659047637E-002   3.3948417169263348E-002
   6.4624182300447530E-002  -1.9326775410820077E-002   3.3821716906745757E-002
   6.2495324907329536E-002  -1.8677919020006348E-002   3.3833364704171712E-002
   6.0366467514211597E-002  -1.8056916486606622E-002   3.3983360561541193E-002
   6.2725763309022076E-002  -1.8785244314343627E-002   3.9554998275846000E-002
   6.0760069646716569E-002  -1.8211747320643117E-002   3.9215997710670511E-002
   5.8794375984411021E-002  -1.7632098247923490E-002   3.9064976547176417E-002
   5.6828682322105507E-002  -1.7046297096184836E-002   3.9101934785363682E-002
   5.4862988659799966E-002  -1.6454343865427018E-002   3.9326872425232348E-002
   5.6481712506974723E-002  -1.6862438863998110E-002   4.4748460979810140E-002
   5.4728813917219551E-002  -1.6420008982238565E-002   4.4369514108353214E-002
   5.2975915327464373E-002  -1.5937421085026930E-002   4.4228177980315468E-002
   5.1223016737709182E-002  -1.5414675172363229E-002   4.4324452595697214E-002
   4.9470118147954038E-002  -1.4851771244247483E-002   4.4658337954498098E-002
   5.0149744680541397E-002  -1.4939633413652592E-002   4.9793853603616739E-002
   4.8659272505074472E-002  -1.4628270643834027E-002   4.9408966362311318E-002
   4.7168800329607505E-002  -1.4242743922130326E-002   4.9311321206163147E-002
   4.5678328154140538E-002  -1.3783053248541706E-002   4.9500918135172163E-002
   4.4187855978673585E-002  -1.3249198623067782E-002   4.9977757149338220E-002
   6.5980554711188688E-002  -1.9659489107786199E-002   2.8627802363424604E-002
   6.3401101636502449E-002  -1.9016925134658580E-002   2.8179503406017797E-002
   6.0821648561816155E-002  -1.8327477093511943E-002   2.8066913022305406E-002
   5.8242195487129861E-002  -1.7591144984346701E-002   2.8290031212287334E-002
   5.5662742412443567E-002  -1.6807928807162364E-002   2.8848857975963371E-002
   6.0366467514211597E-002  -1.8056916486606622E-002   3.3983360561541193E-002
   5.8084299355906199E-002  -1.7436833622683931E-002   3.3643695582626157E-002
   5.5802131197600829E-002  -1.6790736240301252E-002   3.3562891862778610E-002
   5.3519963039295453E-002  -1.6118624339458570E-002   3.3740949401998802E-002
   5.1237794880990062E-002  -1.5420497920156040E-002   3.4177868200286454E-002
   5.4862988659799966E-002  -1.6454343865427018E-002   3.9326872425232348E-002
   5.2801258103248865E-002  -1.5856742110709254E-002   3.9074971875249984E-002
   5.0739527546697763E-002  -1.5253995387090401E-002   3.9005085269708521E-002
   4.8677796990146634E-002  -1.4646103694570553E-002   3.9117212608607968E-002
   4.6616066433595560E-002  -1.4033067033149688E-002   3.9411353891948192E-002
   4.9470118147954038E-002  -1.4851771244247483E-002   4.4658337954498098E-002
   4.7551977878530438E-002  -1.4276650598734425E-002   4.4473332283889423E-002
   4.5633837609106886E-002  -1.3717254533879602E-002   4.4393493243095064E-002
   4.3715697339683300E-002  -1.3173583049682549E-002   4.4418820832115027E-002
   4.1797557070259742E-002  -1.2645636146143377E-002   4.4549315050949230E-002
   4.4187855978673585E-002  -1.3249198623067782E-002   4.9977757149338220E-002
   4.2336458681750913E-002  -1.2696559086759873E-002   4.9838776808544510E-002
   4.0485061384828214E-002  -1.2180513680668886E-002   4.9728115782938398E-002
   3.8633664087905528E-002  -1.1701062404794411E-002   4.9645774072519716E-002
   3.6782266790982815E-002  -1.1258205259136955E-002   4.9591751677288631E-002
   5.5662742412443567E-002  -1.6807928807162364E-002   2.8848857975963371E-002
   5.3694084997259667E-002  -1.6028356746397465E-002   2.8766435751552966E-002
   5.1725427582075767E-002  -1.5302956986490174E-002   2.8588415259250072E-002
   4.9756770166891812E-002  -1.4631729527440344E-002   2.8314796499054107E-002
   4.7788112751707912E-002  -1.4014674369247915E-002   2.7945579470965820E-002
   5.1237794880990062E-002  -1.5420497920156040E-002   3.4177868200286454E-002
   4.9243651132548930E-002  -1.4720088328422753E-002   3.3930966757342307E-002
   4.7249507384107742E-002  -1.4041126910288054E-002   3.3728690915776377E-002
   4.5255363635666609E-002  -1.3383613665751949E-002   3.3571040675588498E-002
   4.3261219887225422E-002  -1.2747548594814251E-002   3.3458016036779059E-002
   4.6616066433595560E-002  -1.4033067033149688E-002   3.9411353891948192E-002
   4.4736660221167936E-002  -1.3411819910448042E-002   3.9032697357729379E-002
   4.2857254008740367E-002  -1.2779296834086004E-002   3.8838890294159600E-002
   4.0977847796312770E-002  -1.2135497804063557E-002   3.8829932701238724E-002
   3.9098441583885174E-002  -1.1480422820380615E-002   3.9005824578967022E-002
   4.1797557070259742E-002  -1.2645636146143377E-002   4.4549315050949230E-002
   4.0173112263116657E-002  -1.2103551492473330E-002   4.4071627552714314E-002
   3.8548667455973518E-002  -1.1517466757883947E-002   4.3919013394399575E-002
   3.6924222648830413E-002  -1.0887381942375192E-002   4.4091472576004709E-002
   3.5299777841687301E-002  -1.0213297045946909E-002   4.4589005097529694E-002
   3.6782266790982815E-002  -1.1258205259136955E-002   4.9591751677288631E-002
   3.5553007258395053E-002  -1.0795283074498618E-002   4.9047757342297216E-002
   3.4323747725807277E-002  -1.0255636681681793E-002   4.8969060216496330E-002
   3.3094488193219494E-002  -9.6392660806868431E-003   4.9355660299886653E-002
   3.1865228660631739E-002  -8.9461712715132036E-003   5.0207557592467533E-002
   4.7788112751707912E-002  -1.4014674369247915E-002   2.7945579470965820E-002
   4.4852819950990247E-002  -1.3308052084432809E-002   2.7229097663918178E-002
   4.1917527150272527E-002  -1.2368123245513937E-002   2.7146077344873093E-002
   3.8982234349554695E-002  -1.1194887852491894E-002   2.7696518513830995E-002
   3.6046941548837141E-002  -9.7883459053660360E-003   2.8880421170791593E-002
   4.3261219887225422E-002  -1.2747548594814251E-002   3.3458016036779059E-002
   4.0839220142568688E-002  -1.2069492979550234E-002   3.3154848267109294E-002
   3.8417220397911983E-002  -1.1286008102034825E-002   3.3244805121558862E-002
   3.5995220653255278E-002  -1.0397093962268258E-002   3.3727886600127738E-002
   3.3573220908598544E-002  -9.4027505602499728E-003   3.4604092702815725E-002
   3.9098441583885174E-002  -1.1480422820380615E-002   3.9005824578967022E-002
   3.6949398031405963E-002  -1.0830933874667797E-002   3.8988093554823092E-002
   3.4800354478926709E-002  -1.0203892958555720E-002   3.9123150290915003E-002
   3.2651310926447456E-002  -9.5993000720444571E-003   3.9410994787242554E-002
   3.0502267373968300E-002  -9.0171552151339096E-003   3.9851627043805682E-002
   3.5299777841687301E-002  -1.0213297045946909E-002   4.4589005097529694E-002
   3.3183353617502062E-002  -9.5923747697852918E-003   4.4728833527059614E-002
   3.1066929393316772E-002  -9.1217778150766114E-003   4.4781112852941916E-002
   2.8950505169131585E-002  -8.8015061818208506E-003   4.4745843075175942E-002
   2.6834080944946243E-002  -8.6315598700178464E-003   4.4623024193762767E-002
   3.1865228660631739E-002  -8.9461712715132036E-003   5.0207557592467533E-002
   2.9541086900856911E-002  -8.3538156649028417E-003   5.0377068183818929E-002
   2.7216945141082097E-002  -8.0396626715974751E-003   5.0218692807639131E-002
   2.4892803381307220E-002  -8.0037122915971246E-003   4.9732431463928362E-002
   2.2568661621532482E-002  -8.2459645249017832E-003   4.8918284152685843E-002
   5.7147847723157910E-002   0.0000000000000000        3.4707602544161248E-002
   5.7935939140383044E-002  -2.0799758431165076E-003   3.8360132459541028E-002
   5.8724030557608192E-002  -4.1301969880166035E-003   4.2225855582643149E-002
   5.9512121974833319E-002  -6.1506634347002782E-003   4.6304771913467602E-002
   6.0300213392058460E-002  -8.1413751831675429E-003   5.0596881452014401E-002
   4.8650297804005746E-002   0.0000000000000000        3.2810076865085545E-002
   4.9586574046316868E-002  -1.7072236905359486E-003   3.6985694115779122E-002
   5.0522850288627977E-002  -3.4284984302904199E-003   4.1244487808922328E-002
   5.1459126530939106E-002  -5.1638242192634156E-003   4.5586457944515157E-002
   5.2395402773250228E-002  -6.9132010574549426E-003   5.0011604522557637E-002
   4.0732991778304757E-002   0.0000000000000000        3.1307206212307870E-002
   4.1687436080429165E-002  -1.3344715379553867E-003   3.5962105050880280E-002
   4.2641880382553565E-002  -2.7267998725642372E-003   4.0570163566629625E-002
   4.3596324684677980E-002  -4.1769850038265487E-003   4.5131381759555916E-002
   4.4550768986802380E-002  -5.6850269317423215E-003   4.9645759629659114E-002
   3.3395929646054957E-002   0.0000000000000000        3.0198990585828235E-002
   3.4238525242719947E-002  -9.6171938537482535E-004   3.5289365264844559E-002
   3.5081120839384937E-002  -2.0251013148380524E-003   4.0202882855765107E-002
   3.5923716436049927E-002  -3.1901457883896805E-003   4.4939543358589878E-002
   3.6766312032714916E-002  -4.4568528060297142E-003   4.9499346773318902E-002
   2.6639111407256343E-002   0.0000000000000000        2.9485429985646624E-002
   2.7239841533189216E-002  -5.8896723279426490E-004   3.4967474757671910E-002
   2.7840571659122088E-002  -1.3234027571118710E-003   4.0142645676328720E-002
   2.8441301785054961E-002  -2.2033065729528192E-003   4.5010942741617058E-002
   2.9042031910987830E-002  -3.2286786803170991E-003   4.9572365953536930E-002
   6.0300213392058460E-002  -8.1413751831675429E-003   5.0596881452014401E-002
   6.0594887798552613E-002  -1.0018782109230958E-002   5.1537232539711569E-002
   6.0889562205046752E-002  -1.1699334088703136E-002   5.2265026941222745E-002
   6.1184236611540911E-002  -1.3183031121583984E-002   5.2780264656547907E-002
   6.1478911018035064E-002  -1.4469873207873615E-002   5.3082945685687069E-002
   5.2395402773250228E-002  -6.9132010574549426E-003   5.0011604522557637E-002
   5.2516722335947764E-002  -8.5747783357962952E-003   5.1244586842759600E-002
   5.2638041898645294E-002  -1.0046705445218860E-002   5.2343416161554385E-002
   5.2759361461342844E-002  -1.1328982385722610E-002   5.3308092478941915E-002
   5.2880681024040394E-002  -1.2421609157307542E-002   5.4138615794922233E-002
   4.4550768986802380E-002  -5.6850269317423215E-003   4.9645759629659114E-002
   4.4577137390482087E-002  -7.1307745623616480E-003   5.1164168404693462E-002
   4.4603505794161800E-002  -8.3940768017346234E-003   5.2626827863099371E-002
   4.4629874197841500E-002  -9.4749336498612287E-003   5.4033738004876833E-002
   4.4656242601521214E-002  -1.0373345106741476E-002   5.5384898830025855E-002
   3.6766312032714916E-002  -4.4568528060297142E-003   4.9499346773318902E-002
   3.6776132962155574E-002  -5.6867707889269878E-003   5.1295977225513129E-002
   3.6785953891596224E-002  -6.7414481582503665E-003   5.3115262045857717E-002
   3.6795774821036888E-002  -7.6208849139998407E-003   5.4957201234352646E-002
   3.6805595750477538E-002  -8.3250810561754061E-003   5.6821794790997922E-002
   2.9042031910987830E-002  -3.2286786803170991E-003   4.9572365953536930E-002
   2.9113709050968224E-002  -4.2427670154923328E-003   5.1640013305218627E-002
   2.9185386190948605E-002  -5.0888195147661078E-003   5.3808718709829437E-002
   2.9257063330928989E-002  -5.7668361781384649E-003   5.6078482167369388E-002
   2.9328740470909373E-002  -6.2768170056093364E-003   5.8449303677838418E-002
   6.1478911018035064E-002  -1.4469873207873615E-002   5.3082945685687069E-002
   6.0146647715755078E-002  -1.5467282636979073E-002   5.1669048801932960E-002
   5.8814384413475099E-002  -1.6082681698307458E-002   5.0704267520374345E-002
   5.7482121111195113E-002  -1.6316070391858825E-002   5.0188601841011149E-002
   5.6149857808915141E-002  -1.6167448717633093E-002   5.0122051763843517E-002
   5.2880681024040394E-002  -1.2421609157307542E-002   5.4138615794922233E-002
   5.1945911619958915E-002  -1.3265765969103938E-002   5.3391538837864363E-002
   5.1011142215877464E-002  -1.3802633030242140E-002   5.2990334075008069E-002
   5.0076372811796013E-002  -1.4032210340722048E-002   5.2935001506353344E-002
   4.9141603407714542E-002  -1.3954497900543705E-002   5.3225541131900186E-002
   4.4656242601521214E-002  -1.0373345106741476E-002   5.5384898830025855E-002
   4.4015723687644379E-002  -1.1064249301228828E-002   5.5229921182545341E-002
   4.3375204773767558E-002  -1.1522584362176751E-002   5.5317572321272560E-002
   4.2734685859890736E-002  -1.1748350289585256E-002   5.5647852246207448E-002
   4.2094166946013908E-002  -1.1741547083454290E-002   5.6220760957350006E-002
   3.6805595750477538E-002  -8.3250810561754061E-003   5.6821794790997922E-002
   3.6356083918811462E-002  -8.8627326333537131E-003   5.7184195835976004E-002
   3.5906572087145393E-002  -9.2425356941113757E-003   5.7685982259167885E-002
   3.5457060255479317E-002  -9.4644902384484197E-003   5.8327154060573677E-002
   3.5007548423813234E-002  -9.5285962663649165E-003   5.9107711240193130E-002
   2.9328740470909373E-002  -6.2768170056093364E-003   5.8449303677838418E-002
   2.8966992313460165E-002  -6.6612159654785702E-003   5.9254362798156310E-002
   2.8605244156010956E-002  -6.9624870260460402E-003   6.0095563888694116E-002
   2.8243495998561748E-002  -7.1806301873116518E-003   6.0972906949451774E-002
   2.7881747841112546E-002  -7.3156454492754736E-003   6.1886391980429459E-002
   5.6149857808915141E-002  -1.6167448717633093E-002   5.0122051763843517E-002
   5.4649829526821722E-002  -1.5835990117548632E-002   4.9810225836665195E-002
   5.3149801244728283E-002  -1.5520868033523795E-002   4.9651584167567944E-002
   5.1649772962634843E-002  -1.5222082465558404E-002   4.9646126756551757E-002
   5.0149744680541397E-002  -1.4939633413652592E-002   4.9793853603616739E-002
   4.9141603407714542E-002  -1.3954497900543705E-002   5.3225541131900186E-002
   4.7799296429209465E-002  -1.3720406647378461E-002   5.2873635869357130E-002
   4.6456989450704395E-002  -1.3480847518897637E-002   5.2683988955909741E-002
   4.5114682472199297E-002  -1.3235820515101242E-002   5.2656600391557971E-002
   4.3772375493694227E-002  -1.2985325635989253E-002   5.2791470176301772E-002
   4.2094166946013908E-002  -1.1741547083454290E-002   5.6220760957350006E-002
   4.0918655362111728E-002  -1.1604823177208304E-002   5.5850580750817377E-002
   3.9743143778209575E-002  -1.1440827004271559E-002   5.5651732984394964E-002
   3.8567632194307401E-002  -1.1249558564644133E-002   5.5624217658082710E-002
   3.7392120610405227E-002  -1.1031017858325956E-002   5.5768034771880658E-002
   3.5007548423813234E-002  -9.5285962663649165E-003   5.9107711240193130E-002
   3.4007906325528539E-002  -9.4892397070381121E-003   5.8741060481046041E-002
   3.3008264227243844E-002  -9.4008064896454972E-003   5.8554816253023716E-002
   3.2008622128959129E-002  -9.2632966141869572E-003   5.8548978556126001E-002
   3.1008980030674451E-002  -9.0767100806626796E-003   5.8723547390353195E-002
   2.7881747841112546E-002  -7.3156454492754736E-003   6.1886391980429459E-002
   2.7067049319459864E-002  -7.3736562368679620E-003   6.1545075060043031E-002
   2.6252350797807193E-002  -7.3607859750193967E-003   6.1393238761795872E-002
   2.5437652276154514E-002  -7.2770346637298687E-003   6.1430883085688004E-002
   2.4622953754501839E-002  -7.1224023029993477E-003   6.1658008031719475E-002
   5.0149744680541397E-002  -1.4939633413652592E-002   4.9793853603616739E-002
   4.8659272505074472E-002  -1.4628270643834027E-002   4.9408966362311318E-002
   4.7168800329607505E-002  -1.4242743922130326E-002   4.9311321206163147E-002
   4.5678328154140538E-002  -1.3783053248541706E-002   4.9500918135172163E-002
   4.4187855978673585E-002  -1.3249198623067782E-002   4.9977757149338220E-002
   4.3772375493694227E-002  -1.2985325635989253E-002   5.2791470176301772E-002
   4.2547483777756571E-002  -1.2703356833864407E-002   5.2447857574224419E-002
   4.1322592061818909E-002  -1.2363908061029417E-002   5.2348163806048405E-002
   4.0097700345881254E-002  -1.1966979317484231E-002   5.2492388871773890E-002
   3.8872808629943606E-002  -1.1512570603228828E-002   5.2880532771400757E-002
   3.7392120610405227E-002  -1.1031017858325956E-002   5.5768034771880658E-002
   3.6389486102741161E-002  -1.0778443023894795E-002   5.5449012827856296E-002
   3.5386851595077089E-002  -1.0485072199928450E-002   5.5330586466477621E-002
   3.4384217087413016E-002  -1.0150905386426781E-002   5.5412755687744661E-002
   3.3381582579748950E-002  -9.7759425833898461E-003   5.5695520491657463E-002
   3.1008980030674451E-002  -9.0767100806626796E-003   5.8723547390353195E-002
   3.0185279480028214E-002  -8.8535292139252063E-003   5.8412432123206966E-002
   2.9361578929381994E-002  -8.6062363388274294E-003   5.8258589187450777E-002
   2.8537878378735764E-002  -8.3348314553692918E-003   5.8262018583084524E-002
   2.7714177828089537E-002  -8.0393145635507951E-003   5.8422720310108221E-002
   2.4622953754501839E-002  -7.1224023029993477E-003   6.1658008031719475E-002
   2.3934863909617757E-002  -6.9286154039555764E-003   6.1338115460276510E-002
   2.3246774064733654E-002  -6.7274004777265403E-003   6.1132171968967794E-002
   2.2558684219849568E-002  -6.5187575243118908E-003   6.1040177557793319E-002
   2.1870594374965469E-002  -6.3026865437118551E-003   6.1062132226753107E-002
   4.4187855978673585E-002  -1.3249198623067782E-002   4.9977757149338220E-002
   4.2336458681750913E-002  -1.2696559086759873E-002   4.9838776808544510E-002
   4.0485061384828214E-002  -1.2180513680668886E-002   4.9728115782938398E-002
   3.8633664087905528E-002  -1.1701062404794411E-002   4.9645774072519716E-002
   3.6782266790982815E-002  -1.1258205259136955E-002   4.9591751677288631E-002
   3.8872808629943606E-002  -1.1512570603228828E-002   5.2880532771400757E-002
   3.7096209012245626E-002  -1.1036122422672087E-002   5.2586854509017580E-002
   3.5319609394547632E-002  -1.0573075280222687E-002   5.2414452289896052E-002
   3.3543009776849625E-002  -1.0123429175880666E-002   5.2363326114036449E-002
   3.1766410159151659E-002  -9.6871841096461964E-003   5.2433475981438771E-002
   3.3381582579748950E-002  -9.7759425833898461E-003   5.5695520491657463E-002
   3.1772737369349990E-002  -9.3756857585841902E-003   5.5270337399793958E-002
   3.0163892158951010E-002  -8.9656368797766534E-003   5.5059387079266539E-002
   2.8555046948552053E-002  -8.5457959469670310E-003   5.5062669530075332E-002
   2.6946201738153104E-002  -8.1161629601554652E-003   5.5280184752220338E-002
   2.7714177828089537E-002  -8.0393145635507951E-003   5.8422720310108221E-002
   2.6366043753063954E-002  -7.7152490944964874E-003   5.7889225480873850E-002
   2.5017909678038346E-002  -7.3581984793307034E-003   5.7662920151050040E-002
   2.3669775603012738E-002  -6.9681627180533962E-003   5.7743804320636673E-002
   2.2321641527987150E-002  -6.5451418106647202E-003   5.8131877989633943E-002
   2.1870594374965469E-002  -6.3026865437118551E-003   6.1062132226753107E-002
   2.0876128163387575E-002  -6.0548124304085071E-003   6.0443518752257341E-002
   1.9881661951809668E-002  -5.7507600788844621E-003   6.0225051505246457E-002
   1.8887195740231767E-002  -5.3905294891396886E-003   6.0406730485720331E-002
   1.7892729528653853E-002  -4.9741206611739752E-003   6.0988555693679225E-002
   3.6782266790982815E-002  -1.1258205259136955E-002   4.9591751677288631E-002
   3.5553007258395053E-002  -1.0795283074498618E-002   4.9047757342297216E-002
   3.4323747725807277E-002  -1.0255636681681793E-002   4.8969060216496330E-002
   3.3094488193219494E-002  -9.6392660806868431E-003   4.9355660299886653E-002
   3.1865228660631739E-002  -8.9461712715132036E-003   5.0207557592467533E-002
   3.1766410159151659E-002  -9.6871841096461964E-003   5.2433475981438771E-002
   3.0920333428464022E-002  -9.2499954024975184E-003   5.2049021714046156E-002
   3.0074256697776358E-002  -8.7975183754136488E-003   5.1965635841263069E-002
   2.9228179967088735E-002  -8.3297530283940324E-003   5.2183318363089606E-002
   2.8382103236401057E-002  -7.8466993614390024E-003   5.2702069279525532E-002
   2.6946201738153104E-002  -8.1161629601554652E-003   5.5280184752220338E-002
   2.6319078994784306E-002  -7.7047077304965850E-003   5.4993834664183922E-002
   2.5691956251415540E-002  -7.3394000691452202E-003   5.4844324156175524E-002
   2.5064833508046759E-002  -7.0202399761012755E-003   5.4831653228195484E-002
   2.4437710764677968E-002  -6.7472274513648567E-003   5.4955821880243644E-002
   2.2321641527987150E-002  -6.5451418106647202E-003   5.8131877989633943E-002
   2.1749243957355984E-002  -6.1594200584955960E-003   5.7882196192710469E-002
   2.1176846386724801E-002  -5.8812817628767673E-003   5.7605125161233915E-002
   2.0604448816093645E-002  -5.7107269238086582E-003   5.7300664895204197E-002
   2.0032051245462451E-002  -5.6477555412906832E-003   5.6968815394621626E-002
   1.7892729528653853E-002  -4.9741206611739752E-003   6.0988555693679225E-002
   1.7210828316179011E-002  -4.6141323864944961E-003   6.0714106299625759E-002
   1.6528927103704162E-002  -4.4231634566085920E-003   6.0248038856438091E-002
   1.5847025891229317E-002  -4.4012138715157773E-003   5.9590353364116055E-002
   1.5165124678754471E-002  -4.5482836312165098E-003   5.8741049822659819E-002
   3.1865228660631739E-002  -8.9461712715132036E-003   5.0207557592467533E-002
   2.9541086900856911E-002  -8.3538156649028417E-003   5.0377068183818929E-002
   2.7216945141082097E-002  -8.0396626715974751E-003   5.0218692807639131E-002
   2.4892803381307220E-002  -8.0037122915971246E-003   4.9732431463928362E-002
   2.2568661621532482E-002  -8.2459645249017832E-003   4.8918284152685843E-002
   2.8382103236401057E-002  -7.8466993614390024E-003   5.2702069279525532E-002
   2.5905339090312535E-002  -7.3236669549856803E-003   5.2478809677480281E-002
   2.3428574944224040E-002  -6.7359653894714933E-003   5.2278191270338809E-002
   2.0951810798135483E-002  -6.0835946648960179E-003   5.2100214058101307E-002
   1.8475046652047022E-002  -5.3665547812595804E-003   5.1944878040767528E-002
   2.4437710764677968E-002  -6.7472274513648567E-003   5.4955821880243644E-002
   2.2158851394710889E-002  -6.2935182450685467E-003   5.4682663857167774E-002
   1.9879992024743807E-002  -5.4322681073454143E-003   5.4782674191430444E-002
   1.7601132654776683E-002  -4.1634770381949147E-003   5.5255852883032412E-002
   1.5322273284809645E-002  -2.4871450376174886E-003   5.6102199931973407E-002
   2.0032051245462451E-002  -5.6477555412906832E-003   5.6968815394621626E-002
   1.8301623814051989E-002  -5.2633695351513993E-003   5.6988630722880802E-002
   1.6571196382641505E-002  -4.1285708252192729E-003   5.7732141570914344E-002
   1.4840768951231032E-002  -2.2433594114939209E-003   5.9199347938721641E-002
   1.3110341519820594E-002   3.9226470602460317E-004   6.1390249826303478E-002
   1.5165124678754471E-002  -4.5482836312165098E-003   5.8741049822659819E-002
   1.4333656348335749E-002  -4.2332208252342518E-003   5.9396710274620179E-002
   1.3502188017917069E-002  -2.8248735430932426E-003   6.1126593408789787E-002
   1.2670719687498326E-002  -3.2324178479262167E-004   6.3930699225168724E-002
   1.1839251357079639E-002   3.2716744496668060E-003   6.7809027723757298E-002
   2.6639111407256343E-002   0.0000000000000000        2.9485429985646624E-002
   2.7239841533189216E-002  -5.8896723279426490E-004   3.4967474757671910E-002
   2.7840571659122088E-002  -1.3234027571118710E-003   4.0142645676328720E-002
   2.8441301785054961E-002  -2.2033065729528192E-003   4.5010942741617058E-002
   2.9042031910987830E-002  -3.2286786803170991E-003   4.9572365953536930E-002
   2.0124900533423959E-002   0.0000000000000000        2.9033190298792765E-002
   2.0458215419548509E-002  -4.4301354867179454E-004   3.4332163113101111E-002
   2.0791530305673059E-002  -9.9556162133693140E-004   3.9403179301161294E-002
   2.1124845191797605E-002  -1.6576442179954071E-003   4.4246238862973276E-002
   2.1458160077922155E-002  -2.4292613386472277E-003   4.8861341798537107E-002
   1.3515660496072831E-002   0.0000000000000000        2.8708937412296374E-002
   1.3660477369509349E-002  -2.9705986454932462E-004   3.3860772036417790E-002
   1.3805294242945867E-002  -6.6772048556199178E-004   3.8863567261411325E-002
   1.3950111116382384E-002  -1.1119818630380036E-003   4.3717323087276952E-002
   1.4094927989818904E-002  -1.6298439969773533E-003   4.8422039514014720E-002
   6.8113912952029671E-003   0.0000000000000000        2.8512671326157459E-002
   6.8466273830717437E-003  -1.5110618042685491E-004   3.3553301527621933E-002
   6.8818634709405212E-003  -3.3987934978705215E-004   3.8523809557078806E-002
   6.9170995588092995E-003  -5.6631950808059238E-004   4.3424195414528105E-002
   6.9523356466780753E-003  -8.3042665530748210E-004   4.8254459099969789E-002
   1.2092930814362225E-005   0.0000000000000000        2.8444392040376010E-002
   1.6665460235691480E-005  -5.1524963043851971E-006   3.3409751586713547E-002
   2.1237989657020085E-005  -1.2038214012114259E-005   3.8383906188163779E-002
   2.5810519078349014E-005  -2.0657153123189789E-005   4.3366855844726715E-002
   3.0383048499677944E-005  -3.1009313637606582E-005   4.8358600556402349E-002
   2.9042031910987830E-002  -3.2286786803170991E-003   4.9572365953536930E-002
   2.9113709050968224E-002  -4.2427670154923328E-003   5.1640013305218627E-002
   2.9185386190948605E-002  -5.0888195147661078E-003   5.3808718709829437E-002
   2.9257063330928989E-002  -5.7668361781384649E-003   5.6078482167369388E-002
   2.9328740470909373E-002  -6.2768170056093364E-003   5.8449303677838418E-002
   2.1458160077922155E-002  -2.4292613386472277E-003   4.8861341798537107E-002
   2.1601969332806076E-002  -3.1926168601896956E-003   5.1267749736212377E-002
   2.1745778587689994E-002  -3.8299146595201115E-003   5.3717363850765615E-002
   2.1889587842573915E-002  -4.3411547366384697E-003   5.6210184142196827E-002
   2.2033397097457837E-002  -4.7263370915447966E-003   5.8746210610505986E-002
   1.4094927989818904E-002  -1.6298439969773533E-003   4.8422039514014720E-002
   1.4253017483555197E-002  -2.1424667048870515E-003   5.1125229923994188E-002
   1.4411106977291492E-002  -2.5710098042740952E-003   5.3813774634800471E-002
   1.4569196471027786E-002  -2.9154732951385013E-003   5.6487673646433534E-002
   1.4727285964764081E-002  -3.1758571774802569E-003   5.9146926958893398E-002
   6.9523356466780753E-003  -8.3042665530748210E-004   4.8254459099969789E-002
   7.0668535032155800E-003  -1.0923165495844074E-003   5.1212453868564073E-002
   7.1813713597530865E-003  -1.3121049490280993E-003   5.4097951061933984E-002
   7.2958892162905929E-003  -1.4897918536385161E-003   5.6910950680079508E-002
   7.4104070728280985E-003  -1.6253772634157171E-003   5.9651452723000660E-002
   3.0383048499677944E-005  -3.1009313637606582E-005   4.8358600556402349E-002
   4.3477391787229928E-005  -4.2166394281767557E-005   5.1529421569922004E-002
   5.6571735074783863E-005  -5.3200093782087557E-005   5.4569893132166161E-002
   6.9666078362337690E-005  -6.4110412138545928E-005   5.7480015243134751E-002
   8.2760421649889782E-005  -7.4897349351184250E-005   6.0259787902827829E-002
   2.9328740470909373E-002  -6.2768170056093364E-003   5.8449303677838418E-002
   2.8966992313460165E-002  -6.6612159654785702E-003   5.9254362798156310E-002
   2.8605244156010956E-002  -6.9624870260460402E-003   6.0095563888694116E-002
   2.8243495998561748E-002  -7.1806301873116518E-003   6.0972906949451774E-002
   2.7881747841112546E-002  -7.3156454492754736E-003   6.1886391980429459E-002
   2.2033397097457837E-002  -4.7263370915447966E-003   5.8746210610505986E-002
   2.1723268679314116E-002  -5.0194568633558818E-003   5.9626577412307313E-002
   2.1413140261170398E-002  -5.2545091911885729E-003   6.0574041722499673E-002
   2.1103011843026685E-002  -5.4314940750428498E-003   6.1588603541083115E-002
   2.0792883424882967E-002  -5.5504115149187239E-003   6.2670262868057561E-002
   1.4727285964764081E-002  -3.1758571774802569E-003   5.9146926958893398E-002
   1.4499732824096981E-002  -3.3776977612331657E-003   6.0077540986854749E-002
   1.4272179683429882E-002  -3.5465313563311212E-003   6.1106208061378300E-002
   1.4044626542762778E-002  -3.6823579627740344E-003   6.2232928182464044E-002
   1.3817073402095681E-002  -3.7851775805619534E-003   6.3457701350111931E-002
   7.4104070728280985E-003  -1.6253772634157171E-003   5.9651452723000660E-002
   7.2963847478087467E-003  -1.7359386591104704E-003   6.0607253521798694E-002
   7.1823624227893941E-003  -1.8385535214736478E-003   6.1692062905329977E-002
   7.0683400977700379E-003  -1.9332218505051979E-003   6.2905880873594638E-002
   6.9543177727506914E-003  -2.0199436462052071E-003   6.4248707426592527E-002
   8.2760421649889782E-005  -7.4897349351184250E-005   6.0259787902827829E-002
   1.1322445044941419E-004  -9.4179556987750851E-005   6.1215715017139044E-002
   1.4368847924893860E-004  -1.3057568661620743E-004   6.2331606254354729E-002
   1.7415250804846258E-004  -1.8408573823642518E-004   6.3607461614474836E-002
   2.0461653684798742E-004  -2.5470971184841928E-004   6.5043281097499392E-002
   2.7881747841112546E-002  -7.3156454492754736E-003   6.1886391980429459E-002
   2.7067049319459864E-002  -7.3736562368679620E-003   6.1545075060043031E-002
   2.6252350797807193E-002  -7.3607859750193967E-003   6.1393238761795872E-002
   2.5437652276154514E-002  -7.2770346637298687E-003   6.1430883085688004E-002
   2.4622953754501839E-002  -7.1224023029993477E-003   6.1658008031719475E-002
   2.0792883424882967E-002  -5.5504115149187239E-003   6.2670262868057561E-002
   2.0182323152811765E-002  -5.6147305772127343E-003   6.2517663148868780E-002
   1.9571762880740567E-002  -5.6279203283213092E-003   6.2583859306703599E-002
   1.8961202608669375E-002  -5.5899807682444382E-003   6.2868851341562157E-002
   1.8350642336598173E-002  -5.5009118969822635E-003   6.3372639253444232E-002
   1.3817073402095681E-002  -3.7851775805619534E-003   6.3457701350111931E-002
   1.3439966634490300E-002  -3.8558049175575135E-003   6.3474067093865202E-002
   1.3062859866884914E-002  -3.8950546816232199E-003   6.3738543969526384E-002
   1.2685753099279527E-002  -3.9029268727591182E-003   6.4251131977095657E-002
   1.2308646331674149E-002  -3.8794214909652486E-003   6.5011831116572827E-002
   6.9543177727506914E-003  -2.0199436462052071E-003   6.4248707426592527E-002
   6.8399797644954595E-003  -2.0968792579022476E-003   6.4414286895032258E-002
   6.7256417562402294E-003  -2.1621890349251176E-003   6.4857292750264348E-002
   6.6113037479849984E-003  -2.2158729772738120E-003   6.5577724992288658E-002
   6.4969657397297613E-003  -2.2579310849482129E-003   6.6575583621105383E-002
   2.0461653684798742E-004  -2.5470971184841928E-004   6.5043281097499392E-002
   3.8236254282724737E-004  -3.3795359824708576E-004   6.5338322552370015E-002
   5.6010854880650905E-004  -4.2932338822705349E-004   6.5940105648917224E-002
   7.3785455478577421E-004  -5.2881908178839792E-004   6.6848630387141186E-002
   9.1560056076503069E-004  -6.3644067893114942E-004   6.8063896767041721E-002
   2.4622953754501839E-002  -7.1224023029993477E-003   6.1658008031719475E-002
   2.3934863909617757E-002  -6.9286154039555764E-003   6.1338115460276510E-002
   2.3246774064733654E-002  -6.7274004777265403E-003   6.1132171968967794E-002
   2.2558684219849568E-002  -6.5187575243118908E-003   6.1040177557793319E-002
   2.1870594374965469E-002  -6.3026865437118551E-003   6.1062132226753107E-002
   1.8350642336598173E-002  -5.5009118969822635E-003   6.3372639253444232E-002
   1.7784783898682051E-002  -5.3824625479209354E-003   6.3298874257613741E-002
   1.7218925460765928E-002  -5.2563815544467291E-003   6.3355622995585004E-002
   1.6653067022849820E-002  -5.1226689165595439E-003   6.3542885467357924E-002
   1.6087208584933697E-002  -4.9813246342594319E-003   6.3860661672932445E-002
   1.2308646331674149E-002  -3.8794214909652486E-003   6.5011831116572827E-002
   1.1881583954393427E-002  -3.8363096918862596E-003   6.5184397313582346E-002
   1.1454521577112695E-002  -3.7853626311668935E-003   6.5504041898061055E-002
   1.1027459199831963E-002  -3.7265803088071979E-003   6.5970764870008761E-002
   1.0600396822551233E-002  -3.6599627248070365E-003   6.6584566229425726E-002
   6.4969657397297613E-003  -2.2579310849482129E-003   6.6575583621105383E-002
   6.2252640767518491E-003  -2.2901568358516151E-003   6.6994684628182338E-002
   5.9535624137739291E-003  -2.3143437078870979E-003   6.7577428676395879E-002
   5.6818607507960134E-003  -2.3304917010548792E-003   6.8323815765745907E-002
   5.4101590878180977E-003  -2.3386008153546550E-003   6.9233845896232493E-002
   9.1560056076503069E-004  -6.3644067893114942E-004   6.8063896767041721E-002
   8.1582426575734293E-004  -7.4400397981695676E-004   6.8729736201413705E-002
   7.1604797074965171E-004  -8.4332478460728832E-004   6.9575783330589613E-002
   6.1627167574196569E-004  -9.3440309330259860E-004   7.0602038154569488E-002
   5.1649538073427273E-004  -1.0172389059022735E-003   7.1808500673353204E-002
   2.1870594374965469E-002  -6.3026865437118551E-003   6.1062132226753107E-002
   2.0876128163387575E-002  -6.0548124304085071E-003   6.0443518752257341E-002
   1.9881661951809668E-002  -5.7507600788844621E-003   6.0225051505246457E-002
   1.8887195740231767E-002  -5.3905294891396886E-003   6.0406730485720331E-002
   1.7892729528653853E-002  -4.9741206611739752E-003   6.0988555693679225E-002
   1.6087208584933697E-002  -4.9813246342594319E-003   6.3860661672932445E-002
   1.5449992498318695E-002  -4.8227784329702567E-003   6.3537201339457131E-002
   1.4812776411703702E-002  -4.6374600381158260E-003   6.3528095028422688E-002
   1.4175560325088698E-002  -4.4253694496962925E-003   6.3833342739829255E-002
   1.3538344238473714E-002  -4.1865066677114204E-003   6.4452944473676721E-002
   1.0600396822551233E-002  -3.6599627248070365E-003   6.6584566229425726E-002
   1.0234638655855235E-002  -3.5907444355319229E-003   6.6526852992315089E-002
   9.8688804891592305E-003  -3.5241599973471413E-003   6.6697701572601492E-002
   9.5031223224632307E-003  -3.4602094102528427E-003   6.7097111970284964E-002
   9.1373641557672240E-003  -3.3988926742487546E-003   6.7725084185365492E-002
   5.4101590878180977E-003  -2.3386008153546550E-003   6.9233845896232493E-002
   5.2300666359971770E-003  -2.3587104380936863E-003   6.9412473710831174E-002
   5.0499741841762598E-003  -2.4108599565786197E-003   6.9733871137782857E-002
   4.8698817323553391E-003  -2.4950493708093087E-003   7.0198038177087779E-002
   4.6897892805344244E-003  -2.6112786807860888E-003   7.0804974828745745E-002
   5.1649538073427273E-004  -1.0172389059022735E-003   7.1808500673353204E-002
   4.3627643874452615E-004  -1.1266764406553109E-003   7.2194063495005401E-002
   3.5605749675478131E-004  -1.2975599158098067E-003   7.2636603723966880E-002
   2.7583855476503907E-004  -1.5298893313659932E-003   7.3136121360237519E-002
   1.9561961277528989E-004  -1.8236646873235340E-003   7.3692616403817357E-002
   1.7892729528653853E-002  -4.9741206611739752E-003   6.0988555693679225E-002
   1.7210828316179011E-002  -4.6141323864944961E-003   6.0714106299625759E-002
   1.6528927103704162E-002  -4.4231634566085920E-003   6.0248038856438091E-002
   1.5847025891229317E-002  -4.4012138715157773E-003   5.9590353364116055E-002
   1.5165124678754471E-002  -4.5482836312165098E-003   5.8741049822659819E-002
   1.3538344238473714E-002  -4.1865066677114204E-003   6.4452944473676721E-002
   1.2775239878491391E-002  -3.9865267599626109E-003   6.4105536545308511E-002
   1.2012135518509087E-002  -3.8910847942510290E-003   6.3787340371059514E-002
   1.1249031158526766E-002  -3.9001807705769075E-003   6.3498355950930105E-002
   1.0485926798544459E-002  -4.0138146889401316E-003   6.3238583284919880E-002
   9.1373641557672240E-003  -3.3988926742487546E-003   6.7725084185365492E-002
   8.5138864515311406E-003  -3.3589211334305868E-003   6.7369199125438525E-002
   7.8904087472950486E-003  -3.3590061318936881E-003   6.7263355622884463E-002
   7.2669310430589608E-003  -3.3991476696381487E-003   6.7407553677703555E-002
   6.6434533388228731E-003  -3.4793457466638644E-003   6.7801793289895718E-002
   4.6897892805344244E-003  -2.6112786807860888E-003   7.0804974828745745E-002
   4.4267680352982385E-003  -2.7313155068986322E-003   7.0505094040015884E-002
   4.1637467900620586E-003  -2.8269274695362639E-003   7.0676084611912771E-002
   3.9007255448258752E-003  -2.8981145686992234E-003   7.1317946544436378E-002
   3.6377042995896936E-003  -2.9448768043875417E-003   7.2430679837586887E-002
   1.9561961277528989E-004  -1.8236646873235340E-003   7.3692616403817357E-002
   5.1388462979269287E-004  -2.1037098803666499E-003   7.3513221289040698E-002
   8.3214964681010625E-004  -2.2948488071788120E-003   7.4025527338144548E-002
   1.1504146638275179E-003  -2.3970814677604438E-003   7.5229534551128907E-002
   1.4686796808449226E-003  -2.4104078621112190E-003   7.7125242927993498E-002
   1.5165124678754471E-002  -4.5482836312165098E-003   5.8741049822659819E-002
   1.4333656348335749E-002  -4.2332208252342518E-003   5.9396710274620179E-002
   1.3502188017917069E-002  -2.8248735430932426E-003   6.1126593408789787E-002
   1.2670719687498326E-002  -3.2324178479262167E-004   6.3930699225168724E-002
   1.1839251357079639E-002   3.2716744496668060E-003   6.7809027723757298E-002
   1.0485926798544459E-002  -4.0138146889401316E-003   6.3238583284919880E-002
   1.0473560452889635E-002  -3.9995477811519686E-003   6.5202659495172843E-002
   1.0461194107234784E-002  -3.6249412790237689E-003   6.7730716992744300E-002
   1.0448827761579963E-002  -2.8899951825551648E-003   7.0822755777633972E-002
   1.0436461415925108E-002  -1.7947094917466488E-003   7.4478775849842305E-002
   6.6434533388228731E-003  -3.4793457466638644E-003   6.7801793289895718E-002
   6.9399475830409507E-003  -3.7658747370696855E-003   7.0341340376622180E-002
   7.2364418272590318E-003  -4.4250090149542953E-003   7.2934627355776160E-002
   7.5329360714771042E-003  -5.4567485803175969E-003   7.5581654227357700E-002
   7.8294303156951767E-003  -6.8610934331599926E-003   7.8282420991366175E-002
   3.6377042995896936E-003  -2.9448768043875417E-003   7.2430679837586887E-002
   3.7328177387897250E-003  -3.5322016929872913E-003   7.4812752918967995E-002
   3.8279311779897502E-003  -5.2250767508849882E-003   7.6738324497885757E-002
   3.9230446171897772E-003  -8.0235019780802511E-003   7.8207394574340144E-002
   4.0181580563898069E-003  -1.1927477374573447E-002   7.9219963148330519E-002
   1.4686796808449226E-003  -2.4104078621112190E-003   7.7125242927993498E-002
   8.5217092013594592E-004  -3.2985286489048971E-003   7.8616897122210316E-002
   2.3566215942696575E-004  -6.0251444868155424E-003   7.9141808419072757E-002
  -3.8084660128200921E-004  -1.0590255375842593E-002   7.8699976818580625E-002
  -9.9735536199098418E-004  -1.6993861315986791E-002   7.7291402320734059E-002
   1.2092930814362225E-005   0.0000000000000000        2.8444392040376010E-002
   1.6665460235691480E-005  -5.1524963043851971E-006   3.3409751586713547E-002
   2.1237989657020085E-005  -1.2038214012114259E-005   3.8383906188163779E-002
   2.5810519078349014E-005  -2.0657153123189789E-005   4.3366855844726715E-002
   3.0383048499677944E-005  -3.1009313637606582E-005   4.8358600556402349E-002
  -6.7881466768456369E-003   0.0000000000000000        2.8504421771079640E-002
  -6.8145762156960653E-003   1.4206496442392517E-004   3.3539983877720947E-002
  -6.8410057545464894E-003   3.1956916367575049E-004   3.8504746792706060E-002
  -6.8674352933969160E-003   5.3251259775547680E-004   4.3398710516034972E-002
  -6.8938648322473426E-003   7.8089526666310412E-004   4.8221875047707655E-002
  -1.3495239607529692E-002   0.0000000000000000        2.8693082734395959E-002
  -1.3632265461420776E-002   2.8928242515223425E-004   3.3836019857572293E-002
  -1.3769291315311861E-002   6.5117654136361437E-004   3.8828563542323495E-002
  -1.3906317169202945E-002   1.0856823486341391E-003   4.3670713788649625E-002
  -1.4043343023094028E-002   1.5927998469638075E-003   4.8362470596550619E-002
  -2.0109185861237801E-002   0.0000000000000000        2.9010374930324965E-002
  -2.0436402276938447E-002   4.3649988588054397E-004   3.4297859526267557E-002
  -2.0763618692639093E-002   9.8278391905147608E-004   3.9355356437016140E-002
  -2.1090835108339739E-002   1.6388520995128017E-003   4.4182865662570694E-002
  -2.1418051524040381E-002   2.4047044272645143E-003   4.8780387202931243E-002
  -2.6629985437969961E-002   0.0000000000000000        2.9456298358866657E-002
  -2.7226986662249077E-002   5.8371734660885369E-004   3.4925502883806754E-002
  -2.7823987886528182E-002   1.3143912967393413E-003   4.0085125476783931E-002
  -2.8420989110807295E-002   2.1920218503914644E-003   4.4935166137798202E-002
  -2.9017990335086404E-002   3.2166090075652189E-003   4.9475624866849553E-002
   3.0383048499677944E-005  -3.1009313637606582E-005   4.8358600556402349E-002
   4.3477391787229928E-005  -4.2166394281767557E-005   5.1529421569922004E-002
   5.6571735074783863E-005  -5.3200093782087557E-005   5.4569893132166161E-002
   6.9666078362337690E-005  -6.4110412138545928E-005   5.7480015243134751E-002
   8.2760421649889782E-005  -7.4897349351184250E-005   6.0259787902827829E-002
  -6.8938648322473426E-003   7.8089526666310412E-004   4.8221875047707655E-002
  -6.9840572379008259E-003   1.0262722248546075E-003   5.1173864815903997E-002
  -7.0742496435543100E-003   1.2301985267859741E-003   5.4049630537493801E-002
  -7.1644420492077933E-003   1.3926741724571900E-003   5.6849172212477123E-002
  -7.2546344548612791E-003   1.5136991618683038E-003   5.9572489840853809E-002
  -1.4043343023094028E-002   1.5927998469638075E-003   4.8362470596550619E-002
  -1.4182696773019558E-002   2.0947108439909891E-003   5.1054055082019663E-002
  -1.4322050522945086E-002   2.5135971473540355E-003   5.3723540925551171E-002
  -1.4461404272870614E-002   2.8494587570529538E-003   5.6370928127145122E-002
  -1.4600758022796144E-002   3.1022956730877536E-003   5.8996216686801529E-002
  -2.1418051524040381E-002   2.4047044272645143E-003   4.8780387202931243E-002
  -2.1552441213568963E-002   3.1631494631273608E-003   5.1169992368269017E-002
  -2.1686830903097542E-002   3.7969957679221144E-003   5.3591624296338201E-002
  -2.1821220592626121E-002   4.3062433416487141E-003   5.6045282987138859E-002
  -2.1955610282154703E-002   4.6908921843072365E-003   5.8530968440670947E-002
  -2.9017990335086404E-002   3.2166090075652189E-003   4.9475624866849553E-002
  -2.9093290559549047E-002   4.2315880822637476E-003   5.1521676674652024E-002
  -2.9168590784011680E-002   5.0803943884901578E-003   5.3653880649854942E-002
  -2.9243891008474313E-002   5.7630279262444774E-003   5.5872236792458292E-002
  -2.9319191232936956E-002   6.2794886955266846E-003   5.8176745102462089E-002
   8.2760421649889782E-005  -7.4897349351184250E-005   6.0259787902827829E-002
   1.1322445044941419E-004  -9.4179556987750851E-005   6.1215715017139044E-002
   1.4368847924893860E-004  -1.3057568661620743E-004   6.2331606254354729E-002
   1.7415250804846258E-004  -1.8408573823642518E-004   6.3607461614474836E-002
   2.0461653684798742E-004  -2.5470971184841928E-004   6.5043281097499392E-002
  -7.2546344548612791E-003   1.5136991618683038E-003   5.9572489840853809E-002
  -7.0836116205854199E-003   1.5978081659573373E-003   6.0475535328125357E-002
  -6.9125887863095703E-003   1.6495358556624269E-003   6.1499734303445124E-002
  -6.7415659520337163E-003   1.6688822309835283E-003   6.2645086766813129E-002
  -6.5705431177578624E-003   1.6558472919206979E-003   6.3911592718229299E-002
  -1.4600758022796144E-002   3.1022956730877536E-003   5.8996216686801529E-002
  -1.4327987017900180E-002   3.2897958889024411E-003   5.9831113154641222E-002
  -1.4055216013004216E-002   3.4296473979410049E-003   6.0748352475672937E-002
  -1.3782445008108253E-002   3.5218502002034814E-003   6.1747934649896634E-002
  -1.3509674003212293E-002   3.5664042956898082E-003   6.2829859677312333E-002
  -2.1955610282154703E-002   4.6908921843072365E-003   5.8530968440670947E-002
  -2.1619901741494852E-002   4.9817836118475440E-003   5.9282448496686659E-002
  -2.1284193200835005E-002   5.2097589402196384E-003   6.0077460771038114E-002
  -2.0948484660175154E-002   5.3748181694234076E-003   6.0916005263725426E-002
  -2.0612776119515310E-002   5.4769612994589358E-003   6.1798081974748439E-002
  -2.9319191232936956E-002   6.2794886955266846E-003   5.8176745102462089E-002
  -2.8959355791369441E-002   6.6737713347926435E-003   5.8829541354261675E-002
  -2.8599520349801930E-002   6.9898704824982120E-003   5.9487059189540781E-002
  -2.8239684908234412E-002   7.2277861386433519E-003   6.0149298608299449E-002
  -2.7879849466666905E-002   7.3875183032280495E-003   6.0816259610537673E-002
   2.0461653684798742E-004  -2.5470971184841928E-004   6.5043281097499392E-002
   3.8236254282724737E-004  -3.3795359824708576E-004   6.5338322552370015E-002
   5.6010854880650905E-004  -4.2932338822705349E-004   6.5940105648917224E-002
   7.3785455478577421E-004  -5.2881908178839792E-004   6.6848630387141186E-002
   9.1560056076503069E-004  -6.3644067893114942E-004   6.8063896767041721E-002
  -6.5705431177578624E-003   1.6558472919206979E-003   6.3911592718229299E-002
  -6.1317127652349155E-003   1.6260932723249841E-003   6.3992414271986764E-002
  -5.6928824127119694E-003   1.5952824060475809E-003   6.4288662877154984E-002
  -5.2540520601890191E-003   1.5634146930884173E-003   6.4800338533733917E-002
  -4.8152217076660765E-003   1.5304901334475818E-003   6.5527441241723508E-002
  -1.3509674003212293E-002   3.5664042956898082E-003   6.2829859677312333E-002
  -1.2901073894411611E-002   3.5901401428970643E-003   6.2703530386856360E-002
  -1.2292473785610922E-002   3.6198882003222414E-003   6.2701313557545157E-002
  -1.1683873676810242E-002   3.6556484679653432E-003   6.2823209189378698E-002
  -1.1075273568009553E-002   3.6974209458263130E-003   6.3069217282357024E-002
  -2.0612776119515310E-002   5.4769612994589358E-003   6.1798081974748439E-002
  -1.9925720844702840E-002   5.5541870134691532E-003   6.1471670896978650E-002
  -1.9238665569890363E-002   5.6444939945969027E-003   6.1178057690087689E-002
  -1.8551610295077885E-002   5.7478822428421996E-003   6.0917242354075488E-002
  -1.7864555020265422E-002   5.8643517582050997E-003   6.0689224888942156E-002
  -2.7879849466666905E-002   7.3875183032280495E-003   6.0816259610537673E-002
  -2.7205653616108598E-002   7.5182338840412075E-003   6.0296835802353704E-002
  -2.6531457765550288E-002   7.6690997888715258E-003   5.9718895274782600E-002
  -2.5857261914991971E-002   7.8401160177190669E-003   5.9082438027824397E-002
  -2.5183066064433664E-002   8.0312825705837754E-003   5.8387464061478989E-002
   9.1560056076503069E-004  -6.3644067893114942E-004   6.8063896767041721E-002
   8.1582426575734293E-004  -7.4400397981695676E-004   6.8729736201413705E-002
   7.1604797074965171E-004  -8.4332478460728832E-004   6.9575783330589613E-002
   6.1627167574196569E-004  -9.3440309330259860E-004   7.0602038154569488E-002
   5.1649538073427273E-004  -1.0172389059022735E-003   7.1808500673353204E-002
  -4.8152217076660765E-003   1.5304901334475818E-003   6.5527441241723508E-002
  -4.7315627213810182E-003   1.4901672522269899E-003   6.5664530020480658E-002
  -4.6479037350959668E-003   1.4361045745286960E-003   6.5988281667019366E-002
  -4.5642447488109094E-003   1.3683021003526030E-003   6.6498696181339620E-002
  -4.4805857625258572E-003   1.2867598296987803E-003   6.7195773563441419E-002
  -1.1075273568009553E-002   3.6974209458263130E-003   6.3069217282357024E-002
  -1.0801724127454154E-002   3.7243384842708879E-003   6.2655573112926355E-002
  -1.0528174686898747E-002   3.7155339336647289E-003   6.2435046984254859E-002
  -1.0254625246343341E-002   3.6710072940077196E-003   6.2407638896342446E-002
  -9.9810758057879458E-003   3.5907585652999729E-003   6.2573348849189261E-002
  -1.7864555020265422E-002   5.8643517582050997E-003   6.0689224888942156E-002
  -1.7394659952462053E-002   5.9585097163147548E-003   5.9702865478750589E-002
  -1.6924764884658692E-002   5.9949632928007097E-003   5.8916079282295787E-002
  -1.6454869816855330E-002   5.9737124876628233E-003   5.8328866299577779E-002
  -1.5984974749051969E-002   5.8947573009010684E-003   5.7941226530596510E-002
  -2.5183066064433664E-002   8.0312825705837754E-003   5.8387464061478989E-002
  -2.4510370196404740E-002   8.1926809483587326E-003   5.6806407117953511E-002
  -2.3837674328375809E-002   8.2743926519367739E-003   5.5431378561142414E-002
  -2.3164978460346868E-002   8.2764176813179893E-003   5.4262378391045737E-002
  -2.2492282592317947E-002   8.1987560365022749E-003   5.3299406607663358E-002
   5.1649538073427273E-004  -1.0172389059022735E-003   7.1808500673353204E-002
   4.3627643874452615E-004  -1.1266764406553109E-003   7.2194063495005401E-002
   3.5605749675478131E-004  -1.2975599158098067E-003   7.2636603723966880E-002
   2.7583855476503907E-004  -1.5298893313659932E-003   7.3136121360237519E-002
   1.9561961277528989E-004  -1.8236646873235340E-003   7.3692616403817357E-002
  -4.4805857625258572E-003   1.2867598296987803E-003   6.7195773563441419E-002
  -4.4513329133513014E-003   1.1792584851374188E-003   6.7080609723077222E-002
  -4.4220800641767352E-003   1.0335787892385567E-003   6.7127412057732497E-002
  -4.3928272150021699E-003   8.4972074200207262E-004   6.7336180567407172E-002
  -4.3635743658276063E-003   6.2768434342819202E-004   6.7706915252101235E-002
  -9.9810758057879458E-003   3.5907585652999729E-003   6.2573348849189261E-002
  -9.7373623977388864E-003   3.4851934109300792E-003   6.1980725935872810E-002
  -9.4936489896898322E-003   3.3647174942867467E-003   6.1655057965285899E-002
  -9.2499355816407745E-003   3.2293308153700257E-003   6.1596344937428438E-002
  -9.0062221735917186E-003   3.0790333741799181E-003   6.1804586852300808E-002
  -1.5984974749051969E-002   5.8947573009010684E-003   5.7941226530596510E-002
  -1.5421812014418248E-002   5.7911283367226910E-003   5.6894412133391803E-002
  -1.4858649279784504E-002   5.6958561993349956E-003   5.6219541446626817E-002
  -1.4295486545150764E-002   5.6089408887380352E-003   5.5916614470301690E-002
  -1.3732323810517035E-002   5.5303824049316441E-003   5.5985631204416235E-002
  -2.2492282592317947E-002   8.1987560365022749E-003   5.3299406607663358E-002
  -2.1504681763389356E-002   8.0970632625155248E-003   5.1821668315634395E-002
  -2.0517080934460748E-002   8.0269949043833416E-003   5.0820862501755493E-002
  -1.9529480105532161E-002   7.9885509621059163E-003   5.0296989166026471E-002
  -1.8541879276603550E-002   7.9817314356833702E-003   5.0250048308447426E-002
   1.9561961277528989E-004  -1.8236646873235340E-003   7.3692616403817357E-002
   5.1388462979269287E-004  -2.1037098803666499E-003   7.3513221289040698E-002
   8.3214964681010625E-004  -2.2948488071788120E-003   7.4025527338144548E-002
   1.1504146638275179E-003  -2.3970814677604438E-003   7.5229534551128907E-002
   1.4686796808449226E-003  -2.4104078621112190E-003   7.7125242927993498E-002
  -4.3635743658276063E-003   6.2768434342819202E-004   6.7706915252101235E-002
  -3.5080461550249381E-003   4.4202587356634293E-004   6.7389548575564395E-002
  -2.6525179442222647E-003   3.6730161246611992E-004   6.7455007122717778E-002
  -1.7969897334195904E-003   4.0351156012760625E-004   6.7903290893561230E-002
  -9.4146152261691610E-004   5.5065571655077417E-004   6.8734399888094710E-002
  -9.0062221735917186E-003   3.0790333741799181E-003   6.1804586852300808E-002
  -7.9223067091941206E-003   2.9877616274993218E-003   6.1371276556534793E-002
  -6.8383912447965165E-003   3.0294520321112323E-003   6.1011915544268422E-002
  -5.7544757803989089E-003   3.2041045880157153E-003   6.0726503815501896E-002
  -4.6705603160013074E-003   3.5117192952126564E-003   6.0515041370235112E-002
  -1.3732323810517035E-002   5.5303824049316441E-003   5.5985631204416235E-002
  -1.2728897032714846E-002   5.5334973814322522E-003   5.5458405231951752E-002
  -1.1725470254912634E-002   5.6916024517562822E-003   5.4696252602796744E-002
  -1.0722043477110442E-002   6.0046976159036838E-003   5.3699173316951065E-002
  -9.7186166993082409E-003   6.4727828738744830E-003   5.2467167374414932E-002
  -1.8541879276603550E-002   7.9817314356833702E-003   5.0250048308447426E-002
  -1.7927817125587109E-002   8.0792331353653490E-003   4.9650934601815411E-002
  -1.7313754974570651E-002   8.3537528714012488E-003   4.8508018298302563E-002
  -1.6699692823554192E-002   8.8052906437918674E-003   4.6821299397908772E-002
  -1.6085630672537744E-002   9.4338464525365318E-003   4.4590777900634038E-002
   1.4686796808449226E-003  -2.4104078621112190E-003   7.7125242927993498E-002
   8.5217092013594592E-004  -3.2985286489048971E-003   7.8616897122210316E-002
   2.3566215942696575E-004  -6.0251444868155424E-003   7.9141808419072757E-002
  -3.8084660128200921E-004  -1.0590255375842593E-002   7.8699976818580625E-002
  -9.9735536199098418E-004  -1.6993861315986791E-002   7.7291402320734059E-002
  -9.4146152261691610E-004   5.5065571655077417E-004   6.8734399888094710E-002
  -2.1658474601562207E-003   2.5456061605294567E-004   6.7848008326053144E-002
  -3.3902333976955235E-003  -1.0389472070482242E-003   6.6712605307705369E-002
  -4.6146193352348220E-003  -3.3298677527528187E-003   6.5328190833051331E-002
  -5.8390052727741310E-003  -6.6182010210608100E-003   6.3694764902091361E-002
  -4.6705603160013074E-003   3.5117192952126564E-003   6.0515041370235112E-002
  -5.7850919893226290E-003   3.8076498810108994E-003   5.8091686380448398E-002
  -6.8996236626439533E-003   3.9472500727190246E-003   5.6137051375403632E-002
  -8.0141553359652784E-003   3.9305198703369799E-003   5.4651136355101305E-002
  -9.1286870092866061E-003   3.7574592738650603E-003   5.3633941319540857E-002
  -9.7186166993082409E-003   6.4727828738744830E-003   5.2467167374414932E-002
  -1.0005562667363278E-002   7.3607391459687421E-003   4.9347931285396371E-002
  -1.0292508635418305E-002   8.9334473524861971E-003   4.7415146622168378E-002
  -1.0579454603473312E-002   1.1190907493426933E-002   4.6668813384730612E-002
  -1.0866400571528361E-002   1.4133119568790986E-002   4.7108931573083448E-002
  -1.6085630672537744E-002   9.4338464525365318E-003   4.4590777900634038E-002
  -1.4827259494278152E-002   1.0913828410926640E-002   4.1616743040897075E-002
  -1.3568888316018581E-002   1.3919644632253564E-002   4.0546891047998745E-002
  -1.2310517137759002E-002   1.8451295116516768E-002   4.1381221921939326E-002
  -1.1052145959499410E-002   2.4508779863716912E-002   4.4119735662718540E-002
  -2.6629985437969961E-002   0.0000000000000000        2.9456298358866657E-002
  -2.7226986662249077E-002   5.8371734660885369E-004   3.4925502883806754E-002
  -2.7823987886528182E-002   1.3143912967393413E-003   4.0085125476783931E-002
  -2.8420989110807295E-002   2.1920218503914644E-003   4.4935166137798202E-002
  -2.9017990335086404E-002   3.2166090075652189E-003   4.9475624866849553E-002
  -3.3393341070443568E-002   0.0000000000000000        3.0165084759740779E-002
  -3.4234850945456308E-002   9.5895770064497073E-004   3.5246206022956916E-002
  -3.5076360820469055E-002   2.0211632887794763E-003   4.0147891916668690E-002
  -3.5917870695481795E-002   3.1866167644035194E-003   4.4870142440876129E-002
  -3.6759380570494549E-002   4.4553181275170991E-003   4.9412957595579218E-002
  -4.0734955491375999E-002   0.0000000000000000        3.1270965872667061E-002
  -4.1690827454663806E-002   1.3341980546810878E-003   3.5920295158127134E-002
  -4.2646699417951628E-002   2.7279352808196140E-003   4.0520335636541421E-002
  -4.3602571381239429E-002   4.1812116784155761E-003   4.5071087307909929E-002
  -4.4558443344527243E-002   5.6940272474689749E-003   4.9572550172232666E-002
  -4.8654828700767275E-002   0.0000000000000000        3.2773941697645519E-002
  -4.9594916189871587E-002   1.7094384087172070E-003   3.6947770289317429E-002
  -5.0535003678975891E-002   3.4347072728597517E-003   4.1202456636402124E-002
  -5.1475091168080196E-002   5.1758065924276250E-003   4.5538000738899603E-002
  -5.2415178657184501E-002   6.9327363674208569E-003   4.9954402596809860E-002
  -5.7152960698617382E-002   0.0000000000000000        3.4674012234676137E-002
  -5.7947117151079620E-002   2.0846787627533227E-003   3.8328631416527786E-002
  -5.8741273603541852E-002   4.1414792648998867E-003   4.2194254916250784E-002
  -5.9535430056004091E-002   6.1704015064396860E-003   4.6270882733845137E-002
  -6.0329586508466336E-002   8.1714454873727319E-003   5.0558514869310844E-002
  -2.9017990335086404E-002   3.2166090075652189E-003   4.9475624866849553E-002
  -2.9093290559549047E-002   4.2315880822637476E-003   5.1521676674652024E-002
  -2.9168590784011680E-002   5.0803943884901578E-003   5.3653880649854942E-002
  -2.9243891008474313E-002   5.7630279262444774E-003   5.5872236792458292E-002
  -2.9319191232936956E-002   6.2794886955266846E-003   5.8176745102462089E-002
  -3.6759380570494549E-002   4.4553181275170991E-003   4.9412957595579218E-002
  -3.6784327621031065E-002   5.6884085825451344E-003   5.1195216635216451E-002
  -3.6809274671567582E-002   6.7470293339126040E-003   5.2992029855305475E-002
  -3.6834221722104113E-002   7.6311803816194309E-003   5.4803397255846313E-002
  -3.6859168772640637E-002   8.3408617256656853E-003   5.6629318836838902E-002
  -4.4558443344527243E-002   5.6940272474689749E-003   4.9572550172232666E-002
  -4.4604635208086302E-002   7.1452290828265411E-003   5.1082719508516165E-002
  -4.4650827071645360E-002   8.4136642793350147E-003   5.2535845038302810E-002
  -4.4697018935204412E-002   9.4993328369944053E-003   5.3931926761592593E-002
  -4.4743210798763471E-002   1.0402234755804676E-002   5.5270964678385527E-002
  -5.2415178657184501E-002   6.9327363674208569E-003   4.9954402596809860E-002
  -5.2554213320714742E-002   8.6020495831079374E-003   5.1184185294551141E-002
  -5.2693247984244990E-002   1.0080299224757436E-002   5.2285326198846883E-002
  -5.2832282647775231E-002   1.1367485292369348E-002   5.3257825309697138E-002
  -5.2971317311305458E-002   1.2463607785943671E-002   5.4101682627101896E-002
  -6.0329586508466336E-002   8.1714454873727319E-003   5.0558514869310844E-002
  -6.0633061958916400E-002   1.0058870083389331E-002   5.1499613993321383E-002
  -6.0936537409366470E-002   1.1746934170179871E-002   5.2240473336937772E-002
  -6.1240012859816548E-002   1.3235637747744316E-002   5.2781092900160018E-002
  -6.1543488310266611E-002   1.4524980816082660E-002   5.3121472682988079E-002
  -2.9319191232936956E-002   6.2794886955266846E-003   5.8176745102462089E-002
  -2.8959355791369441E-002   6.6737713347926435E-003   5.8829541354261675E-002
  -2.8599520349801930E-002   6.9898704824982120E-003   5.9487059189540781E-002
  -2.8239684908234412E-002   7.2277861386433519E-003   6.0149298608299449E-002
  -2.7879849466666905E-002   7.3875183032280495E-003   6.0816259610537673E-002
  -3.6859168772640637E-002   8.3408617256656853E-003   5.6629318836838902E-002
  -3.6437899282630748E-002   8.8894598247256235E-003   5.6881822928245909E-002
  -3.6016629792620866E-002   9.2903611374735191E-003   5.7252473533058144E-002
  -3.5595360302610977E-002   9.5435656639093550E-003   5.7741270651275552E-002
  -3.5174090812601082E-002   9.6490734040331483E-003   5.8348214282898152E-002
  -4.4743210798763471E-002   1.0402234755804676E-002   5.5270964678385527E-002
  -4.4147082330385556E-002   1.1105148314658564E-002   5.5053663314648338E-002
  -4.3550953862007656E-002   1.1590851792448825E-002   5.5067933394242014E-002
  -4.2954825393629770E-002   1.1859345189175374E-002   5.5313774917166519E-002
  -4.2358696925251849E-002   1.1910628504838296E-002   5.5791187883421869E-002
  -5.2971317311305458E-002   1.2463607785943671E-002   5.4101682627101896E-002
  -5.2086904934633894E-002   1.3320836804591524E-002   5.3345062513468926E-002
  -5.1202492557962311E-002   1.3891342447424069E-002   5.2933438773092409E-002
  -5.0318080181290761E-002   1.4175124714441397E-002   5.2866811405972394E-002
  -4.9433667804619191E-002   1.4172183605643377E-002   5.3145180412108854E-002
  -6.1543488310266611E-002   1.4524980816082660E-002   5.3121472682988079E-002
  -6.0257367095375741E-002   1.5536525294524487E-002   5.1756020524707652E-002
  -5.8971245880484871E-002   1.6191833102399446E-002   5.0848989669609337E-002
  -5.7685124665594001E-002   1.6490904239707414E-002   5.0400380117693176E-002
  -5.6399003450703131E-002   1.6433738706448542E-002   5.0410191868959148E-002
  -2.7879849466666905E-002   7.3875183032280495E-003   6.0816259610537673E-002
  -2.7205653616108598E-002   7.5182338840412075E-003   6.0296835802353704E-002
  -2.6531457765550288E-002   7.6690997888715258E-003   5.9718895274782600E-002
  -2.5857261914991971E-002   7.8401160177190669E-003   5.9082438027824397E-002
  -2.5183066064433664E-002   8.0312825705837754E-003   5.8387464061478989E-002
  -3.5174090812601082E-002   9.6490734040331483E-003   5.8348214282898152E-002
  -3.4498294126078639E-002   9.6746606685078965E-003   5.8002546342864399E-002
  -3.3822497439556204E-002   9.6881037679965379E-003   5.7718596794146065E-002
  -3.3146700753033775E-002   9.6894027024990396E-003   5.7496365636743041E-002
  -3.2470904066511333E-002   9.6785574720154866E-003   5.7335852870655513E-002
  -4.2358696925251849E-002   1.1910628504838296E-002   5.5791187883421869E-002
  -4.1561064292062765E-002   1.1831087452974672E-002   5.5586981322535041E-002
  -4.0763431658873681E-002   1.1707107747121576E-002   5.5564728263666117E-002
  -3.9965799025684604E-002   1.1538689387279094E-002   5.5724428706815106E-002
  -3.9168166392495513E-002   1.1325832373447198E-002   5.6066082651982013E-002
  -4.9433667804619191E-002   1.4172183605643377E-002   5.3145180412108854E-002
  -4.8393964114060925E-002   1.3987514237441391E-002   5.3050140741365645E-002
  -4.7354260423502673E-002   1.3726111726246683E-002   5.3257289683342847E-002
  -4.6314556732944420E-002   1.3387976072059122E-002   5.3766627238040501E-002
  -4.5274853042386168E-002   1.2973107274878881E-002   5.4578153405458622E-002
  -5.6399003450703131E-002   1.6433738706448542E-002   5.0410191868959148E-002
  -5.4996993592073169E-002   1.6143941021908116E-002   5.0392024599356156E-002
  -5.3594983733443194E-002   1.5745115705371591E-002   5.0796281053176254E-002
  -5.2192973874813246E-002   1.5237262756839167E-002   5.1622961230419158E-002
  -5.0790964016183271E-002   1.4620382176310592E-002   5.2872065131085139E-002
  -2.5183066064433664E-002   8.0312825705837754E-003   5.8387464061478989E-002
  -2.4510370196404740E-002   8.1926809483587326E-003   5.6806407117953511E-002
  -2.3837674328375809E-002   8.2743926519367739E-003   5.5431378561142414E-002
  -2.3164978460346868E-002   8.2764176813179893E-003   5.4262378391045737E-002
  -2.2492282592317947E-002   8.1987560365022749E-003   5.3299406607663358E-002
  -3.2470904066511333E-002   9.6785574720154866E-003   5.7335852870655513E-002
  -3.1593955962038123E-002   9.6347357991774796E-003   5.6276847755993620E-002
  -3.0717007857564940E-002   9.5371054066165292E-003   5.5420318727505885E-002
  -2.9840059753091727E-002   9.3856662943329529E-003   5.4766265785192406E-002
  -2.8963111648618544E-002   9.1804184623264784E-003   5.4314688929053029E-002
  -3.9168166392495513E-002   1.1325832373447198E-002   5.6066082651982013E-002
  -3.8090518352118199E-002   1.1076790649996199E-002   5.5555007320657761E-002
  -3.7012870311740907E-002   1.0799818161296451E-002   5.5242855774967528E-002
  -3.5935222271363629E-002   1.0494914907347972E-002   5.5129628014911246E-002
  -3.4857574230986309E-002   1.0162080888150765E-002   5.5215324040489011E-002
  -4.5274853042386168E-002   1.2973107274878881E-002   5.4578153405458622E-002
  -4.4000057366644946E-002   1.2518845500814904E-002   5.4640885811946059E-002
  -4.2725261690903772E-002   1.2062530915976317E-002   5.4898989703527343E-002
  -4.1450466015162592E-002   1.1604163520362991E-002   5.5352465080202432E-002
  -4.0175670339421404E-002   1.1143743313975010E-002   5.6001311941971263E-002
  -5.0790964016183271E-002   1.4620382176310592E-002   5.2872065131085139E-002
  -4.9322573005618389E-002   1.3960900351633665E-002   5.3534483229858376E-002
  -4.7854181995053480E-002   1.3325243670656149E-002   5.4388720513185204E-002
  -4.6385790984488570E-002   1.2713412133377974E-002   5.5434776981065630E-002
  -4.4917399973923688E-002   1.2125405739799311E-002   5.6672652633499743E-002
  -2.2492282592317947E-002   8.1987560365022749E-003   5.3299406607663358E-002
  -2.1504681763389356E-002   8.0970632625155248E-003   5.1821668315634395E-002
  -2.0517080934460748E-002   8.0269949043833416E-003   5.0820862501755493E-002
  -1.9529480105532161E-002   7.9885509621059163E-003   5.0296989166026471E-002
  -1.8541879276603550E-002   7.9817314356833702E-003   5.0250048308447426E-002
  -2.8963111648618544E-002   9.1804184623264784E-003   5.4314688929053029E-002
  -2.7557443226932501E-002   8.9574179311939228E-003   5.3379416094227083E-002
  -2.6151774805246483E-002   8.7527207215323810E-003   5.2803345966766030E-002
  -2.4746106383560444E-002   8.5663268333413950E-003   5.2586478546669840E-002
  -2.3340437961874412E-002   8.3982362666212840E-003   5.2728813833938570E-002
  -3.4857574230986309E-002   1.0162080888150765E-002   5.5215324040489011E-002
  -3.3151567987327935E-002   9.8177725998725707E-003   5.4809195568482072E-002
  -3.1445561743669581E-002   9.4784465386812608E-003   5.4644540033054988E-002
  -2.9739555500011221E-002   9.1441027045768199E-003   5.4721357434207779E-002
  -2.8033549256352853E-002   8.8147410975593088E-003   5.5039647771940176E-002
  -4.0175670339421404E-002   1.1143743313975010E-002   5.6001311941971263E-002
  -3.8287056044575746E-002   1.0678127268551121E-002   5.6111006738399485E-002
  -3.6398441749730066E-002   1.0204172355830193E-002   5.6344444700622477E-002
  -3.4509827454884401E-002   9.7218785758122726E-003   5.6701625828640224E-002
  -3.2621213160038721E-002   9.2312459284973059E-003   5.7182550122452720E-002
  -4.4917399973923688E-002   1.2125405739799311E-002   5.6672652633499743E-002
  -4.2963907398675796E-002   1.1538481937229644E-002   5.7284849603979143E-002
  -4.1010414823427932E-002   1.0929898172979152E-002   5.7903059969468262E-002
  -3.9056922248180054E-002   1.0299654447047689E-002   5.8527283729967072E-002
  -3.7103429672932176E-002   9.6477507594353029E-003   5.9157520885475712E-002
  -1.8541879276603550E-002   7.9817314356833702E-003   5.0250048308447426E-002
  -1.7927817125587109E-002   8.0792331353653490E-003   4.9650934601815411E-002
  -1.7313754974570651E-002   8.3537528714012488E-003   4.8508018298302563E-002
  -1.6699692823554192E-002   8.8052906437918674E-003   4.6821299397908772E-002
  -1.6085630672537744E-002   9.4338464525365318E-003   4.4590777900634038E-002
  -2.3340437961874412E-002   8.3982362666212840E-003   5.2728813833938570E-002
  -2.3102141092943097E-002   8.2852808771201047E-003   5.2537677367555519E-002
  -2.2863844224011769E-002   8.2642925205858864E-003   5.2138812933883089E-002
  -2.2625547355080454E-002   8.3352711970187607E-003   5.1532220532921377E-002
  -2.2387250486149132E-002   8.4982169064183877E-003   5.0717900164670371E-002
  -2.8033549256352853E-002   8.8147410975593088E-003   5.5039647771940176E-002
  -2.7834943039915058E-002   8.4913286188750547E-003   5.5171437542418877E-002
  -2.7636336823477266E-002   8.1748321697704268E-003   5.5431573975199738E-002
  -2.7437730607039471E-002   7.8652517502456575E-003   5.5820057070282821E-002
  -2.7239124390601683E-002   7.5625873603004656E-003   5.6336886827668103E-002
  -3.2621213160038721E-002   9.2312459284973059E-003   5.7182550122452720E-002
  -3.2126222966502957E-002   8.6973763606299076E-003   5.7552215126405591E-002
  -3.1631232772967116E-002   8.0853718189550991E-003   5.8386301422252332E-002
  -3.1136242579431310E-002   7.3952323034723860E-003   5.9684809009992845E-002
  -3.0641252385895476E-002   6.6269578141823215E-003   6.1447737889627284E-002
  -3.7103429672932176E-002   9.6477507594353029E-003   5.9157520885475712E-002
  -3.5975980872706759E-002   8.9034241023847882E-003   5.9680010119515625E-002
  -3.4848532072481328E-002   7.9959114681395910E-003   6.1002995275040967E-002
  -3.3721083272255890E-002   6.9252128566994996E-003   6.3126476352051583E-002
  -3.2593634472030480E-002   5.6913282680643995E-003   6.6050453350547822E-002
  -1.6085630672537744E-002   9.4338464525365318E-003   4.4590777900634038E-002
  -1.4827259494278152E-002   1.0913828410926640E-002   4.1616743040897075E-002
  -1.3568888316018581E-002   1.3919644632253564E-002   4.0546891047998745E-002
  -1.2310517137759002E-002   1.8451295116516768E-002   4.1381221921939326E-002
  -1.1052145959499410E-002   2.4508779863716912E-002   4.4119735662718540E-002
  -2.2387250486149132E-002   8.4982169064183877E-003   5.0717900164670371E-002
  -1.9629700728532370E-002   9.0426989896483512E-003   4.9887076915425460E-002
  -1.6872150970915607E-002   1.0258286787571319E-002   5.0150427958055993E-002
  -1.4114601213298874E-002   1.2144980300187201E-002   5.1507953292561956E-002
  -1.1357051455682082E-002   1.4702779527496435E-002   5.3959652918944001E-002
  -2.7239124390601683E-002   7.5625873603004656E-003   5.6336886827668103E-002
  -2.3792404628590960E-002   7.1715695683699232E-003   5.6794546640671656E-002
  -2.0345684866580227E-002   6.5969289428889771E-003   5.7536372170587630E-002
  -1.6898965104569560E-002   5.8386654838575823E-003   5.8562363417415698E-002
  -1.3452245342558834E-002   4.8967791912758463E-003   5.9872520381156702E-002
  -3.0641252385895476E-002   6.6269578141823215E-003   6.1447737889627284E-002
  -2.7315371194453979E-002   5.3004401470916201E-003   6.2339152216635767E-002
  -2.3989490003012450E-002   2.9355710982067948E-003   6.2704723685593475E-002
  -2.0663608811571040E-002  -4.6764933247195502E-004   6.2544452296500172E-002
  -1.7337727620129455E-002  -4.9092211449446865E-003   6.1858338049356518E-002
  -3.2593634472030480E-002   5.6913282680643995E-003   6.6050453350547822E-002
  -3.0198600426121436E-002   3.4293107258132616E-003   6.6520893643317813E-002
  -2.7803566380212322E-002  -7.2578674647558183E-004   6.5655482503073848E-002
  -2.5408532334303256E-002  -6.7739641488017074E-003   6.3454219929815786E-002
  -2.3013498288394163E-002  -1.4715221481165219E-002   5.9917105923543934E-002
  -5.7152960698617382E-002   0.0000000000000000        3.4674012234676137E-002
  -5.7947117151079620E-002   2.0846787627533227E-003   3.8328631416527786E-002
  -5.8741273603541852E-002   4.1414792648998867E-003   4.2194254916250784E-002
  -5.9535430056004091E-002   6.1704015064396860E-003   4.6270882733845137E-002
  -6.0329586508466336E-002   8.1714454873727319E-003   5.0558514869310844E-002
  -6.5819411700879668E-002   0.0000000000000000        3.7195120322580308E-002
  -6.6630728712555390E-002   2.9156065816081716E-003   4.0821264575534755E-002
  -6.7442045724231098E-002   5.7752297609294087E-003   4.4202083392190894E-002
  -6.8253362735906806E-002   8.5788695379637146E-003   4.7337576772548733E-002
  -6.9064679747582514E-002   1.1326525912711091E-002   5.0227744716608257E-002
  -7.4244241923507481E-002   0.0000000000000000        4.0561208800179417E-002
  -7.5529049248566321E-002   3.7465344004630201E-003   4.4130772982556486E-002
  -7.6813856573625161E-002   7.4089802569589349E-003   4.6998681974465599E-002
  -7.8098663898684029E-002   1.0987337569487738E-002   4.9164935775906728E-002
  -7.9383471223742855E-002   1.4481606338049447E-002   5.0629534386879935E-002
  -8.2427451366500815E-002   0.0000000000000000        4.4772277667473458E-002
  -8.4642078759112463E-002   4.5774622193178677E-003   4.8257156637592981E-002
  -8.6856706151724097E-002   9.0427307529884551E-003   5.0584050663074878E-002
  -8.9071333544335732E-002   1.3395805601011767E-002   5.1752959743919177E-002
  -9.1285960936947352E-002   1.7636686763387810E-002   5.1763883880125830E-002
  -9.0369040029859682E-002   0.0000000000000000        4.9828326924462429E-002
  -9.3969817244193760E-002   5.4083900381727175E-003   5.3200415540644239E-002
  -9.7570594458527851E-002   1.0676481249017981E-002   5.4958189458018766E-002
 -0.10117137167286193        1.5804273632535795E-002   5.5101648676586013E-002
 -0.10477214888719601        2.0791767188726166E-002   5.3630793196345991E-002
  -6.0329586508466336E-002   8.1714454873727319E-003   5.0558514869310844E-002
  -6.0633061958916400E-002   1.0058870083389331E-002   5.1499613993321383E-002
  -6.0936537409366470E-002   1.1746934170179871E-002   5.2240473336937772E-002
  -6.1240012859816548E-002   1.3235637747744316E-002   5.2781092900160018E-002
  -6.1543488310266611E-002   1.4524980816082660E-002   5.3121472682988079E-002
  -6.9064679747582514E-002   1.1326525912711091E-002   5.0227744716608257E-002
  -6.9333482752705566E-002   1.3776349776694657E-002   4.9450536765062440E-002
  -6.9602285757828591E-002   1.5686492021437511E-002   4.8942913484564803E-002
  -6.9871088762951658E-002   1.7056952646939686E-002   4.8704874875115371E-002
  -7.0139891768074697E-002   1.7887731653201164E-002   4.8736420936714125E-002
  -7.9383471223742855E-002   1.4481606338049447E-002   5.0629534386879935E-002
  -7.9147777332096519E-002   1.7493829469999955E-002   4.7793698249763143E-002
  -7.8912083440450226E-002   1.9626049872695152E-002   4.5697271235136894E-002
  -7.8676389548803891E-002   2.0878267546135077E-002   4.4340253343001151E-002
  -7.8440695657157569E-002   2.1250482490319713E-002   4.3722644573356062E-002
  -9.1285960936947352E-002   1.7636686763387810E-002   5.1763883880125830E-002
  -9.0075945697089294E-002   2.1211309163305252E-002   4.6529098447423464E-002
  -8.8865930457231221E-002   2.3565607723952813E-002   4.2503546588654004E-002
  -8.7655915217373176E-002   2.4699582445330489E-002   3.9687228303817434E-002
  -8.6445899977515131E-002   2.4613233327438228E-002   3.8080143592913777E-002
 -0.10477214888719601        2.0791767188726166E-002   5.3630793196345991E-002
 -0.10211798784768386        2.4928788856610574E-002   4.5656737358043431E-002
  -9.9463826808171715E-002   2.7505165575210433E-002   3.9361739545116139E-002
  -9.6809665768659584E-002   2.8520897344525863E-002   3.4745799757564130E-002
  -9.4155504729147438E-002   2.7975984164556780E-002   3.1808917995387376E-002
  -6.1543488310266611E-002   1.4524980816082660E-002   5.3121472682988079E-002
  -6.0257367095375741E-002   1.5536525294524487E-002   5.1756020524707652E-002
  -5.8971245880484871E-002   1.6191833102399446E-002   5.0848989669609337E-002
  -5.7685124665594001E-002   1.6490904239707414E-002   5.0400380117693176E-002
  -5.6399003450703131E-002   1.6433738706448542E-002   5.0410191868959148E-002
  -7.0139891768074697E-002   1.7887731653201164E-002   4.8736420936714125E-002
  -6.8439969393143951E-002   1.8345835403349015E-002   4.7340995422239990E-002
  -6.6740047018213233E-002   1.8598270260510388E-002   4.6314750924663459E-002
  -6.5040124643282515E-002   1.8645036224685215E-002   4.5657687443984518E-002
  -6.3340202268351783E-002   1.8486133295873508E-002   4.5369804980203245E-002
  -7.8440695657157569E-002   2.1250482490319713E-002   4.3722644573356062E-002
  -7.6416212408471462E-002   2.1155145512173623E-002   4.2447813480268576E-002
  -7.4391729159785397E-002   2.1004707418621375E-002   4.1452923117794173E-002
  -7.2367245911099304E-002   2.0799168209662999E-002   4.0737973485932846E-002
  -7.0342762662413211E-002   2.0538527885298502E-002   4.0302964584684596E-002
  -8.6445899977515131E-002   2.4613233327438228E-002   3.8080143592913777E-002
  -8.4186096141358191E-002   2.3964455620998172E-002   3.7076474698793341E-002
  -8.1926292305201306E-002   2.3411144576732344E-002   3.6263506249001487E-002
  -7.9666488469044408E-002   2.2953300194640779E-002   3.5641238243538161E-002
  -7.7406684632887496E-002   2.2590922474723496E-002   3.5209670682403500E-002
  -9.4155504729147438E-002   2.7975984164556780E-002   3.1808917995387376E-002
  -9.1749620591804207E-002   2.6773765729822766E-002   3.1226979077814382E-002
  -8.9343736454461031E-002   2.5817581734843314E-002   3.0746500318285470E-002
  -8.6937852317117800E-002   2.5107432179618593E-002   3.0367481716800492E-002
  -8.4531968179774611E-002   2.4643317064148490E-002   3.0089923273359659E-002
  -5.6399003450703131E-002   1.6433738706448542E-002   5.0410191868959148E-002
  -5.4996993592073169E-002   1.6143941021908116E-002   5.0392024599356156E-002
  -5.3594983733443194E-002   1.5745115705371591E-002   5.0796281053176254E-002
  -5.2192973874813246E-002   1.5237262756839167E-002   5.1622961230419158E-002
  -5.0790964016183271E-002   1.4620382176310592E-002   5.2872065131085139E-002
  -6.3340202268351783E-002   1.8486133295873508E-002   4.5369804980203245E-002
  -6.1552633508448057E-002   1.8173929813393726E-002   4.5148431388865366E-002
  -5.9765064748544379E-002   1.7760794116564338E-002   4.5275751876652073E-002
  -5.7977495988640659E-002   1.7246726205385449E-002   4.5751766443563213E-002
  -5.6189927228736961E-002   1.6631726079856884E-002   4.6576475089598945E-002
  -7.0342762662413211E-002   2.0538527885298502E-002   4.0302964584684596E-002
  -6.8243364645534238E-002   2.0203918604879318E-002   3.9886480089258360E-002
  -6.6143966628655265E-002   1.9776472527757088E-002   3.9744960028658211E-002
  -6.4044568611776292E-002   1.9256189653931634E-002   3.9878404402884086E-002
  -6.1945170594897347E-002   1.8643069983403135E-002   4.0286813211936050E-002
  -7.7406684632887496E-002   2.2590922474723496E-002   3.5209670682403500E-002
  -7.5069187003331705E-002   2.2233907396364931E-002   3.4606170700535260E-002
  -7.2731689373775887E-002   2.1792150938949782E-002   3.4203905509194721E-002
  -7.0394191744220083E-002   2.1265653102477921E-002   3.4002875108381694E-002
  -6.8056694114664321E-002   2.0654413886949406E-002   3.4003079498096306E-002
  -8.4531968179774611E-002   2.4643317064148490E-002   3.0089923273359659E-002
  -8.2030100581840459E-002   2.4263896187850548E-002   2.9307503222696013E-002
  -7.9528232983906266E-002   2.3807829350142522E-002   2.8652588318261507E-002
  -7.7026365385972101E-002   2.3275116551024141E-002   2.8125178560056099E-002
  -7.4524497788037908E-002   2.2665757790495678E-002   2.7725273948079887E-002
  -5.0790964016183271E-002   1.4620382176310592E-002   5.2872065131085139E-002
  -4.9322573005618389E-002   1.3960900351633665E-002   5.3534483229858376E-002
  -4.7854181995053480E-002   1.3325243670656149E-002   5.4388720513185204E-002
  -4.6385790984488570E-002   1.2713412133377974E-002   5.5434776981065630E-002
  -4.4917399973923688E-002   1.2125405739799311E-002   5.6672652633499743E-002
  -5.6189927228736961E-002   1.6631726079856884E-002   4.6576475089598945E-002
  -5.4536882950446036E-002   1.5974722027020480E-002   4.6895821869654658E-002
  -5.2883838672155070E-002   1.5334642333918180E-002   4.7392656000608824E-002
  -5.1230794393864111E-002   1.4711487000549792E-002   4.8066977482461429E-002
  -4.9577750115573194E-002   1.4105256026915342E-002   4.8918786315212598E-002
  -6.1945170594897347E-002   1.8643069983403135E-002   4.0286813211936050E-002
  -6.0121804882535448E-002   1.7988543702407295E-002   4.0256187889308778E-002
  -5.8298439170173556E-002   1.7344040997180132E-002   4.0388718083924940E-002
  -5.6475073457811706E-002   1.6709561867721445E-002   4.0684403795784356E-002
  -5.4651707745449821E-002   1.6085106314031400E-002   4.1143245024887198E-002
  -6.8056694114664321E-002   2.0654413886949406E-002   3.4003079498096306E-002
  -6.6077338801886626E-002   2.0002365377794082E-002   3.3615581288820806E-002
  -6.4097983489108973E-002   1.9353439660442097E-002   3.3376906763133422E-002
  -6.2118628176331299E-002   1.8707636734893177E-002   3.3287055921034370E-002
  -6.0139272863553625E-002   1.8064956601147444E-002   3.3346028762523523E-002
  -7.4524497788037908E-002   2.2665757790495678E-002   2.7725273948079887E-002
  -7.2403484708499610E-002   2.2016187053180980E-002   2.6974002068190617E-002
  -7.0282471628961243E-002   2.1362838323704073E-002   2.6357222038234512E-002
  -6.8161458549422904E-002   2.0705711602064889E-002   2.5874933858211352E-002
  -6.6040445469884607E-002   2.0044806888263544E-002   2.5527137528121413E-002
  -4.4917399973923688E-002   1.2125405739799311E-002   5.6672652633499743E-002
  -4.2963907398675796E-002   1.1538481937229644E-002   5.7284849603979143E-002
  -4.1010414823427932E-002   1.0929898172979152E-002   5.7903059969468262E-002
  -3.9056922248180054E-002   1.0299654447047689E-002   5.8527283729967072E-002
  -3.7103429672932176E-002   9.6477507594353029E-003   5.9157520885475712E-002
  -4.9577750115573194E-002   1.4105256026915342E-002   4.8918786315212598E-002
  -4.7576980501969929E-002   1.3497567551185183E-002   4.9137889778007496E-002
  -4.5576210888366588E-002   1.2870039711529620E-002   4.9445533922503490E-002
  -4.3575441274763288E-002   1.2222672507948758E-002   4.9841718748700685E-002
  -4.1574671661160051E-002   1.1555465940442489E-002   5.0326444256598962E-002
  -5.4651707745449821E-002   1.6085106314031400E-002   4.1143245024887198E-002
  -5.2521133806799611E-002   1.5456653165140735E-002   4.0971075577753015E-002
  -5.0390559868149463E-002   1.4810181250080143E-002   4.0969974099011500E-002
  -4.8259985929499316E-002   1.4145690568849827E-002   4.1139940588662556E-002
  -4.6129411990849113E-002   1.3463181121449591E-002   4.1480975046706239E-002
  -6.0139272863553625E-002   1.8064956601147444E-002   3.3346028762523523E-002
  -5.7796367313165113E-002   1.7415738779096364E-002   3.2784407003215846E-002
  -5.5453461762776567E-002   1.6750322788630749E-002   3.2476380498992208E-002
  -5.3110556212388013E-002   1.6068708629750898E-002   3.2421949249852776E-002
  -5.0767650661999501E-002   1.5370896302456735E-002   3.2621113255797321E-002
  -6.6040445469884607E-002   2.0044806888263544E-002   2.5527137528121413E-002
  -6.3402681021066221E-002   1.9374824393051798E-002   2.4577884054395760E-002
  -6.0764916572247876E-002   1.8690464327181133E-002   2.3964753122445809E-002
  -5.8127152123429497E-002   1.7991726690651938E-002   2.3687744732271199E-002
  -5.5489387674611146E-002   1.7278611483463935E-002   2.3746858883872290E-002
  -3.7103429672932176E-002   9.6477507594353029E-003   5.9157520885475712E-002
  -3.5975980872706759E-002   8.9034241023847882E-003   5.9680010119515625E-002
  -3.4848532072481328E-002   7.9959114681395910E-003   6.1002995275040967E-002
  -3.3721083272255890E-002   6.9252128566994996E-003   6.3126476352051583E-002
  -3.2593634472030480E-002   5.6913282680643995E-003   6.6050453350547822E-002
  -4.1574671661160051E-002   1.1555465940442489E-002   5.0326444256598962E-002
  -3.9777903578843588E-002   1.0826184183043347E-002   5.0500510013255784E-002
  -3.7981135496527103E-002   9.9925914097841878E-003   5.1212718412609284E-002
  -3.6184367414210675E-002   9.0546876206651743E-003   5.2463069454659415E-002
  -3.4387599331894225E-002   8.0124728156860670E-003   5.4251563139406045E-002
  -4.6129411990849113E-002   1.3463181121449591E-002   4.1480975046706239E-002
  -4.3925677905230394E-002   1.2748944263701781E-002   4.1365492287314773E-002
  -4.1721943819611709E-002   1.1989271351428958E-002   4.1525798891831230E-002
  -3.9518209733993045E-002   1.1184162384630851E-002   4.1961894860255491E-002
  -3.7314475648374291E-002   1.0333617363307512E-002   4.2673780192587690E-002
  -5.0767650661999501E-002   1.5370896302456735E-002   3.2621113255797321E-002
  -4.8419303851867296E-002   1.4671704344360360E-002   3.2274956941692440E-002
  -4.6070957041735104E-002   1.3985951293073531E-002   3.1942236712706740E-002
  -4.3722610231602864E-002   1.3313637148596472E-002   3.1622952568840193E-002
  -4.1374263421470707E-002   1.2654761910929013E-002   3.1317104510092751E-002
  -5.5489387674611146E-002   1.7278611483463935E-002   2.3746858883872290E-002
  -5.3258781418754231E-002   1.6594464425018801E-002   2.3228903976388937E-002
  -5.1028175162897288E-002   1.5982631234718284E-002   2.2462031875235905E-002
  -4.8797568907040331E-002   1.5443111912562302E-002   2.1446242580413249E-002
  -4.6566962651183430E-002   1.4975906458550625E-002   2.0181536091920860E-002
  -3.2593634472030480E-002   5.6913282680643995E-003   6.6050453350547822E-002
  -3.0198600426121436E-002   3.4293107258132616E-003   6.6520893643317813E-002
  -2.7803566380212322E-002  -7.2578674647558183E-004   6.5655482503073848E-002
  -2.5408532334303256E-002  -6.7739641488017074E-003   6.3454219929815786E-002
  -2.3013498288394163E-002  -1.4715221481165219E-002   5.9917105923543934E-002
  -3.4387599331894225E-002   8.0124728156860670E-003   5.4251563139406045E-002
  -3.3013484511539688E-002   6.3907477064397422E-003   5.2430129421663613E-002
  -3.1639369691185158E-002   3.7143130045196593E-003   4.9902708685825997E-002
  -3.0265254870830548E-002  -1.6831290074757754E-005   4.6669300931893476E-002
  -2.8891140050476105E-002  -4.8026851773428358E-003   4.2729906159865827E-002
  -3.7314475648374291E-002   1.0333617363307512E-002   4.2673780192587690E-002
  -3.6331415638655246E-002   9.3521846870663616E-003   3.9398842801696032E-002
  -3.5348355628936248E-002   8.1544127555146645E-003   3.6047782807628395E-002
  -3.4365295619217119E-002   6.7403015686522995E-003   3.2620600210384577E-002
  -3.3382235609498212E-002   5.1098511264794366E-003   2.9117295009964961E-002
  -4.1374263421470707E-002   1.2654761910929013E-002   3.1317104510092751E-002
  -4.0152393807468267E-002   1.2313621667692856E-002   2.7427033783415287E-002
  -3.8930524193465703E-002   1.2594512506509677E-002   2.4090704868480983E-002
  -3.7708654579463222E-002   1.3497434427379303E-002   2.1308117765289833E-002
  -3.6486784965460747E-002   1.5022387430301709E-002   1.9079272473841100E-002
  -4.6566962651183430E-002   1.4975906458550625E-002   2.0181536091920860E-002
  -4.4476419017978497E-002   1.5275058648319462E-002   1.6514702366821343E-002
  -4.2385875384773508E-002   1.7034612257504855E-002   1.4031474868383742E-002
  -4.0295331751568533E-002   2.0254567286106209E-002   1.2731853596607973E-002
  -3.8204788118363586E-002   2.4934923734124093E-002   1.2615838551494285E-002
  -9.0369040029859682E-002   0.0000000000000000        4.9828326924462429E-002
  -9.3969817244193760E-002   5.4083900381727175E-003   5.3200415540644239E-002
  -9.7570594458527851E-002   1.0676481249017981E-002   5.4958189458018766E-002
 -0.10117137167286193        1.5804273632535795E-002   5.5101648676586013E-002
 -0.10477214888719601        2.0791767188726166E-002   5.3630793196345991E-002
 -0.10330365927173123        0.0000000000000000        5.8659654655263599E-002
 -0.10683887779472862        1.0885619119417510E-002   5.2115288420917442E-002
 -0.11037409631772602        1.9174244458138232E-002   4.7316354268051940E-002
 -0.11390931484072342        2.4865876016162164E-002   4.4262852196667049E-002
 -0.11744453336372081        2.7960513793489326E-002   4.2954782206762812E-002
 -0.12646596045026251        0.0000000000000000        7.4196558943994240E-002
 -0.12657587350163535        1.6362848200662305E-002   5.5279042905750801E-002
 -0.12668578655300816        2.7672007667258483E-002   4.1466705729275917E-002
 -0.12679569960438097        3.3927478399788547E-002   3.2759547414569559E-002
 -0.12690561265575379        3.5129260398252461E-002   2.9157567961631735E-002
 -0.15985594356545363        0.0000000000000000        9.6439039790654338E-002
 -0.15318080436491391        2.1840077281907098E-002   6.2691678995144273E-002
 -0.14650566516437424        3.6169770876378737E-002   3.7409243841690663E-002
 -0.13983052596383461        4.2989080783414908E-002   2.0591734330293501E-002
 -0.13315538676329486        4.2298007003015600E-002   1.2239150460952749E-002
 -0.20347360861730449        0.0000000000000000       0.12538709719524391     
 -0.18665367038456440        2.7317306363151897E-002   7.4353196689097872E-002
 -0.16983373215182432        4.4667534085498985E-002   3.5143968605296207E-002
 -0.15301379391908423        5.2050683167041277E-002   7.7594129438388615E-003
 -0.13619385568634418        4.9466753607778774E-002  -7.8004702952740868E-003
 -0.10477214888719601        2.0791767188726166E-002   5.3630793196345991E-002
 -0.10211798784768386        2.4928788856610574E-002   4.5656737358043431E-002
  -9.9463826808171715E-002   2.7505165575210433E-002   3.9361739545116139E-002
  -9.6809665768659584E-002   2.8520897344525863E-002   3.4745799757564130E-002
  -9.4155504729147438E-002   2.7975984164556780E-002   3.1808917995387376E-002
 -0.11744453336372081        2.7960513793489326E-002   4.2954782206762812E-002
 -0.11349513622640636        2.9432212236610522E-002   3.6703444706879362E-002
 -0.10954573908909195        3.0255025792016665E-002   3.1363521377225208E-002
 -0.10559634195177753        3.0428954459707724E-002   2.6935012217800418E-002
 -0.10164694481446306        2.9953998239683699E-002   2.3417917228604885E-002
 -0.12690561265575379        3.5129260398252461E-002   2.9157567961631735E-002
 -0.12242862327578298        3.3935635616610504E-002   2.5540708861736840E-002
 -0.11795163389581223        3.3004886008822856E-002   2.2067620076925237E-002
 -0.11347464451584144        3.2337011574889565E-002   1.8738301607197017E-002
 -0.10899765513587063        3.1932012314810611E-002   1.5552753452552245E-002
 -0.13315538676329486        4.2298007003015600E-002   1.2239150460952749E-002
 -0.12891844899581370        3.8439058996610445E-002   1.2168529822615766E-002
 -0.12468151122833247        3.5754746225629026E-002   1.1474035644216191E-002
 -0.12044457346085131        3.4245068690071379E-002   1.0155667925754026E-002
 -0.11620763569337007        3.3910026389937523E-002   8.2134266672292885E-003
 -0.13619385568634418        4.9466753607778774E-002  -7.8004702952740868E-003
 -0.13296461338649851        4.2942482376610421E-002  -3.4130924104837784E-003
 -0.12973537108665284        3.8504606442435238E-002  -4.1723192090197675E-004
 -0.12650612878680714        3.6153125805253240E-002   1.1871111734713408E-003
 -0.12327688648696150        3.5888040465064469E-002   1.3999368726361483E-003
  -9.4155504729147438E-002   2.7975984164556780E-002   3.1808917995387376E-002
  -9.1749620591804207E-002   2.6773765729822766E-002   3.1226979077814382E-002
  -8.9343736454461031E-002   2.5817581734843314E-002   3.0746500318285470E-002
  -8.6937852317117800E-002   2.5107432179618593E-002   3.0367481716800492E-002
  -8.4531968179774611E-002   2.4643317064148490E-002   3.0089923273359659E-002
 -0.10164694481446306        2.9953998239683699E-002   2.3417917228604885E-002
  -9.9136477365402959E-002   2.9173536023114132E-002   2.3121784895802178E-002
  -9.6626009916342848E-002   2.8430946701168552E-002   2.2933359028389208E-002
  -9.4115542467282723E-002   2.7726230273846887E-002   2.2852639626366043E-002
  -9.1605075018222570E-002   2.7059386741149299E-002   2.2879626689732646E-002
 -0.10899765513587063        3.1932012314810611E-002   1.5552753452552245E-002
 -0.10637635806774791        3.1573306316405522E-002   1.5334266159389123E-002
 -0.10375506099962514        3.1044311667493683E-002   1.5229731638961483E-002
 -0.10113376393150238        3.0345028368075264E-002   1.5239149891269312E-002
  -9.8512466863379652E-002   2.9475456418150123E-002   1.5362520916312725E-002
 -0.11620763569337007        3.3910026389937523E-002   8.2134266672292885E-003
 -0.11346926269883896        3.3973076609696860E-002   7.8644228685751487E-003
 -0.11073088970430786        3.3657676633818835E-002   7.6356181500021828E-003
 -0.10799251670977673        3.2963826462303586E-002   7.5270125115104317E-003
 -0.10525414371524559        3.1891526095150897E-002   7.5386059531001356E-003
 -0.12327688648696150        3.5888040465064469E-002   1.3999368726361483E-003
 -0.12041519125867628        3.6372846902988226E-002   7.1225502336026703E-004
 -0.11755349603039103        3.6271041600144056E-002   1.5101856151140264E-004
 -0.11469180080210581        3.5582624556531953E-002  -2.8377251291045007E-004
 -0.11183010557382056        3.4307595772151755E-002  -5.9211819990545589E-004
  -8.4531968179774611E-002   2.4643317064148490E-002   3.0089923273359659E-002
  -8.2030100581840459E-002   2.4263896187850548E-002   2.9307503222696013E-002
  -7.9528232983906266E-002   2.3807829350142522E-002   2.8652588318261507E-002
  -7.7026365385972101E-002   2.3275116551024141E-002   2.8125178560056099E-002
  -7.4524497788037908E-002   2.2665757790495678E-002   2.7725273948079887E-002
  -9.1605075018222570E-002   2.7059386741149299E-002   2.2879626689732646E-002
  -8.8965306324119961E-002   2.6408658316948323E-002   2.2232173262778827E-002
  -8.6325537630017352E-002   2.5752287215116472E-002   2.1733016881932882E-002
  -8.3685768935914714E-002   2.5090273435653954E-002   2.1382157547194601E-002
  -8.1046000241812133E-002   2.4422616978560741E-002   2.1179595258564166E-002
  -9.8512466863379652E-002   2.9475456418150123E-002   1.5362520916312725E-002
  -9.5714005173229880E-002   2.8553420446046043E-002   1.4921037396848302E-002
  -9.2915543483080079E-002   2.7696745080090620E-002   1.4648642823370184E-002
  -9.0117081792930306E-002   2.6905430320283828E-002   1.4545337195878626E-002
  -8.7318620102780575E-002   2.6179476166625776E-002   1.4611120514373480E-002
 -0.10525414371524559        3.1891526095150897E-002   7.5386059531001356E-003
 -0.10227619712917005        3.0698182575143763E-002   7.3740956249041881E-003
  -9.9298250543094574E-002   2.9641202945064643E-002   7.3994661425736434E-003
  -9.6320303957019043E-002   2.8720587204913644E-002   7.6147175061081242E-003
  -9.3342357370943527E-002   2.7936335354690880E-002   8.0198497155076244E-003
 -0.11183010557382056        3.4307595772151755E-002  -5.9211819990545589E-004
 -0.10865188219194066        3.2842944704241539E-002  -4.0865205305290475E-004
 -0.10547365881006068        3.1585660810038690E-002  -1.4513160456766649E-005
 -0.10229543542818074        3.0535744089543466E-002   5.9029847788324638E-004
  -9.9117212046300807E-002   2.9693194542755930E-002   1.4057828619668533E-003
  -7.4524497788037908E-002   2.2665757790495678E-002   2.7725273948079887E-002
  -7.2403484708499610E-002   2.2016187053180980E-002   2.6974002068190617E-002
  -7.0282471628961243E-002   2.1362838323704073E-002   2.6357222038234512E-002
  -6.8161458549422904E-002   2.0705711602064889E-002   2.5874933858211352E-002
  -6.6040445469884607E-002   2.0044806888263544E-002   2.5527137528121413E-002
  -8.1046000241812133E-002   2.4422616978560741E-002   2.1179595258564166E-002
  -7.8782642892071736E-002   2.3740588441065316E-002   2.0671618654081667E-002
  -7.6519285542331367E-002   2.3035458420396490E-002   2.0313838740069923E-002
  -7.4255928192590998E-002   2.2307226916554009E-002   2.0106255516529253E-002
  -7.1992570842850670E-002   2.1555893929538161E-002   2.0048868983459422E-002
  -8.7318620102780575E-002   2.6179476166625776E-002   1.4611120514373480E-002
  -8.4897213642300351E-002   2.5464989828949625E-002   1.4327115694286088E-002
  -8.2475807181820168E-002   2.4708078517088901E-002   1.4209012405207826E-002
  -8.0054400721339958E-002   2.3908742231042987E-002   1.4256810647138088E-002
  -7.7632994260859789E-002   2.3066980970812750E-002   1.4470510420077382E-002
  -9.3342357370943527E-002   2.7936335354690880E-002   8.0198497155076244E-003
  -9.0747196959185608E-002   2.7189391216834030E-002   7.9404931888046003E-003
  -8.8152036547427703E-002   2.6380698613781121E-002   8.0427430336479783E-003
  -8.5556876135669813E-002   2.5510257545532287E-002   8.3265992500384314E-003
  -8.2961715723911908E-002   2.4578068012087242E-002   8.7920618379750161E-003
  -9.9117212046300807E-002   2.9693194542755930E-002   1.4057828619668533E-003
  -9.6332592842727383E-002   2.8913792604718436E-002   1.5117511376363801E-003
  -9.3547973639153931E-002   2.8053318710473771E-002   1.8150306253908316E-003
  -9.0763354435580465E-002   2.7111772860021168E-002   2.3156213252292883E-003
  -8.7978735232007055E-002   2.6089155053361845E-002   3.0135232371523157E-003
  -6.6040445469884607E-002   2.0044806888263544E-002   2.5527137528121413E-002
  -6.3402681021066221E-002   1.9374824393051798E-002   2.4577884054395760E-002
  -6.0764916572247876E-002   1.8690464327181133E-002   2.3964753122445809E-002
  -5.8127152123429497E-002   1.7991726690651938E-002   2.3687744732271199E-002
  -5.5489387674611146E-002   1.7278611483463935E-002   2.3746858883872290E-002
  -7.1992570842850670E-002   2.1555893929538161E-002   2.0048868983459422E-002
  -6.9053666986798115E-002   2.0794569179596017E-002   1.9370704523480581E-002
  -6.6114763130745546E-002   2.0036362386974954E-002   1.8958696336194597E-002
  -6.3175859274692964E-002   1.9281273551674950E-002   1.8812844421601436E-002
  -6.0236955418640450E-002   1.8529302673696069E-002   1.8933148779700842E-002
  -7.7632994260859789E-002   2.3066980970812750E-002   1.4470510420077382E-002
  -7.4462917266655756E-002   2.2214313966140251E-002   1.4080930501825115E-002
  -7.1292840272451710E-002   2.1382260446768775E-002   1.3887540587182820E-002
  -6.8122763278247678E-002   2.0570820412698074E-002   1.3890340676150612E-002
  -6.4952686284043604E-002   1.9779993863928119E-002   1.4089330768728495E-002
  -8.2961715723911908E-002   2.4578068012087242E-002   8.7920618379750161E-003
  -7.9630431860639103E-002   2.3634058752684449E-002   8.7085619894290214E-003
  -7.6299147997366396E-002   2.2728158506562485E-002   8.7512858754104153E-003
  -7.2967864134093632E-002   2.1860367273721197E-002   8.9202334959190624E-003
  -6.9636580270820911E-002   2.1030685054160295E-002   9.2154048509552368E-003
  -8.7978735232007055E-002   2.6089155053361845E-002   3.0135232371523157E-003
  -8.4556210768748363E-002   2.5053803539228536E-002   3.2535989862925163E-003
  -8.1133686305489561E-002   2.4074056566356333E-002   3.5499322008772927E-003
  -7.7711161842230814E-002   2.3149914134743967E-002   3.9025228809068391E-003
  -7.4288637378972067E-002   2.2281376244392304E-002   4.3113710263807947E-003
  -5.5489387674611146E-002   1.7278611483463935E-002   2.3746858883872290E-002
  -5.3258781418754231E-002   1.6594464425018801E-002   2.3228903976388937E-002
  -5.1028175162897288E-002   1.5982631234718284E-002   2.2462031875235905E-002
  -4.8797568907040331E-002   1.5443111912562302E-002   2.1446242580413249E-002
  -4.6566962651183430E-002   1.4975906458550625E-002   2.0181536091920860E-002
  -6.0236955418640450E-002   1.8529302673696069E-002   1.8933148779700842E-002
  -5.8170639557036677E-002   1.7795108070225191E-002   1.8584031780179894E-002
  -5.6104323695432910E-002   1.7093348058449503E-002   1.8155251185822271E-002
  -5.4038007833829088E-002   1.6424022638369111E-002   1.7646806996627858E-002
  -5.1971691972225370E-002   1.5787131809983757E-002   1.7058699212596784E-002
  -6.4952686284043604E-002   1.9779993863928119E-002   1.4089330768728495E-002
  -6.2881407217860091E-002   1.8995751715431733E-002   1.3869172400720747E-002
  -6.0810128151676558E-002   1.8204064882180883E-002   1.3738604036708846E-002
  -5.8738849085492997E-002   1.7404933364176083E-002   1.3697625676693439E-002
  -5.6667570019309499E-002   1.6598357161416777E-002   1.3746237320674204E-002
  -6.9636580270820911E-002   2.1030685054160295E-002   9.2154048509552368E-003
  -6.7391084401224544E-002   2.0196395360638227E-002   9.0843258380108420E-003
  -6.5145588531628287E-002   1.9314781705912571E-002   9.2120904278956469E-003
  -6.2900092662031948E-002   1.8385844089983030E-002   9.5986986206098371E-003
  -6.0654596792435664E-002   1.7409582512850019E-002   1.0244150416153106E-002
  -7.4288637378972067E-002   2.2281376244392304E-002   4.3113710263807947E-003
  -7.1699671107130047E-002   2.1397039005844665E-002   4.2294920920505907E-003
  -6.9110704835288028E-002   2.0425498529643760E-002   4.5757103593829507E-003
  -6.6521738563446037E-002   1.9366754815789991E-002   5.3500258283770072E-003
  -6.3932772291603990E-002   1.8220807864282929E-002   6.5524384990334195E-003
  -4.6566962651183430E-002   1.4975906458550625E-002   2.0181536091920860E-002
  -4.4476419017978497E-002   1.5275058648319462E-002   1.6514702366821343E-002
  -4.2385875384773508E-002   1.7034612257504855E-002   1.4031474868383742E-002
  -4.0295331751568533E-002   2.0254567286106209E-002   1.2731853596607973E-002
  -3.8204788118363586E-002   2.4934923734124093E-002   1.2615838551494285E-002
  -5.1971691972225370E-002   1.5787131809983757E-002   1.7058699212596784E-002
  -4.8888639849437227E-002   1.5600453733391473E-002   1.5073815190029927E-002
  -4.5805587726649069E-002   1.6281766568690334E-002   1.3890341919967408E-002
  -4.2722535603860967E-002   1.7831070315879976E-002   1.3508279402409493E-002
  -3.9639483481072768E-002   2.0248364974960631E-002   1.3927627637355777E-002
  -5.6667570019309499E-002   1.6598357161416777E-002   1.3746237320674204E-002
  -5.2974204881095638E-002   1.5925848818463373E-002   1.2850892493114843E-002
  -4.9280839742881839E-002   1.5528920879875979E-002   1.2374762943902134E-002
  -4.5587474604668082E-002   1.5407573345653632E-002   1.2317848673036397E-002
  -4.1894109466454249E-002   1.5561806215797058E-002   1.2680149680517672E-002
  -6.0654596792435664E-002   1.7409582512850019E-002   1.0244150416153106E-002
  -5.6733114112953772E-002   1.6251243903535384E-002   9.8459342760756456E-003
  -5.2811631433471860E-002   1.4776075191061097E-002   9.4847379401875771E-003
  -4.8890148753989927E-002   1.2984076375427343E-002   9.1605614084889313E-003
  -4.4968666074508008E-002   1.0875247456633708E-002   8.8734046809793299E-003
  -6.3932772291603990E-002   1.8220807864282929E-002   6.5524384990334195E-003
  -6.0165367545011561E-002   1.6576638988607173E-002   6.0589405389128714E-003
  -5.6397962798419077E-002   1.4023229502246881E-002   5.2202669088238784E-003
  -5.2630558051826704E-002   1.0560579405200943E-002   4.0364176087669540E-003
  -4.8863153305234164E-002   6.1886886974700239E-003   2.5073926387415568E-003
 </DataArray>
 </PointData>
 </Piece>
 <Piece  NumberOfPoints="          1600 "  NumberOfCells="         1024 ">
 <Points>
 <DataArray  type="Float64" NumberOfComponents="3"  format="ascii" >
  0.50000000000000000        0.0000000000000000        0.0000000000000000     
  0.53125000000000000        0.0000000000000000        0.0000000000000000     
  0.56250000000000000        0.0000000000000000        0.0000000000000000     
  0.59375000000000000        0.0000000000000000        0.0000000000000000     
  0.62500000000000000        0.0000000000000000        0.0000000000000000     
  0.50000000000000000        3.1250000000000000E-002   0.0000000000000000     
  0.53125000000000000        3.1250000000000000E-002   0.0000000000000000     
  0.56250000000000000        3.1250000000000000E-002   0.0000000000000000     
  0.59375000000000000        3.1250000000000000E-002   0.0000000000000000     
  0.62500000000000000        3.1250000000000000E-002   0.0000000000000000     
  0.50000000000000000        6.2500000000000000E-002   0.0000000000000000     
  0.53125000000000000        6.2500000000000000E-002   0.0000000000000000     
  0.56250000000000000        6.2500000000000000E-002   0.0000000000000000     
  0.59375000000000000        6.2500000000000000E-002   0.0000000000000000     
  0.62500000000000000        6.2500000000000000E-002   0.0000000000000000     
  0.50000000000000000        9.3750000000000000E-002   0.0000000000000000     
  0.53125000000000000        9.3750000000000000E-002   0.0000000000000000     
  0.56250000000000000        9.3750000000000000E-002   0.0000000000000000     
  0.59375000000000000        9.3750000000000000E-002   0.0000000000000000     
  0.62500000000000000        9.3750000000000000E-002   0.0000000000000000     
  0.50000000000000000       0.12500000000000000        0.0000000000000000     
  0.53125000000000000       0.12500000000000000        0.0000000000000000     
  0.56250000000000000       0.12500000000000000        0.0000000000000000     
  0.59375000000000000       0.12500000000000000        0.0000000000000000     
  0.62500000000000000       0.12500000000000000        0.0000000000000000     
  0.62500000000000000        0.0000000000000000        0.0000000000000000     
  0.65625000000000000        0.0000000000000000        0.0000000000000000     
  0.68750000000000000        0.0000000000000000        0.0000000000000000     
  0.71875000000000000        0.0000000000000000        0.0000000000000000     
  0.75000000000000000        0.0000000000000000        0.0000000000000000     
  0.62500000000000000        3.1250000000000000E-002   0.0000000000000000     
  0.65625000000000000        3.1250000000000000E-002   0.0000000000000000     
  0.68750000000000000        3.1250000000000000E-002   0.0000000000000000     
  0.71875000000000000        3.1250000000000000E-002   0.0000000000000000     
  0.75000000000000000        3.1250000000000000E-002   0.0000000000000000     
  0.62500000000000000        6.2500000000000000E-002   0.0000000000000000     
  0.65625000000000000        6.2500000000000000E-002   0.0000000000000000     
  0.68750000000000000        6.2500000000000000E-002   0.0000000000000000     
  0.71875000000000000        6.2500000000000000E-002   0.0000000000000000     
  0.75000000000000000        6.2500000000000000E-002   0.0000000000000000     
  0.62500000000000000        9.3750000000000000E-002   0.0000000000000000     
  0.65625000000000000        9.3750000000000000E-002   0.0000000000000000     
  0.68750000000000000        9.3750000000000000E-002   0.0000000000000000     
  0.71875000000000000        9.3750000000000000E-002   0.0000000000000000     
  0.75000000000000000        9.3750000000000000E-002   0.0000000000000000     
  0.62500000000000000       0.12500000000000000        0.0000000000000000     
  0.65625000000000000       0.12500000000000000        0.0000000000000000     
  0.68750000000000000       0.12500000000000000        0.0000000000000000     
  0.71875000000000000       0.12500000000000000        0.0000000000000000     
  0.75000000000000000       0.12500000000000000        0.0000000000000000     
  0.75000000000000000        0.0000000000000000        0.0000000000000000     
  0.78125000000000000        0.0000000000000000        0.0000000000000000     
  0.81250000000000000        0.0000000000000000        0.0000000000000000     
  0.84375000000000000        0.0000000000000000        0.0000000000000000     
  0.87500000000000000        0.0000000000000000        0.0000000000000000     
  0.75000000000000000        3.1250000000000000E-002   0.0000000000000000     
  0.78125000000000000        3.1250000000000000E-002   0.0000000000000000     
  0.81250000000000000        3.1250000000000000E-002   0.0000000000000000     
  0.84375000000000000        3.1250000000000000E-002   0.0000000000000000     
  0.87500000000000000        3.1250000000000000E-002   0.0000000000000000     
  0.75000000000000000        6.2500000000000000E-002   0.0000000000000000     
  0.78125000000000000        6.2500000000000000E-002   0.0000000000000000     
  0.81250000000000000        6.2500000000000000E-002   0.0000000000000000     
  0.84375000000000000        6.2500000000000000E-002   0.0000000000000000     
  0.87500000000000000        6.2500000000000000E-002   0.0000000000000000     
  0.75000000000000000        9.3750000000000000E-002   0.0000000000000000     
  0.78125000000000000        9.3750000000000000E-002   0.0000000000000000     
  0.81250000000000000        9.3750000000000000E-002   0.0000000000000000     
  0.84375000000000000        9.3750000000000000E-002   0.0000000000000000     
  0.87500000000000000        9.3750000000000000E-002   0.0000000000000000     
  0.75000000000000000       0.12500000000000000        0.0000000000000000     
  0.78125000000000000       0.12500000000000000        0.0000000000000000     
  0.81250000000000000       0.12500000000000000        0.0000000000000000     
  0.84375000000000000       0.12500000000000000        0.0000000000000000     
  0.87500000000000000       0.12500000000000000        0.0000000000000000     
  0.87500000000000000        0.0000000000000000        0.0000000000000000     
  0.90625000000000000        0.0000000000000000        0.0000000000000000     
  0.93750000000000000        0.0000000000000000        0.0000000000000000     
  0.96875000000000000        0.0000000000000000        0.0000000000000000     
   1.0000000000000000        0.0000000000000000        0.0000000000000000     
  0.87500000000000000        3.1250000000000000E-002   0.0000000000000000     
  0.90625000000000000        3.1250000000000000E-002   0.0000000000000000     
  0.93750000000000000        3.1250000000000000E-002   0.0000000000000000     
  0.96875000000000000        3.1250000000000000E-002   0.0000000000000000     
   1.0000000000000000        3.1250000000000000E-002   0.0000000000000000     
  0.87500000000000000        6.2500000000000000E-002   0.0000000000000000     
  0.90625000000000000        6.2500000000000000E-002   0.0000000000000000     
  0.93750000000000000        6.2500000000000000E-002   0.0000000000000000     
  0.96875000000000000        6.2500000000000000E-002   0.0000000000000000     
   1.0000000000000000        6.2500000000000000E-002   0.0000000000000000     
  0.87500000000000000        9.3750000000000000E-002   0.0000000000000000     
  0.90625000000000000        9.3750000000000000E-002   0.0000000000000000     
  0.93750000000000000        9.3750000000000000E-002   0.0000000000000000     
  0.96875000000000000        9.3750000000000000E-002   0.0000000000000000     
   1.0000000000000000        9.3750000000000000E-002   0.0000000000000000     
  0.87500000000000000       0.12500000000000000        0.0000000000000000     
  0.90625000000000000       0.12500000000000000        0.0000000000000000     
  0.93750000000000000       0.12500000000000000        0.0000000000000000     
  0.96875000000000000       0.12500000000000000        0.0000000000000000     
   1.0000000000000000       0.12500000000000000        0.0000000000000000     
   1.0000000000000000        0.0000000000000000        0.0000000000000000     
   1.0312500000000000        0.0000000000000000        0.0000000000000000     
   1.0625000000000000        0.0000000000000000        0.0000000000000000     
   1.0937500000000000        0.0000000000000000        0.0000000000000000     
   1.1250000000000000        0.0000000000000000        0.0000000000000000     
   1.0000000000000000        3.1250000000000000E-002   0.0000000000000000     
   1.0312500000000000        3.1250000000000000E-002   0.0000000000000000     
   1.0625000000000000        3.1250000000000000E-002   0.0000000000000000     
   1.0937500000000000        3.1250000000000000E-002   0.0000000000000000     
   1.1250000000000000        3.1250000000000000E-002   0.0000000000000000     
   1.0000000000000000        6.2500000000000000E-002   0.0000000000000000     
   1.0312500000000000        6.2500000000000000E-002   0.0000000000000000     
   1.0625000000000000        6.2500000000000000E-002   0.0000000000000000     
   1.0937500000000000        6.2500000000000000E-002   0.0000000000000000     
   1.1250000000000000        6.2500000000000000E-002   0.0000000000000000     
   1.0000000000000000        9.3750000000000000E-002   0.0000000000000000     
   1.0312500000000000        9.3750000000000000E-002   0.0000000000000000     
   1.0625000000000000        9.3750000000000000E-002   0.0000000000000000     
   1.0937500000000000        9.3750000000000000E-002   0.0000000000000000     
   1.1250000000000000        9.3750000000000000E-002   0.0000000000000000     
   1.0000000000000000       0.12500000000000000        0.0000000000000000     
   1.0312500000000000       0.12500000000000000        0.0000000000000000     
   1.0625000000000000       0.12500000000000000        0.0000000000000000     
   1.0937500000000000       0.12500000000000000        0.0000000000000000     
   1.1250000000000000       0.12500000000000000        0.0000000000000000     
   1.1250000000000000        0.0000000000000000        0.0000000000000000     
   1.1562500000000000        0.0000000000000000        0.0000000000000000     
   1.1875000000000000        0.0000000000000000        0.0000000000000000     
   1.2187500000000000        0.0000000000000000        0.0000000000000000     
   1.2500000000000000        0.0000000000000000        0.0000000000000000     
   1.1250000000000000        3.1250000000000000E-002   0.0000000000000000     
   1.1562500000000000        3.1250000000000000E-002   0.0000000000000000     
   1.1875000000000000        3.1250000000000000E-002   0.0000000000000000     
   1.2187500000000000        3.1250000000000000E-002   0.0000000000000000     
   1.2500000000000000        3.1250000000000000E-002   0.0000000000000000     
   1.1250000000000000        6.2500000000000000E-002   0.0000000000000000     
   1.1562500000000000        6.2500000000000000E-002   0.0000000000000000     
   1.1875000000000000        6.2500000000000000E-002   0.0000000000000000     
   1.2187500000000000        6.2500000000000000E-002   0.0000000000000000     
   1.2500000000000000        6.2500000000000000E-002   0.0000000000000000     
   1.1250000000000000        9.3750000000000000E-002   0.0000000000000000     
   1.1562500000000000        9.3750000000000000E-002   0.0000000000000000     
   1.1875000000000000        9.3750000000000000E-002   0.0000000000000000     
   1.2187500000000000        9.3750000000000000E-002   0.0000000000000000     
   1.2500000000000000        9.3750000000000000E-002   0.0000000000000000     
   1.1250000000000000       0.12500000000000000        0.0000000000000000     
   1.1562500000000000       0.12500000000000000        0.0000000000000000     
   1.1875000000000000       0.12500000000000000        0.0000000000000000     
   1.2187500000000000       0.12500000000000000        0.0000000000000000     
   1.2500000000000000       0.12500000000000000        0.0000000000000000     
   1.2500000000000000        0.0000000000000000        0.0000000000000000     
   1.2812500000000000        0.0000000000000000        0.0000000000000000     
   1.3125000000000000        0.0000000000000000        0.0000000000000000     
   1.3437500000000000        0.0000000000000000        0.0000000000000000     
   1.3750000000000000        0.0000000000000000        0.0000000000000000     
   1.2500000000000000        3.1250000000000000E-002   0.0000000000000000     
   1.2812500000000000        3.1250000000000000E-002   0.0000000000000000     
   1.3125000000000000        3.1250000000000000E-002   0.0000000000000000     
   1.3437500000000000        3.1250000000000000E-002   0.0000000000000000     
   1.3750000000000000        3.1250000000000000E-002   0.0000000000000000     
   1.2500000000000000        6.2500000000000000E-002   0.0000000000000000     
   1.2812500000000000        6.2500000000000000E-002   0.0000000000000000     
   1.3125000000000000        6.2500000000000000E-002   0.0000000000000000     
   1.3437500000000000        6.2500000000000000E-002   0.0000000000000000     
   1.3750000000000000        6.2500000000000000E-002   0.0000000000000000     
   1.2500000000000000        9.3750000000000000E-002   0.0000000000000000     
   1.2812500000000000        9.3750000000000000E-002   0.0000000000000000     
   1.3125000000000000        9.3750000000000000E-002   0.0000000000000000     
   1.3437500000000000        9.3750000000000000E-002   0.0000000000000000     
   1.3750000000000000        9.3750000000000000E-002   0.0000000000000000     
   1.2500000000000000       0.12500000000000000        0.0000000000000000     
   1.2812500000000000       0.12500000000000000        0.0000000000000000     
   1.3125000000000000       0.12500000000000000        0.0000000000000000     
   1.3437500000000000       0.12500000000000000        0.0000000000000000     
   1.3750000000000000       0.12500000000000000        0.0000000000000000     
   1.3750000000000000        0.0000000000000000        0.0000000000000000     
   1.4062500000000000        0.0000000000000000        0.0000000000000000     
   1.4375000000000000        0.0000000000000000        0.0000000000000000     
   1.4687500000000000        0.0000000000000000        0.0000000000000000     
   1.5000000000000000        0.0000000000000000        0.0000000000000000     
   1.3750000000000000        3.1250000000000000E-002   0.0000000000000000     
   1.4062500000000000        3.1250000000000000E-002   0.0000000000000000     
   1.4375000000000000        3.1250000000000000E-002   0.0000000000000000     
   1.4687500000000000        3.1250000000000000E-002   0.0000000000000000     
   1.5000000000000000        3.1250000000000000E-002   0.0000000000000000     
   1.3750000000000000        6.2500000000000000E-002   0.0000000000000000     
   1.4062500000000000        6.2500000000000000E-002   0.0000000000000000     
   1.4375000000000000        6.2500000000000000E-002   0.0000000000000000     
   1.4687500000000000        6.2500000000000000E-002   0.0000000000000000     
   1.5000000000000000        6.2500000000000000E-002   0.0000000000000000     
   1.3750000000000000        9.3750000000000000E-002   0.0000000000000000     
   1.4062500000000000        9.3750000000000000E-002   0.0000000000000000     
   1.4375000000000000        9.3750000000000000E-002   0.0000000000000000     
   1.4687500000000000        9.3750000000000000E-002   0.0000000000000000     
   1.5000000000000000        9.3750000000000000E-002   0.0000000000000000     
   1.3750000000000000       0.12500000000000000        0.0000000000000000     
   1.4062500000000000       0.12500000000000000        0.0000000000000000     
   1.4375000000000000       0.12500000000000000        0.0000000000000000     
   1.4687500000000000       0.12500000000000000        0.0000000000000000     
   1.5000000000000000       0.12500000000000000        0.0000000000000000     
  0.50000000000000000       0.12500000000000000        0.0000000000000000     
  0.53125000000000000       0.12500000000000000        0.0000000000000000     
  0.56250000000000000       0.12500000000000000        0.0000000000000000     
  0.59375000000000000       0.12500000000000000        0.0000000000000000     
  0.62500000000000000       0.12500000000000000        0.0000000000000000     
  0.50000000000000000       0.15625000000000000        0.0000000000000000     
  0.53125000000000000       0.15625000000000000        0.0000000000000000     
  0.56250000000000000       0.15625000000000000        0.0000000000000000     
  0.59375000000000000       0.15625000000000000        0.0000000000000000     
  0.62500000000000000       0.15625000000000000        0.0000000000000000     
  0.50000000000000000       0.18750000000000000        0.0000000000000000     
  0.53125000000000000       0.18750000000000000        0.0000000000000000     
  0.56250000000000000       0.18750000000000000        0.0000000000000000     
  0.59375000000000000       0.18750000000000000        0.0000000000000000     
  0.62500000000000000       0.18750000000000000        0.0000000000000000     
  0.50000000000000000       0.21875000000000000        0.0000000000000000     
  0.53125000000000000       0.21875000000000000        0.0000000000000000     
  0.56250000000000000       0.21875000000000000        0.0000000000000000     
  0.59375000000000000       0.21875000000000000        0.0000000000000000     
  0.62500000000000000       0.21875000000000000        0.0000000000000000     
  0.50000000000000000       0.25000000000000000        0.0000000000000000     
  0.53125000000000000       0.25000000000000000        0.0000000000000000     
  0.56250000000000000       0.25000000000000000        0.0000000000000000     
  0.59375000000000000       0.25000000000000000        0.0000000000000000     
  0.62500000000000000       0.25000000000000000        0.0000000000000000     
  0.62500000000000000       0.12500000000000000        0.0000000000000000     
  0.65625000000000000       0.12500000000000000        0.0000000000000000     
  0.68750000000000000       0.12500000000000000        0.0000000000000000     
  0.71875000000000000       0.12500000000000000        0.0000000000000000     
  0.75000000000000000       0.12500000000000000        0.0000000000000000     
  0.62500000000000000       0.15625000000000000        0.0000000000000000     
  0.65625000000000000       0.15625000000000000        0.0000000000000000     
  0.68750000000000000       0.15625000000000000        0.0000000000000000     
  0.71875000000000000       0.15625000000000000        0.0000000000000000     
  0.75000000000000000       0.15625000000000000        0.0000000000000000     
  0.62500000000000000       0.18750000000000000        0.0000000000000000     
  0.65625000000000000       0.18750000000000000        0.0000000000000000     
  0.68750000000000000       0.18750000000000000        0.0000000000000000     
  0.71875000000000000       0.18750000000000000        0.0000000000000000     
  0.75000000000000000       0.18750000000000000        0.0000000000000000     
  0.62500000000000000       0.21875000000000000        0.0000000000000000     
  0.65625000000000000       0.21875000000000000        0.0000000000000000     
  0.68750000000000000       0.21875000000000000        0.0000000000000000     
  0.71875000000000000       0.21875000000000000        0.0000000000000000     
  0.75000000000000000       0.21875000000000000        0.0000000000000000     
  0.62500000000000000       0.25000000000000000        0.0000000000000000     
  0.65625000000000000       0.25000000000000000        0.0000000000000000     
  0.68750000000000000       0.25000000000000000        0.0000000000000000     
  0.71875000000000000       0.25000000000000000        0.0000000000000000     
  0.75000000000000000       0.25000000000000000        0.0000000000000000     
  0.75000000000000000       0.12500000000000000        0.0000000000000000     
  0.78125000000000000       0.12500000000000000        0.0000000000000000     
  0.81250000000000000       0.12500000000000000        0.0000000000000000     
  0.84375000000000000       0.12500000000000000        0.0000000000000000     
  0.87500000000000000       0.12500000000000000        0.0000000000000000     
  0.75000000000000000       0.15625000000000000        0.0000000000000000     
  0.78125000000000000       0.15625000000000000        0.0000000000000000     
  0.81250000000000000       0.15625000000000000        0.0000000000000000     
  0.84375000000000000       0.15625000000000000        0.0000000000000000     
  0.87500000000000000       0.15625000000000000        0.0000000000000000     
  0.75000000000000000       0.18750000000000000        0.0000000000000000     
  0.78125000000000000       0.18750000000000000        0.0000000000000000     
  0.81250000000000000       0.18750000000000000        0.0000000000000000     
  0.84375000000000000       0.18750000000000000        0.0000000000000000     
  0.87500000000000000       0.18750000000000000        0.0000000000000000     
  0.75000000000000000       0.21875000000000000        0.0000000000000000     
  0.78125000000000000       0.21875000000000000        0.0000000000000000     
  0.81250000000000000       0.21875000000000000        0.0000000000000000     
  0.84375000000000000       0.21875000000000000        0.0000000000000000     
  0.87500000000000000       0.21875000000000000        0.0000000000000000     
  0.75000000000000000       0.25000000000000000        0.0000000000000000     
  0.78125000000000000       0.25000000000000000        0.0000000000000000     
  0.81250000000000000       0.25000000000000000        0.0000000000000000     
  0.84375000000000000       0.25000000000000000        0.0000000000000000     
  0.87500000000000000       0.25000000000000000        0.0000000000000000     
  0.87500000000000000       0.12500000000000000        0.0000000000000000     
  0.90625000000000000       0.12500000000000000        0.0000000000000000     
  0.93750000000000000       0.12500000000000000        0.0000000000000000     
  0.96875000000000000       0.12500000000000000        0.0000000000000000     
   1.0000000000000000       0.12500000000000000        0.0000000000000000     
  0.87500000000000000       0.15625000000000000        0.0000000000000000     
  0.90625000000000000       0.15625000000000000        0.0000000000000000     
  0.93750000000000000       0.15625000000000000        0.0000000000000000     
  0.96875000000000000       0.15625000000000000        0.0000000000000000     
   1.0000000000000000       0.15625000000000000        0.0000000000000000     
  0.87500000000000000       0.18750000000000000        0.0000000000000000     
  0.90625000000000000       0.18750000000000000        0.0000000000000000     
  0.93750000000000000       0.18750000000000000        0.0000000000000000     
  0.96875000000000000       0.18750000000000000        0.0000000000000000     
   1.0000000000000000       0.18750000000000000        0.0000000000000000     
  0.87500000000000000       0.21875000000000000        0.0000000000000000     
  0.90625000000000000       0.21875000000000000        0.0000000000000000     
  0.93750000000000000       0.21875000000000000        0.0000000000000000     
  0.96875000000000000       0.21875000000000000        0.0000000000000000     
   1.0000000000000000       0.21875000000000000        0.0000000000000000     
  0.87500000000000000       0.25000000000000000        0.0000000000000000     
  0.90625000000000000       0.25000000000000000        0.0000000000000000     
  0.93750000000000000       0.25000000000000000        0.0000000000000000     
  0.96875000000000000       0.25000000000000000        0.0000000000000000     
   1.0000000000000000       0.25000000000000000        0.0000000000000000     
   1.0000000000000000       0.12500000000000000        0.0000000000000000     
   1.0312500000000000       0.12500000000000000        0.0000000000000000     
   1.0625000000000000       0.12500000000000000        0.0000000000000000     
   1.0937500000000000       0.12500000000000000        0.0000000000000000     
   1.1250000000000000       0.12500000000000000        0.0000000000000000     
   1.0000000000000000       0.15625000000000000        0.0000000000000000     
   1.0312500000000000       0.15625000000000000        0.0000000000000000     
   1.0625000000000000       0.15625000000000000        0.0000000000000000     
   1.0937500000000000       0.15625000000000000        0.0000000000000000     
   1.1250000000000000       0.15625000000000000        0.0000000000000000     
   1.0000000000000000       0.18750000000000000        0.0000000000000000     
   1.0312500000000000       0.18750000000000000        0.0000000000000000     
   1.0625000000000000       0.18750000000000000        0.0000000000000000     
   1.0937500000000000       0.18750000000000000        0.0000000000000000     
   1.1250000000000000       0.18750000000000000        0.0000000000000000     
   1.0000000000000000       0.21875000000000000        0.0000000000000000     
   1.0312500000000000       0.21875000000000000        0.0000000000000000     
   1.0625000000000000       0.21875000000000000        0.0000000000000000     
   1.0937500000000000       0.21875000000000000        0.0000000000000000     
   1.1250000000000000       0.21875000000000000        0.0000000000000000     
   1.0000000000000000       0.25000000000000000        0.0000000000000000     
   1.0312500000000000       0.25000000000000000        0.0000000000000000     
   1.0625000000000000       0.25000000000000000        0.0000000000000000     
   1.0937500000000000       0.25000000000000000        0.0000000000000000     
   1.1250000000000000       0.25000000000000000        0.0000000000000000     
   1.1250000000000000       0.12500000000000000        0.0000000000000000     
   1.1562500000000000       0.12500000000000000        0.0000000000000000     
   1.1875000000000000       0.12500000000000000        0.0000000000000000     
   1.2187500000000000       0.12500000000000000        0.0000000000000000     
   1.2500000000000000       0.12500000000000000        0.0000000000000000     
   1.1250000000000000       0.15625000000000000        0.0000000000000000     
   1.1562500000000000       0.15625000000000000        0.0000000000000000     
   1.1875000000000000       0.15625000000000000        0.0000000000000000     
   1.2187500000000000       0.15625000000000000        0.0000000000000000     
   1.2500000000000000       0.15625000000000000        0.0000000000000000     
   1.1250000000000000       0.18750000000000000        0.0000000000000000     
   1.1562500000000000       0.18750000000000000        0.0000000000000000     
   1.1875000000000000       0.18750000000000000        0.0000000000000000     
   1.2187500000000000       0.18750000000000000        0.0000000000000000     
   1.2500000000000000       0.18750000000000000        0.0000000000000000     
   1.1250000000000000       0.21875000000000000        0.0000000000000000     
   1.1562500000000000       0.21875000000000000        0.0000000000000000     
   1.1875000000000000       0.21875000000000000        0.0000000000000000     
   1.2187500000000000       0.21875000000000000        0.0000000000000000     
   1.2500000000000000       0.21875000000000000        0.0000000000000000     
   1.1250000000000000       0.25000000000000000        0.0000000000000000     
   1.1562500000000000       0.25000000000000000        0.0000000000000000     
   1.1875000000000000       0.25000000000000000        0.0000000000000000     
   1.2187500000000000       0.25000000000000000        0.0000000000000000     
   1.2500000000000000       0.25000000000000000        0.0000000000000000     
   1.2500000000000000       0.12500000000000000        0.0000000000000000     
   1.2812500000000000       0.12500000000000000        0.0000000000000000     
   1.3125000000000000       0.12500000000000000        0.0000000000000000     
   1.3437500000000000       0.12500000000000000        0.0000000000000000     
   1.3750000000000000       0.12500000000000000        0.0000000000000000     
   1.2500000000000000       0.15625000000000000        0.0000000000000000     
   1.2812500000000000       0.15625000000000000        0.0000000000000000     
   1.3125000000000000       0.15625000000000000        0.0000000000000000     
   1.3437500000000000       0.15625000000000000        0.0000000000000000     
   1.3750000000000000       0.15625000000000000        0.0000000000000000     
   1.2500000000000000       0.18750000000000000        0.0000000000000000     
   1.2812500000000000       0.18750000000000000        0.0000000000000000     
   1.3125000000000000       0.18750000000000000        0.0000000000000000     
   1.3437500000000000       0.18750000000000000        0.0000000000000000     
   1.3750000000000000       0.18750000000000000        0.0000000000000000     
   1.2500000000000000       0.21875000000000000        0.0000000000000000     
   1.2812500000000000       0.21875000000000000        0.0000000000000000     
   1.3125000000000000       0.21875000000000000        0.0000000000000000     
   1.3437500000000000       0.21875000000000000        0.0000000000000000     
   1.3750000000000000       0.21875000000000000        0.0000000000000000     
   1.2500000000000000       0.25000000000000000        0.0000000000000000     
   1.2812500000000000       0.25000000000000000        0.0000000000000000     
   1.3125000000000000       0.25000000000000000        0.0000000000000000     
   1.3437500000000000       0.25000000000000000        0.0000000000000000     
   1.3750000000000000       0.25000000000000000        0.0000000000000000     
   1.3750000000000000       0.12500000000000000        0.0000000000000000     
   1.4062500000000000       0.12500000000000000        0.0000000000000000     
   1.4375000000000000       0.12500000000000000        0.0000000000000000     
   1.4687500000000000       0.12500000000000000        0.0000000000000000     
   1.5000000000000000       0.12500000000000000        0.0000000000000000     
   1.3750000000000000       0.15625000000000000        0.0000000000000000     
   1.4062500000000000       0.15625000000000000        0.0000000000000000     
   1.4375000000000000       0.15625000000000000        0.0000000000000000     
   1.4687500000000000       0.15625000000000000        0.0000000000000000     
   1.5000000000000000       0.15625000000000000        0.0000000000000000     
   1.3750000000000000       0.18750000000000000        0.0000000000000000     
   1.4062500000000000       0.18750000000000000        0.0000000000000000     
   1.4375000000000000       0.18750000000000000        0.0000000000000000     
   1.4687500000000000       0.18750000000000000        0.0000000000000000     
   1.5000000000000000       0.18750000000000000        0.0000000000000000     
   1.3750000000000000       0.21875000000000000        0.0000000000000000     
   1.4062500000000000       0.21875000000000000        0.0000000000000000     
   1.4375000000000000       0.21875000000000000        0.0000000000000000     
   1.4687500000000000       0.21875000000000000        0.0000000000000000     
   1.5000000000000000       0.21875000000000000        0.0000000000000000     
   1.3750000000000000       0.25000000000000000        0.0000000000000000     
   1.4062500000000000       0.25000000000000000        0.0000000000000000     
   1.4375000000000000       0.25000000000000000        0.0000000000000000     
   1.4687500000000000       0.25000000000000000        0.0000000000000000     
   1.5000000000000000       0.25000000000000000        0.0000000000000000     
  0.50000000000000000       0.25000000000000000        0.0000000000000000     
  0.53125000000000000       0.25000000000000000        0.0000000000000000     
  0.56250000000000000       0.25000000000000000        0.0000000000000000     
  0.59375000000000000       0.25000000000000000        0.0000000000000000     
  0.62500000000000000       0.25000000000000000        0.0000000000000000     
  0.50000000000000000       0.28125000000000000        0.0000000000000000     
  0.53125000000000000       0.28125000000000000        0.0000000000000000     
  0.56250000000000000       0.28125000000000000        0.0000000000000000     
  0.59375000000000000       0.28125000000000000        0.0000000000000000     
  0.62500000000000000       0.28125000000000000        0.0000000000000000     
  0.50000000000000000       0.31250000000000000        0.0000000000000000     
  0.53125000000000000       0.31250000000000000        0.0000000000000000     
  0.56250000000000000       0.31250000000000000        0.0000000000000000     
  0.59375000000000000       0.31250000000000000        0.0000000000000000     
  0.62500000000000000       0.31250000000000000        0.0000000000000000     
  0.50000000000000000       0.34375000000000000        0.0000000000000000     
  0.53125000000000000       0.34375000000000000        0.0000000000000000     
  0.56250000000000000       0.34375000000000000        0.0000000000000000     
  0.59375000000000000       0.34375000000000000        0.0000000000000000     
  0.62500000000000000       0.34375000000000000        0.0000000000000000     
  0.50000000000000000       0.37500000000000000        0.0000000000000000     
  0.53125000000000000       0.37500000000000000        0.0000000000000000     
  0.56250000000000000       0.37500000000000000        0.0000000000000000     
  0.59375000000000000       0.37500000000000000        0.0000000000000000     
  0.62500000000000000       0.37500000000000000        0.0000000000000000     
  0.62500000000000000       0.25000000000000000        0.0000000000000000     
  0.65625000000000000       0.25000000000000000        0.0000000000000000     
  0.68750000000000000       0.25000000000000000        0.0000000000000000     
  0.71875000000000000       0.25000000000000000        0.0000000000000000     
  0.75000000000000000       0.25000000000000000        0.0000000000000000     
  0.62500000000000000       0.28125000000000000        0.0000000000000000     
  0.65625000000000000       0.28125000000000000        0.0000000000000000     
  0.68750000000000000       0.28125000000000000        0.0000000000000000     
  0.71875000000000000       0.28125000000000000        0.0000000000000000     
  0.75000000000000000       0.28125000000000000        0.0000000000000000     
  0.62500000000000000       0.31250000000000000        0.0000000000000000     
  0.65625000000000000       0.31250000000000000        0.0000000000000000     
  0.68750000000000000       0.31250000000000000        0.0000000000000000     
  0.71875000000000000       0.31250000000000000        0.0000000000000000     
  0.75000000000000000       0.31250000000000000        0.0000000000000000     
  0.62500000000000000       0.34375000000000000        0.0000000000000000     
  0.65625000000000000       0.34375000000000000        0.0000000000000000     
  0.68750000000000000       0.34375000000000000        0.0000000000000000     
  0.71875000000000000       0.34375000000000000        0.0000000000000000     
  0.75000000000000000       0.34375000000000000        0.0000000000000000     
  0.62500000000000000       0.37500000000000000        0.0000000000000000     
  0.65625000000000000       0.37500000000000000        0.0000000000000000     
  0.68750000000000000       0.37500000000000000        0.0000000000000000     
  0.71875000000000000       0.37500000000000000        0.0000000000000000     
  0.75000000000000000       0.37500000000000000        0.0000000000000000     
  0.75000000000000000       0.25000000000000000        0.0000000000000000     
  0.78125000000000000       0.25000000000000000        0.0000000000000000     
  0.81250000000000000       0.25000000000000000        0.0000000000000000     
  0.84375000000000000       0.25000000000000000        0.0000000000000000     
  0.87500000000000000       0.25000000000000000        0.0000000000000000     
  0.75000000000000000       0.28125000000000000        0.0000000000000000     
  0.78125000000000000       0.28125000000000000        0.0000000000000000     
  0.81250000000000000       0.28125000000000000        0.0000000000000000     
  0.84375000000000000       0.28125000000000000        0.0000000000000000     
  0.87500000000000000       0.28125000000000000        0.0000000000000000     
  0.75000000000000000       0.31250000000000000        0.0000000000000000     
  0.78125000000000000       0.31250000000000000        0.0000000000000000     
  0.81250000000000000       0.31250000000000000        0.0000000000000000     
  0.84375000000000000       0.31250000000000000        0.0000000000000000     
  0.87500000000000000       0.31250000000000000        0.0000000000000000     
  0.75000000000000000       0.34375000000000000        0.0000000000000000     
  0.78125000000000000       0.34375000000000000        0.0000000000000000     
  0.81250000000000000       0.34375000000000000        0.0000000000000000     
  0.84375000000000000       0.34375000000000000        0.0000000000000000     
  0.87500000000000000       0.34375000000000000        0.0000000000000000     
  0.75000000000000000       0.37500000000000000        0.0000000000000000     
  0.78125000000000000       0.37500000000000000        0.0000000000000000     
  0.81250000000000000       0.37500000000000000        0.0000000000000000     
  0.84375000000000000       0.37500000000000000        0.0000000000000000     
  0.87500000000000000       0.37500000000000000        0.0000000000000000     
  0.87500000000000000       0.25000000000000000        0.0000000000000000     
  0.90625000000000000       0.25000000000000000        0.0000000000000000     
  0.93750000000000000       0.25000000000000000        0.0000000000000000     
  0.96875000000000000       0.25000000000000000        0.0000000000000000     
   1.0000000000000000       0.25000000000000000        0.0000000000000000     
  0.87500000000000000       0.28125000000000000        0.0000000000000000     
  0.90625000000000000       0.28125000000000000        0.0000000000000000     
  0.93750000000000000       0.28125000000000000        0.0000000000000000     
  0.96875000000000000       0.28125000000000000        0.0000000000000000     
   1.0000000000000000       0.28125000000000000        0.0000000000000000     
  0.87500000000000000       0.31250000000000000        0.0000000000000000     
  0.90625000000000000       0.31250000000000000        0.0000000000000000     
  0.93750000000000000       0.31250000000000000        0.0000000000000000     
  0.96875000000000000       0.31250000000000000        0.0000000000000000     
   1.0000000000000000       0.31250000000000000        0.0000000000000000     
  0.87500000000000000       0.34375000000000000        0.0000000000000000     
  0.90625000000000000       0.34375000000000000        0.0000000000000000     
  0.93750000000000000       0.34375000000000000        0.0000000000000000     
  0.96875000000000000       0.34375000000000000        0.0000000000000000     
   1.0000000000000000       0.34375000000000000        0.0000000000000000     
  0.87500000000000000       0.37500000000000000        0.0000000000000000     
  0.90625000000000000       0.37500000000000000        0.0000000000000000     
  0.93750000000000000       0.37500000000000000        0.0000000000000000     
  0.96875000000000000       0.37500000000000000        0.0000000000000000     
   1.0000000000000000       0.37500000000000000        0.0000000000000000     
   1.0000000000000000       0.25000000000000000        0.0000000000000000     
   1.0312500000000000       0.25000000000000000        0.0000000000000000     
   1.0625000000000000       0.25000000000000000        0.0000000000000000     
   1.0937500000000000       0.25000000000000000        0.0000000000000000     
   1.1250000000000000       0.25000000000000000        0.0000000000000000     
   1.0000000000000000       0.28125000000000000        0.0000000000000000     
   1.0312500000000000       0.28125000000000000        0.0000000000000000     
   1.0625000000000000       0.28125000000000000        0.0000000000000000     
   1.0937500000000000       0.28125000000000000        0.0000000000000000     
   1.1250000000000000       0.28125000000000000        0.0000000000000000     
   1.0000000000000000       0.31250000000000000        0.0000000000000000     
   1.0312500000000000       0.31250000000000000        0.0000000000000000     
   1.0625000000000000       0.31250000000000000        0.0000000000000000     
   1.0937500000000000       0.31250000000000000        0.0000000000000000     
   1.1250000000000000       0.31250000000000000        0.0000000000000000     
   1.0000000000000000       0.34375000000000000        0.0000000000000000     
   1.0312500000000000       0.34375000000000000        0.0000000000000000     
   1.0625000000000000       0.34375000000000000        0.0000000000000000     
   1.0937500000000000       0.34375000000000000        0.0000000000000000     
   1.1250000000000000       0.34375000000000000        0.0000000000000000     
   1.0000000000000000       0.37500000000000000        0.0000000000000000     
   1.0312500000000000       0.37500000000000000        0.0000000000000000     
   1.0625000000000000       0.37500000000000000        0.0000000000000000     
   1.0937500000000000       0.37500000000000000        0.0000000000000000     
   1.1250000000000000       0.37500000000000000        0.0000000000000000     
   1.1250000000000000       0.25000000000000000        0.0000000000000000     
   1.1562500000000000       0.25000000000000000        0.0000000000000000     
   1.1875000000000000       0.25000000000000000        0.0000000000000000     
   1.2187500000000000       0.25000000000000000        0.0000000000000000     
   1.2500000000000000       0.25000000000000000        0.0000000000000000     
   1.1250000000000000       0.28125000000000000        0.0000000000000000     
   1.1562500000000000       0.28125000000000000        0.0000000000000000     
   1.1875000000000000       0.28125000000000000        0.0000000000000000     
   1.2187500000000000       0.28125000000000000        0.0000000000000000     
   1.2500000000000000       0.28125000000000000        0.0000000000000000     
   1.1250000000000000       0.31250000000000000        0.0000000000000000     
   1.1562500000000000       0.31250000000000000        0.0000000000000000     
   1.1875000000000000       0.31250000000000000        0.0000000000000000     
   1.2187500000000000       0.31250000000000000        0.0000000000000000     
   1.2500000000000000       0.31250000000000000        0.0000000000000000     
   1.1250000000000000       0.34375000000000000        0.0000000000000000     
   1.1562500000000000       0.34375000000000000        0.0000000000000000     
   1.1875000000000000       0.34375000000000000        0.0000000000000000     
   1.2187500000000000       0.34375000000000000        0.0000000000000000     
   1.2500000000000000       0.34375000000000000        0.0000000000000000     
   1.1250000000000000       0.37500000000000000        0.0000000000000000     
   1.1562500000000000       0.37500000000000000        0.0000000000000000     
   1.1875000000000000       0.37500000000000000        0.0000000000000000     
   1.2187500000000000       0.37500000000000000        0.0000000000000000     
   1.2500000000000000       0.37500000000000000        0.0000000000000000     
   1.2500000000000000       0.25000000000000000        0.0000000000000000     
   1.2812500000000000       0.25000000000000000        0.0000000000000000     
   1.3125000000000000       0.25000000000000000        0.0000000000000000     
   1.3437500000000000       0.25000000000000000        0.0000000000000000     
   1.3750000000000000       0.25000000000000000        0.0000000000000000     
   1.2500000000000000       0.28125000000000000        0.0000000000000000     
   1.2812500000000000       0.28125000000000000        0.0000000000000000     
   1.3125000000000000       0.28125000000000000        0.0000000000000000     
   1.3437500000000000       0.28125000000000000        0.0000000000000000     
   1.3750000000000000       0.28125000000000000        0.0000000000000000     
   1.2500000000000000       0.31250000000000000        0.0000000000000000     
   1.2812500000000000       0.31250000000000000        0.0000000000000000     
   1.3125000000000000       0.31250000000000000        0.0000000000000000     
   1.3437500000000000       0.31250000000000000        0.0000000000000000     
   1.3750000000000000       0.31250000000000000        0.0000000000000000     
   1.2500000000000000       0.34375000000000000        0.0000000000000000     
   1.2812500000000000       0.34375000000000000        0.0000000000000000     
   1.3125000000000000       0.34375000000000000        0.0000000000000000     
   1.3437500000000000       0.34375000000000000        0.0000000000000000     
   1.3750000000000000       0.34375000000000000        0.0000000000000000     
   1.2500000000000000       0.37500000000000000        0.0000000000000000     
   1.2812500000000000       0.37500000000000000        0.0000000000000000     
   1.3125000000000000       0.37500000000000000        0.0000000000000000     
   1.3437500000000000       0.37500000000000000        0.0000000000000000     
   1.3750000000000000       0.37500000000000000        0.0000000000000000     
   1.3750000000000000       0.25000000000000000        0.0000000000000000     
   1.4062500000000000       0.25000000000000000        0.0000000000000000     
   1.4375000000000000       0.25000000000000000        0.0000000000000000     
   1.4687500000000000       0.25000000000000000        0.0000000000000000     
   1.5000000000000000       0.25000000000000000        0.0000000000000000     
   1.3750000000000000       0.28125000000000000        0.0000000000000000     
   1.4062500000000000       0.28125000000000000        0.0000000000000000     
   1.4375000000000000       0.28125000000000000        0.0000000000000000     
   1.4687500000000000       0.28125000000000000        0.0000000000000000     
   1.5000000000000000       0.28125000000000000        0.0000000000000000     
   1.3750000000000000       0.31250000000000000        0.0000000000000000     
   1.4062500000000000       0.31250000000000000        0.0000000000000000     
   1.4375000000000000       0.31250000000000000        0.0000000000000000     
   1.4687500000000000       0.31250000000000000        0.0000000000000000     
   1.5000000000000000       0.31250000000000000        0.0000000000000000     
   1.3750000000000000       0.34375000000000000        0.0000000000000000     
   1.4062500000000000       0.34375000000000000        0.0000000000000000     
   1.4375000000000000       0.34375000000000000        0.0000000000000000     
   1.4687500000000000       0.34375000000000000        0.0000000000000000     
   1.5000000000000000       0.34375000000000000        0.0000000000000000     
   1.3750000000000000       0.37500000000000000        0.0000000000000000     
   1.4062500000000000       0.37500000000000000        0.0000000000000000     
   1.4375000000000000       0.37500000000000000        0.0000000000000000     
   1.4687500000000000       0.37500000000000000        0.0000000000000000     
   1.5000000000000000       0.37500000000000000        0.0000000000000000     
  0.50000000000000000       0.37500000000000000        0.0000000000000000     
  0.53125000000000000       0.37500000000000000        0.0000000000000000     
  0.56250000000000000       0.37500000000000000        0.0000000000000000     
  0.59375000000000000       0.37500000000000000        0.0000000000000000     
  0.62500000000000000       0.37500000000000000        0.0000000000000000     
  0.50000000000000000       0.40625000000000000        0.0000000000000000     
  0.53125000000000000       0.40625000000000000        0.0000000000000000     
  0.56250000000000000       0.40625000000000000        0.0000000000000000     
  0.59375000000000000       0.40625000000000000        0.0000000000000000     
  0.62500000000000000       0.40625000000000000        0.0000000000000000     
  0.50000000000000000       0.43750000000000000        0.0000000000000000     
  0.53125000000000000       0.43750000000000000        0.0000000000000000     
  0.56250000000000000       0.43750000000000000        0.0000000000000000     
  0.59375000000000000       0.43750000000000000        0.0000000000000000     
  0.62500000000000000       0.43750000000000000        0.0000000000000000     
  0.50000000000000000       0.46875000000000000        0.0000000000000000     
  0.53125000000000000       0.46875000000000000        0.0000000000000000     
  0.56250000000000000       0.46875000000000000        0.0000000000000000     
  0.59375000000000000       0.46875000000000000        0.0000000000000000     
  0.62500000000000000       0.46875000000000000        0.0000000000000000     
  0.50000000000000000       0.50000000000000000        0.0000000000000000     
  0.53125000000000000       0.50000000000000000        0.0000000000000000     
  0.56250000000000000       0.50000000000000000        0.0000000000000000     
  0.59375000000000000       0.50000000000000000        0.0000000000000000     
  0.62500000000000000       0.50000000000000000        0.0000000000000000     
  0.62500000000000000       0.37500000000000000        0.0000000000000000     
  0.65625000000000000       0.37500000000000000        0.0000000000000000     
  0.68750000000000000       0.37500000000000000        0.0000000000000000     
  0.71875000000000000       0.37500000000000000        0.0000000000000000     
  0.75000000000000000       0.37500000000000000        0.0000000000000000     
  0.62500000000000000       0.40625000000000000        0.0000000000000000     
  0.65625000000000000       0.40625000000000000        0.0000000000000000     
  0.68750000000000000       0.40625000000000000        0.0000000000000000     
  0.71875000000000000       0.40625000000000000        0.0000000000000000     
  0.75000000000000000       0.40625000000000000        0.0000000000000000     
  0.62500000000000000       0.43750000000000000        0.0000000000000000     
  0.65625000000000000       0.43750000000000000        0.0000000000000000     
  0.68750000000000000       0.43750000000000000        0.0000000000000000     
  0.71875000000000000       0.43750000000000000        0.0000000000000000     
  0.75000000000000000       0.43750000000000000        0.0000000000000000     
  0.62500000000000000       0.46875000000000000        0.0000000000000000     
  0.65625000000000000       0.46875000000000000        0.0000000000000000     
  0.68750000000000000       0.46875000000000000        0.0000000000000000     
  0.71875000000000000       0.46875000000000000        0.0000000000000000     
  0.75000000000000000       0.46875000000000000        0.0000000000000000     
  0.62500000000000000       0.50000000000000000        0.0000000000000000     
  0.65625000000000000       0.50000000000000000        0.0000000000000000     
  0.68750000000000000       0.50000000000000000        0.0000000000000000     
  0.71875000000000000       0.50000000000000000        0.0000000000000000     
  0.75000000000000000       0.50000000000000000        0.0000000000000000     
  0.75000000000000000       0.37500000000000000        0.0000000000000000     
  0.78125000000000000       0.37500000000000000        0.0000000000000000     
  0.81250000000000000       0.37500000000000000        0.0000000000000000     
  0.84375000000000000       0.37500000000000000        0.0000000000000000     
  0.87500000000000000       0.37500000000000000        0.0000000000000000     
  0.75000000000000000       0.40625000000000000        0.0000000000000000     
  0.78125000000000000       0.40625000000000000        0.0000000000000000     
  0.81250000000000000       0.40625000000000000        0.0000000000000000     
  0.84375000000000000       0.40625000000000000        0.0000000000000000     
  0.87500000000000000       0.40625000000000000        0.0000000000000000     
  0.75000000000000000       0.43750000000000000        0.0000000000000000     
  0.78125000000000000       0.43750000000000000        0.0000000000000000     
  0.81250000000000000       0.43750000000000000        0.0000000000000000     
  0.84375000000000000       0.43750000000000000        0.0000000000000000     
  0.87500000000000000       0.43750000000000000        0.0000000000000000     
  0.75000000000000000       0.46875000000000000        0.0000000000000000     
  0.78125000000000000       0.46875000000000000        0.0000000000000000     
  0.81250000000000000       0.46875000000000000        0.0000000000000000     
  0.84375000000000000       0.46875000000000000        0.0000000000000000     
  0.87500000000000000       0.46875000000000000        0.0000000000000000     
  0.75000000000000000       0.50000000000000000        0.0000000000000000     
  0.78125000000000000       0.50000000000000000        0.0000000000000000     
  0.81250000000000000       0.50000000000000000        0.0000000000000000     
  0.84375000000000000       0.50000000000000000        0.0000000000000000     
  0.87500000000000000       0.50000000000000000        0.0000000000000000     
  0.87500000000000000       0.37500000000000000        0.0000000000000000     
  0.90625000000000000       0.37500000000000000        0.0000000000000000     
  0.93750000000000000       0.37500000000000000        0.0000000000000000     
  0.96875000000000000       0.37500000000000000        0.0000000000000000     
   1.0000000000000000       0.37500000000000000        0.0000000000000000     
  0.87500000000000000       0.40625000000000000        0.0000000000000000     
  0.90625000000000000       0.40625000000000000        0.0000000000000000     
  0.93750000000000000       0.40625000000000000        0.0000000000000000     
  0.96875000000000000       0.40625000000000000        0.0000000000000000     
   1.0000000000000000       0.40625000000000000        0.0000000000000000     
  0.87500000000000000       0.43750000000000000        0.0000000000000000     
  0.90625000000000000       0.43750000000000000        0.0000000000000000     
  0.93750000000000000       0.43750000000000000        0.0000000000000000     
  0.96875000000000000       0.43750000000000000        0.0000000000000000     
   1.0000000000000000       0.43750000000000000        0.0000000000000000     
  0.87500000000000000       0.46875000000000000        0.0000000000000000     
  0.90625000000000000       0.46875000000000000        0.0000000000000000     
  0.93750000000000000       0.46875000000000000        0.0000000000000000     
  0.96875000000000000       0.46875000000000000        0.0000000000000000     
   1.0000000000000000       0.46875000000000000        0.0000000000000000     
  0.87500000000000000       0.50000000000000000        0.0000000000000000     
  0.90625000000000000       0.50000000000000000        0.0000000000000000     
  0.93750000000000000       0.50000000000000000        0.0000000000000000     
  0.96875000000000000       0.50000000000000000        0.0000000000000000     
   1.0000000000000000       0.50000000000000000        0.0000000000000000     
   1.0000000000000000       0.37500000000000000        0.0000000000000000     
   1.0312500000000000       0.37500000000000000        0.0000000000000000     
   1.0625000000000000       0.37500000000000000        0.0000000000000000     
   1.0937500000000000       0.37500000000000000        0.0000000000000000     
   1.1250000000000000       0.37500000000000000        0.0000000000000000     
   1.0000000000000000       0.40625000000000000        0.0000000000000000     
   1.0312500000000000       0.40625000000000000        0.0000000000000000     
   1.0625000000000000       0.40625000000000000        0.0000000000000000     
   1.0937500000000000       0.40625000000000000        0.0000000000000000     
   1.1250000000000000       0.40625000000000000        0.0000000000000000     
   1.0000000000000000       0.43750000000000000        0.0000000000000000     
   1.0312500000000000       0.43750000000000000        0.0000000000000000     
   1.0625000000000000       0.43750000000000000        0.0000000000000000     
   1.0937500000000000       0.43750000000000000        0.0000000000000000     
   1.1250000000000000       0.43750000000000000        0.0000000000000000     
   1.0000000000000000       0.46875000000000000        0.0000000000000000     
   1.0312500000000000       0.46875000000000000        0.0000000000000000     
   1.0625000000000000       0.46875000000000000        0.0000000000000000     
   1.0937500000000000       0.46875000000000000        0.0000000000000000     
   1.1250000000000000       0.46875000000000000        0.0000000000000000     
   1.0000000000000000       0.50000000000000000        0.0000000000000000     
   1.0312500000000000       0.50000000000000000        0.0000000000000000     
   1.0625000000000000       0.50000000000000000        0.0000000000000000     
   1.0937500000000000       0.50000000000000000        0.0000000000000000     
   1.1250000000000000       0.50000000000000000        0.0000000000000000     
   1.1250000000000000       0.37500000000000000        0.0000000000000000     
   1.1562500000000000       0.37500000000000000        0.0000000000000000     
   1.1875000000000000       0.37500000000000000        0.0000000000000000     
   1.2187500000000000       0.37500000000000000        0.0000000000000000     
   1.2500000000000000       0.37500000000000000        0.0000000000000000     
   1.1250000000000000       0.40625000000000000        0.0000000000000000     
   1.1562500000000000       0.40625000000000000        0.0000000000000000     
   1.1875000000000000       0.40625000000000000        0.0000000000000000     
   1.2187500000000000       0.40625000000000000        0.0000000000000000     
   1.2500000000000000       0.40625000000000000        0.0000000000000000     
   1.1250000000000000       0.43750000000000000        0.0000000000000000     
   1.1562500000000000       0.43750000000000000        0.0000000000000000     
   1.1875000000000000       0.43750000000000000        0.0000000000000000     
   1.2187500000000000       0.43750000000000000        0.0000000000000000     
   1.2500000000000000       0.43750000000000000        0.0000000000000000     
   1.1250000000000000       0.46875000000000000        0.0000000000000000     
   1.1562500000000000       0.46875000000000000        0.0000000000000000     
   1.1875000000000000       0.46875000000000000        0.0000000000000000     
   1.2187500000000000       0.46875000000000000        0.0000000000000000     
   1.2500000000000000       0.46875000000000000        0.0000000000000000     
   1.1250000000000000       0.50000000000000000        0.0000000000000000     
   1.1562500000000000       0.50000000000000000        0.0000000000000000     
   1.1875000000000000       0.50000000000000000        0.0000000000000000     
   1.2187500000000000       0.50000000000000000        0.0000000000000000     
   1.2500000000000000       0.50000000000000000        0.0000000000000000     
   1.2500000000000000       0.37500000000000000        0.0000000000000000     
   1.2812500000000000       0.37500000000000000        0.0000000000000000     
   1.3125000000000000       0.37500000000000000        0.0000000000000000     
   1.3437500000000000       0.37500000000000000        0.0000000000000000     
   1.3750000000000000       0.37500000000000000        0.0000000000000000     
   1.2500000000000000       0.40625000000000000        0.0000000000000000     
   1.2812500000000000       0.40625000000000000        0.0000000000000000     
   1.3125000000000000       0.40625000000000000        0.0000000000000000     
   1.3437500000000000       0.40625000000000000        0.0000000000000000     
   1.3750000000000000       0.40625000000000000        0.0000000000000000     
   1.2500000000000000       0.43750000000000000        0.0000000000000000     
   1.2812500000000000       0.43750000000000000        0.0000000000000000     
   1.3125000000000000       0.43750000000000000        0.0000000000000000     
   1.3437500000000000       0.43750000000000000        0.0000000000000000     
   1.3750000000000000       0.43750000000000000        0.0000000000000000     
   1.2500000000000000       0.46875000000000000        0.0000000000000000     
   1.2812500000000000       0.46875000000000000        0.0000000000000000     
   1.3125000000000000       0.46875000000000000        0.0000000000000000     
   1.3437500000000000       0.46875000000000000        0.0000000000000000     
   1.3750000000000000       0.46875000000000000        0.0000000000000000     
   1.2500000000000000       0.50000000000000000        0.0000000000000000     
   1.2812500000000000       0.50000000000000000        0.0000000000000000     
   1.3125000000000000       0.50000000000000000        0.0000000000000000     
   1.3437500000000000       0.50000000000000000        0.0000000000000000     
   1.3750000000000000       0.50000000000000000        0.0000000000000000     
   1.3750000000000000       0.37500000000000000        0.0000000000000000     
   1.4062500000000000       0.37500000000000000        0.0000000000000000     
   1.4375000000000000       0.37500000000000000        0.0000000000000000     
   1.4687500000000000       0.37500000000000000        0.0000000000000000     
   1.5000000000000000       0.37500000000000000        0.0000000000000000     
   1.3750000000000000       0.40625000000000000        0.0000000000000000     
   1.4062500000000000       0.40625000000000000        0.0000000000000000     
   1.4375000000000000       0.40625000000000000        0.0000000000000000     
   1.4687500000000000       0.40625000000000000        0.0000000000000000     
   1.5000000000000000       0.40625000000000000        0.0000000000000000     
   1.3750000000000000       0.43750000000000000        0.0000000000000000     
   1.4062500000000000       0.43750000000000000        0.0000000000000000     
   1.4375000000000000       0.43750000000000000        0.0000000000000000     
   1.4687500000000000       0.43750000000000000        0.0000000000000000     
   1.5000000000000000       0.43750000000000000        0.0000000000000000     
   1.3750000000000000       0.46875000000000000        0.0000000000000000     
   1.4062500000000000       0.46875000000000000        0.0000000000000000     
   1.4375000000000000       0.46875000000000000        0.0000000000000000     
   1.4687500000000000       0.46875000000000000        0.0000000000000000     
   1.5000000000000000       0.46875000000000000        0.0000000000000000     
   1.3750000000000000       0.50000000000000000        0.0000000000000000     
   1.4062500000000000       0.50000000000000000        0.0000000000000000     
   1.4375000000000000       0.50000000000000000        0.0000000000000000     
   1.4687500000000000       0.50000000000000000        0.0000000000000000     
   1.5000000000000000       0.50000000000000000        0.0000000000000000     
  0.50000000000000000       0.50000000000000000        0.0000000000000000     
  0.53125000000000000       0.50000000000000000        0.0000000000000000     
  0.56250000000000000       0.50000000000000000        0.0000000000000000     
  0.59375000000000000       0.50000000000000000        0.0000000000000000     
  0.62500000000000000       0.50000000000000000        0.0000000000000000     
  0.50000000000000000       0.53125000000000000        0.0000000000000000     
  0.53125000000000000       0.53125000000000000        0.0000000000000000     
  0.56250000000000000       0.53125000000000000        0.0000000000000000     
  0.59375000000000000       0.53125000000000000        0.0000000000000000     
  0.62500000000000000       0.53125000000000000        0.0000000000000000     
  0.50000000000000000       0.56250000000000000        0.0000000000000000     
  0.53125000000000000       0.56250000000000000        0.0000000000000000     
  0.56250000000000000       0.56250000000000000        0.0000000000000000     
  0.59375000000000000       0.56250000000000000        0.0000000000000000     
  0.62500000000000000       0.56250000000000000        0.0000000000000000     
  0.50000000000000000       0.59375000000000000        0.0000000000000000     
  0.53125000000000000       0.59375000000000000        0.0000000000000000     
  0.56250000000000000       0.59375000000000000        0.0000000000000000     
  0.59375000000000000       0.59375000000000000        0.0000000000000000     
  0.62500000000000000       0.59375000000000000        0.0000000000000000     
  0.50000000000000000       0.62500000000000000        0.0000000000000000     
  0.53125000000000000       0.62500000000000000        0.0000000000000000     
  0.56250000000000000       0.62500000000000000        0.0000000000000000     
  0.59375000000000000       0.62500000000000000        0.0000000000000000     
  0.62500000000000000       0.62500000000000000        0.0000000000000000     
  0.62500000000000000       0.50000000000000000        0.0000000000000000     
  0.65625000000000000       0.50000000000000000        0.0000000000000000     
  0.68750000000000000       0.50000000000000000        0.0000000000000000     
  0.71875000000000000       0.50000000000000000        0.0000000000000000     
  0.75000000000000000       0.50000000000000000        0.0000000000000000     
  0.62500000000000000       0.53125000000000000        0.0000000000000000     
  0.65625000000000000       0.53125000000000000        0.0000000000000000     
  0.68750000000000000       0.53125000000000000        0.0000000000000000     
  0.71875000000000000       0.53125000000000000        0.0000000000000000     
  0.75000000000000000       0.53125000000000000        0.0000000000000000     
  0.62500000000000000       0.56250000000000000        0.0000000000000000     
  0.65625000000000000       0.56250000000000000        0.0000000000000000     
  0.68750000000000000       0.56250000000000000        0.0000000000000000     
  0.71875000000000000       0.56250000000000000        0.0000000000000000     
  0.75000000000000000       0.56250000000000000        0.0000000000000000     
  0.62500000000000000       0.59375000000000000        0.0000000000000000     
  0.65625000000000000       0.59375000000000000        0.0000000000000000     
  0.68750000000000000       0.59375000000000000        0.0000000000000000     
  0.71875000000000000       0.59375000000000000        0.0000000000000000     
  0.75000000000000000       0.59375000000000000        0.0000000000000000     
  0.62500000000000000       0.62500000000000000        0.0000000000000000     
  0.65625000000000000       0.62500000000000000        0.0000000000000000     
  0.68750000000000000       0.62500000000000000        0.0000000000000000     
  0.71875000000000000       0.62500000000000000        0.0000000000000000     
  0.75000000000000000       0.62500000000000000        0.0000000000000000     
  0.75000000000000000       0.50000000000000000        0.0000000000000000     
  0.78125000000000000       0.50000000000000000        0.0000000000000000     
  0.81250000000000000       0.50000000000000000        0.0000000000000000     
  0.84375000000000000       0.50000000000000000        0.0000000000000000     
  0.87500000000000000       0.50000000000000000        0.0000000000000000     
  0.75000000000000000       0.53125000000000000        0.0000000000000000     
  0.78125000000000000       0.53125000000000000        0.0000000000000000     
  0.81250000000000000       0.53125000000000000        0.0000000000000000     
  0.84375000000000000       0.53125000000000000        0.0000000000000000     
  0.87500000000000000       0.53125000000000000        0.0000000000000000     
  0.75000000000000000       0.56250000000000000        0.0000000000000000     
  0.78125000000000000       0.56250000000000000        0.0000000000000000     
  0.81250000000000000       0.56250000000000000        0.0000000000000000     
  0.84375000000000000       0.56250000000000000        0.0000000000000000     
  0.87500000000000000       0.56250000000000000        0.0000000000000000     
  0.75000000000000000       0.59375000000000000        0.0000000000000000     
  0.78125000000000000       0.59375000000000000        0.0000000000000000     
  0.81250000000000000       0.59375000000000000        0.0000000000000000     
  0.84375000000000000       0.59375000000000000        0.0000000000000000     
  0.87500000000000000       0.59375000000000000        0.0000000000000000     
  0.75000000000000000       0.62500000000000000        0.0000000000000000     
  0.78125000000000000       0.62500000000000000        0.0000000000000000     
  0.81250000000000000       0.62500000000000000        0.0000000000000000     
  0.84375000000000000       0.62500000000000000        0.0000000000000000     
  0.87500000000000000       0.62500000000000000        0.0000000000000000     
  0.87500000000000000       0.50000000000000000        0.0000000000000000     
  0.90625000000000000       0.50000000000000000        0.0000000000000000     
  0.93750000000000000       0.50000000000000000        0.0000000000000000     
  0.96875000000000000       0.50000000000000000        0.0000000000000000     
   1.0000000000000000       0.50000000000000000        0.0000000000000000     
  0.87500000000000000       0.53125000000000000        0.0000000000000000     
  0.90625000000000000       0.53125000000000000        0.0000000000000000     
  0.93750000000000000       0.53125000000000000        0.0000000000000000     
  0.96875000000000000       0.53125000000000000        0.0000000000000000     
   1.0000000000000000       0.53125000000000000        0.0000000000000000     
  0.87500000000000000       0.56250000000000000        0.0000000000000000     
  0.90625000000000000       0.56250000000000000        0.0000000000000000     
  0.93750000000000000       0.56250000000000000        0.0000000000000000     
  0.96875000000000000       0.56250000000000000        0.0000000000000000     
   1.0000000000000000       0.56250000000000000        0.0000000000000000     
  0.87500000000000000       0.59375000000000000        0.0000000000000000     
  0.90625000000000000       0.59375000000000000        0.0000000000000000     
  0.93750000000000000       0.59375000000000000        0.0000000000000000     
  0.96875000000000000       0.59375000000000000        0.0000000000000000     
   1.0000000000000000       0.59375000000000000        0.0000000000000000     
  0.87500000000000000       0.62500000000000000        0.0000000000000000     
  0.90625000000000000       0.62500000000000000        0.0000000000000000     
  0.93750000000000000       0.62500000000000000        0.0000000000000000     
  0.96875000000000000       0.62500000000000000        0.0000000000000000     
   1.0000000000000000       0.62500000000000000        0.0000000000000000     
   1.0000000000000000       0.50000000000000000        0.0000000000000000     
   1.0312500000000000       0.50000000000000000        0.0000000000000000     
   1.0625000000000000       0.50000000000000000        0.0000000000000000     
   1.0937500000000000       0.50000000000000000        0.0000000000000000     
   1.1250000000000000       0.50000000000000000        0.0000000000000000     
   1.0000000000000000       0.53125000000000000        0.0000000000000000     
   1.0312500000000000       0.53125000000000000        0.0000000000000000     
   1.0625000000000000       0.53125000000000000        0.0000000000000000     
   1.0937500000000000       0.53125000000000000        0.0000000000000000     
   1.1250000000000000       0.53125000000000000        0.0000000000000000     
   1.0000000000000000       0.56250000000000000        0.0000000000000000     
   1.0312500000000000       0.56250000000000000        0.0000000000000000     
   1.0625000000000000       0.56250000000000000        0.0000000000000000     
   1.0937500000000000       0.56250000000000000        0.0000000000000000     
   1.1250000000000000       0.56250000000000000        0.0000000000000000     
   1.0000000000000000       0.59375000000000000        0.0000000000000000     
   1.0312500000000000       0.59375000000000000        0.0000000000000000     
   1.0625000000000000       0.59375000000000000        0.0000000000000000     
   1.0937500000000000       0.59375000000000000        0.0000000000000000     
   1.1250000000000000       0.59375000000000000        0.0000000000000000     
   1.0000000000000000       0.62500000000000000        0.0000000000000000     
   1.0312500000000000       0.62500000000000000        0.0000000000000000     
   1.0625000000000000       0.62500000000000000        0.0000000000000000     
   1.0937500000000000       0.62500000000000000        0.0000000000000000     
   1.1250000000000000       0.62500000000000000        0.0000000000000000     
   1.1250000000000000       0.50000000000000000        0.0000000000000000     
   1.1562500000000000       0.50000000000000000        0.0000000000000000     
   1.1875000000000000       0.50000000000000000        0.0000000000000000     
   1.2187500000000000       0.50000000000000000        0.0000000000000000     
   1.2500000000000000       0.50000000000000000        0.0000000000000000     
   1.1250000000000000       0.53125000000000000        0.0000000000000000     
   1.1562500000000000       0.53125000000000000        0.0000000000000000     
   1.1875000000000000       0.53125000000000000        0.0000000000000000     
   1.2187500000000000       0.53125000000000000        0.0000000000000000     
   1.2500000000000000       0.53125000000000000        0.0000000000000000     
   1.1250000000000000       0.56250000000000000        0.0000000000000000     
   1.1562500000000000       0.56250000000000000        0.0000000000000000     
   1.1875000000000000       0.56250000000000000        0.0000000000000000     
   1.2187500000000000       0.56250000000000000        0.0000000000000000     
   1.2500000000000000       0.56250000000000000        0.0000000000000000     
   1.1250000000000000       0.59375000000000000        0.0000000000000000     
   1.1562500000000000       0.59375000000000000        0.0000000000000000     
   1.1875000000000000       0.59375000000000000        0.0000000000000000     
   1.2187500000000000       0.59375000000000000        0.0000000000000000     
   1.2500000000000000       0.59375000000000000        0.0000000000000000     
   1.1250000000000000       0.62500000000000000        0.0000000000000000     
   1.1562500000000000       0.62500000000000000        0.0000000000000000     
   1.1875000000000000       0.62500000000000000        0.0000000000000000     
   1.2187500000000000       0.62500000000000000        0.0000000000000000     
   1.2500000000000000       0.62500000000000000        0.0000000000000000     
   1.2500000000000000       0.50000000000000000        0.0000000000000000     
   1.2812500000000000       0.50000000000000000        0.0000000000000000     
   1.3125000000000000       0.50000000000000000        0.0000000000000000     
   1.3437500000000000       0.50000000000000000        0.0000000000000000     
   1.3750000000000000       0.50000000000000000        0.0000000000000000     
   1.2500000000000000       0.53125000000000000        0.0000000000000000     
   1.2812500000000000       0.53125000000000000        0.0000000000000000     
   1.3125000000000000       0.53125000000000000        0.0000000000000000     
   1.3437500000000000       0.53125000000000000        0.0000000000000000     
   1.3750000000000000       0.53125000000000000        0.0000000000000000     
   1.2500000000000000       0.56250000000000000        0.0000000000000000     
   1.2812500000000000       0.56250000000000000        0.0000000000000000     
   1.3125000000000000       0.56250000000000000        0.0000000000000000     
   1.3437500000000000       0.56250000000000000        0.0000000000000000     
   1.3750000000000000       0.56250000000000000        0.0000000000000000     
   1.2500000000000000       0.59375000000000000        0.0000000000000000     
   1.2812500000000000       0.59375000000000000        0.0000000000000000     
   1.3125000000000000       0.59375000000000000        0.0000000000000000     
   1.3437500000000000       0.59375000000000000        0.0000000000000000     
   1.3750000000000000       0.59375000000000000        0.0000000000000000     
   1.2500000000000000       0.62500000000000000        0.0000000000000000     
   1.2812500000000000       0.62500000000000000        0.0000000000000000     
   1.3125000000000000       0.62500000000000000        0.0000000000000000     
   1.3437500000000000       0.62500000000000000        0.0000000000000000     
   1.3750000000000000       0.62500000000000000        0.0000000000000000     
   1.3750000000000000       0.50000000000000000        0.0000000000000000     
   1.4062500000000000       0.50000000000000000        0.0000000000000000     
   1.4375000000000000       0.50000000000000000        0.0000000000000000     
   1.4687500000000000       0.50000000000000000        0.0000000000000000     
   1.5000000000000000       0.50000000000000000        0.0000000000000000     
   1.3750000000000000       0.53125000000000000        0.0000000000000000     
   1.4062500000000000       0.53125000000000000        0.0000000000000000     
   1.4375000000000000       0.53125000000000000        0.0000000000000000     
   1.4687500000000000       0.53125000000000000        0.0000000000000000     
   1.5000000000000000       0.53125000000000000        0.0000000000000000     
   1.3750000000000000       0.56250000000000000        0.0000000000000000     
   1.4062500000000000       0.56250000000000000        0.0000000000000000     
   1.4375000000000000       0.56250000000000000        0.0000000000000000     
   1.4687500000000000       0.56250000000000000        0.0000000000000000     
   1.5000000000000000       0.56250000000000000        0.0000000000000000     
   1.3750000000000000       0.59375000000000000        0.0000000000000000     
   1.4062500000000000       0.59375000000000000        0.0000000000000000     
   1.4375000000000000       0.59375000000000000        0.0000000000000000     
   1.4687500000000000       0.59375000000000000        0.0000000000000000     
   1.5000000000000000       0.59375000000000000        0.0000000000000000     
   1.3750000000000000       0.62500000000000000        0.0000000000000000     
   1.4062500000000000       0.62500000000000000        0.0000000000000000     
   1.4375000000000000       0.62500000000000000        0.0000000000000000     
   1.4687500000000000       0.62500000000000000        0.0000000000000000     
   1.5000000000000000       0.62500000000000000        0.0000000000000000     
  0.50000000000000000       0.62500000000000000        0.0000000000000000     
  0.53125000000000000       0.62500000000000000        0.0000000000000000     
  0.56250000000000000       0.62500000000000000        0.0000000000000000     
  0.59375000000000000       0.62500000000000000        0.0000000000000000     
  0.62500000000000000       0.62500000000000000        0.0000000000000000     
  0.50000000000000000       0.65625000000000000        0.0000000000000000     
  0.53125000000000000       0.65625000000000000        0.0000000000000000     
  0.56250000000000000       0.65625000000000000        0.0000000000000000     
  0.59375000000000000       0.65625000000000000        0.0000000000000000     
  0.62500000000000000       0.65625000000000000        0.0000000000000000     
  0.50000000000000000       0.68750000000000000        0.0000000000000000     
  0.53125000000000000       0.68750000000000000        0.0000000000000000     
  0.56250000000000000       0.68750000000000000        0.0000000000000000     
  0.59375000000000000       0.68750000000000000        0.0000000000000000     
  0.62500000000000000       0.68750000000000000        0.0000000000000000     
  0.50000000000000000       0.71875000000000000        0.0000000000000000     
  0.53125000000000000       0.71875000000000000        0.0000000000000000     
  0.56250000000000000       0.71875000000000000        0.0000000000000000     
  0.59375000000000000       0.71875000000000000        0.0000000000000000     
  0.62500000000000000       0.71875000000000000        0.0000000000000000     
  0.50000000000000000       0.75000000000000000        0.0000000000000000     
  0.53125000000000000       0.75000000000000000        0.0000000000000000     
  0.56250000000000000       0.75000000000000000        0.0000000000000000     
  0.59375000000000000       0.75000000000000000        0.0000000000000000     
  0.62500000000000000       0.75000000000000000        0.0000000000000000     
  0.62500000000000000       0.62500000000000000        0.0000000000000000     
  0.65625000000000000       0.62500000000000000        0.0000000000000000     
  0.68750000000000000       0.62500000000000000        0.0000000000000000     
  0.71875000000000000       0.62500000000000000        0.0000000000000000     
  0.75000000000000000       0.62500000000000000        0.0000000000000000     
  0.62500000000000000       0.65625000000000000        0.0000000000000000     
  0.65625000000000000       0.65625000000000000        0.0000000000000000     
  0.68750000000000000       0.65625000000000000        0.0000000000000000     
  0.71875000000000000       0.65625000000000000        0.0000000000000000     
  0.75000000000000000       0.65625000000000000        0.0000000000000000     
  0.62500000000000000       0.68750000000000000        0.0000000000000000     
  0.65625000000000000       0.68750000000000000        0.0000000000000000     
  0.68750000000000000       0.68750000000000000        0.0000000000000000     
  0.71875000000000000       0.68750000000000000        0.0000000000000000     
  0.75000000000000000       0.68750000000000000        0.0000000000000000     
  0.62500000000000000       0.71875000000000000        0.0000000000000000     
  0.65625000000000000       0.71875000000000000        0.0000000000000000     
  0.68750000000000000       0.71875000000000000        0.0000000000000000     
  0.71875000000000000       0.71875000000000000        0.0000000000000000     
  0.75000000000000000       0.71875000000000000        0.0000000000000000     
  0.62500000000000000       0.75000000000000000        0.0000000000000000     
  0.65625000000000000       0.75000000000000000        0.0000000000000000     
  0.68750000000000000       0.75000000000000000        0.0000000000000000     
  0.71875000000000000       0.75000000000000000        0.0000000000000000     
  0.75000000000000000       0.75000000000000000        0.0000000000000000     
  0.75000000000000000       0.62500000000000000        0.0000000000000000     
  0.78125000000000000       0.62500000000000000        0.0000000000000000     
  0.81250000000000000       0.62500000000000000        0.0000000000000000     
  0.84375000000000000       0.62500000000000000        0.0000000000000000     
  0.87500000000000000       0.62500000000000000        0.0000000000000000     
  0.75000000000000000       0.65625000000000000        0.0000000000000000     
  0.78125000000000000       0.65625000000000000        0.0000000000000000     
  0.81250000000000000       0.65625000000000000        0.0000000000000000     
  0.84375000000000000       0.65625000000000000        0.0000000000000000     
  0.87500000000000000       0.65625000000000000        0.0000000000000000     
  0.75000000000000000       0.68750000000000000        0.0000000000000000     
  0.78125000000000000       0.68750000000000000        0.0000000000000000     
  0.81250000000000000       0.68750000000000000        0.0000000000000000     
  0.84375000000000000       0.68750000000000000        0.0000000000000000     
  0.87500000000000000       0.68750000000000000        0.0000000000000000     
  0.75000000000000000       0.71875000000000000        0.0000000000000000     
  0.78125000000000000       0.71875000000000000        0.0000000000000000     
  0.81250000000000000       0.71875000000000000        0.0000000000000000     
  0.84375000000000000       0.71875000000000000        0.0000000000000000     
  0.87500000000000000       0.71875000000000000        0.0000000000000000     
  0.75000000000000000       0.75000000000000000        0.0000000000000000     
  0.78125000000000000       0.75000000000000000        0.0000000000000000     
  0.81250000000000000       0.75000000000000000        0.0000000000000000     
  0.84375000000000000       0.75000000000000000        0.0000000000000000     
  0.87500000000000000       0.75000000000000000        0.0000000000000000     
  0.87500000000000000       0.62500000000000000        0.0000000000000000     
  0.90625000000000000       0.62500000000000000        0.0000000000000000     
  0.93750000000000000       0.62500000000000000        0.0000000000000000     
  0.96875000000000000       0.62500000000000000        0.0000000000000000     
   1.0000000000000000       0.62500000000000000        0.0000000000000000     
  0.87500000000000000       0.65625000000000000        0.0000000000000000     
  0.90625000000000000       0.65625000000000000        0.0000000000000000     
  0.93750000000000000       0.65625000000000000        0.0000000000000000     
  0.96875000000000000       0.65625000000000000        0.0000000000000000     
   1.0000000000000000       0.65625000000000000        0.0000000000000000     
  0.87500000000000000       0.68750000000000000        0.0000000000000000     
  0.90625000000000000       0.68750000000000000        0.0000000000000000     
  0.93750000000000000       0.68750000000000000        0.0000000000000000     
  0.96875000000000000       0.68750000000000000        0.0000000000000000     
   1.0000000000000000       0.68750000000000000        0.0000000000000000     
  0.87500000000000000       0.71875000000000000        0.0000000000000000     
  0.90625000000000000       0.71875000000000000        0.0000000000000000     
  0.93750000000000000       0.71875000000000000        0.0000000000000000     
  0.96875000000000000       0.71875000000000000        0.0000000000000000     
   1.0000000000000000       0.71875000000000000        0.0000000000000000     
  0.87500000000000000       0.75000000000000000        0.0000000000000000     
  0.90625000000000000       0.75000000000000000        0.0000000000000000     
  0.93750000000000000       0.75000000000000000        0.0000000000000000     
  0.96875000000000000       0.75000000000000000        0.0000000000000000     
   1.0000000000000000       0.75000000000000000        0.0000000000000000     
   1.0000000000000000       0.62500000000000000        0.0000000000000000     
   1.0312500000000000       0.62500000000000000        0.0000000000000000     
   1.0625000000000000       0.62500000000000000        0.0000000000000000     
   1.0937500000000000       0.62500000000000000        0.0000000000000000     
   1.1250000000000000       0.62500000000000000        0.0000000000000000     
   1.0000000000000000       0.65625000000000000        0.0000000000000000     
   1.0312500000000000       0.65625000000000000        0.0000000000000000     
   1.0625000000000000       0.65625000000000000        0.0000000000000000     
   1.0937500000000000       0.65625000000000000        0.0000000000000000     
   1.1250000000000000       0.65625000000000000        0.0000000000000000     
   1.0000000000000000       0.68750000000000000        0.0000000000000000     
   1.0312500000000000       0.68750000000000000        0.0000000000000000     
   1.0625000000000000       0.68750000000000000        0.0000000000000000     
   1.0937500000000000       0.68750000000000000        0.0000000000000000     
   1.1250000000000000       0.68750000000000000        0.0000000000000000     
   1.0000000000000000       0.71875000000000000        0.0000000000000000     
   1.0312500000000000       0.71875000000000000        0.0000000000000000     
   1.0625000000000000       0.71875000000000000        0.0000000000000000     
   1.0937500000000000       0.71875000000000000        0.0000000000000000     
   1.1250000000000000       0.71875000000000000        0.0000000000000000     
   1.0000000000000000       0.75000000000000000        0.0000000000000000     
   1.0312500000000000       0.75000000000000000        0.0000000000000000     
   1.0625000000000000       0.75000000000000000        0.0000000000000000     
   1.0937500000000000       0.75000000000000000        0.0000000000000000     
   1.1250000000000000       0.75000000000000000        0.0000000000000000     
   1.1250000000000000       0.62500000000000000        0.0000000000000000     
   1.1562500000000000       0.62500000000000000        0.0000000000000000     
   1.1875000000000000       0.62500000000000000        0.0000000000000000     
   1.2187500000000000       0.62500000000000000        0.0000000000000000     
   1.2500000000000000       0.62500000000000000        0.0000000000000000     
   1.1250000000000000       0.65625000000000000        0.0000000000000000     
   1.1562500000000000       0.65625000000000000        0.0000000000000000     
   1.1875000000000000       0.65625000000000000        0.0000000000000000     
   1.2187500000000000       0.65625000000000000        0.0000000000000000     
   1.2500000000000000       0.65625000000000000        0.0000000000000000     
   1.1250000000000000       0.68750000000000000        0.0000000000000000     
   1.1562500000000000       0.68750000000000000        0.0000000000000000     
   1.1875000000000000       0.68750000000000000        0.0000000000000000     
   1.2187500000000000       0.68750000000000000        0.0000000000000000     
   1.2500000000000000       0.68750000000000000        0.0000000000000000     
   1.1250000000000000       0.71875000000000000        0.0000000000000000     
   1.1562500000000000       0.71875000000000000        0.0000000000000000     
   1.1875000000000000       0.71875000000000000        0.0000000000000000     
   1.2187500000000000       0.71875000000000000        0.0000000000000000     
   1.2500000000000000       0.71875000000000000        0.0000000000000000     
   1.1250000000000000       0.75000000000000000        0.0000000000000000     
   1.1562500000000000       0.75000000000000000        0.0000000000000000     
   1.1875000000000000       0.75000000000000000        0.0000000000000000     
   1.2187500000000000       0.75000000000000000        0.0000000000000000     
   1.2500000000000000       0.75000000000000000        0.0000000000000000     
   1.2500000000000000       0.62500000000000000        0.0000000000000000     
   1.2812500000000000       0.62500000000000000        0.0000000000000000     
   1.3125000000000000       0.62500000000000000        0.0000000000000000     
   1.3437500000000000       0.62500000000000000        0.0000000000000000     
   1.3750000000000000       0.62500000000000000        0.0000000000000000     
   1.2500000000000000       0.65625000000000000        0.0000000000000000     
   1.2812500000000000       0.65625000000000000        0.0000000000000000     
   1.3125000000000000       0.65625000000000000        0.0000000000000000     
   1.3437500000000000       0.65625000000000000        0.0000000000000000     
   1.3750000000000000       0.65625000000000000        0.0000000000000000     
   1.2500000000000000       0.68750000000000000        0.0000000000000000     
   1.2812500000000000       0.68750000000000000        0.0000000000000000     
   1.3125000000000000       0.68750000000000000        0.0000000000000000     
   1.3437500000000000       0.68750000000000000        0.0000000000000000     
   1.3750000000000000       0.68750000000000000        0.0000000000000000     
   1.2500000000000000       0.71875000000000000        0.0000000000000000     
   1.2812500000000000       0.71875000000000000        0.0000000000000000     
   1.3125000000000000       0.71875000000000000        0.0000000000000000     
   1.3437500000000000       0.71875000000000000        0.0000000000000000     
   1.3750000000000000       0.71875000000000000        0.0000000000000000     
   1.2500000000000000       0.75000000000000000        0.0000000000000000     
   1.2812500000000000       0.75000000000000000        0.0000000000000000     
   1.3125000000000000       0.75000000000000000        0.0000000000000000     
   1.3437500000000000       0.75000000000000000        0.0000000000000000     
   1.3750000000000000       0.75000000000000000        0.0000000000000000     
   1.3750000000000000       0.62500000000000000        0.0000000000000000     
   1.4062500000000000       0.62500000000000000        0.0000000000000000     
   1.4375000000000000       0.62500000000000000        0.0000000000000000     
   1.4687500000000000       0.62500000000000000        0.0000000000000000     
   1.5000000000000000       0.62500000000000000        0.0000000000000000     
   1.3750000000000000       0.65625000000000000        0.0000000000000000     
   1.4062500000000000       0.65625000000000000        0.0000000000000000     
   1.4375000000000000       0.65625000000000000        0.0000000000000000     
   1.4687500000000000       0.65625000000000000        0.0000000000000000     
   1.5000000000000000       0.65625000000000000        0.0000000000000000     
   1.3750000000000000       0.68750000000000000        0.0000000000000000     
   1.4062500000000000       0.68750000000000000        0.0000000000000000     
   1.4375000000000000       0.68750000000000000        0.0000000000000000     
   1.4687500000000000       0.68750000000000000        0.0000000000000000     
   1.5000000000000000       0.68750000000000000        0.0000000000000000     
   1.3750000000000000       0.71875000000000000        0.0000000000000000     
   1.4062500000000000       0.71875000000000000        0.0000000000000000     
   1.4375000000000000       0.71875000000000000        0.0000000000000000     
   1.4687500000000000       0.71875000000000000        0.0000000000000000     
   1.5000000000000000       0.71875000000000000        0.0000000000000000     
   1.3750000000000000       0.75000000000000000        0.0000000000000000     
   1.4062500000000000       0.75000000000000000        0.0000000000000000     
   1.4375000000000000       0.75000000000000000        0.0000000000000000     
   1.4687500000000000       0.75000000000000000        0.0000000000000000     
   1.5000000000000000       0.75000000000000000        0.0000000000000000     
  0.50000000000000000       0.75000000000000000        0.0000000000000000     
  0.53125000000000000       0.75000000000000000        0.0000000000000000     
  0.56250000000000000       0.75000000000000000        0.0000000000000000     
  0.59375000000000000       0.75000000000000000        0.0000000000000000     
  0.62500000000000000       0.75000000000000000        0.0000000000000000     
  0.50000000000000000       0.78125000000000000        0.0000000000000000     
  0.53125000000000000       0.78125000000000000        0.0000000000000000     
  0.56250000000000000       0.78125000000000000        0.0000000000000000     
  0.59375000000000000       0.78125000000000000        0.0000000000000000     
  0.62500000000000000       0.78125000000000000        0.0000000000000000     
  0.50000000000000000       0.81250000000000000        0.0000000000000000     
  0.53125000000000000       0.81250000000000000        0.0000000000000000     
  0.56250000000000000       0.81250000000000000        0.0000000000000000     
  0.59375000000000000       0.81250000000000000        0.0000000000000000     
  0.62500000000000000       0.81250000000000000        0.0000000000000000     
  0.50000000000000000       0.84375000000000000        0.0000000000000000     
  0.53125000000000000       0.84375000000000000        0.0000000000000000     
  0.56250000000000000       0.84375000000000000        0.0000000000000000     
  0.59375000000000000       0.84375000000000000        0.0000000000000000     
  0.62500000000000000       0.84375000000000000        0.0000000000000000     
  0.50000000000000000       0.87500000000000000        0.0000000000000000     
  0.53125000000000000       0.87500000000000000        0.0000000000000000     
  0.56250000000000000       0.87500000000000000        0.0000000000000000     
  0.59375000000000000       0.87500000000000000        0.0000000000000000     
  0.62500000000000000       0.87500000000000000        0.0000000000000000     
  0.62500000000000000       0.75000000000000000        0.0000000000000000     
  0.65625000000000000       0.75000000000000000        0.0000000000000000     
  0.68750000000000000       0.75000000000000000        0.0000000000000000     
  0.71875000000000000       0.75000000000000000        0.0000000000000000     
  0.75000000000000000       0.75000000000000000        0.0000000000000000     
  0.62500000000000000       0.78125000000000000        0.0000000000000000     
  0.65625000000000000       0.78125000000000000        0.0000000000000000     
  0.68750000000000000       0.78125000000000000        0.0000000000000000     
  0.71875000000000000       0.78125000000000000        0.0000000000000000     
  0.75000000000000000       0.78125000000000000        0.0000000000000000     
  0.62500000000000000       0.81250000000000000        0.0000000000000000     
  0.65625000000000000       0.81250000000000000        0.0000000000000000     
  0.68750000000000000       0.81250000000000000        0.0000000000000000     
  0.71875000000000000       0.81250000000000000        0.0000000000000000     
  0.75000000000000000       0.81250000000000000        0.0000000000000000     
  0.62500000000000000       0.84375000000000000        0.0000000000000000     
  0.65625000000000000       0.84375000000000000        0.0000000000000000     
  0.68750000000000000       0.84375000000000000        0.0000000000000000     
  0.71875000000000000       0.84375000000000000        0.0000000000000000     
  0.75000000000000000       0.84375000000000000        0.0000000000000000     
  0.62500000000000000       0.87500000000000000        0.0000000000000000     
  0.65625000000000000       0.87500000000000000        0.0000000000000000     
  0.68750000000000000       0.87500000000000000        0.0000000000000000     
  0.71875000000000000       0.87500000000000000        0.0000000000000000     
  0.75000000000000000       0.87500000000000000        0.0000000000000000     
  0.75000000000000000       0.75000000000000000        0.0000000000000000     
  0.78125000000000000       0.75000000000000000        0.0000000000000000     
  0.81250000000000000       0.75000000000000000        0.0000000000000000     
  0.84375000000000000       0.75000000000000000        0.0000000000000000     
  0.87500000000000000       0.75000000000000000        0.0000000000000000     
  0.75000000000000000       0.78125000000000000        0.0000000000000000     
  0.78125000000000000       0.78125000000000000        0.0000000000000000     
  0.81250000000000000       0.78125000000000000        0.0000000000000000     
  0.84375000000000000       0.78125000000000000        0.0000000000000000     
  0.87500000000000000       0.78125000000000000        0.0000000000000000     
  0.75000000000000000       0.81250000000000000        0.0000000000000000     
  0.78125000000000000       0.81250000000000000        0.0000000000000000     
  0.81250000000000000       0.81250000000000000        0.0000000000000000     
  0.84375000000000000       0.81250000000000000        0.0000000000000000     
  0.87500000000000000       0.81250000000000000        0.0000000000000000     
  0.75000000000000000       0.84375000000000000        0.0000000000000000     
  0.78125000000000000       0.84375000000000000        0.0000000000000000     
  0.81250000000000000       0.84375000000000000        0.0000000000000000     
  0.84375000000000000       0.84375000000000000        0.0000000000000000     
  0.87500000000000000       0.84375000000000000        0.0000000000000000     
  0.75000000000000000       0.87500000000000000        0.0000000000000000     
  0.78125000000000000       0.87500000000000000        0.0000000000000000     
  0.81250000000000000       0.87500000000000000        0.0000000000000000     
  0.84375000000000000       0.87500000000000000        0.0000000000000000     
  0.87500000000000000       0.87500000000000000        0.0000000000000000     
  0.87500000000000000       0.75000000000000000        0.0000000000000000     
  0.90625000000000000       0.75000000000000000        0.0000000000000000     
  0.93750000000000000       0.75000000000000000        0.0000000000000000     
  0.96875000000000000       0.75000000000000000        0.0000000000000000     
   1.0000000000000000       0.75000000000000000        0.0000000000000000     
  0.87500000000000000       0.78125000000000000        0.0000000000000000     
  0.90625000000000000       0.78125000000000000        0.0000000000000000     
  0.93750000000000000       0.78125000000000000        0.0000000000000000     
  0.96875000000000000       0.78125000000000000        0.0000000000000000     
   1.0000000000000000       0.78125000000000000        0.0000000000000000     
  0.87500000000000000       0.81250000000000000        0.0000000000000000     
  0.90625000000000000       0.81250000000000000        0.0000000000000000     
  0.93750000000000000       0.81250000000000000        0.0000000000000000     
  0.96875000000000000       0.81250000000000000        0.0000000000000000     
   1.0000000000000000       0.81250000000000000        0.0000000000000000     
  0.87500000000000000       0.84375000000000000        0.0000000000000000     
  0.90625000000000000       0.84375000000000000        0.0000000000000000     
  0.93750000000000000       0.84375000000000000        0.0000000000000000     
  0.96875000000000000       0.84375000000000000        0.0000000000000000     
   1.0000000000000000       0.84375000000000000        0.0000000000000000     
  0.87500000000000000       0.87500000000000000        0.0000000000000000     
  0.90625000000000000       0.87500000000000000        0.0000000000000000     
  0.93750000000000000       0.87500000000000000        0.0000000000000000     
  0.96875000000000000       0.87500000000000000        0.0000000000000000     
   1.0000000000000000       0.87500000000000000        0.0000000000000000     
   1.0000000000000000       0.75000000000000000        0.0000000000000000     
   1.0312500000000000       0.75000000000000000        0.0000000000000000     
   1.0625000000000000       0.75000000000000000        0.0000000000000000     
   1.0937500000000000       0.75000000000000000        0.0000000000000000     
   1.1250000000000000       0.75000000000000000        0.0000000000000000     
   1.0000000000000000       0.78125000000000000        0.0000000000000000     
   1.0312500000000000       0.78125000000000000        0.0000000000000000     
   1.0625000000000000       0.78125000000000000        0.0000000000000000     
   1.0937500000000000       0.78125000000000000        0.0000000000000000     
   1.1250000000000000       0.78125000000000000        0.0000000000000000     
   1.0000000000000000       0.81250000000000000        0.0000000000000000     
   1.0312500000000000       0.81250000000000000        0.0000000000000000     
   1.0625000000000000       0.81250000000000000        0.0000000000000000     
   1.0937500000000000       0.81250000000000000        0.0000000000000000     
   1.1250000000000000       0.81250000000000000        0.0000000000000000     
   1.0000000000000000       0.84375000000000000        0.0000000000000000     
   1.0312500000000000       0.84375000000000000        0.0000000000000000     
   1.0625000000000000       0.84375000000000000        0.0000000000000000     
   1.0937500000000000       0.84375000000000000        0.0000000000000000     
   1.1250000000000000       0.84375000000000000        0.0000000000000000     
   1.0000000000000000       0.87500000000000000        0.0000000000000000     
   1.0312500000000000       0.87500000000000000        0.0000000000000000     
   1.0625000000000000       0.87500000000000000        0.0000000000000000     
   1.0937500000000000       0.87500000000000000        0.0000000000000000     
   1.1250000000000000       0.87500000000000000        0.0000000000000000     
   1.1250000000000000       0.75000000000000000        0.0000000000000000     
   1.1562500000000000       0.75000000000000000        0.0000000000000000     
   1.1875000000000000       0.75000000000000000        0.0000000000000000     
   1.2187500000000000       0.75000000000000000        0.0000000000000000     
   1.2500000000000000       0.75000000000000000        0.0000000000000000     
   1.1250000000000000       0.78125000000000000        0.0000000000000000     
   1.1562500000000000       0.78125000000000000        0.0000000000000000     
   1.1875000000000000       0.78125000000000000        0.0000000000000000     
   1.2187500000000000       0.78125000000000000        0.0000000000000000     
   1.2500000000000000       0.78125000000000000        0.0000000000000000     
   1.1250000000000000       0.81250000000000000        0.0000000000000000     
   1.1562500000000000       0.81250000000000000        0.0000000000000000     
   1.1875000000000000       0.81250000000000000        0.0000000000000000     
   1.2187500000000000       0.81250000000000000        0.0000000000000000     
   1.2500000000000000       0.81250000000000000        0.0000000000000000     
   1.1250000000000000       0.84375000000000000        0.0000000000000000     
   1.1562500000000000       0.84375000000000000        0.0000000000000000     
   1.1875000000000000       0.84375000000000000        0.0000000000000000     
   1.2187500000000000       0.84375000000000000        0.0000000000000000     
   1.2500000000000000       0.84375000000000000        0.0000000000000000     
   1.1250000000000000       0.87500000000000000        0.0000000000000000     
   1.1562500000000000       0.87500000000000000        0.0000000000000000     
   1.1875000000000000       0.87500000000000000        0.0000000000000000     
   1.2187500000000000       0.87500000000000000        0.0000000000000000     
   1.2500000000000000       0.87500000000000000        0.0000000000000000     
   1.2500000000000000       0.75000000000000000        0.0000000000000000     
   1.2812500000000000       0.75000000000000000        0.0000000000000000     
   1.3125000000000000       0.75000000000000000        0.0000000000000000     
   1.3437500000000000       0.75000000000000000        0.0000000000000000     
   1.3750000000000000       0.75000000000000000        0.0000000000000000     
   1.2500000000000000       0.78125000000000000        0.0000000000000000     
   1.2812500000000000       0.78125000000000000        0.0000000000000000     
   1.3125000000000000       0.78125000000000000        0.0000000000000000     
   1.3437500000000000       0.78125000000000000        0.0000000000000000     
   1.3750000000000000       0.78125000000000000        0.0000000000000000     
   1.2500000000000000       0.81250000000000000        0.0000000000000000     
   1.2812500000000000       0.81250000000000000        0.0000000000000000     
   1.3125000000000000       0.81250000000000000        0.0000000000000000     
   1.3437500000000000       0.81250000000000000        0.0000000000000000     
   1.3750000000000000       0.81250000000000000        0.0000000000000000     
   1.2500000000000000       0.84375000000000000        0.0000000000000000     
   1.2812500000000000       0.84375000000000000        0.0000000000000000     
   1.3125000000000000       0.84375000000000000        0.0000000000000000     
   1.3437500000000000       0.84375000000000000        0.0000000000000000     
   1.3750000000000000       0.84375000000000000        0.0000000000000000     
   1.2500000000000000       0.87500000000000000        0.0000000000000000     
   1.2812500000000000       0.87500000000000000        0.0000000000000000     
   1.3125000000000000       0.87500000000000000        0.0000000000000000     
   1.3437500000000000       0.87500000000000000        0.0000000000000000     
   1.3750000000000000       0.87500000000000000        0.0000000000000000     
   1.3750000000000000       0.75000000000000000        0.0000000000000000     
   1.4062500000000000       0.75000000000000000        0.0000000000000000     
   1.4375000000000000       0.75000000000000000        0.0000000000000000     
   1.4687500000000000       0.75000000000000000        0.0000000000000000     
   1.5000000000000000       0.75000000000000000        0.0000000000000000     
   1.3750000000000000       0.78125000000000000        0.0000000000000000     
   1.4062500000000000       0.78125000000000000        0.0000000000000000     
   1.4375000000000000       0.78125000000000000        0.0000000000000000     
   1.4687500000000000       0.78125000000000000        0.0000000000000000     
   1.5000000000000000       0.78125000000000000        0.0000000000000000     
   1.3750000000000000       0.81250000000000000        0.0000000000000000     
   1.4062500000000000       0.81250000000000000        0.0000000000000000     
   1.4375000000000000       0.81250000000000000        0.0000000000000000     
   1.4687500000000000       0.81250000000000000        0.0000000000000000     
   1.5000000000000000       0.81250000000000000        0.0000000000000000     
   1.3750000000000000       0.84375000000000000        0.0000000000000000     
   1.4062500000000000       0.84375000000000000        0.0000000000000000     
   1.4375000000000000       0.84375000000000000        0.0000000000000000     
   1.4687500000000000       0.84375000000000000        0.0000000000000000     
   1.5000000000000000       0.84375000000000000        0.0000000000000000     
   1.3750000000000000       0.87500000000000000        0.0000000000000000     
   1.4062500000000000       0.87500000000000000        0.0000000000000000     
   1.4375000000000000       0.87500000000000000        0.0000000000000000     
   1.4687500000000000       0.87500000000000000        0.0000000000000000     
   1.5000000000000000       0.87500000000000000        0.0000000000000000     
  0.50000000000000000       0.87500000000000000        0.0000000000000000     
  0.53125000000000000       0.87500000000000000        0.0000000000000000     
  0.56250000000000000       0.87500000000000000        0.0000000000000000     
  0.59375000000000000       0.87500000000000000        0.0000000000000000     
  0.62500000000000000       0.87500000000000000        0.0000000000000000     
  0.50000000000000000       0.90625000000000000        0.0000000000000000     
  0.53125000000000000       0.90625000000000000        0.0000000000000000     
  0.56250000000000000       0.90625000000000000        0.0000000000000000     
  0.59375000000000000       0.90625000000000000        0.0000000000000000     
  0.62500000000000000       0.90625000000000000        0.0000000000000000     
  0.50000000000000000       0.93750000000000000        0.0000000000000000     
  0.53125000000000000       0.93750000000000000        0.0000000000000000     
  0.56250000000000000       0.93750000000000000        0.0000000000000000     
  0.59375000000000000       0.93750000000000000        0.0000000000000000     
  0.62500000000000000       0.93750000000000000        0.0000000000000000     
  0.50000000000000000       0.96875000000000000        0.0000000000000000     
  0.53125000000000000       0.96875000000000000        0.0000000000000000     
  0.56250000000000000       0.96875000000000000        0.0000000000000000     
  0.59375000000000000       0.96875000000000000        0.0000000000000000     
  0.62500000000000000       0.96875000000000000        0.0000000000000000     
  0.50000000000000000        1.0000000000000000        0.0000000000000000     
  0.53125000000000000        1.0000000000000000        0.0000000000000000     
  0.56250000000000000        1.0000000000000000        0.0000000000000000     
  0.59375000000000000        1.0000000000000000        0.0000000000000000     
  0.62500000000000000        1.0000000000000000        0.0000000000000000     
  0.62500000000000000       0.87500000000000000        0.0000000000000000     
  0.65625000000000000       0.87500000000000000        0.0000000000000000     
  0.68750000000000000       0.87500000000000000        0.0000000000000000     
  0.71875000000000000       0.87500000000000000        0.0000000000000000     
  0.75000000000000000       0.87500000000000000        0.0000000000000000     
  0.62500000000000000       0.90625000000000000        0.0000000000000000     
  0.65625000000000000       0.90625000000000000        0.0000000000000000     
  0.68750000000000000       0.90625000000000000        0.0000000000000000     
  0.71875000000000000       0.90625000000000000        0.0000000000000000     
  0.75000000000000000       0.90625000000000000        0.0000000000000000     
  0.62500000000000000       0.93750000000000000        0.0000000000000000     
  0.65625000000000000       0.93750000000000000        0.0000000000000000     
  0.68750000000000000       0.93750000000000000        0.0000000000000000     
  0.71875000000000000       0.93750000000000000        0.0000000000000000     
  0.75000000000000000       0.93750000000000000        0.0000000000000000     
  0.62500000000000000       0.96875000000000000        0.0000000000000000     
  0.65625000000000000       0.96875000000000000        0.0000000000000000     
  0.68750000000000000       0.96875000000000000        0.0000000000000000     
  0.71875000000000000       0.96875000000000000        0.0000000000000000     
  0.75000000000000000       0.96875000000000000        0.0000000000000000     
  0.62500000000000000        1.0000000000000000        0.0000000000000000     
  0.65625000000000000        1.0000000000000000        0.0000000000000000     
  0.68750000000000000        1.0000000000000000        0.0000000000000000     
  0.71875000000000000        1.0000000000000000        0.0000000000000000     
  0.75000000000000000        1.0000000000000000        0.0000000000000000     
  0.75000000000000000       0.87500000000000000        0.0000000000000000     
  0.78125000000000000       0.87500000000000000        0.0000000000000000     
  0.81250000000000000       0.87500000000000000        0.0000000000000000     
  0.84375000000000000       0.87500000000000000        0.0000000000000000     
  0.87500000000000000       0.87500000000000000        0.0000000000000000     
  0.75000000000000000       0.90625000000000000        0.0000000000000000     
  0.78125000000000000       0.90625000000000000        0.0000000000000000     
  0.81250000000000000       0.90625000000000000        0.0000000000000000     
  0.84375000000000000       0.90625000000000000        0.0000000000000000     
  0.87500000000000000       0.90625000000000000        0.0000000000000000     
  0.75000000000000000       0.93750000000000000        0.0000000000000000     
  0.78125000000000000       0.93750000000000000        0.0000000000000000     
  0.81250000000000000       0.93750000000000000        0.0000000000000000     
  0.84375000000000000       0.93750000000000000        0.0000000000000000     
  0.87500000000000000       0.93750000000000000        0.0000000000000000     
  0.75000000000000000       0.96875000000000000        0.0000000000000000     
  0.78125000000000000       0.96875000000000000        0.0000000000000000     
  0.81250000000000000       0.96875000000000000        0.0000000000000000     
  0.84375000000000000       0.96875000000000000        0.0000000000000000     
  0.87500000000000000       0.96875000000000000        0.0000000000000000     
  0.75000000000000000        1.0000000000000000        0.0000000000000000     
  0.78125000000000000        1.0000000000000000        0.0000000000000000     
  0.81250000000000000        1.0000000000000000        0.0000000000000000     
  0.84375000000000000        1.0000000000000000        0.0000000000000000     
  0.87500000000000000        1.0000000000000000        0.0000000000000000     
  0.87500000000000000       0.87500000000000000        0.0000000000000000     
  0.90625000000000000       0.87500000000000000        0.0000000000000000     
  0.93750000000000000       0.87500000000000000        0.0000000000000000     
  0.96875000000000000       0.87500000000000000        0.0000000000000000     
   1.0000000000000000       0.87500000000000000        0.0000000000000000     
  0.87500000000000000       0.90625000000000000        0.0000000000000000     
  0.90625000000000000       0.90625000000000000        0.0000000000000000     
  0.93750000000000000       0.90625000000000000        0.0000000000000000     
  0.96875000000000000       0.90625000000000000        0.0000000000000000     
   1.0000000000000000       0.90625000000000000        0.0000000000000000     
  0.87500000000000000       0.93750000000000000        0.0000000000000000     
  0.90625000000000000       0.93750000000000000        0.0000000000000000     
  0.93750000000000000       0.93750000000000000        0.0000000000000000     
  0.96875000000000000       0.93750000000000000        0.0000000000000000     
   1.0000000000000000       0.93750000000000000        0.0000000000000000     
  0.87500000000000000       0.96875000000000000        0.0000000000000000     
  0.90625000000000000       0.96875000000000000        0.0000000000000000     
  0.93750000000000000       0.96875000000000000        0.0000000000000000     
  0.96875000000000000       0.96875000000000000        0.0000000000000000     
   1.0000000000000000       0.96875000000000000        0.0000000000000000     
  0.87500000000000000        1.0000000000000000        0.0000000000000000     
  0.90625000000000000        1.0000000000000000        0.0000000000000000     
  0.93750000000000000        1.0000000000000000        0.0000000000000000     
  0.96875000000000000        1.0000000000000000        0.0000000000000000     
   1.0000000000000000        1.0000000000000000        0.0000000000000000     
   1.0000000000000000       0.87500000000000000        0.0000000000000000     
   1.0312500000000000       0.87500000000000000        0.0000000000000000     
   1.0625000000000000       0.87500000000000000        0.0000000000000000     
   1.0937500000000000       0.87500000000000000        0.0000000000000000     
   1.1250000000000000       0.87500000000000000        0.0000000000000000     
   1.0000000000000000       0.90625000000000000        0.0000000000000000     
   1.0312500000000000       0.90625000000000000        0.0000000000000000     
   1.0625000000000000       0.90625000000000000        0.0000000000000000     
   1.0937500000000000       0.90625000000000000        0.0000000000000000     
   1.1250000000000000       0.90625000000000000        0.0000000000000000     
   1.0000000000000000       0.93750000000000000        0.0000000000000000     
   1.0312500000000000       0.93750000000000000        0.0000000000000000     
   1.0625000000000000       0.93750000000000000        0.0000000000000000     
   1.0937500000000000       0.93750000000000000        0.0000000000000000     
   1.1250000000000000       0.93750000000000000        0.0000000000000000     
   1.0000000000000000       0.96875000000000000        0.0000000000000000     
   1.0312500000000000       0.96875000000000000        0.0000000000000000     
   1.0625000000000000       0.96875000000000000        0.0000000000000000     
   1.0937500000000000       0.96875000000000000        0.0000000000000000     
   1.1250000000000000       0.96875000000000000        0.0000000000000000     
   1.0000000000000000        1.0000000000000000        0.0000000000000000     
   1.0312500000000000        1.0000000000000000        0.0000000000000000     
   1.0625000000000000        1.0000000000000000        0.0000000000000000     
   1.0937500000000000        1.0000000000000000        0.0000000000000000     
   1.1250000000000000        1.0000000000000000        0.0000000000000000     
   1.1250000000000000       0.87500000000000000        0.0000000000000000     
   1.1562500000000000       0.87500000000000000        0.0000000000000000     
   1.1875000000000000       0.87500000000000000        0.0000000000000000     
   1.2187500000000000       0.87500000000000000        0.0000000000000000     
   1.2500000000000000       0.87500000000000000        0.0000000000000000     
   1.1250000000000000       0.90625000000000000        0.0000000000000000     
   1.1562500000000000       0.90625000000000000        0.0000000000000000     
   1.1875000000000000       0.90625000000000000        0.0000000000000000     
   1.2187500000000000       0.90625000000000000        0.0000000000000000     
   1.2500000000000000       0.90625000000000000        0.0000000000000000     
   1.1250000000000000       0.93750000000000000        0.0000000000000000     
   1.1562500000000000       0.93750000000000000        0.0000000000000000     
   1.1875000000000000       0.93750000000000000        0.0000000000000000     
   1.2187500000000000       0.93750000000000000        0.0000000000000000     
   1.2500000000000000       0.93750000000000000        0.0000000000000000     
   1.1250000000000000       0.96875000000000000        0.0000000000000000     
   1.1562500000000000       0.96875000000000000        0.0000000000000000     
   1.1875000000000000       0.96875000000000000        0.0000000000000000     
   1.2187500000000000       0.96875000000000000        0.0000000000000000     
   1.2500000000000000       0.96875000000000000        0.0000000000000000     
   1.1250000000000000        1.0000000000000000        0.0000000000000000     
   1.1562500000000000        1.0000000000000000        0.0000000000000000     
   1.1875000000000000        1.0000000000000000        0.0000000000000000     
   1.2187500000000000        1.0000000000000000        0.0000000000000000     
   1.2500000000000000        1.0000000000000000        0.0000000000000000     
   1.2500000000000000       0.87500000000000000        0.0000000000000000     
   1.2812500000000000       0.87500000000000000        0.0000000000000000     
   1.3125000000000000       0.87500000000000000        0.0000000000000000     
   1.3437500000000000       0.87500000000000000        0.0000000000000000     
   1.3750000000000000       0.87500000000000000        0.0000000000000000     
   1.2500000000000000       0.90625000000000000        0.0000000000000000     
   1.2812500000000000       0.90625000000000000        0.0000000000000000     
   1.3125000000000000       0.90625000000000000        0.0000000000000000     
   1.3437500000000000       0.90625000000000000        0.0000000000000000     
   1.3750000000000000       0.90625000000000000        0.0000000000000000     
   1.2500000000000000       0.93750000000000000        0.0000000000000000     
   1.2812500000000000       0.93750000000000000        0.0000000000000000     
   1.3125000000000000       0.93750000000000000        0.0000000000000000     
   1.3437500000000000       0.93750000000000000        0.0000000000000000     
   1.3750000000000000       0.93750000000000000        0.0000000000000000     
   1.2500000000000000       0.96875000000000000        0.0000000000000000     
   1.2812500000000000       0.96875000000000000        0.0000000000000000     
   1.3125000000000000       0.96875000000000000        0.0000000000000000     
   1.3437500000000000       0.96875000000000000        0.0000000000000000     
   1.3750000000000000       0.96875000000000000        0.0000000000000000     
   1.2500000000000000        1.0000000000000000        0.0000000000000000     
   1.2812500000000000        1.0000000000000000        0.0000000000000000     
   1.3125000000000000        1.0000000000000000        0.0000000000000000     
   1.3437500000000000        1.0000000000000000        0.0000000000000000     
   1.3750000000000000        1.0000000000000000        0.0000000000000000     
   1.3750000000000000       0.87500000000000000        0.0000000000000000     
   1.4062500000000000       0.87500000000000000        0.0000000000000000     
   1.4375000000000000       0.87500000000000000        0.0000000000000000     
   1.4687500000000000       0.87500000000000000        0.0000000000000000     
   1.5000000000000000       0.87500000000000000        0.0000000000000000     
   1.3750000000000000       0.90625000000000000        0.0000000000000000     
   1.4062500000000000       0.90625000000000000        0.0000000000000000     
   1.4375000000000000       0.90625000000000000        0.0000000000000000     
   1.4687500000000000       0.90625000000000000        0.0000000000000000     
   1.5000000000000000       0.90625000000000000        0.0000000000000000     
   1.3750000000000000       0.93750000000000000        0.0000000000000000     
   1.4062500000000000       0.93750000000000000        0.0000000000000000     
   1.4375000000000000       0.93750000000000000        0.0000000000000000     
   1.4687500000000000       0.93750000000000000        0.0000000000000000     
   1.5000000000000000       0.93750000000000000        0.0000000000000000     
   1.3750000000000000       0.96875000000000000        0.0000000000000000     
   1.4062500000000000       0.96875000000000000        0.0000000000000000     
   1.4375000000000000       0.96875000000000000        0.0000000000000000     
   1.4687500000000000       0.96875000000000000        0.0000000000000000     
   1.5000000000000000       0.96875000000000000        0.0000000000000000     
   1.3750000000000000        1.0000000000000000        0.0000000000000000     
   1.4062500000000000        1.0000000000000000        0.0000000000000000     
   1.4375000000000000        1.0000000000000000        0.0000000000000000     
   1.4687500000000000        1.0000000000000000        0.0000000000000000     
   1.5000000000000000        1.0000000000000000        0.0000000000000000     
 </DataArray>
 </Points>
 <Cells>
 <DataArray  type="Int32"  Name="connectivity"  format="ascii">
           0           1           6           5
           1           2           7           6
           2           3           8           7
           3           4           9           8
           5           6          11          10
           6           7          12          11
           7           8          13          12
           8           9          14          13
          10          11          16          15
          11          12          17          16
          12          13          18          17
          13          14          19          18
          15          16          21          20
          16          17          22          21
          17          18          23          22
          18          19          24          23
          25          26          31          30
          26          27          32          31
          27          28          33          32
          28          29          34          33
          30          31          36          35
          31          32          37          36
          32          33          38          37
          33          34          39          38
          35          36          41          40
          36          37          42          41
          37          38          43          42
          38          39          44          43
          40          41          46          45
          41          42          47          46
          42          43          48          47
          43          44          49          48
          50          51          56          55
          51          52          57          56
          52          53          58          57
          53          54          59          58
          55          56          61          60
          56          57          62          61
          57          58          63          62
          58          59          64          63
          60          61          66          65
          61          62          67          66
          62          63          68          67
          63          64          69          68
          65          66          71          70
          66          67          72          71
          67          68          73          72
          68          69          74          73
          75          76          81          80
          76          77          82          81
          77          78          83          82
          78          79          84          83
          80          81          86          85
          81          82          87          86
          82          83          88          87
          83          84          89          88
          85          86          91          90
          86          87          92          91
          87          88          93          92
          88          89          94          93
          90          91          96          95
          91          92          97          96
          92          93          98          97
          93          94          99          98
         100         101         106         105
         101         102         107         106
         102         103         108         107
         103         104         109         108
         105         106         111         110
         106         107         112         111
         107         108         113         112
         108         109         114         113
         110         111         116         115
         111         112         117         116
         112         113         118         117
         113         114         119         118
         115         116         121         120
         116         117         122         121
         117         118         123         122
         118         119         124         123
         125         126         131         130
         126         127         132         131
         127         128         133         132
         128         129         134         133
         130         131         136         135
         131         132         137         136
         132         133         138         137
         133         134         139         138
         135         136         141         140
         136         137         142         141
         137         138         143         142
         138         139         144         143
         140         141         146         145
         141         142         147         146
         142         143         148         147
         143         144         149         148
         150         151         156         155
         151         152         157         156
         152         153         158         157
         153         154         159         158
         155         156         161         160
         156         157         162         161
         157         158         163         162
         158         159         164         163
         160         161         166         165
         161         162         167         166
         162         163         168         167
         163         164         169         168
         165         166         171         170
         166         167         172         171
         167         168         173         172
         168         169         174         173
         175         176         181         180
         176         177         182         181
         177         178         183         182
         178         179         184         183
         180         181         186         185
         181         182         187         186
         182         183         188         187
         183         184         189         188
         185         186         191         190
         186         187         192         191
         187         188         193         192
         188         189         194         193
         190         191         196         195
         191         192         197         196
         192         193         198         197
         193         194         199         198
         200         201         206         205
         201         202         207         206
         202         203         208         207
         203         204         209         208
         205         206         211         210
         206         207         212         211
         207         208         213         212
         208         209         214         213
         210         211         216         215
         211         212         217         216
         212         213         218         217
         213         214         219         218
         215         216         221         220
         216         217         222         221
         217         218         223         222
         218         219         224         223
         225         226         231         230
         226         227         232         231
         227         228         233         232
         228         229         234         233
         230         231         236         235
         231         232         237         236
         232         233         238         237
         233         234         239         238
         235         236         241         240
         236         237         242         241
         237         238         243         242
         238         239         244         243
         240         241         246         245
         241         242         247         246
         242         243         248         247
         243         244         249         248
         250         251         256         255
         251         252         257         256
         252         253         258         257
         253         254         259         258
         255         256         261         260
         256         257         262         261
         257         258         263         262
         258         259         264         263
         260         261         266         265
         261         262         267         266
         262         263         268         267
         263         264         269         268
         265         266         271         270
         266         267         272         271
         267         268         273         272
         268         269         274         273
         275         276         281         280
         276         277         282         281
         277         278         283         282
         278         279         284         283
         280         281         286         285
         281         282         287         286
         282         283         288         287
         283         284         289         288
         285         286         291         290
         286         287         292         291
         287         288         293         292
         288         289         294         293
         290         291         296         295
         291         292         297         296
         292         293         298         297
         293         294         299         298
         300         301         306         305
         301         302         307         306
         302         303         308         307
         303         304         309         308
         305         306         311         310
         306         307         312         311
         307         308         313         312
         308         309         314         313
         310         311         316         315
         311         312         317         316
         312         313         318         317
         313         314         319         318
         315         316         321         320
         316         317         322         321
         317         318         323         322
         318         319         324         323
         325         326         331         330
         326         327         332         331
         327         328         333         332
         328         329         334         333
         330         331         336         335
         331         332         337         336
         332         333         338         337
         333         334         339         338
         335         336         341         340
         336         337         342         341
         337         338         343         342
         338         339         344         343
         340         341         346         345
         341         342         347         346
         342         343         348         347
         343         344         349         348
         350         351         356         355
         351         352         357         356
         352         353         358         357
         353         354         359         358
         355         356         361         360
         356         357         362         361
         357         358         363         362
         358         359         364         363
         360         361         366         365
         361         362         367         366
         362         363         368         367
         363         364         369         368
         365         366         371         370
         366         367         372         371
         367         368         373         372
         368         369         374         373
         375         376         381         380
         376         377         382         381
         377         378         383         382
         378         379         384         383
         380         381         386         385
         381         382         387         386
         382         383         388         387
         383         384         389         388
         385         386         391         390
         386         387         392         391
         387         388         393         392
         388         389         394         393
         390         391         396         395
         391         392         397         396
         392         393         398         397
         393         394         399         398
         400         401         406         405
         401         402         407         406
         402         403         408         407
         403         404         409         408
         405         406         411         410
         406         407         412         411
         407         408         413         412
         408         409         414         413
         410         411         416         415
         411         412         417         416
         412         413         418         417
         413         414         419         418
         415         416         421         420
         416         417         422         421
         417         418         423         422
         418         419         424         423
         425         426         431         430
         426         427         432         431
         427         428         433         432
         428         429         434         433
         430         431         436         435
         431         432         437         436
         432         433         438         437
         433         434         439         438
         435         436         441         440
         436         437         442         441
         437         438         443         442
         438         439         444         443
         440         441         446         445
         441         442         447         446
         442         443         448         447
         443         444         449         448
         450         451         456         455
         451         452         457         456
         452         453         458         457
         453         454         459         458
         455         456         461         460
         456         457         462         461
         457         458         463         462
         458         459         464         463
         460         461         466         465
         461         462         467         466
         462         463         468         467
         463         464         469         468
         465         466         471         470
         466         467         472         471
         467         468         473         472
         468         469         474         473
         475         476         481         480
         476         477         482         481
         477         478         483         482
         478         479         484         483
         480         481         486         485
         481         482         487         486
         482         483         488         487
         483         484         489         488
         485         486         491         490
         486         487         492         491
         487         488         493         492
         488         489         494         493
         490         491         496         495
         491         492         497         496
         492         493         498         497
         493         494         499         498
         500         501         506         505
         501         502         507         506
         502         503         508         507
         503         504         509         508
         505         506         511         510
         506         507         512         511
         507         508         513         512
         508         509         514         513
         510         511         516         515
         511         512         517         516
         512         513         518         517
         513         514         519         518
         515         516         521         520
         516         517         522         521
         517         518         523         522
         518         519         524         523
         525         526         531         530
         526         527         532         531
         527         528         533         532
         528         529         534         533
         530         531         536         535
         531         532         537         536
         532         533         538         537
         533         534         539         538
         535         536         541         540
         536         537         542         541
         537         538         543         542
         538         539         544         543
         540         541         546         545
         541         542         547         546
         542         543         548         547
         543         544         549         548
         550         551         556         555
         551         552         557         556
         552         553         558         557
         553         554         559         558
         555         556         561         560
         556         557         562         561
         557         558         563         562
         558         559         564         563
         560         561         566         565
         561         562         567         566
         562         563         568         567
         563         564         569         568
         565         566         571         570
         566         567         572         571
         567         568         573         572
         568         569         574         573
         575         576         581         580
         576         577         582         581
         577         578         583         582
         578         579         584         583
         580         581         586         585
         581         582         587         586
         582         583         588         587
         583         584         589         588
         585         586         591         590
         586         587         592         591
         587         588         593         592
         588         589         594         593
         590         591         596         595
         591         592         597         596
         592         593         598         597
         593         594         599         598
         600         601         606         605
         601         602         607         606
         602         603         608         607
         603         604         609         608
         605         606         611         610
         606         607         612         611
         607         608         613         612
         608         609         614         613
         610         611         616         615
         611         612         617         616
         612         613         618         617
         613         614         619         618
         615         616         621         620
         616         617         622         621
         617         618         623         622
         618         619         624         623
         625         626         631         630
         626         627         632         631
         627         628         633         632
         628         629         634         633
         630         631         636         635
         631         632         637         636
         632         633         638         637
         633         634         639         638
         635         636         641         640
         636         637         642         641
         637         638         643         642
         638         639         644         643
         640         641         646         645
         641         642         647         646
         642         643         648         647
         643         644         649         648
         650         651         656         655
         651         652         657         656
         652         653         658         657
         653         654         659         658
         655         656         661         660
         656         657         662         661
         657         658         663         662
         658         659         664         663
         660         661         666         665
         661         662         667         666
         662         663         668         667
         663         664         669         668
         665         666         671         670
         666         667         672         671
         667         668         673         672
         668         669         674         673
         675         676         681         680
         676         677         682         681
         677         678         683         682
         678         679         684         683
         680         681         686         685
         681         682         687         686
         682         683         688         687
         683         684         689         688
         685         686         691         690
         686         687         692         691
         687         688         693         692
         688         689         694         693
         690         691         696         695
         691         692         697         696
         692         693         698         697
         693         694         699         698
         700         701         706         705
         701         702         707         706
         702         703         708         707
         703         704         709         708
         705         706         711         710
         706         707         712         711
         707         708         713         712
         708         709         714         713
         710         711         716         715
         711         712         717         716
         712         713         718         717
         713         714         719         718
         715         716         721         720
         716         717         722         721
         717         718         723         722
         718         719         724         723
         725         726         731         730
         726         727         732         731
         727         728         733         732
         728         729         734         733
         730         731         736         735
         731         732         737         736
         732         733         738         737
         733         734         739         738
         735         736         741         740
         736         737         742         741
         737         738         743         742
         738         739         744         743
         740         741         746         745
         741         742         747         746
         742         743         748         747
         743         744         749         748
         750         751         756         755
         751         752         757         756
         752         753         758         757
         753         754         759         758
         755         756         761         760
         756         757         762         761
         757         758         763         762
         758         759         764         763
         760         761         766         765
         761         762         767         766
         762         763         768         767
         763         764         769         768
         765         766         771         770
         766         767         772         771
         767         768         773         772
         768         769         774         773
         775         776         781         780
         776         777         782         781
         777         778         783         782
         778         779         784         783
         780         781         786         785
         781         782         787         786
         782         783         788         787
         783         784         789         788
         785         786         791         790
         786         787         792         791
         787         788         793         792
         788         789         794         793
         790         791         796         795
         791         792         797         796
         792         793         798         797
         793         794         799         798
         800         801         806         805
         801         802         807         806
         802         803         808         807
         803         804         809         808
         805         806         811         810
         806         807         812         811
         807         808         813         812
         808         809         814         813
         810         811         816         815
         811         812         817         816
         812         813         818         817
         813         814         819         818
         815         816         821         820
         816         817         822         821
         817         818         823         822
         818         819         824         823
         825         826         831         830
         826         827         832         831
         827         828         833         832
         828         829         834         833
         830         831         836         835
         831         832         837         836
         832         833         838         837
         833         834         839         838
         835         836         841         840
         836         837         842         841
         837         838         843         842
         838         839         844         843
         840         841         846         845
         841         842         847         846
         842         843         848         847
         843         844         849         848
         850         851         856         855
         851         852         857         856
         852         853         858         857
         853         854         859         858
         855         856         861         860
         856         857         862         861
         857         858         863         862
         858         859         864         863
         860         861         866         865
         861         862         867         866
         862         863         868         867
         863         864         869         868
         865         866         871         870
         866         867         872         871
         867         868         873         872
         868         869         874         873
         875         876         881         880
         876         877         882         881
         877         878         883         882
         878         879         884         883
         880         881         886         885
         881         882         887         886
         882         883         888         887
         883         884         889         888
         885         886         891         890
         886         887         892         891
         887         888         893         892
         888         889         894         893
         890         891         896         895
         891         892         897         896
         892         893         898         897
         893         894         899         898
         900         901         906         905
         901         902         907         906
         902         903         908         907
         903         904         909         908
         905         906         911         910
         906         907         912         911
         907         908         913         912
         908         909         914         913
         910         911         916         915
         911         912         917         916
         912         913         918         917
         913         914         919         918
         915         916         921         920
         916         917         922         921
         917         918         923         922
         918         919         924         923
         925         926         931         930
         926         927         932         931
         927         928         933         932
         928         929         934         933
         930         931         936         935
         931         932         937         936
         932         933         938         937
         933         934         939         938
         935         936         941         940
         936         937         942         941
         937         938         943         942
         938         939         944         943
         940         941         946         945
         941         942         947         946
         942         943         948         947
         943         944         949         948
         950         951         956         955
         951         952         957         956
         952         953         958         957
         953         954         959         958
         955         956         961         960
         956         957         962         961
         957         958         963         962
         958         959         964         963
         960         961         966         965
         961         962         967         966
         962         963         968         967
         963         964         969         968
         965         966         971         970
         966         967         972         971
         967         968         973         972
         968         969         974         973
         975         976         981         980
         976         977         982         981
         977         978         983         982
         978         979         984         983
         980         981         986         985
         981         982         987         986
         982         983         988         987
         983         984         989         988
         985         986         991         990
         986         987         992         991
         987         988         993         992
         988         989         994         993
         990         991         996         995
         991         992         997         996
         992         993         998         997
         993         994         999         998
        1000        1001        1006        1005
        1001        1002        1007        1006
        1002        1003        1008        1007
        1003        1004        1009        1008
        1005        1006        1011        1010
        1006        1007        1012        1011
        1007        1008        1013        1012
        1008        1009        1014        1013
        1010        1011        1016        1015
        1011        1012        1017        1016
        1012        1013        1018        1017
        1013        1014        1019        1018
        1015        1016        1021        1020
        1016        1017        1022        1021
        1017        1018        1023        1022
        1018        1019        1024        1023
        1025        1026        1031        1030
        1026        1027        1032        1031
        1027        1028        1033        1032
        1028        1029        1034        1033
        1030        1031        1036        1035
        1031        1032        1037        1036
        1032        1033        1038        1037
        1033        1034        1039        1038
        1035        1036        1041        1040
        1036        1037        1042        1041
        1037        1038        1043        1042
        1038        1039        1044        1043
        1040        1041        1046        1045
        1041        1042        1047        1046
        1042        1043        1048        1047
        1043        1044        1049        1048
        1050        1051        1056        1055
        1051        1052        1057        1056
        1052        1053        1058        1057
        1053        1054        1059        1058
        1055        1056        1061        1060
        1056        1057        1062        1061
        1057        1058        1063        1062
        1058        1059        1064        1063
        1060        1061        1066        1065
        1061        1062        1067        1066
        1062        1063        1068        1067
        1063        1064        1069        1068
        1065        1066        1071        1070
        1066        1067        1072        1071
        1067        1068        1073        1072
        1068        1069        1074        1073
        1075        1076        1081        1080
        1076        1077        1082        1081
        1077        1078        1083        1082
        1078        1079        1084        1083
        1080        1081        1086        1085
        1081        1082        1087        1086
        1082        1083        1088        1087
        1083        1084        1089        1088
        1085        1086        1091        1090
        1086        1087        1092        1091
        1087        1088        1093        1092
        1088        1089        1094        1093
        1090        1091        1096        1095
        1091        1092        1097        1096
        1092        1093        1098        1097
        1093        1094        1099        1098
        1100        1101        1106        1105
        1101        1102        1107        1106
        1102        1103        1108        1107
        1103        1104        1109        1108
        1105        1106        1111        1110
        1106        1107        1112        1111
        1107        1108        1113        1112
        1108        1109        1114        1113
        1110        1111        1116        1115
        1111        1112        1117        1116
        1112        1113        1118        1117
        1113        1114        1119        1118
        1115        1116        1121        1120
        1116        1117        1122        1121
        1117        1118        1123        1122
        1118        1119        1124        1123
        1125        1126        1131        1130
        1126        1127        1132        1131
        1127        1128        1133        1132
        1128        1129        1134        1133
        1130        1131        1136        1135
        1131        1132        1137        1136
        1132        1133        1138        1137
        1133        1134        1139        1138
        1135        1136        1141        1140
        1136        1137        1142        1141
        1137        1138        1143        1142
        1138        1139        1144        1143
        1140        1141        1146        1145
        1141        1142        1147        1146
        1142        1143        1148        1147
        1143        1144        1149        1148
        1150        1151        1156        1155
        1151        1152        1157        1156
        1152        1153        1158        1157
        1153        1154        1159        1158
        1155        1156        1161        1160
        1156        1157        1162        1161
        1157        1158        1163        1162
        1158        1159        1164        1163
        1160        1161        1166        1165
        1161        1162        1167        1166
        1162        1163        1168        1167
        1163        1164        1169        1168
        1165        1166        1171        1170
        1166        1167        1172        1171
        1167        1168        1173        1172
        1168        1169        1174        1173
        1175        1176        1181        1180
        1176        1177        1182        1181
        1177        1178        1183        1182
        1178        1179        1184        1183
        1180        1181        1186        1185
        1181        1182        1187        1186
        1182        1183        1188        1187
        1183        1184        1189        1188
        1185        1186        1191        1190
        1186        1187        1192        1191
        1187        1188        1193        1192
        1188        1189        1194        1193
        1190        1191        1196        1195
        1191        1192        1197        1196
        1192        1193        1198        1197
        1193        1194        1199        1198
        1200        1201        1206        1205
        1201        1202        1207        1206
        1202        1203        1208        1207
        1203        1204        1209        1208
        1205        1206        1211        1210
        1206        1207        1212        1211
        1207        1208        1213        1212
        1208        1209        1214        1213
        1210        1211        1216        1215
        1211        1212        1217        1216
        1212        1213        1218        1217
        1213        1214        1219        1218
        1215        1216        1221        1220
        1216        1217        1222        1221
        1217        1218        1223        1222
        1218        1219        1224        1223
        1225        1226        1231        1230
        1226        1227        1232        1231
        1227        1228        1233        1232
        1228        1229        1234        1233
        1230        1231        1236        1235
        1231        1232        1237        1236
        1232        1233        1238        1237
        1233        1234        1239        1238
        1235        1236        1241        1240
        1236        1237        1242        1241
        1237        1238        1243        1242
        1238        1239        1244        1243
        1240        1241        1246        1245
        1241        1242        1247        1246
        1242        1243        1248        1247
        1243        1244        1249        1248
        1250        1251        1256        1255
        1251        1252        1257        1256
        1252        1253        1258        1257
        1253        1254        1259        1258
        1255        1256        1261        1260
        1256        1257        1262        1261
        1257        1258        1263        1262
        1258        1259        1264        1263
        1260        1261        1266        1265
        1261        1262        1267        1266
        1262        1263        1268        1267
        1263        1264        1269        1268
        1265        1266        1271        1270
        1266        1267        1272        1271
        1267        1268        1273        1272
        1268        1269        1274        1273
        1275        1276        1281        1280
        1276        1277        1282        1281
        1277        1278        1283        1282
        1278        1279        1284        1283
        1280        1281        1286        1285
        1281        1282        1287        1286
        1282        1283        1288        1287
        1283        1284        1289        1288
        1285        1286        1291        1290
        1286        1287        1292        1291
        1287        1288        1293        1292
        1288        1289        1294        1293
        1290        1291        1296        1295
        1291        1292        1297        1296
        1292        1293        1298        1297
        1293        1294        1299        1298
        1300        1301        1306        1305
        1301        1302        1307        1306
        1302        1303        1308        1307
        1303        1304        1309        1308
        1305        1306        1311        1310
        1306        1307        1312        1311
        1307        1308        1313        1312
        1308        1309        1314        1313
        1310        1311        1316        1315
        1311        1312        1317        1316
        1312        1313        1318        1317
        1313        1314        1319        1318
        1315        1316        1321        1320
        1316        1317        1322        1321
        1317        1318        1323        1322
        1318        1319        1324        1323
        1325        1326        1331        1330
        1326        1327        1332        1331
        1327        1328        1333        1332
        1328        1329        1334        1333
        1330        1331        1336        1335
        1331        1332        1337        1336
        1332        1333        1338        1337
        1333        1334        1339        1338
        1335        1336        1341        1340
        1336        1337        1342        1341
        1337        1338        1343        1342
        1338        1339        1344        1343
        1340        1341        1346        1345
        1341        1342        1347        1346
        1342        1343        1348        1347
        1343        1344        1349        1348
        1350        1351        1356        1355
        1351        1352        1357        1356
        1352        1353        1358        1357
        1353        1354        1359        1358
        1355        1356        1361        1360
        1356        1357        1362        1361
        1357        1358        1363        1362
        1358        1359        1364        1363
        1360        1361        1366        1365
        1361        1362        1367        1366
        1362        1363        1368        1367
        1363        1364        1369        1368
        1365        1366        1371        1370
        1366        1367        1372        1371
        1367        1368        1373        1372
        1368        1369        1374        1373
        1375        1376        1381        1380
        1376        1377        1382        1381
        1377        1378        1383        1382
        1378        1379        1384        1383
        1380        1381        1386        1385
        1381        1382        1387        1386
        1382        1383        1388        1387
        1383        1384        1389        1388
        1385        1386        1391        1390
        1386        1387        1392        1391
        1387        1388        1393        1392
        1388        1389        1394        1393
        1390        1391        1396        1395
        1391        1392        1397        1396
        1392        1393        1398        1397
        1393        1394        1399        1398
        1400        1401        1406        1405
        1401        1402        1407        1406
        1402        1403        1408        1407
        1403        1404        1409        1408
        1405        1406        1411        1410
        1406        1407        1412        1411
        1407        1408        1413        1412
        1408        1409        1414        1413
        1410        1411        1416        1415
        1411        1412        1417        1416
        1412        1413        1418        1417
        1413        1414        1419        1418
        1415        1416        1421        1420
        1416        1417        1422        1421
        1417        1418        1423        1422
        1418        1419        1424        1423
        1425        1426        1431        1430
        1426        1427        1432        1431
        1427        1428        1433        1432
        1428        1429        1434        1433
        1430        1431        1436        1435
        1431        1432        1437        1436
        1432        1433        1438        1437
        1433        1434        1439        1438
        1435        1436        1441        1440
        1436        1437        1442        1441
        1437        1438        1443        1442
        1438        1439        1444        1443
        1440        1441        1446        1445
        1441        1442        1447        1446
        1442        1443        1448        1447
        1443        1444        1449        1448
        1450        1451        1456        1455
        1451        1452        1457        1456
        1452        1453        1458        1457
        1453        1454        1459        1458
        1455        1456        1461        1460
        1456        1457        1462        1461
        1457        1458        1463        1462
        1458        1459        1464        1463
        1460        1461        1466        1465
        1461        1462        1467        1466
        1462        1463        1468        1467
        1463        1464        1469        1468
        1465        1466        1471        1470
        1466        1467        1472        1471
        1467        1468        1473        1472
        1468        1469        1474        1473
        1475        1476        1481        1480
        1476        1477        1482        1481
        1477        1478        1483        1482
        1478        1479        1484        1483
        1480        1481        1486        1485
        1481        1482        1487        1486
        1482        1483        1488        1487
        1483        1484        1489        1488
        1485        1486        1491        1490
        1486        1487        1492        1491
        1487        1488        1493        1492
        1488        1489        1494        1493
        1490        1491        1496        1495
        1491        1492        1497        1496
        1492        1493        1498        1497
        1493        1494        1499        1498
        1500        1501        1506        1505
        1501        1502        1507        1506
        1502        1503        1508        1507
        1503        1504        1509        1508
        1505        1506        1511        1510
        1506        1507        1512        1511
        1507        1508        1513        1512
        1508        1509        1514        1513
        1510        1511        1516        1515
        1511        1512        1517        1516
        1512        1513        1518        1517
        1513        1514        1519        1518
        1515        1516        1521        1520
        1516        1517        1522        1521
        1517        1518        1523        1522
        1518        1519        1524        1523
        1525        1526        1531        1530
        1526        1527        1532        1531
        1527        1528        1533        1532
        1528        1529        1534        1533
        1530        1531        1536        1535
        1531        1532        1537        1536
        1532        1533        1538        1537
        1533        1534        1539        1538
        1535        1536        1541        1540
        1536        1537        1542        1541
        1537        1538        1543        1542
        1538        1539        1544        1543
        1540        1541        1546        1545
        1541        1542        1547        1546
        1542        1543        1548        1547
        1543        1544        1549        1548
        1550        1551        1556        1555
        1551        1552        1557        1556
        1552        1553        1558        1557
        1553        1554        1559        1558
        1555        1556        1561        1560
        1556        1557        1562        1561
        1557        1558        1563        1562
        1558        1559        1564        1563
        1560        1561        1566        1565
        1561        1562        1567        1566
        1562        1563        1568        1567
        1563        1564        1569        1568
        1565        1566        1571        1570
        1566        1567        1572        1571
        1567        1568        1573        1572
        1568        1569        1574        1573
        1575        1576        1581        1580
        1576        1577        1582        1581
        1577        1578        1583        1582
        1578        1579        1584        1583
        1580        1581        1586        1585
        1581        1582        1587        1586
        1582        1583        1588        1587
        1583        1584        1589        1588
        1585        1586        1591        1590
        1586        1587        1592        1591
        1587        1588        1593        1592
        1588        1589        1594        1593
        1590        1591        1596        1595
        1591        1592        1597        1596
        1592        1593        1598        1597
        1593        1594        1599        1598
 </DataArray>
 <DataArray  type="Int32"  Name="offsets"  format="ascii"> 
           4
           8
          12
          16
          20
          24
          28
          32
          36
          40
          44
          48
          52
          56
          60
          64
          68
          72
          76
          80
          84
          88
          92
          96
         100
         104
         108
         112
         116
         120
         124
         128
         132
         136
         140
         144
         148
         152
         156
         160
         164
         168
         172
         176
         180
         184
         188
         192
         196
         200
         204
         208
         212
         216
         220
         224
         228
         232
         236
         240
         244
         248
         252
         256
         260
         264
         268
         272
         276
         280
         284
         288
         292
         296
         300
         304
         308
         312
         316
         320
         324
         328
         332
         336
         340
         344
         348
         352
         356
         360
         364
         368
         372
         376
         380
         384
         388
         392
         396
         400
         404
         408
         412
         416
         420
         424
         428
         432
         436
         440
         444
         448
         452
         456
         460
         464
         468
         472
         476
         480
         484
         488
         492
         496
         500
         504
         508
         512
         516
         520
         524
         528
         532
         536
         540
         544
         548
         552
         556
         560
         564
         568
         572
         576
         580
         584
         588
         592
         596
         600
         604
         608
         612
         616
         620
         624
         628
         632
         636
         640
         644
         648
         652
         656
         660
         664
         668
         672
         676
         680
         684
         688
         692
         696
         700
         704
         708
         712
         716
         720
         724
         728
         732
         736
         740
         744
         748
         752
         756
         760
         764
         768
         772
         776
         780
         784
         788
         792
         796
         800
         804
         808
         812
         816
         820
         824
         828
         832
         836
         840
         844
         848
         852
         856
         860
         864
         868
         872
         876
         880
         884
         888
         892
         896
         900
         904
         908
         912
         916
         920
         924
         928
         932
         936
         940
         944
         948
         952
         956
         960
         964
         968
         972
         976
         980
         984
         988
         992
         996
        1000
        1004
        1008
        1012
        1016
        1020
        1024
        1028
        1032
        1036
        1040
        1044
        1048
        1052
        1056
        1060
        1064
        1068
        1072
        1076
        1080
        1084
        1088
        1092
        1096
        1100
        1104
        1108
        1112
        1116
        1120
        1124
        1128
        1132
        1136
        1140
        1144
        1148
        1152
        1156
        1160
        1164
        1168
        1172
        1176
        1180
        1184
        1188
        1192
        1196
        1200
        1204
        1208
        1212
        1216
        1220
        1224
        1228
        1232
        1236
        1240
        1244
        1248
        1252
        1256
        1260
        1264
        1268
        1272
        1276
        1280
        1284
        1288
        1292
        1296
        1300
        1304
        1308
        1312
        1316
        1320
        1324
        1328
        1332
        1336
        1340
        1344
        1348
        1352
        1356
        1360
        1364
        1368
        1372
        1376
        1380
        1384
        1388
        1392
        1396
        1400
        1404
        1408
        1412
        1416
        1420
        1424
        1428
        1432
        1436
        1440
        1444
        1448
        1452
        1456
        1460
        1464
        1468
        1472
        1476
        1480
        1484
        1488
        1492
        1496
        1500
        1504
        1508
        1512
        1516
        1520
        1524
        1528
        1532
        1536
        1540
        1544
        1548
        1552
        1556
        1560
        1564
        1568
        1572
        1576
        1580
        1584
        1588
        1592
        1596
        1600
        1604
        1608
        1612
        1616
        1620
        1624
        1628
        1632
        1636
        1640
        1644
        1648
        1652
        1656
        1660
        1664
        1668
        1672
        1676
        1680
        1684
        1688
        1692
        1696
        1700
        1704
        1708
        1712
        1716
        1720
        1724
        1728
        1732
        1736
        1740
        1744
        1748
        1752
        1756
        1760
        1764
        1768
        1772
        1776
        1780
        1784
        1788
        1792
        1796
        1800
        1804
        1808
        1812
        1816
        1820
        1824
        1828
        1832
        1836
        1840
        1844
        1848
        1852
        1856
        1860
        1864
        1868
        1872
        1876
        1880
        1884
        1888
        1892
        1896
        1900
        1904
        1908
        1912
        1916
        1920
        1924
        1928
        1932
        1936
        1940
        1944
        1948
        1952
        1956
        1960
        1964
        1968
        1972
        1976
        1980
        1984
        1988
        1992
        1996
        2000
        2004
        2008
        2012
        2016
        2020
        2024
        2028
        2032
        2036
        2040
        2044
        2048
        2052
        2056
        2060
        2064
        2068
        2072
        2076
        2080
        2084
        2088
        2092
        2096
        2100
        2104
        2108
        2112
        2116
        2120
        2124
        2128
        2132
        2136
        2140
        2144
        2148
        2152
        2156
        2160
        2164
        2168
        2172
        2176
        2180
        2184
        2188
        2192
        2196
        2200
        2204
        2208
        2212
        2216
        2220
        2224
        2228
        2232
        2236
        2240
        2244
        2248
        2252
        2256
        2260
        2264
        2268
        2272
        2276
        2280
        2284
        2288
        2292
        2296
        2300
        2304
        2308
        2312
        2316
        2320
        2324
        2328
        2332
        2336
        2340
        2344
        2348
        2352
        2356
        2360
        2364
        2368
        2372
        2376
        2380
        2384
        2388
        2392
        2396
        2400
        2404
        2408
        2412
        2416
        2420
        2424
        2428
        2432
        2436
        2440
        2444
        2448
        2452
        2456
        2460
        2464
        2468
        2472
        2476
        2480
        2484
        2488
        2492
        2496
        2500
        2504
        2508
        2512
        2516
        2520
        2524
        2528
        2532
        2536
        2540
        2544
        2548
        2552
        2556
        2560
        2564
        2568
        2572
        2576
        2580
        2584
        2588
        2592
        2596
        2600
        2604
        2608
        2612
        2616
        2620
        2624
        2628
        2632
        2636
        2640
        2644
        2648
        2652
        2656
        2660
        2664
        2668
        2672
        2676
        2680
        2684
        2688
        2692
        2696
        2700
        2704
        2708
        2712
        2716
        2720
        2724
        2728
        2732
        2736
        2740
        2744
        2748
        2752
        2756
        2760
        2764
        2768
        2772
        2776
        2780
        2784
        2788
        2792
        2796
        2800
        2804
        2808
        2812
        2816
        2820
        2824
        2828
        2832
        2836
        2840
        2844
        2848
        2852
        2856
        2860
        2864
        2868
        2872
        2876
        2880
        2884
        2888
        2892
        2896
        2900
        2904
        2908
        2912
        2916
        2920
        2924
        2928
        2932
        2936
        2940
        2944
        2948
        2952
        2956
        2960
        2964
        2968
        2972
        2976
        2980
        2984
        2988
        2992
        2996
        3000
        3004
        3008
        3012
        3016
        3020
        3024
        3028
        3032
        3036
        3040
        3044
        3048
        3052
        3056
        3060
        3064
        3068
        3072
        3076
        3080
        3084
        3088
        3092
        3096
        3100
        3104
        3108
        3112
        3116
        3120
        3124
        3128
        3132
        3136
        3140
        3144
        3148
        3152
        3156
        3160
        3164
        3168
        3172
        3176
        3180
        3184
        3188
        3192
        3196
        3200
        3204
        3208
        3212
        3216
        3220
        3224
        3228
        3232
        3236
        3240
        3244
        3248
        3252
        3256
        3260
        3264
        3268
        3272
        3276
        3280
        3284
        3288
        3292
        3296
        3300
        3304
        3308
        3312
        3316
        3320
        3324
        3328
        3332
        3336
        3340
        3344
        3348
        3352
        3356
        3360
        3364
        3368
        3372
        3376
        3380
        3384
        3388
        3392
        3396
        3400
        3404
        3408
        3412
        3416
        3420
        3424
        3428
        3432
        3436
        3440
        3444
        3448
        3452
        3456
        3460
        3464
        3468
        3472
        3476
        3480
        3484
        3488
        3492
        3496
        3500
        3504
        3508
        3512
        3516
        3520
        3524
        3528
        3532
        3536
        3540
        3544
        3548
        3552
        3556
        3560
        3564
        3568
        3572
        3576
        3580
        3584
        3588
        3592
        3596
        3600
        3604
        3608
        3612
        3616
        3620
        3624
        3628
        3632
        3636
        3640
        3644
        3648
        3652
        3656
        3660
        3664
        3668
        3672
        3676
        3680
        3684
        3688
        3692
        3696
        3700
        3704
        3708
        3712
        3716
        3720
        3724
        3728
        3732
        3736
        3740
        3744
        3748
        3752
        3756
        3760
        3764
        3768
        3772
        3776
        3780
        3784
        3788
        3792
        3796
        3800
        3804
        3808
        3812
        3816
        3820
        3824
        3828
        3832
        3836
        3840
        3844
        3848
        3852
        3856
        3860
        3864
        3868
        3872
        3876
        3880
        3884
        3888
        3892
        3896
        3900
        3904
        3908
        3912
        3916
        3920
        3924
        3928
        3932
        3936
        3940
        3944
        3948
        3952
        3956
        3960
        3964
        3968
        3972
        3976
        3980
        3984
        3988
        3992
        3996
        4000
        4004
        4008
        4012
        4016
        4020
        4024
        4028
        4032
        4036
        4040
        4044
        4048
        4052
        4056
        4060
        4064
        4068
        4072
        4076
        4080
        4084
        4088
        4092
        4096
 </DataArray>
 <DataArray  type="UInt8"  Name="types"  format="ascii">
 9
 9
 9
 9
 9
 9
 9
 9
 9
 9
 9
 9
 9
 9
 9
 9
 9
 9
 9
 9
 9
 9
 9
 9
 9
 9
 9
 9
 9
 9
 9
 9
 9
 9
 9
 9
 9
 9
 9
 9
 9
 9
 9
 9
 9
 9
 9
 9
 9
 9
 9
 9
 9
 9
 9
 9
 9
 9
 9
 9
 9
 9
 9
 9
 9
 9
 9
 9
 9
 9
 9
 9
 9
 9
 9
 9
 9
 9
 9
 9
 9
 9
 9
 9
 9
 9
 9
 9
 9
 9
 9
 9
 9
 9
 9
 9
 9
 9
 9
 9
 9
 9
 9
 9
 9
 9
 9
 9
 9
 9
 9
 9
 9
 9
 9
 9
 9
 9
 9
 9
 9
 9
 9
 9
 9
 9
 9
 9
 9
 9
 9
 9
 9
 9
 9
 9
 9
 9
 9
 9
 9
 9
 9
 9
 9
 9
 9
 9
 9
 9
 9
 9
 9
 9
 9
 9
 9
 9
 9
 9
 9
 9
 9
 9
 9
 9
 9
 9
 9
 9
 9
 9
 9
 9
 9
 9
 9
 9
 9
 9
 9
 9
 9
 9
 9
 9
 9
 9
 9
 9
 9
 9
 9
 9
 9
 9
 9
 9
 9
 9
 9
 9
 9
 9
 9
 9
 9
 9
 9
 9
 9
 9
 9
 9
 9
 9
 9
 9
 9
 9
 9
 9
 9
 9
 9
 9
 9
 9
 9
 9
 9
 9
 9
 9
 9
 9
 9
 9
 9
 9
 9
 9
 9
 9
 9
 9
 9
 9
 9
 9
 9
 9
 9
 9
 9
 9
 9
 9
 9
 9
 9
 9
 9
 9
 9
 9
 9
 9
 9
 9
 9
 9
 9
 9
 9
 9
 9
 9
 9
 9
 9
 9
 9
 9
 9
 9
 9
 9
 9
 9
 9
 9
 9
 9
 9
 9
 9
 9
 9
 9
 9
 9
 9
 9
 9
 9
 9
 9
 9
 9
 9
 9
 9
 9
 9
 9
 9
 9
 9
 9
 9
 9
 9
 9
 9
 9
 9
 9
 9
 9
 9
 9
 9
 9
 9
 9
 9
 9
 9
 9
 9
 9
 9
 9
 9
 9
 9
 9
 9
 9
 9
 9
 9
 9
 9
 9
 9
 9
 9
 9
 9
 9
 9
 9
 9
 9
 9
 9
 9
 9
 9
 9
 9
 9
 9
 9
 9
 9
 9
 9
 9
 9
 9
 9
 9
 9
 9
 9
 9
 9
 9
 9
 9
 9
 9
 9
 9
 9
 9
 9
 9
 9
 9
 9
 9
 9
 9
 9
 9
 9
 9
 9
 9
 9
 9
 9
 9
 9
 9
 9
 9
 9
 9
 9
 9
 9
 9
 9
 9
 9
 9
 9
 9
 9
 9
 9
 9
 9
 9
 9
 9
 9
 9
 9
 9
 9
 9
 9
 9
 9
 9
 9
 9
 9
 9
 9
 9
 9
 9
 9
 9
 9
 9
 9
 9
 9
 9
 9
 9
 9
 9
 9
 9
 9
 9
 9
 9
 9
 9
 9
 9
 9
 9
 9
 9
 9
 9
 9
 9
 9
 9
 9
 9
 9
 9
 9
 9
 9
 9
 9
 9
 9
 9
 9
 9
 9
 9
 9
 9
 9
 9
 9
 9
 9
 9
 9
 9
 9
 9
 9
 9
 9
 9
 9
 9
 9
 9
 9
 9
 9
 9
 9
 9
 9
 9
 9
 9
 9
 9
 9
 9
 9
 9
 9
 9
 9
 9
 9
 9
 9
 9
 9
 9
 9
 9
 9
 9
 9
 9
 9
 9
 9
 9
 9
 9
 9
 9
 9
 9
 9
 9
 9
 9
 9
 9
 9
 9
 9
 9
 9
 9
 9
 9
 9
 9
 9
 9
 9
 9
 9
 9
 9
 9
 9
 9
 9
 9
 9
 9
 9
 9
 9
 9
 9
 9
 9
 9
 9
 9
 9
 9
 9
 9
 9
 9
 9
 9
 9
 9
 9
 9
 9
 9
 9
 9
 9
 9
 9
 9
 9
 9
 9
 9
 9
 9
 9
 9
 9
 9
 9
 9
 9
 9
 9
 9
 9
 9
 9
 9
 9
 9
 9
 9
 9
 9
 9
 9
 9
 9
 9
 9
 9
 9
 9
 9
 9
 9
 9
 9
 9
 9
 9
 9
 9
 9
 9
 9
 9
 9
 9
 9
 9
 9
 9
 9
 9
 9
 9
 9
 9
 9
 9
 9
 9
 9
 9
 9
 9
 9
 9
 9
 9
 9
 9
 9
 9
 9
 9
 9
 9
 9
 9
 9
 9
 9
 9
 9
 9
 9
 9
 9
 9
 9
 9
 9
 9
 9
 9
 9
 9
 9
 9
 9
 9
 9
 9
 9
 9
 9
 9
 9
 9
 9
 9
 9
 9
 9
 9
 9
 9
 9
 9
 9
 9
 9
 9
 9
 9
 9
 9
 9
 9
 9
 9
 9
 9
 9
 9
 9
 9
 9
 9
 9
 9
 9
 9
 9
 9
 9
 9
 9
 9
 9
 9
 9
 9
 9
 9
 9
 9
 9
 9
 9
 9
 9
 9
 9
 9
 9
 9
 9
 9
 9
 9
 9
 9
 9
 9
 9
 9
 9
 9
 9
 9
 9
 9
 9
 9
 9
 9
 9
 9
 9
 9
 9
 9
 9
 9
 9
 9
 9
 9
 9
 9
 9
 9
 9
 9
 9
 9
 9
 9
 9
 9
 9
 9
 9
 9
 9
 9
 9
 9
 9
 9
 9
 9
 9
 9
 9
 9
 9
 9
 9
 9
 9
 9
 9
 9
 9
 9
 9
 9
 9
 9
 9
 9
 9
 9
 9
 9
 9
 9
 9
 9
 9
 9
 9
 9
 9
 9
 9
 9
 9
 9
 9
 9
 9
 9
 9
 9
 9
 9
 9
 9
 9
 9
 9
 9
 9
 9
 9
 9
 9
 9
 9
 9
 9
 9
 9
 9
 9
 9
 9
 9
 9
 9
 9
 9
 9
 9
 9
 9
 9
 9
 9
 9
 9
 9
 9
 9
 9
 9
 9
 9
 9
 9
 9
 9
 9
 9
 9
 9
 9
 9
 9
 9
 9
 9
 9
 9
 9
 9
 9
 9
 9
 9
 9
 9
 9
 9
 9
 9
 9
 9
 9
 9
 9
 9
 9
 9
 9
 9
 9
 9
 9
 9
 9
 9
 9
 9
 9
 9
 9
 9
 9
 9
 9
 9
 9
 9
 9
 9
 9
 9
 9
 9
 9
 9
 9
 9
 9
 9
 9
 9
 9
 9
 9
 9
 9
 9
 9
 9
 9
 9
 </DataArray>
 </Cells> 
 <PointData>
 <DataArray  type="Float64" Name="disp" NumberOfComponents="3" format="ascii">
   6.5294826949526694E-002   6.2775294849308702E-002   0.0000000000000000     
   6.8419546196170078E-002   6.8177512715767163E-002   0.0000000000000000     
   7.1417476469336175E-002   7.3754703677975347E-002   0.0000000000000000     
   7.4288617769024998E-002   7.9506867735933254E-002   0.0000000000000000     
   7.7032970095236547E-002   8.5434004889640869E-002   0.0000000000000000     
   6.0085244921844042E-002   6.1889215554505494E-002   0.0000000000000000     
   6.3036150631039373E-002   6.7306835622735761E-002   0.0000000000000000     
   6.5860368372023581E-002   7.2904240903358425E-002   0.0000000000000000     
   6.8557898144796639E-002   7.8681431396373486E-002   0.0000000000000000     
   7.1128739949358574E-002   8.4638407101780916E-002   0.0000000000000000     
   5.5100162752593121E-002   6.1044780231268359E-002   0.0000000000000000     
   5.7862394285303348E-002   6.6485186659937995E-002   0.0000000000000000     
   6.0503669716020649E-002   7.2107018608156825E-002   0.0000000000000000     
   6.3023989044745016E-002   7.7910276075924836E-002   0.0000000000000000     
   6.5423352271476470E-002   8.3894959063242000E-002   0.0000000000000000     
   5.0339580441773946E-002   6.0241988879597273E-002   0.0000000000000000     
   5.2898277158961990E-002   6.5712565827373878E-002   0.0000000000000000     
   5.5347380501327384E-002   7.1363036792370549E-002   0.0000000000000000     
   5.7686890468870135E-002   7.7193401774587292E-002   0.0000000000000000     
   5.9916807061590222E-002   8.3203660774024121E-002   0.0000000000000000     
   4.5803497989386509E-002   5.9480841499492260E-002   0.0000000000000000     
   4.8143799252015305E-002   6.4988973125043342E-002   0.0000000000000000     
   5.0391500727943787E-002   7.0672295455999554E-002   0.0000000000000000     
   5.2546602417171961E-002   7.6530808492360880E-002   0.0000000000000000     
   5.4609104319699828E-002   8.2564512234127307E-002   0.0000000000000000     
   7.7032970095236547E-002   8.5434004889640869E-002   0.0000000000000000     
   7.9675708057466793E-002   9.1529131164094168E-002   0.0000000000000000     
   8.2242006265211734E-002   9.7785262584289087E-002   0.0000000000000000     
   8.4731864718471342E-002  0.10420239915022565        0.0000000000000000     
   8.7145283417245645E-002  0.11078054086190386        0.0000000000000000     
   7.1128739949358574E-002   8.4638407101780916E-002   0.0000000000000000     
   7.3601887869433780E-002   9.0764854203010878E-002   0.0000000000000000     
   7.6006335988746718E-002   9.7050458883493465E-002   0.0000000000000000     
   7.8342084307297374E-002  0.10349522114322869        0.0000000000000000     
   8.0609132825085736E-002  0.11009914098221658        0.0000000000000000     
   6.5423352271476470E-002   8.3894959063242000E-002   0.0000000000000000     
   6.7730562491160565E-002   9.0049435441072259E-002   0.0000000000000000     
   6.9974422798742941E-002   9.6362073080379473E-002   0.0000000000000000     
   7.2154933194223572E-002  0.10283287198116367        0.0000000000000000     
   7.4272093677602458E-002  0.10946183214342484        0.0000000000000000     
   5.9916807061590222E-002   8.3203660774024121E-002   0.0000000000000000     
   6.2061731922647127E-002   8.9382874878278312E-002   0.0000000000000000     
   6.4146266695200377E-002   9.5720105174947126E-002   0.0000000000000000     
   6.6170411379249949E-002  0.10221535166403056        0.0000000000000000     
   6.8134165974795838E-002  0.10886861434552859        0.0000000000000000     
   5.4609104319699828E-002   8.2564512234127307E-002   0.0000000000000000     
   5.6595396163893495E-002   8.8765172514629079E-002   0.0000000000000000     
   5.8521867678119038E-002   9.5124555167196423E-002   0.0000000000000000     
   6.0388518862376492E-002  0.10164266019182937        0.0000000000000000     
   6.2195349716665835E-002  0.10831948758852789        0.0000000000000000     
   8.7145283417245645E-002  0.11078054086190386        0.0000000000000000     
   8.9466654356505498E-002  0.11750522240980776        0.0000000000000000     
   9.1680369531221745E-002  0.12436197848442143        0.0000000000000000     
   9.3786428941394426E-002  0.13135080908574481        0.0000000000000000     
   9.5784832587023500E-002  0.13847171421377799        0.0000000000000000     
   8.0609132825085736E-002  0.11009914098221658        0.0000000000000000     
   8.2790336749571564E-002  0.11684936721013620        0.0000000000000000     
   8.4868551288214633E-002  0.12373304863666662        0.0000000000000000     
   8.6843776441014917E-002  0.13075018526180782        0.0000000000000000     
   8.8716012207972428E-002  0.13790077708555984        0.0000000000000000     
   7.4272093677602458E-002  0.10946183214342484        0.0000000000000000     
   7.6309119735151948E-002  0.11623701456159603        0.0000000000000000     
   7.8249226853144255E-002  0.12314648023011023        0.0000000000000000     
   8.0092415031579461E-002  0.13019022914896750        0.0000000000000000     
   8.1838684270457512E-002  0.13736826131816784        0.0000000000000000     
   6.8134165974795838E-002  0.10886861434552859        0.0000000000000000     
   7.0023003313246554E-002  0.11566816446418718        0.0000000000000000     
   7.1822396226010610E-002  0.12260227326475229        0.0000000000000000     
   7.3532344713088046E-002  0.12967094074722388        0.0000000000000000     
   7.5152848774478781E-002  0.13687416691160192        0.0000000000000000     
   6.2195349716665835E-002  0.10831948758852789        0.0000000000000000     
   6.3931987483855438E-002  0.11514281691790976        0.0000000000000000     
   6.5588059406813712E-002  0.12210042774059275        0.0000000000000000     
   6.7163565485540602E-002  0.12919232005657688        0.0000000000000000     
   6.8658505720036178E-002  0.13641849386586216        0.0000000000000000     
   9.5784832587023500E-002  0.13847171421377799        0.0000000000000000     
   9.7685419926579559E-002  0.14571419884854894        0.0000000000000000     
   9.9498030418533168E-002  0.15306776797008570        0.0000000000000000     
  0.10122266406288437       0.16053242157838826        0.0000000000000000     
  0.10285932085963309       0.16810815967345663        0.0000000000000000     
   8.8716012207972428E-002  0.13790077708555984        0.0000000000000000     
   9.0495878057174947E-002  0.14517278607129683        0.0000000000000000     
   9.2193993456710283E-002  0.15255417418239287        0.0000000000000000     
   9.3810358406578406E-002  0.16004494141884801        0.0000000000000000     
   9.5344972906779346E-002  0.16764508778066223        0.0000000000000000     
   8.1838684270457512E-002  0.13736826131816784        0.0000000000000000     
   8.3498184609570508E-002  0.14466764788918499        0.0000000000000000     
   8.5081066088710480E-002  0.15207546001349273        0.0000000000000000     
   8.6587328707877456E-002  0.15959169769109111        0.0000000000000000     
   8.8016972467071408E-002  0.16721636092198008        0.0000000000000000     
   7.5152848774478781E-002  0.13687416691160192        0.0000000000000000     
   7.6692339583766242E-002  0.14419878430221342        0.0000000000000000     
   7.8159248314533830E-002  0.15163162546338532        0.0000000000000000     
   7.9553574966781518E-002  0.15917269039511758        0.0000000000000000     
   8.0875319540509291E-002  0.16682197909741017        0.0000000000000000     
   6.8658505720036178E-002  0.13641849386586216        0.0000000000000000     
   7.0078342979762134E-002  0.14376619531038218        0.0000000000000000     
   7.1428540134180277E-002  0.15122267053207059        0.0000000000000000     
   7.2709097183290550E-002  0.15878791953092736        0.0000000000000000     
   7.3920014127093023E-002  0.16646194230695252        0.0000000000000000     
  0.10285932085963309       0.16810815967345663        0.0000000000000000     
  0.10440855885140510       0.17578397183450695        0.0000000000000000     
  0.10587093608082608       0.18354884764075524        0.0000000000000000     
  0.10724645254789603       0.19140278709220160        0.0000000000000000     
  0.10853510825261495       0.19934579018884599        0.0000000000000000     
   9.5344972906779346E-002  0.16764508778066223        0.0000000000000000     
   9.6796062377161166E-002  0.17534507528074902        0.0000000000000000     
   9.8161852237571956E-002  0.18313536593202173        0.0000000000000000     
   9.9442342488011745E-002  0.19101595973448046        0.0000000000000000     
  0.10063753312848051       0.19898685668812516        0.0000000000000000     
   8.8016972467071408E-002  0.16721636092198008        0.0000000000000000     
   8.9366897005080936E-002  0.17494067944090536        0.0000000000000000     
   9.0634001960694641E-002  0.18275588298261267        0.0000000000000000     
   9.1818287333912507E-002  0.19066197154710199        0.0000000000000000     
   9.2919753124734564E-002  0.19865894513437332        0.0000000000000000     
   8.0875319540509291E-002  0.16682197909741017        0.0000000000000000     
   8.2121062735164424E-002  0.17457078431497608        0.0000000000000000     
   8.3287385250194079E-002  0.18241039879252802        0.0000000000000000     
   8.4374287085598340E-002  0.19034082253006618        0.0000000000000000     
   8.5381768241377123E-002  0.19836205552759045        0.0000000000000000     
   7.3920014127093023E-002  0.16646194230695252        0.0000000000000000     
   7.5058559567411615E-002  0.17423538990296103        0.0000000000000000     
   7.6122002106070355E-002  0.18209891336176787        0.0000000000000000     
   7.7110341743069202E-002  0.19005251268337300        0.0000000000000000     
   7.8023578478408198E-002  0.19809618786777652        0.0000000000000000     
  0.10853510825261495       0.19934579018884599        0.0000000000000000     
  0.10974265767615651       0.20737431181001093        0.0000000000000000     
  0.11087485529969436       0.21548480683501894        0.0000000000000000     
  0.11193170112322852       0.22367727526387005        0.0000000000000000     
  0.11291319514675899       0.23195171709656423        0.0000000000000000     
  0.10063753312848051       0.19898685668812516        0.0000000000000000     
  0.10175361042167969       0.20704163167469436        0.0000000000000000     
  0.10279676063031078       0.21517385957592644        0.0000000000000000     
  0.10376698375437378       0.22338354039182151        0.0000000000000000     
  0.10466427979386869       0.23167067412237946        0.0000000000000000     
   9.2919753124734564E-002  0.19865894513437332        0.0000000000000000     
   9.3943935564817380E-002  0.20673876026600538        0.0000000000000000     
   9.4896370885817594E-002  0.21489337346357690        0.0000000000000000     
   9.5777059087735178E-002  0.22312278472708785        0.0000000000000000     
   9.6586000170570174E-002  0.23142699405653830        0.0000000000000000     
   8.5381768241377123E-002  0.19836205552759045        0.0000000000000000     
   8.6313633105569554E-002  0.20646569758394412        0.0000000000000000     
   8.7173686066214756E-002  0.21464334849797034        0.0000000000000000     
   8.7961927123312703E-002  0.22289500826966926        0.0000000000000000     
   8.8678356276863379E-002  0.23122067689904080        0.0000000000000000     
   7.8023578478408198E-002  0.19809618786777652        0.0000000000000000     
   7.8862703043936236E-002  0.20622244362851039        0.0000000000000000     
   7.9628706171502278E-002  0.21442378467910672        0.0000000000000000     
   8.0321587861106339E-002  0.22270021101956555        0.0000000000000000     
   8.0941348112748362E-002  0.23105172264988688        0.0000000000000000     
  0.11291319514675899       0.23195171709656423        0.0000000000000000     
  0.11384755599322288       0.24032448925239894        0.0000000000000000     
  0.11476300228555733       0.24881194865067163        0.0000000000000000     
  0.11565953402376232       0.25741409529138232        0.0000000000000000     
  0.11653715120783789       0.26613092917453096        0.0000000000000000     
  0.10466427979386869       0.23167067412237946        0.0000000000000000     
  0.10549354516269062       0.24005878091020538        0.0000000000000000     
  0.10625967627473472       0.24857138089790434        0.0000000000000000     
  0.10696267313000098       0.25720847408547620        0.0000000000000000     
  0.10760253572848938       0.26597006047292110        0.0000000000000000     
   9.6586000170570174E-002  0.23142699405653830        0.0000000000000000     
   9.7313841755582331E-002  0.23983263914830091        0.0000000000000000     
   9.7951231464031466E-002  0.24836635769874849        0.0000000000000000     
   9.8498169295917620E-002  0.25702814970788102        0.0000000000000000     
   9.8954655251240739E-002  0.26581801517569836        0.0000000000000000     
   8.8678356276863379E-002  0.23122067689904080        0.0000000000000000     
   8.9308445771897962E-002  0.23964606396668553        0.0000000000000000     
   8.9837667853447573E-002  0.24819687905320414        0.0000000000000000     
   9.0266022521512224E-002  0.25687312215859653        0.0000000000000000     
   9.0593509776091888E-002  0.26567479328286270        0.0000000000000000     
   8.0941348112748362E-002  0.23105172264988688        0.0000000000000000     
   8.1477357211637555E-002  0.23949905536535926        0.0000000000000000     
   8.1918985442983039E-002  0.24806294496127124        0.0000000000000000     
   8.2266232806784814E-002  0.25674339143762298        0.0000000000000000     
   8.2519099303042881E-002  0.26554039479441427        0.0000000000000000     
  0.11653715120783789       0.26613092917453096        0.0000000000000000     
  0.11733613656847540       0.27512724038217384        0.0000000000000000     
  0.11799677283636628       0.28456781899636718        0.0000000000000000     
  0.11851906001151051       0.29445266501711087        0.0000000000000000     
  0.11890299809390809       0.30478177844440513        0.0000000000000000     
  0.10760253572848938       0.26597006047292110        0.0000000000000000     
  0.10816031028354632       0.27498832387471739        0.0000000000000000     
  0.10861704300851807       0.28439544810534345        0.0000000000000000     
  0.10897273390340470       0.29419143316479934        0.0000000000000000     
  0.10922738296820614       0.30437627905308506        0.0000000000000000     
   9.8954655251240739E-002  0.26581801517569836        0.0000000000000000     
   9.9331768766886985E-002  0.27483421239574657        0.0000000000000000     
   9.9640589279742522E-002  0.28417499966157134        0.0000000000000000     
   9.9881116789807337E-002  0.29384037697317289        0.0000000000000000     
  0.10005335129708144       0.30383034433055101        0.0000000000000000     
   9.0593509776091888E-002  0.26567479328286270        0.0000000000000000     
   9.0850512018497406E-002  0.27466490594526138        0.0000000000000000     
   9.1067411650039592E-002  0.28390647366505095        0.0000000000000000     
   9.1244208670718432E-002  0.29339949644223151        0.0000000000000000     
   9.1380903080533954E-002  0.30314397427680312        0.0000000000000000     
   8.2519099303042881E-002  0.26554039479441427        0.0000000000000000     
   8.2716540038377584E-002  0.27448040452326183        0.0000000000000000     
   8.2897510119409296E-002  0.28358987011578213        0.0000000000000000     
   8.3062009546137988E-002  0.29286879157197537        0.0000000000000000     
   8.3210038318563689E-002  0.30231716889184135        0.0000000000000000     
   4.5803497989386509E-002   5.9480841499492260E-002   0.0000000000000000     
   4.8143799252015305E-002   6.4988973125043342E-002   0.0000000000000000     
   5.0391500727943787E-002   7.0672295455999554E-002   0.0000000000000000     
   5.2546602417171961E-002   7.6530808492360880E-002   0.0000000000000000     
   5.4609104319699828E-002   8.2564512234127307E-002   0.0000000000000000     
   4.1432209620677868E-002   5.8780209252399497E-002   0.0000000000000000     
   4.3555744857086347E-002   6.4323156715219154E-002   0.0000000000000000     
   4.5602998136068107E-002   7.0036789471519034E-002   0.0000000000000000     
   4.7573969457623155E-002   7.5921107521299144E-002   0.0000000000000000     
   4.9468658821751471E-002   8.1976110864559498E-002   0.0000000000000000     
   3.7166009560895046E-002   5.8158963299765207E-002   0.0000000000000000     
   3.9090898266798180E-002   6.3723864760173915E-002   0.0000000000000000     
   4.0948840465898591E-002   6.9458513711404074E-002   0.0000000000000000     
   4.2739836158196293E-002   7.5362910153455684E-002   0.0000000000000000     
   4.4463885343691278E-002   8.1437054086328731E-002   0.0000000000000000     
   3.3004897810038077E-002   5.7617103641589354E-002   0.0000000000000000     
   3.4749259481150790E-002   6.3191097259907625E-002   0.0000000000000000     
   3.6429027717435232E-002   6.8937468175654659E-002   0.0000000000000000     
   3.8044202518891394E-002   7.4856216388830443E-002   0.0000000000000000     
   3.9594783885519270E-002   8.0947341899434949E-002   0.0000000000000000     
   2.8948874368106933E-002   5.7154630277871973E-002   0.0000000000000000     
   3.0530828500144193E-002   6.2724854214420339E-002   0.0000000000000000     
   3.2043559890678031E-002   6.8473652864270831E-002   0.0000000000000000     
   3.3487068539708439E-002   7.4401026227423450E-002   0.0000000000000000     
   3.4861354447235426E-002   8.0506974303878209E-002   0.0000000000000000     
   5.4609104319699828E-002   8.2564512234127307E-002   0.0000000000000000     
   5.6595396163893495E-002   8.8765172514629079E-002   0.0000000000000000     
   5.8521867678119038E-002   9.5124555167196423E-002   0.0000000000000000     
   6.0388518862376492E-002  0.10164266019182937        0.0000000000000000     
   6.2195349716665835E-002  0.10831948758852789        0.0000000000000000     
   4.9468658821751471E-002   8.1976110864559498E-002   0.0000000000000000     
   5.1295727995366011E-002   8.8196277160079536E-002   0.0000000000000000     
   5.3063838745379739E-002   9.4576084066638685E-002   0.0000000000000000     
   5.4772991071792627E-002  0.10111553158423699        0.0000000000000000     
   5.6423184974604704E-002  0.10781461971287437        0.0000000000000000     
   4.4463885343691278E-002   8.1437054086328731E-002   0.0000000000000000     
   4.6126900197531094E-002   8.7676137624584746E-002   0.0000000000000000     
   4.7734792894863258E-002   9.4075352882785263E-002   0.0000000000000000     
   4.9287563435687777E-002  0.10063469986093028        0.0000000000000000     
   5.0785211820004658E-002  0.10735417855901980        0.0000000000000000     
   3.9594783885519270E-002   8.0947341899434949E-002   0.0000000000000000     
   4.1088912770388723E-002   8.7204753908144694E-002   0.0000000000000000     
   4.2534730126569609E-002   9.3622361615636140E-002   0.0000000000000000     
   4.3932235954061954E-002  0.10020016502190932        0.0000000000000000     
   4.5281430252865719E-002  0.10693816412696414        0.0000000000000000     
   3.4861354447235426E-002   8.0506974303878209E-002   0.0000000000000000     
   3.6181765713938899E-002   8.6782126010759408E-002   0.0000000000000000     
   3.7463650440498805E-002   9.3217110265191333E-002   0.0000000000000000     
   3.8707008626915132E-002   9.9811927067174011E-002   0.0000000000000000     
   3.9911840273187886E-002  0.10656657641670741        0.0000000000000000     
   6.2195349716665835E-002  0.10831948758852789        0.0000000000000000     
   6.3931987483855438E-002  0.11514281691790976        0.0000000000000000     
   6.5588059406813712E-002  0.12210042774059275        0.0000000000000000     
   6.7163565485540602E-002  0.12919232005657688        0.0000000000000000     
   6.8658505720036178E-002  0.13641849386586216        0.0000000000000000     
   5.6423184974604704E-002  0.10781461971287437        0.0000000000000000     
   5.8007946855290378E-002  0.11466047399142185        0.0000000000000000     
   5.9520803115324136E-002  0.12164021995875028        0.0000000000000000     
   6.0961753754705944E-002  0.12875385761485966        0.0000000000000000     
   6.2330798773435815E-002  0.13600138695975006        0.0000000000000000     
   5.0785211820004658E-002  0.10735417855901980        0.0000000000000000     
   5.2222756035863155E-002  0.11422063775338161        0.0000000000000000     
   5.3595214071312493E-002  0.12122092622034342        0.0000000000000000     
   5.4902585926352707E-002  0.12835504395990527        0.0000000000000000     
   5.6144871600983769E-002  0.13562299097206715        0.0000000000000000     
   4.5281430252865719E-002  0.10693816412696414        0.0000000000000000     
   4.6576415025573734E-002  0.11382330820378901        0.0000000000000000     
   4.7811292274778802E-002  0.12084254652537219        0.0000000000000000     
   4.8986062000480897E-002  0.12799587909171364        0.0000000000000000     
   5.0100724202680059E-002  0.13528330590281346        0.0000000000000000     
   3.9911840273187886E-002  0.10656657641670741        0.0000000000000000     
   4.1068923824422149E-002  0.11346848534264409        0.0000000000000000     
   4.2169037725723044E-002  0.12050508087383657        0.0000000000000000     
   4.3212181977090536E-002  0.12767636301028487        0.0000000000000000     
   4.4198356578524660E-002  0.13498233175198898        0.0000000000000000     
   6.8658505720036178E-002  0.13641849386586216        0.0000000000000000     
   7.0078342979762134E-002  0.14376619531038218        0.0000000000000000     
   7.1428540134180277E-002  0.15122267053207059        0.0000000000000000     
   7.2709097183290550E-002  0.15878791953092736        0.0000000000000000     
   7.3920014127093023E-002  0.16646194230695252        0.0000000000000000     
   6.2330798773435815E-002  0.13600138695975006        0.0000000000000000     
   6.3630577074493960E-002  0.14337065019482653        0.0000000000000000     
   6.4863727560860604E-002  0.15084948952149421        0.0000000000000000     
   6.6030250232535725E-002  0.15843790493975313        0.0000000000000000     
   6.7130145089519339E-002  0.16613589644960325        0.0000000000000000     
   5.6144871600983769E-002  0.13562299097206715        0.0000000000000000     
   5.7323424144897481E-002  0.14301291823668177        0.0000000000000000     
   5.8439596607785582E-002  0.15051297673360192        0.0000000000000000     
   5.9493388989648115E-002  0.15812316646282748        0.0000000000000000     
   6.0484801290485044E-002  0.16584348742435850        0.0000000000000000     
   5.0100724202680059E-002  0.13528330590281346        0.0000000000000000     
   5.1156884190972689E-002  0.14269299943594799        0.0000000000000000     
   5.2156147274955239E-002  0.15021313216839363        0.0000000000000000     
   5.3098513454627724E-002  0.15784370410015039        0.0000000000000000     
   5.3983982729990124E-002  0.16558471523121829        0.0000000000000000     
   4.4198356578524660E-002  0.13498233175198898        0.0000000000000000     
   4.5130957212719591E-002  0.14241089379262506        0.0000000000000000     
   4.6013379562369561E-002  0.14994995582586937        0.0000000000000000     
   4.6845623627474561E-002  0.15759951785172188        0.0000000000000000     
   4.7627689408034586E-002  0.16535957987018257        0.0000000000000000     
   7.3920014127093023E-002  0.16646194230695252        0.0000000000000000     
   7.5058559567411615E-002  0.17423538990296103        0.0000000000000000     
   7.6122002106070355E-002  0.18209891336176787        0.0000000000000000     
   7.7110341743069202E-002  0.19005251268337300        0.0000000000000000     
   7.8023578478408198E-002  0.19809618786777652        0.0000000000000000     
   6.7130145089519339E-002  0.16613589644960325        0.0000000000000000     
   6.8161542920060575E-002  0.17393327540558157        0.0000000000000000     
   6.9122574512408594E-002  0.18181985316222490        0.0000000000000000     
   7.0013239866563340E-002  0.18979562971953340        0.0000000000000000     
   7.0833538982524855E-002  0.19786060507750691        0.0000000000000000     
   6.0484801290485044E-002  0.16584348742435850        0.0000000000000000     
   6.1412168211349344E-002  0.17366322002355875        0.0000000000000000     
   6.2273824453293963E-002  0.18157164466579190        0.0000000000000000     
   6.3069770016318916E-002  0.18956876135105805        0.0000000000000000     
   6.3800004900424187E-002  0.19765457007935711        0.0000000000000000     
   5.3983982729990124E-002  0.16558471523121829        0.0000000000000000     
   5.4810435441277901E-002  0.17342522375689265        0.0000000000000000     
   5.5575751928726505E-002  0.18135428787246888        0.0000000000000000     
   5.6279932192335930E-002  0.18937190757794709        0.0000000000000000     
   5.6922976232106196E-002  0.19747808287332702        0.0000000000000000     
   4.7627689408034586E-002  0.16535957987018257        0.0000000000000000     
   4.8356344609846252E-002  0.17321928660558331        0.0000000000000000     
   4.9028356938706198E-002  0.18116778278225590        0.0000000000000000     
   4.9643726394614403E-002  0.18920506840020038        0.0000000000000000     
   5.0202452977570880E-002  0.19733114345941669        0.0000000000000000     
   7.8023578478408198E-002  0.19809618786777652        0.0000000000000000     
   7.8862703043936236E-002  0.20622244362851039        0.0000000000000000     
   7.9628706171502278E-002  0.21442378467910672        0.0000000000000000     
   8.0321587861106339E-002  0.22270021101956555        0.0000000000000000     
   8.0941348112748362E-002  0.23105172264988688        0.0000000000000000     
   7.0833538982524855E-002  0.19786060507750691        0.0000000000000000     
   7.1581778881148458E-002  0.20600835670249376        0.0000000000000000     
   7.2256266583289430E-002  0.21423246206084212        0.0000000000000000     
   7.2857002088947811E-002  0.22253292115255194        0.0000000000000000     
   7.3383985398123561E-002  0.23090973397762332        0.0000000000000000     
   6.3800004900424187E-002  0.19765457007935711        0.0000000000000000     
   6.4461494118437226E-002  0.20582279510868373        0.0000000000000000     
   6.5051202683185441E-002  0.21406716069703258        0.0000000000000000     
   6.5569130594668831E-002  0.22238766684440367        0.0000000000000000     
   6.6015277852887397E-002  0.23078431355079687        0.0000000000000000     
   5.6922976232106196E-002  0.19747808287332702        0.0000000000000000     
   5.7501848755802561E-002  0.20566575884708024        0.0000000000000000     
   5.8013514471190304E-002  0.21392788058767806        0.0000000000000000     
   5.8457973378269412E-002  0.22226444809512050        0.0000000000000000     
   5.8835225477039892E-002  0.23067546136940753        0.0000000000000000     
   5.0202452977570880E-002  0.19733114345941669        0.0000000000000000     
   5.0702842793244482E-002  0.20553724791768330        0.0000000000000000     
   5.1143201947304040E-002  0.21381462173277863        0.0000000000000000     
   5.1523530439749561E-002  0.22216326490470259        0.0000000000000000     
   5.1843828270581052E-002  0.23058317743345527        0.0000000000000000     
   8.0941348112748362E-002  0.23105172264988688        0.0000000000000000     
   8.1477357211637555E-002  0.23949905536535926        0.0000000000000000     
   8.1918985442983039E-002  0.24806294496127124        0.0000000000000000     
   8.2266232806784814E-002  0.25674339143762298        0.0000000000000000     
   8.2519099303042881E-002  0.26554039479441427        0.0000000000000000     
   7.3383985398123561E-002  0.23090973397762332        0.0000000000000000     
   7.3834064736052404E-002  0.23937658581401025        0.0000000000000000     
   7.4204088327970055E-002  0.24794716193966665        0.0000000000000000     
   7.4494056173876499E-002  0.25662146235459271        0.0000000000000000     
   7.4703968273771737E-002  0.26539948705878824        0.0000000000000000     
   6.6015277852887397E-002  0.23078431355079687        0.0000000000000000     
   6.6392057006393848E-002  0.23926362778232657        0.0000000000000000     
   6.6701880603740840E-002  0.24783213650510702        0.0000000000000000     
   6.6944748644928401E-002  0.25648983971913819        0.0000000000000000     
   6.7120661129956544E-002  0.26523673742442000        0.0000000000000000     
   5.8835225477039892E-002  0.23067546136940753        0.0000000000000000     
   5.9151334022661858E-002  0.23916018127030847        0.0000000000000000     
   5.9412362270295414E-002  0.24771786865759238        0.0000000000000000     
   5.9618310219940553E-002  0.25634852353125942        0.0000000000000000     
   5.9769177871597287E-002  0.26505214589130960        0.0000000000000000     
   5.1843828270581052E-002  0.23058317743345527        0.0000000000000000     
   5.2111895784856463E-002  0.23906624627795567        0.0000000000000000     
   5.2335533327633757E-002  0.24760435839712272        0.0000000000000000     
   5.2514740898912927E-002  0.25619751379095651        0.0000000000000000     
   5.2649518498693967E-002  0.26484571245945698        0.0000000000000000     
   8.2519099303042881E-002  0.26554039479441427        0.0000000000000000     
   8.2716540038377584E-002  0.27448040452326183        0.0000000000000000     
   8.2897510119409296E-002  0.28358987011578213        0.0000000000000000     
   8.3062009546137988E-002  0.29286879157197537        0.0000000000000000     
   8.3210038318563689E-002  0.30231716889184135        0.0000000000000000     
   7.4703968273771737E-002  0.26539948705878824        0.0000000000000000     
   7.4874679770802852E-002  0.27427503891835142        0.0000000000000000     
   7.5047045808116955E-002  0.28324192079938010        0.0000000000000000     
   7.5221066385713992E-002  0.29230013270187438        0.0000000000000000     
   7.5396741503594017E-002  0.30144967462583433        0.0000000000000000     
   6.7120661129956544E-002  0.26523673742442000        0.0000000000000000     
   6.7269758160048584E-002  0.27404313991913359        0.0000000000000000     
   6.7432179836427880E-002  0.28287935750145993        0.0000000000000000     
   6.7607926159094445E-002  0.29174539017139900        0.0000000000000000     
   6.7796997128048264E-002  0.30064123792895081        0.0000000000000000     
   5.9769177871597287E-002  0.26505214589130960        0.0000000000000000     
   5.9901775206114755E-002  0.27378470752560846        0.0000000000000000     
   6.0052912204342106E-002  0.28250218022202156        0.0000000000000000     
   6.0222588866279340E-002  0.29120456398054906        0.0000000000000000     
   6.0410805191926452E-002  0.29989185880119079        0.0000000000000000     
   5.2649518498693967E-002  0.26484571245945698        0.0000000000000000     
   5.2770730909001369E-002  0.27349974173777591        0.0000000000000000     
   5.2909242911859611E-002  0.28211038896106511        0.0000000000000000     
   5.3065054507268672E-002  0.29067765412932450        0.0000000000000000     
   5.3238165695228580E-002  0.29920153724255427        0.0000000000000000     
   2.8948874368106933E-002   5.7154630277871973E-002   0.0000000000000000     
   3.0530828500144193E-002   6.2724854214420339E-002   0.0000000000000000     
   3.2043559890678031E-002   6.8473652864270831E-002   0.0000000000000000     
   3.3487068539708439E-002   7.4401026227423450E-002   0.0000000000000000     
   3.4861354447235426E-002   8.0506974303878209E-002   0.0000000000000000     
   2.5036830573739576E-002   5.6734633295661807E-002   0.0000000000000000     
   2.6449395380966707E-002   6.2306885016652734E-002   0.0000000000000000     
   2.7789379899073034E-002   6.8061773723332747E-002   0.0000000000000000     
   2.9056784128058573E-002   7.3999299415701839E-002   0.0000000000000000     
   3.0251608067923309E-002   8.0119462093760030E-002   0.0000000000000000     
   2.1307657765573942E-002   5.6320202782007625E-002   0.0000000000000000     
   2.2518750180806631E-002   6.1918939059545583E-002   0.0000000000000000     
   2.3663430656066287E-002   6.7696536698920604E-002   0.0000000000000000     
   2.4741699191352901E-002   7.3652995700132701E-002   0.0000000000000000     
   2.5753555786666472E-002   7.9788316063181916E-002   0.0000000000000000     
   1.7761355943610033E-002   5.5911338736909427E-002   0.0000000000000000     
   1.8738892899663986E-002   6.1561016343098865E-002   0.0000000000000000     
   1.9665712161657779E-002   6.7377941791034415E-002   0.0000000000000000     
   2.0541813729591431E-002   7.3362115080716092E-002   0.0000000000000000     
   2.1367197603464932E-002   7.9513536212143909E-002   0.0000000000000000     
   1.4397925107847855E-002   5.5508041160367221E-002   0.0000000000000000     
   1.5109823537538753E-002   6.1233116867312587E-002   0.0000000000000000     
   1.5796224415847524E-002   6.7105988999674168E-002   0.0000000000000000     
   1.6457127742774160E-002   7.3126657557451957E-002   0.0000000000000000     
   1.7092533518318666E-002   7.9295122540645968E-002   0.0000000000000000     
   3.4861354447235426E-002   8.0506974303878209E-002   0.0000000000000000     
   3.6181765713938899E-002   8.6782126010759408E-002   0.0000000000000000     
   3.7463650440498805E-002   9.3217110265191333E-002   0.0000000000000000     
   3.8707008626915132E-002   9.9811927067174011E-002   0.0000000000000000     
   3.9911840273187886E-002  0.10656657641670741        0.0000000000000000     
   3.0251608067923309E-002   8.0119462093760030E-002   0.0000000000000000     
   3.1395995161259418E-002   8.6410620428537060E-002   0.0000000000000000     
   3.2512088850659066E-002   9.2861133091062711E-002   0.0000000000000000     
   3.3599889136122253E-002   9.9471000081336983E-002   0.0000000000000000     
   3.4659396017648975E-002  0.10624022139935989        0.0000000000000000     
   2.5753555786666472E-002   7.9788316063181916E-002   0.0000000000000000     
   2.6722137245428039E-002   8.6092603657585837E-002   0.0000000000000000     
   2.7670580371058625E-002   9.2555964352862119E-002   0.0000000000000000     
   2.8598885163558220E-002   9.9178398149010777E-002   0.0000000000000000     
   2.9507051622926835E-002  0.10595990504603177        0.0000000000000000     
   2.1367197603464932E-002   7.9513536212143909E-002   0.0000000000000000     
   2.2160191966444785E-002   8.5828075697905737E-002   0.0000000000000000     
   2.2939125001697487E-002   9.2301604050589556E-002   0.0000000000000000     
   2.3703996709223050E-002   9.8934121270195380E-002   0.0000000000000000     
   2.4454807089021459E-002  0.10572562735672315        0.0000000000000000     
   1.7092533518318666E-002   7.9295122540645968E-002   0.0000000000000000     
   1.7710159324309631E-002   8.5617036549496817E-002   0.0000000000000000     
   1.8317722742575648E-002   9.2098052184245077E-002   0.0000000000000000     
   1.8915223773116722E-002   9.8738169444890819E-002   0.0000000000000000     
   1.9502662415932848E-002  0.10553738833143395        0.0000000000000000     
   3.9911840273187886E-002  0.10656657641670741        0.0000000000000000     
   4.1068923824422149E-002  0.11346848534264409        0.0000000000000000     
   4.2169037725723044E-002  0.12050508087383657        0.0000000000000000     
   4.3212181977090536E-002  0.12767636301028487        0.0000000000000000     
   4.4198356578524660E-002  0.13498233175198898        0.0000000000000000     
   3.4659396017648975E-002  0.10624022139935989        0.0000000000000000     
   3.5677947773435525E-002  0.11315682904415404        0.0000000000000000     
   3.6642882681678139E-002  0.12020885501474206        0.0000000000000000     
   3.7554200742376843E-002  0.12739629931112403        0.0000000000000000     
   3.8411901955531624E-002  0.13471916193329986        0.0000000000000000     
   2.9507051622926835E-002  0.10595990504603177        0.0000000000000000     
   3.0381152213640936E-002  0.11288899918252594        0.0000000000000000     
   3.1207259400176997E-002  0.11995419469709409        0.0000000000000000     
   3.1985373182535005E-002  0.12715549158973624        0.0000000000000000     
   3.2715493560714980E-002  0.13449288986045232        0.0000000000000000     
   2.4454807089021459E-002  0.10572562735672315        0.0000000000000000     
   2.5178537145038423E-002  0.11266499575775990        0.0000000000000000     
   2.5862167881219617E-002  0.11974109992089269        0.0000000000000000     
   2.6505699297565057E-002  0.12695393984612152        0.0000000000000000     
   2.7109131394074726E-002  0.13430351553344633        0.0000000000000000     
   1.9502662415932848E-002  0.10553738833143395        0.0000000000000000     
   2.0070102567627961E-002  0.11248481876985583        0.0000000000000000     
   2.0607608124806002E-002  0.11956957068613780        0.0000000000000000     
   2.1115179087466976E-002  0.12679164408027982        0.0000000000000000     
   2.1592815455610877E-002  0.13415103895228189        0.0000000000000000     
   4.4198356578524660E-002  0.13498233175198898        0.0000000000000000     
   4.5130957212719591E-002  0.14241089379262506        0.0000000000000000     
   4.6013379562369561E-002  0.14994995582586937        0.0000000000000000     
   4.6845623627474561E-002  0.15759951785172188        0.0000000000000000     
   4.7627689408034586E-002  0.16535957987018257        0.0000000000000000     
   3.8411901955531624E-002  0.13471916193329986        0.0000000000000000     
   3.9221240465517858E-002  0.14216499306714112        0.0000000000000000     
   3.9987470416710927E-002  0.14972134289851927        0.0000000000000000     
   4.0710591809110810E-002  0.15738821142743437        0.0000000000000000     
   4.1390604642717536E-002  0.16516559865388630        0.0000000000000000     
   3.2715493560714980E-002  0.13449288986045232        0.0000000000000000     
   3.3403331204747137E-002  0.14195368901992414        0.0000000000000000     
   3.4054596784661710E-002  0.14952518857883343        0.0000000000000000     
   3.4669290300458705E-002  0.15720738853718022        0.0000000000000000     
   3.5247411752138122E-002  0.16500028889496454        0.0000000000000000     
   2.7109131394074726E-002  0.13430351553344633        0.0000000000000000     
   2.7677229430407423E-002  0.14177698165097413        0.0000000000000000     
   2.8214758666221921E-002  0.14936149286681186        0.0000000000000000     
   2.8721719101518221E-002  0.15705704918095953        0.0000000000000000     
   2.9198110736296325E-002  0.16486365059341712        0.0000000000000000     
   2.1592815455610877E-002  0.13415103895228189        0.0000000000000000     
   2.2042935142498728E-002  0.14163487096029109        0.0000000000000000     
   2.2467956061391563E-002  0.14923025576245452        0.0000000000000000     
   2.2867878212289371E-002  0.15693719335877224        0.0000000000000000     
   2.3242701595192154E-002  0.16475568374924415        0.0000000000000000     
   4.7627689408034586E-002  0.16535957987018257        0.0000000000000000     
   4.8356344609846252E-002  0.17321928660558331        0.0000000000000000     
   4.9028356938706198E-002  0.18116778278225590        0.0000000000000000     
   4.9643726394614403E-002  0.18920506840020038        0.0000000000000000     
   5.0202452977570880E-002  0.19733114345941669        0.0000000000000000     
   4.1390604642717536E-002  0.16516559865388630        0.0000000000000000     
   4.2023289694408002E-002  0.17304275176663109        0.0000000000000000     
   4.2604427741059103E-002  0.18100891795442445        0.0000000000000000     
   4.3134018782670855E-002  0.18906409721726639        0.0000000000000000     
   4.3612062819243257E-002  0.19720828955515696        0.0000000000000000     
   3.5247411752138122E-002  0.16500028889496454        0.0000000000000000     
   3.5784664672316731E-002  0.17289296243703639        0.0000000000000000     
   3.6276752593611301E-002  0.18087448194824607        0.0000000000000000     
   3.6723675516021834E-002  0.18894484742859352        0.0000000000000000     
   3.7125433439548335E-002  0.19710405887807869        0.0000000000000000     
   2.9198110736296325E-002  0.16486365059341712        0.0000000000000000     
   2.9640469543572443E-002  0.17276991861679936        0.0000000000000000     
   3.0045331496362779E-002  0.18076447476372087        0.0000000000000000     
   3.0412696594667339E-002  0.18884731903418170        0.0000000000000000     
   3.0742564838486121E-002  0.19701845142818183        0.0000000000000000     
   2.3242701595192154E-002  0.16475568374924415        0.0000000000000000     
   2.3590704308175139E-002  0.17267362030591984        0.0000000000000000     
   2.3910164449313549E-002  0.18067889640084878        0.0000000000000000     
   2.4201082018607375E-002  0.18877151203403097        0.0000000000000000     
   2.4463457016056626E-002  0.19695146720546641        0.0000000000000000     
   5.0202452977570880E-002  0.19733114345941669        0.0000000000000000     
   5.0702842793244482E-002  0.20553724791768330        0.0000000000000000     
   5.1143201947304040E-002  0.21381462173277863        0.0000000000000000     
   5.1523530439749561E-002  0.22216326490470259        0.0000000000000000     
   5.1843828270581052E-002  0.23058317743345527        0.0000000000000000     
   4.3612062819243257E-002  0.19720828955515696        0.0000000000000000     
   4.4038453571206726E-002  0.20543072662008141        0.0000000000000000     
   4.4413084758991722E-002  0.21372064006402525        0.0000000000000000     
   4.4735956382598245E-002  0.22207802988698819        0.0000000000000000     
   4.5007068442026274E-002  0.23050289608897048        0.0000000000000000     
   3.7125433439548335E-002  0.19710405887807869        0.0000000000000000     
   3.7482658430133105E-002  0.20533965925386324        0.0000000000000000     
   3.7795982553718473E-002  0.21363919151310892        0.0000000000000000     
   3.8065405810304431E-002  0.22200265565581559        0.0000000000000000     
   3.8290928199890981E-002  0.23043005168198338        0.0000000000000000     
   3.0742564838486121E-002  0.19701845142818183        0.0000000000000000     
   3.1035457370023608E-002  0.20526404581902866        0.0000000000000000     
   3.1291895331484278E-002  0.21357027608002971        0.0000000000000000     
   3.1511878722868127E-002  0.22193714221118474        0.0000000000000000     
   3.1695407544175165E-002  0.23036464421249406        0.0000000000000000     
   2.4463457016056626E-002  0.19695146720546641        0.0000000000000000     
   2.4696850390878232E-002  0.20520388631557773        0.0000000000000000     
   2.4900823092289137E-002  0.21351389376478752        0.0000000000000000     
   2.5075375120289331E-002  0.22188148955309572        0.0000000000000000     
   2.5220506474878824E-002  0.23030667368050248        0.0000000000000000     
   5.1843828270581052E-002  0.23058317743345527        0.0000000000000000     
   5.2111895784856463E-002  0.23906624627795567        0.0000000000000000     
   5.2335533327633757E-002  0.24760435839712272        0.0000000000000000     
   5.2514740898912927E-002  0.25619751379095651        0.0000000000000000     
   5.2649518498693967E-002  0.26484571245945698        0.0000000000000000     
   4.5007068442026274E-002  0.23050289608897048        0.0000000000000000     
   4.5234719975473903E-002  0.23898034115290501        0.0000000000000000     
   4.5427210021139183E-002  0.24749546756172486        0.0000000000000000     
   4.5584538579022109E-002  0.25604827531543006        0.0000000000000000     
   4.5706705649122700E-002  0.26463876441402057        0.0000000000000000     
   3.8290928199890981E-002  0.23043005168198338        0.0000000000000000     
   3.8480784277010405E-002  0.23890098424279307        0.0000000000000000     
   3.8643208596194981E-002  0.24739505798942557        0.0000000000000000     
   3.8778201157444715E-002  0.25591227292188085        0.0000000000000000     
   3.8885761960759602E-002  0.26445262904015893        0.0000000000000000     
   3.1695407544175165E-002  0.23036464421249406        0.0000000000000000     
   3.1850088689465969E-002  0.23882817554761993        0.0000000000000000     
   3.1983529052801163E-002  0.24730312968022483        0.0000000000000000     
   3.2095728634180733E-002  0.25578950661030886        0.0000000000000000     
   3.2186687433604672E-002  0.26428730633787195        0.0000000000000000     
   2.5220506474878824E-002  0.23030667368050248        0.0000000000000000     
   2.5342633212840616E-002  0.23876191506738553        0.0000000000000000     
   2.5448171390957734E-002  0.24721968263412272        0.0000000000000000     
   2.5537121009230165E-002  0.25567997638071416        0.0000000000000000     
   2.5609482067657917E-002  0.26414279630715976        0.0000000000000000     
   5.2649518498693967E-002  0.26484571245945698        0.0000000000000000     
   5.2770730909001369E-002  0.27349974173777591        0.0000000000000000     
   5.2909242911859611E-002  0.28211038896106511        0.0000000000000000     
   5.3065054507268672E-002  0.29067765412932450        0.0000000000000000     
   5.3238165695228580E-002  0.29920153724255427        0.0000000000000000     
   4.5706705649122700E-002  0.26463876441402057        0.0000000000000000     
   4.5817968814291017E-002  0.27321689810299593        0.0000000000000000     
   4.5942585657377105E-002  0.28173263962785544        0.0000000000000000     
   4.6080556178380978E-002  0.29018598898859910        0.0000000000000000     
   4.6231880377302623E-002  0.29857694618522707        0.0000000000000000     
   3.8885761960759602E-002  0.26445262904015893        0.0000000000000000     
   3.8984832467566274E-002  0.27296483216862832        0.0000000000000000     
   3.9094354139291319E-002  0.28139758813165744        0.0000000000000000     
   3.9214326975934757E-002  0.28975089692924638        0.0000000000000000     
   3.9344750977496575E-002  0.29802475856139515        0.0000000000000000     
   3.2186687433604672E-002  0.26428730633787195        0.0000000000000000     
   3.2271321868827134E-002  0.27274354393467315        0.0000000000000000     
   3.2364548357602253E-002  0.28110523447247127        0.0000000000000000     
   3.2466366899930016E-002  0.28937237795126636        0.0000000000000000     
   3.2576777495810429E-002  0.29754497437105853        0.0000000000000000     
   2.5609482067657917E-002  0.26414279630715976        0.0000000000000000     
   2.5677437018073613E-002  0.27255303340113035        0.0000000000000000     
   2.5753168312309897E-002  0.28085557865029687        0.0000000000000000     
   2.5836675950366754E-002  0.28905043205465908        0.0000000000000000     
   2.5927959932244195E-002  0.29713759361421721        0.0000000000000000     
   1.4397925107847855E-002   5.5508041160367221E-002   0.0000000000000000     
   1.5109823537538753E-002   6.1233116867312587E-002   0.0000000000000000     
   1.5796224415847524E-002   6.7105988999674168E-002   0.0000000000000000     
   1.6457127742774160E-002   7.3126657557451957E-002   0.0000000000000000     
   1.7092533518318666E-002   7.9295122540645968E-002   0.0000000000000000     
   1.0983459845085856E-002   5.5218333353070637E-002   0.0000000000000000     
   1.1440786316135824E-002   6.0998548412496495E-002   0.0000000000000000     
   1.1898368909631342E-002   6.6911633204642260E-002   0.0000000000000000     
   1.2356207625572402E-002   7.2957587729507889E-002   0.0000000000000000     
   1.2814302463959010E-002   7.9136411987093438E-002   0.0000000000000000     
   7.2840547421224970E-003   5.5150238615709335E-002   0.0000000000000000     
   7.5410254571600735E-003   6.0920618758960349E-002   0.0000000000000000     
   7.8155471340050665E-003   6.6825829285741073E-002   0.0000000000000000     
   8.1076197726574744E-003   7.2865870196051480E-002   0.0000000000000000     
   8.4172433731172936E-003   7.9040741489891597E-002   0.0000000000000000     
   3.2997097989577767E-003   5.5303756948283295E-002   0.0000000000000000     
   3.4105409606115019E-003   6.0999327906704134E-002   0.0000000000000000     
   3.5477590889687006E-003   6.6848577242970594E-002   0.0000000000000000     
   3.7113641840293703E-003   7.2851504957082702E-002   0.0000000000000000     
   3.9013562457935118E-003   7.9008111049040458E-002   0.0000000000000000     
  -9.6957498440830570E-004   5.5678888350792530E-002   0.0000000000000000     
  -9.5066717350989274E-004   6.1234675855727859E-002   0.0000000000000000     
  -9.0499522547775888E-004   6.6979877076330879E-002   0.0000000000000000     
  -8.3255914031190529E-004   7.2914492012601598E-002   0.0000000000000000     
  -7.3335891801233361E-004   7.9038520664540021E-002   0.0000000000000000     
   1.7092533518318666E-002   7.9295122540645968E-002   0.0000000000000000     
   1.7710159324309631E-002   8.5617036549496817E-002   0.0000000000000000     
   1.8317722742575648E-002   9.2098052184245077E-002   0.0000000000000000     
   1.8915223773116722E-002   9.8738169444890819E-002   0.0000000000000000     
   1.9502662415932848E-002  0.10553738833143395        0.0000000000000000     
   1.2814302463959010E-002   7.9136411987093438E-002   0.0000000000000000     
   1.3268445710533606E-002   8.5461564961521755E-002   0.0000000000000000     
   1.3714429651038626E-002   9.1946505636915726E-002   0.0000000000000000     
   1.4152254285474073E-002   9.8591234013275408E-002   0.0000000000000000     
   1.4581919613839945E-002  0.10539575009060070        0.0000000000000000     
   8.4172433731172936E-003   7.9040741489891597E-002   0.0000000000000000     
   8.7314575166277143E-003   8.5363739683143341E-002   0.0000000000000000     
   9.0373017844319233E-003   9.1848161291688643E-002   0.0000000000000000     
   9.3347761765299186E-003   9.8494006315527530E-002   0.0000000000000000     
   9.6238806929217040E-003  0.10530127475465996        0.0000000000000000     
   3.9013562457935118E-003   7.9008111049040458E-002   0.0000000000000000     
   4.0991947425919580E-003   8.5323560714361577E-002   0.0000000000000000     
   4.2863391427555428E-003   9.1803019148563828E-002   0.0000000000000000     
   4.4627894462842647E-003   9.8446486351647211E-002   0.0000000000000000     
   4.6285456531781257E-003  0.10525396232361170        0.0000000000000000     
  -7.3335891801233361E-004   7.9038520664540021E-002   0.0000000000000000     
  -6.2834261157366199E-004   8.5341028055176460E-002   0.0000000000000000     
  -5.3845827399051594E-004   9.1811079207541266E-002   0.0000000000000000     
  -4.6370590526289158E-004   9.8448674121634425E-002   0.0000000000000000     
  -4.0408550539079106E-004  0.10525381279745591        0.0000000000000000     
   1.9502662415932848E-002  0.10553738833143395        0.0000000000000000     
   2.0070102567627961E-002  0.11248481876985583        0.0000000000000000     
   2.0607608124806002E-002  0.11956957068613780        0.0000000000000000     
   2.1115179087466976E-002  0.12679164408027982        0.0000000000000000     
   2.1592815455610877E-002  0.13415103895228189        0.0000000000000000     
   1.4581919613839945E-002  0.10539575009060070        0.0000000000000000     
   1.4997469781986024E-002  0.11234907976734693        0.0000000000000000     
   1.5392948935762095E-002  0.11944024894196924        0.0000000000000000     
   1.5768357075168150E-002  0.12666925761446765        0.0000000000000000     
   1.6123694200204198E-002  0.13403610578484215        0.0000000000000000     
   9.6238806929217040E-003  0.10530127475465996        0.0000000000000000     
   9.9022600886890730E-003  0.11225839029876629        0.0000000000000000     
   1.0167559118913825E-002  0.11935377663752678        0.0000000000000000     
   1.0419777783595957E-002  0.12658743377094148        0.0000000000000000     
   1.0658916082735470E-002  0.13395936169901029        0.0000000000000000     
   4.6285456531781257E-003  0.10525396232361170        0.0000000000000000     
   4.7844734877371085E-003  0.11221275036411392        0.0000000000000000     
   4.9314386742611979E-003  0.11931015377281043        0.0000000000000000     
   5.0694412127503946E-003  0.12654617254970124        0.0000000000000000     
   5.1984811032046961E-003  0.13392080669478637        0.0000000000000000     
  -4.0408550539079106E-004  0.10525381279745591        0.0000000000000000     
  -3.5589002086987005E-004  0.11221215996338983        0.0000000000000000     
  -3.1541239819578488E-004  0.11930938034782018        0.0000000000000000     
  -2.8265263736853712E-004  0.12654547395074700        0.0000000000000000     
  -2.5761073838812638E-004  0.13392044077217030        0.0000000000000000     
   2.1592815455610877E-002  0.13415103895228189        0.0000000000000000     
   2.2042935142498728E-002  0.14163487096029109        0.0000000000000000     
   2.2467956061391563E-002  0.14923025576245452        0.0000000000000000     
   2.2867878212289371E-002  0.15693719335877224        0.0000000000000000     
   2.3242701595192154E-002  0.16475568374924415        0.0000000000000000     
   1.6123694200204198E-002  0.13403610578484215        0.0000000000000000     
   1.6459166622764091E-002  0.14152780410790958        0.0000000000000000     
   1.6774980654741679E-002  0.14913136323848661        0.0000000000000000     
   1.7071136296136970E-002  0.15684678317657338        0.0000000000000000     
   1.7347633546949959E-002  0.16467406392216979        0.0000000000000000     
   1.0658916082735470E-002  0.13395936169901029        0.0000000000000000     
   1.0884642152946539E-002  0.14145622825386400        0.0000000000000000     
   1.1096624130843330E-002  0.14906470126763324        0.0000000000000000     
   1.1294862016425848E-002  0.15678478074031793        0.0000000000000000     
   1.1479355809694090E-002  0.16461646667191818        0.0000000000000000     
   5.1984811032046961E-003  0.13392080669478637        0.0000000000000000     
   5.3193617330460803E-003  0.14142014339815451        0.0000000000000000     
   5.4328864896965156E-003  0.14903026984989437        0.0000000000000000     
   5.5390553731560080E-003  0.15675118605000601        0.0000000000000000     
   5.6378683834245515E-003  0.16458289199848933        0.0000000000000000     
  -2.5761073838812638E-004  0.13392044077217030        0.0000000000000000     
  -2.3667463693729054E-004  0.14141954954078095        0.0000000000000000     
  -2.1623226869876572E-004  0.14902806898527002        0.0000000000000000     
  -1.9628363367255584E-004  0.15674599910563741        0.0000000000000000     
  -1.7682873185865871E-004  0.16457333990188319        0.0000000000000000     
   2.3242701595192154E-002  0.16475568374924415        0.0000000000000000     
   2.3590704308175139E-002  0.17267362030591984        0.0000000000000000     
   2.3910164449313549E-002  0.18067889640084878        0.0000000000000000     
   2.4201082018607375E-002  0.18877151203403097        0.0000000000000000     
   2.4463457016056626E-002  0.19695146720546641        0.0000000000000000     
   1.7347633546949959E-002  0.16467406392216979        0.0000000000000000     
   1.7604401712250421E-002  0.17260060739963409        0.0000000000000000     
   1.7841370097108129E-002  0.18061381553332456        0.0000000000000000     
   1.8058538701523085E-002  0.18871368832324115        0.0000000000000000     
   1.8255907525495284E-002  0.19690022576938393        0.0000000000000000     
   1.1479355809694090E-002  0.16461646667191818        0.0000000000000000     
   1.1650594501923885E-002  0.17254741979317839        0.0000000000000000     
   1.1809067084391061E-002  0.18056530083484310        0.0000000000000000     
   1.1954773557095618E-002  0.18867010979691226        0.0000000000000000     
   1.2087713920037556E-002  0.19686184667938592        0.0000000000000000     
   5.6378683834245515E-003  0.16458289199848933        0.0000000000000000     
   5.7292826771955354E-003  0.17251405748655266        0.0000000000000000     
   5.8132554111623436E-003  0.18053335230540427        0.0000000000000000     
   5.8897865853249770E-003  0.18864077645504410        0.0000000000000000     
   5.9588761996834357E-003  0.19683632993547226        0.0000000000000000     
  -1.7682873185865871E-004  0.16457333990188319        0.0000000000000000     
  -1.5953376193462922E-004  0.17250052047975692        0.0000000000000000     
  -1.4606492257802255E-004  0.18051796994500813        0.0000000000000000     
  -1.3642221378883760E-004  0.18862568829763685        0.0000000000000000     
  -1.3060563556707531E-004  0.19682367553764307        0.0000000000000000     
   2.4463457016056626E-002  0.19695146720546641        0.0000000000000000     
   2.4696850390878232E-002  0.20520388631557773        0.0000000000000000     
   2.4900823092289137E-002  0.21351389376478752        0.0000000000000000     
   2.5075375120289331E-002  0.22188148955309572        0.0000000000000000     
   2.5220506474878824E-002  0.23030667368050248        0.0000000000000000     
   1.8255907525495284E-002  0.19690022576938393        0.0000000000000000     
   1.8432128711118250E-002  0.20515755631186083        0.0000000000000000     
   1.8585854400485487E-002  0.21346980839077986        0.0000000000000000     
   1.8717084593596993E-002  0.22183698200614102        0.0000000000000000     
   1.8825819290452770E-002  0.23025907715794433        0.0000000000000000     
   1.2087713920037556E-002  0.19686184667938592        0.0000000000000000     
   1.2206583549164917E-002  0.20512343137622843        0.0000000000000000     
   1.2310077820425747E-002  0.21343778378140413        0.0000000000000000     
   1.2398196733820043E-002  0.22180490389491317        0.0000000000000000     
   1.2470940289347808E-002  0.23022479171675539        0.0000000000000000     
   5.9588761996834357E-003  0.19683632993547226        0.0000000000000000     
   6.0202149050182455E-003  0.20510151150868045        0.0000000000000000     
   6.0734933521099307E-003  0.21341781993666042        0.0000000000000000     
   6.1187115409584948E-003  0.22178525521941209        0.0000000000000000     
   6.1558694715639359E-003  0.23020381735693557        0.0000000000000000     
  -1.3060563556707531E-004  0.19682367553764307        0.0000000000000000     
  -1.2697722132177288E-004  0.20509179670921696        0.0000000000000000     
  -1.2389900446196662E-004  0.21340991685654856        0.0000000000000000     
  -1.2137098498765739E-004  0.22177803597963786        0.0000000000000000     
  -1.1939316289884348E-004  0.23019615407848493        0.0000000000000000     
   2.5220506474878824E-002  0.23030667368050248        0.0000000000000000     
   2.5342633212840616E-002  0.23876191506738553        0.0000000000000000     
   2.5448171390957734E-002  0.24721968263412272        0.0000000000000000     
   2.5537121009230165E-002  0.25567997638071416        0.0000000000000000     
   2.5609482067657917E-002  0.26414279630715976        0.0000000000000000     
   1.8825819290452770E-002  0.23025907715794433        0.0000000000000000     
   1.8916976761453097E-002  0.23870663399391973        0.0000000000000000     
   1.8995475276998249E-002  0.24715019266179727        0.0000000000000000     
   1.9061314837088224E-002  0.25558975316157689        0.0000000000000000     
   1.9114495441723025E-002  0.26402531549325869        0.0000000000000000     
   1.2470940289347808E-002  0.23022479171675539        0.0000000000000000     
   1.2531678249622175E-002  0.23866676351905258        0.0000000000000000     
   1.2583780377256281E-002  0.24710013557392665        0.0000000000000000     
   1.2627246672250127E-002  0.25552490788137749        0.0000000000000000     
   1.2662077134603714E-002  0.26394108044140513        0.0000000000000000     
   6.1558694715639359E-003  0.23020381735693557        0.0000000000000000     
   6.1867376773478491E-003  0.23864230364278408        0.0000000000000000     
   6.2130866917318259E-003  0.24706951137051081        0.0000000000000000     
   6.2349165147158707E-003  0.25548544054011585        0.0000000000000000     
   6.2522271462999790E-003  0.26389009115159917        0.0000000000000000     
  -1.1939316289884348E-004  0.23019615407848493        0.0000000000000000     
  -1.1784495536987846E-004  0.23863325436511412        0.0000000000000000     
  -1.1660577957511202E-004  0.24705832005154982        0.0000000000000000     
  -1.1567563551454451E-004  0.25547135113779201        0.0000000000000000     
  -1.1505452318817623E-004  0.26387234762384076        0.0000000000000000     
   2.5609482067657917E-002  0.26414279630715976        0.0000000000000000     
   2.5677437018073613E-002  0.27255303340113035        0.0000000000000000     
   2.5753168312309897E-002  0.28085557865029687        0.0000000000000000     
   2.5836675950366754E-002  0.28905043205465908        0.0000000000000000     
   2.5927959932244195E-002  0.29713759361421721        0.0000000000000000     
   1.9114495441723025E-002  0.26402531549325869        0.0000000000000000     
   1.9164880203898137E-002  0.27239969459643892        0.0000000000000000     
   1.9222332236609050E-002  0.28065570541071422        0.0000000000000000     
   1.9286851539855761E-002  0.28879334793608441        0.0000000000000000     
   1.9358438113638278E-002  0.29681262217254956        0.0000000000000000     
   1.2662077134603714E-002  0.26394108044140513        0.0000000000000000     
   1.2695353714893144E-002  0.27228992154903775        0.0000000000000000     
   1.2734158363694513E-002  0.28051269949930341        0.0000000000000000     
   1.2778491081007832E-002  0.28860941429220222        0.0000000000000000     
   1.2828351866833090E-002  0.29658006592773406        0.0000000000000000     
   6.2522271462999790E-003  0.26389009115159917        0.0000000000000000     
   6.2688575510586268E-003  0.27222371425892666        0.0000000000000000     
   6.2886466935662853E-003  0.28042656091606449        0.0000000000000000     
   6.3115945738229547E-003  0.28849863112301255        0.0000000000000000     
   6.3377011918286357E-003  0.29643992487977083        0.0000000000000000     
  -1.1505452318817623E-004  0.26387234762384076        0.0000000000000000     
  -1.1460828760540714E-004  0.27220107272610589        0.0000000000000000     
  -1.1420277377563568E-004  0.28039728966099747        0.0000000000000000     
  -1.1383798169886254E-004  0.28846099842851536        0.0000000000000000     
  -1.1351391137508823E-004  0.29639219902865976        0.0000000000000000     
  -9.6957498440830570E-004   5.5678888350792530E-002   0.0000000000000000     
  -9.5066717350989274E-004   6.1234675855727859E-002   0.0000000000000000     
  -9.0499522547775888E-004   6.6979877076330879E-002   0.0000000000000000     
  -8.3255914031190529E-004   7.2914492012601598E-002   0.0000000000000000     
  -7.3335891801233361E-004   7.9038520664540021E-002   0.0000000000000000     
  -5.0965766452609794E-003   5.6051831954710252E-002   0.0000000000000000     
  -5.1768017216513463E-003   6.1479950709273812E-002   0.0000000000000000     
  -5.2327364188771951E-003   6.7130573779884253E-002   0.0000000000000000     
  -5.2643807369385240E-003   7.3003701166541590E-002   0.0000000000000000     
  -5.2717346758353340E-003   7.9099332869245823E-002   0.0000000000000000     
  -8.6540722208854753E-003   5.6198786891509672E-002   0.0000000000000000     
  -8.9020654602600998E-003   6.1588440570584282E-002   0.0000000000000000     
  -9.1254851007724885E-003   6.7211512347693098E-002   0.0000000000000000     
  -9.3243311424226517E-003   7.3068002222836159E-002   0.0000000000000000     
  -9.4986035852105827E-003   7.9157910196013384E-002   0.0000000000000000     
  -1.1642061711281793E-002   5.6119753161190784E-002   0.0000000000000000     
  -1.2126458389336148E-002   6.1560145439659292E-002   0.0000000000000000     
  -1.2583241271163649E-002   6.7222692779757467E-002   0.0000000000000000     
  -1.3012410356764292E-002   7.3107395181485263E-002   0.0000000000000000     
  -1.3413965646138077E-002   7.9214252644842748E-002   0.0000000000000000     
  -1.4060545116449932E-002   5.5814730763753602E-002   0.0000000000000000     
  -1.4849980508879496E-002   6.1395065316498826E-002   0.0000000000000000     
  -1.5606004930050665E-002   6.7164115076077280E-002   0.0000000000000000     
  -1.6328618379963442E-002   7.3121880042488957E-002   0.0000000000000000     
  -1.7017820858617822E-002   7.9268360215733857E-002   0.0000000000000000     
  -7.3335891801233361E-004   7.9038520664540021E-002   0.0000000000000000     
  -6.2834261157366199E-004   8.5341028055176460E-002   0.0000000000000000     
  -5.3845827399051594E-004   9.1811079207541266E-002   0.0000000000000000     
  -4.6370590526289158E-004   9.8448674121634425E-002   0.0000000000000000     
  -4.0408550539079106E-004  0.10525381279745591        0.0000000000000000     
  -5.2717346758353340E-003   7.9099332869245823E-002   0.0000000000000000     
  -5.2755622191607669E-003   8.5391263100004708E-002   0.0000000000000000     
  -5.2966273505079568E-003   9.1853286070825990E-002   0.0000000000000000     
  -5.3349300698769097E-003   9.8485401781709669E-002   0.0000000000000000     
  -5.3904703772676222E-003  0.10528761023265577        0.0000000000000000     
  -9.4986035852105827E-003   7.9157910196013384E-002   0.0000000000000000     
  -9.6668717534609660E-003   8.5449387243262981E-002   0.0000000000000000     
  -9.8477049714984881E-003   9.1910584340622992E-002   0.0000000000000000     
  -1.0041103239323149E-002   9.8541501488093486E-002   0.0000000000000000     
  -1.0247066556934949E-002  0.10534213868567442        0.0000000000000000     
  -1.3413965646138077E-002   7.9214252644842748E-002   0.0000000000000000     
  -1.3802271214474266E-002   8.5515400484951279E-002   0.0000000000000000     
  -1.4191691136962109E-002   9.1982974016932326E-002   0.0000000000000000     
  -1.4582225413601610E-002   9.8616973240785846E-002   0.0000000000000000     
  -1.4973874044392767E-002  0.10541739815651187        0.0000000000000000     
  -1.7017820858617822E-002   7.9268360215733857E-002   0.0000000000000000     
  -1.7681760602200662E-002   8.5589302825069657E-002   0.0000000000000000     
  -1.8328585846898820E-002   9.2070455099753951E-002   0.0000000000000000     
  -1.8958296592712292E-002   9.8711817039786764E-002   0.0000000000000000     
  -1.9570892839641078E-002  0.10551338864516813        0.0000000000000000     
  -4.0408550539079106E-004  0.10525381279745591        0.0000000000000000     
  -3.5589002086987005E-004  0.11221215996338983        0.0000000000000000     
  -3.1541239819578488E-004  0.11930938034782018        0.0000000000000000     
  -2.8265263736853712E-004  0.12654547395074700        0.0000000000000000     
  -2.5761073838812638E-004  0.13392044077217030        0.0000000000000000     
  -5.3904703772676222E-003  0.10528761023265577        0.0000000000000000     
  -5.4573462108701920E-003  0.11224431999768127        0.0000000000000000     
  -5.5296555088747120E-003  0.11933993965080317        0.0000000000000000     
  -5.6073982712811828E-003  0.12657446919202148        0.0000000000000000     
  -5.6905744980896037E-003  0.13394790862133621        0.0000000000000000     
  -1.0247066556934949E-002  0.10534213868567442        0.0000000000000000     
  -1.0458410856002185E-002  0.11229693136807553        0.0000000000000000     
  -1.0667952068193164E-002  0.11939031497000654        0.0000000000000000     
  -1.0875690193507884E-002  0.12662228949146745        0.0000000000000000     
  -1.1081625231946342E-002  0.13399285493245827        0.0000000000000000     
  -1.4973874044392767E-002  0.10541739815651187        0.0000000000000000     
  -1.5359083956265854E-002  0.11236999407457260        0.0000000000000000     
  -1.5730302076151146E-002  0.11946050630543029        0.0000000000000000     
  -1.6087528404048642E-002  0.12668893484908492        0.0000000000000000     
  -1.6430762939958349E-002  0.13405527970553641        0.0000000000000000     
  -1.9570892839641078E-002  0.10551338864516813        0.0000000000000000     
  -2.0159365511661198E-002  0.11246350811717248        0.0000000000000000     
  -2.0716705532748653E-002  0.11955051365707439        0.0000000000000000     
  -2.1242912902903463E-002  0.12677440526487380        0.0000000000000000     
  -2.1737987622125612E-002  0.13413518294057075        0.0000000000000000     
  -2.5761073838812638E-004  0.13392044077217030        0.0000000000000000     
  -2.3667463693729054E-004  0.14141954954078095        0.0000000000000000     
  -2.1623226869876572E-004  0.14902806898527002        0.0000000000000000     
  -1.9628363367255584E-004  0.15674599910563741        0.0000000000000000     
  -1.7682873185865871E-004  0.16457333990188319        0.0000000000000000     
  -5.6905744980896037E-003  0.13394790862133621        0.0000000000000000     
  -5.7732093678270480E-003  0.14144493404228270        0.0000000000000000     
  -5.8493280590205888E-003  0.14905022155839637        0.0000000000000000     
  -5.9189305716702261E-003  0.15676377116967719        0.0000000000000000     
  -5.9820169057759592E-003  0.16458558287612515        0.0000000000000000     
  -1.1081625231946342E-002  0.13399285493245827        0.0000000000000000     
  -1.1279984870446680E-002  0.14148678426319894        0.0000000000000000     
  -1.1464996795947030E-002  0.14908885045390954        0.0000000000000000     
  -1.1636661008447392E-002  0.15679905350459006        0.0000000000000000     
  -1.1794977507947767E-002  0.16461739341524045        0.0000000000000000     
  -1.6430762939958349E-002  0.13405527970553641        0.0000000000000000     
  -1.6757001144796186E-002  0.14154510020352970        0.0000000000000000     
  -1.7063238479478084E-002  0.14914395567180960        0.0000000000000000     
  -1.7349474944004052E-002  0.15685184611037600        0.0000000000000000     
  -1.7615710538374088E-002  0.16466877151922901        0.0000000000000000     
  -2.1737987622125612E-002  0.13413518294057075        0.0000000000000000     
  -2.2204258190875556E-002  0.14161988186327501        0.0000000000000000     
  -2.2644053109613753E-002  0.14921553721209649        0.0000000000000000     
  -2.3057372378340206E-002  0.15692214898703516        0.0000000000000000     
  -2.3444215997054912E-002  0.16473971718809097        0.0000000000000000     
  -1.7682873185865871E-004  0.16457333990188319        0.0000000000000000     
  -1.5953376193462922E-004  0.17250052047975692        0.0000000000000000     
  -1.4606492257802255E-004  0.18051796994500813        0.0000000000000000     
  -1.3642221378883760E-004  0.18862568829763685        0.0000000000000000     
  -1.3060563556707531E-004  0.19682367553764307        0.0000000000000000     
  -5.9820169057759592E-003  0.16458558287612515        0.0000000000000000     
  -6.0416289660003598E-003  0.17250757814173653        0.0000000000000000     
  -6.1008086570060061E-003  0.18052167843050748        0.0000000000000000     
  -6.1595559787928980E-003  0.18862788374243813        0.0000000000000000     
  -6.2178709313610364E-003  0.19682619407752838        0.0000000000000000     
  -1.1794977507947767E-002  0.16461739341524045        0.0000000000000000     
  -1.1942777085535412E-002  0.17253599984143678        0.0000000000000000     
  -1.2082890532297582E-002  0.18054700243875518        0.0000000000000000     
  -1.2215317848234278E-002  0.18865040120719556        0.0000000000000000     
  -1.2340059033345500E-002  0.19684619614675805        0.0000000000000000     
  -1.7615710538374088E-002  0.16466877151922901        0.0000000000000000     
  -1.7862978120539785E-002  0.17258578557885770        0.0000000000000000     
  -1.8092310548452742E-002  0.18059394196975109        0.0000000000000000     
  -1.8303707822112977E-002  0.18869324069190926        0.0000000000000000     
  -1.8497169941520470E-002  0.19688368174533219        0.0000000000000000     
  -2.3444215997054912E-002  0.16473971718809097        0.0000000000000000     
  -2.3802232071013472E-002  0.17265693535399926        0.0000000000000000     
  -2.4129068705471497E-002  0.18066249702349535        0.0000000000000000     
  -2.4424725900428993E-002  0.18875640219657919        0.0000000000000000     
  -2.4689203655885946E-002  0.19693865087325080        0.0000000000000000     
  -1.3060563556707531E-004  0.19682367553764307        0.0000000000000000     
  -1.2697722132177288E-004  0.20509179670921696        0.0000000000000000     
  -1.2389900446196662E-004  0.21340991685654856        0.0000000000000000     
  -1.2137098498765739E-004  0.22177803597963786        0.0000000000000000     
  -1.1939316289884348E-004  0.23019615407848493        0.0000000000000000     
  -6.2178709313610364E-003  0.19682619407752838        0.0000000000000000     
  -6.2724446446764158E-003  0.20509544804641749        0.0000000000000000     
  -6.3199682487050457E-003  0.21341448425974502        0.0000000000000000     
  -6.3604417434469235E-003  0.22178330271751076        0.0000000000000000     
  -6.3938651289020482E-003  0.23020190341971483        0.0000000000000000     
  -1.2340059033345500E-002  0.19684619614675805        0.0000000000000000     
  -1.2453639179866969E-002  0.20511362658886181        0.0000000000000000     
  -1.2552583380034409E-002  0.21343193186492621        0.0000000000000000     
  -1.2636891633847812E-002  0.22180111197495117        0.0000000000000000     
  -1.2706563941307189E-002  0.23022116691893674        0.0000000000000000     
  -1.8497169941520470E-002  0.19688368174533219        0.0000000000000000     
  -1.8670560826893431E-002  0.20514633233654980        0.0000000000000000     
  -1.8821744398450049E-002  0.21346225967209206        0.0000000000000000     
  -1.8950720656190329E-002  0.22183146375195897        0.0000000000000000     
  -1.9057489600114268E-002  0.23025394457615056        0.0000000000000000     
  -2.4689203655885946E-002  0.19693865087325080        0.0000000000000000     
  -2.4923209585755800E-002  0.20519356528948152        0.0000000000000000     
  -2.5127451303951970E-002  0.21350546768124262        0.0000000000000000     
  -2.5301928810474470E-002  0.22187435804853428        0.0000000000000000     
  -2.5446642105323290E-002  0.23030023639135627        0.0000000000000000     
  -1.1939316289884348E-004  0.23019615407848493        0.0000000000000000     
  -1.1784495536987846E-004  0.23863325436511412        0.0000000000000000     
  -1.1660577957511202E-004  0.24705832005154982        0.0000000000000000     
  -1.1567563551454451E-004  0.25547135113779201        0.0000000000000000     
  -1.1505452318817623E-004  0.26387234762384076        0.0000000000000000     
  -6.3938651289020482E-003  0.23020190341971483        0.0000000000000000     
  -6.4217957336981761E-003  0.23863990699378504        0.0000000000000000     
  -6.4457908864630651E-003  0.24706693406714911        0.0000000000000000     
  -6.4658505871967170E-003  0.25548298463980712        0.0000000000000000     
  -6.4819748358991283E-003  0.26388805871175913        0.0000000000000000     
  -1.2706563941307189E-002  0.23022116691893674        0.0000000000000000     
  -1.2764840742804213E-002  0.23866255283653900        0.0000000000000000     
  -1.2814962478730567E-002  0.24709572586741432        0.0000000000000000     
  -1.2856929149086246E-002  0.25552068601156247        0.0000000000000000     
  -1.2890740753871255E-002  0.26393743326898361        0.0000000000000000     
  -1.9057489600114268E-002  0.23025394457615056        0.0000000000000000     
  -1.9146979982687988E-002  0.23870119189337616        0.0000000000000000     
  -1.9224120556377611E-002  0.24714469545234530        0.0000000000000000     
  -1.9288911321183131E-002  0.25558445525305795        0.0000000000000000     
  -1.9341352277104550E-002  0.26402047129551420        0.0000000000000000     
  -2.5446642105323290E-002  0.23030023639135627        0.0000000000000000     
  -2.5568213453349510E-002  0.23875582416429639        0.0000000000000000     
  -2.5673265119404202E-002  0.24721384282194217        0.0000000000000000     
  -2.5761797103487378E-002  0.25567429236429368        0.0000000000000000     
  -2.5833809405599022E-002  0.26413717279135090        0.0000000000000000     
  -1.1505452318817623E-004  0.26387234762384076        0.0000000000000000     
  -1.1460828760540714E-004  0.27220107272610589        0.0000000000000000     
  -1.1420277377563568E-004  0.28039728966099747        0.0000000000000000     
  -1.1383798169886254E-004  0.28846099842851536        0.0000000000000000     
  -1.1351391137508823E-004  0.29639219902865976        0.0000000000000000     
  -6.4819748358991283E-003  0.26388805871175913        0.0000000000000000     
  -6.4977466197545441E-003  0.27222206035004964        0.0000000000000000     
  -6.5167489259471993E-003  0.28042489362172329        0.0000000000000000     
  -6.5389817544770946E-003  0.28849655852678013        0.0000000000000000     
  -6.5644451053442320E-003  0.29643705506522011        0.0000000000000000     
  -1.2890740753871255E-002  0.26393743326898361        0.0000000000000000     
  -1.2923260264044365E-002  0.27228674053023227        0.0000000000000000     
  -1.2961350650564351E-002  0.28050938068586312        0.0000000000000000     
  -1.3005011913431213E-002  0.28860535373587615        0.0000000000000000     
  -1.3054244052644949E-002  0.29657465968027136        0.0000000000000000     
  -1.9341352277104550E-002  0.26402047129551420        0.0000000000000000     
  -1.9391149220474874E-002  0.27239511326665389        0.0000000000000000     
  -1.9448007947627098E-002  0.28065075085341695        0.0000000000000000     
  -1.9511928458561215E-002  0.28878738405580351        0.0000000000000000     
  -1.9582910753277234E-002  0.29680501287381345        0.0000000000000000     
  -2.5833809405599022E-002  0.26413717279135090        0.0000000000000000     
  -2.5901413489046066E-002  0.27254717855931437        0.0000000000000000     
  -2.5976720817135427E-002  0.28084900412438479        0.0000000000000000     
  -2.6059731389867103E-002  0.28904264948656211        0.0000000000000000     
  -2.6150445207241094E-002  0.29712811464584632        0.0000000000000000     
  -1.4060545116449932E-002   5.5814730763753602E-002   0.0000000000000000     
  -1.4849980508879496E-002   6.1395065316498826E-002   0.0000000000000000     
  -1.5606004930050665E-002   6.7164115076077280E-002   0.0000000000000000     
  -1.6328618379963442E-002   7.3121880042488957E-002   0.0000000000000000     
  -1.7017820858617822E-002   7.9268360215733857E-002   0.0000000000000000     
  -1.6583183355941694E-002   5.5592237590072237E-002   0.0000000000000000     
  -1.7674074557898385E-002   6.1302417822890698E-002   0.0000000000000000     
  -1.8725376984200553E-002   6.7170444031038737E-002   0.0000000000000000     
  -1.9737090634848197E-002   7.3196316214516374E-002   0.0000000000000000     
  -2.0709215509841311E-002   7.9380034373323582E-002   0.0000000000000000     
  -1.9883637349308880E-002   5.5760791531020794E-002   0.0000000000000000     
  -2.1200183275401067E-002   6.1491420580622708E-002   0.0000000000000000     
  -2.2472958340380319E-002   6.7376344439027985E-002   0.0000000000000000     
  -2.3701962544246648E-002   7.3415563106236661E-002   0.0000000000000000     
  -2.4887195887000051E-002   7.9609076582248722E-002   0.0000000000000000     
  -2.3961907096551494E-002   5.6320392586599287E-002   0.0000000000000000     
  -2.5428306661387529E-002   6.1962073589694848E-002   0.0000000000000000     
  -2.6848748998589966E-002   6.7781816300045025E-002   0.0000000000000000     
  -2.8223234108158805E-002   7.3779620717649819E-002   0.0000000000000000     
  -2.9551761990094037E-002   7.9955486842509249E-002   0.0000000000000000     
  -2.8817992597669529E-002   5.7271040756807709E-002   0.0000000000000000     
  -3.0358444715857788E-002   6.2714376850107126E-002   0.0000000000000000     
  -3.1852748958829495E-002   6.8386859614089843E-002   0.0000000000000000     
  -3.3300905326584654E-002   7.4288489048755860E-002   0.0000000000000000     
  -3.4702913819123264E-002   8.0419265154105191E-002   0.0000000000000000     
  -1.7017820858617822E-002   7.9268360215733857E-002   0.0000000000000000     
  -1.7681760602200662E-002   8.5589302825069657E-002   0.0000000000000000     
  -1.8328585846898820E-002   9.2070455099753951E-002   0.0000000000000000     
  -1.8958296592712292E-002   9.8711817039786764E-002   0.0000000000000000     
  -1.9570892839641078E-002  0.10551338864516813        0.0000000000000000     
  -2.0709215509841311E-002   7.9380034373323582E-002   0.0000000000000000     
  -2.1644215393536750E-002   8.5719429358656438E-002   0.0000000000000000     
  -2.2544554070291368E-002   9.2212332021711044E-002   0.0000000000000000     
  -2.3410231540105155E-002   9.8858742362487345E-002   0.0000000000000000     
  -2.4241247802978119E-002  0.10565866038098540        0.0000000000000000     
  -2.4887195887000051E-002   7.9609076582248722E-002   0.0000000000000000     
  -2.6028511065379133E-002   8.5954115180750093E-002   0.0000000000000000     
  -2.7125760776122502E-002   9.2447909215426755E-002   0.0000000000000000     
  -2.8178945019230160E-002   9.9090458686278693E-002   0.0000000000000000     
  -2.9188063794702113E-002  0.10588176359330592        0.0000000000000000     
  -2.9551761990094037E-002   7.9955486842509249E-002   0.0000000000000000     
  -3.0834647617727792E-002   8.6293360291350568E-002   0.0000000000000000     
  -3.2072205964392225E-002   9.2777186680901097E-002   0.0000000000000000     
  -3.3264437030087315E-002   9.9406966011160780E-002   0.0000000000000000     
  -3.4411340814813063E-002  0.10618269828212966        0.0000000000000000     
  -3.4702913819123264E-002   8.0419265154105191E-002   0.0000000000000000     
  -3.6062625050582754E-002   8.6737164690457891E-002   0.0000000000000000     
  -3.7383889635100524E-002   9.3200164418134057E-002   0.0000000000000000     
  -3.8666707572676602E-002   9.9808264337133634E-002   0.0000000000000000     
  -3.9911078863310981E-002  0.10656146444745669        0.0000000000000000     
  -1.9570892839641078E-002  0.10551338864516813        0.0000000000000000     
  -2.0159365511661198E-002  0.11246350811717248        0.0000000000000000     
  -2.0716705532748653E-002  0.11955051365707439        0.0000000000000000     
  -2.1242912902903463E-002  0.12677440526487380        0.0000000000000000     
  -2.1737987622125612E-002  0.13413518294057075        0.0000000000000000     
  -2.4241247802978119E-002  0.10565866038098540        0.0000000000000000     
  -2.5031019630531958E-002  0.11260332917432259        0.0000000000000000     
  -2.5772963794388374E-002  0.11968399183961637        0.0000000000000000     
  -2.6467080294547380E-002  0.12690064837686676        0.0000000000000000     
  -2.7113369131008962E-002  0.13425329878607370        0.0000000000000000     
  -2.9188063794702113E-002  0.10588176359330592        0.0000000000000000     
  -3.0145810421221879E-002  0.11281531292447031        0.0000000000000000     
  -3.1044878217472989E-002  0.11988459566773375        0.0000000000000000     
  -3.1885267183455433E-002  0.12708961182309630        0.0000000000000000     
  -3.2666977319169226E-002  0.13443036139055792        0.0000000000000000     
  -3.4411340814813063E-002  0.10618269828212966        0.0000000000000000     
  -3.5503737883730964E-002  0.11309945936761565        0.0000000000000000     
  -3.6532448802002480E-002  0.12015232514142657        0.0000000000000000     
  -3.7497473569627640E-002  0.12734129560356250        0.0000000000000000     
  -3.8398812186606415E-002  0.13466637075402335        0.0000000000000000     
  -3.9911078863310981E-002  0.10656146444745669        0.0000000000000000     
  -4.1104802018059210E-002  0.11345576850375859        0.0000000000000000     
  -4.2235675547976879E-002  0.12048718026069476        0.0000000000000000     
  -4.3303699453063976E-002  0.12765569971826524        0.0000000000000000     
  -4.4308873733320507E-002  0.13496132687647000        0.0000000000000000     
  -2.1737987622125612E-002  0.13413518294057075        0.0000000000000000     
  -2.2204258190875556E-002  0.14161988186327501        0.0000000000000000     
  -2.2644053109613753E-002  0.14921553721209649        0.0000000000000000     
  -2.3057372378340206E-002  0.15692214898703516        0.0000000000000000     
  -2.3444215997054912E-002  0.16473971718809097        0.0000000000000000     
  -2.7113369131008962E-002  0.13425329878607370        0.0000000000000000     
  -2.7719338985936214E-002  0.14173038744063465        0.0000000000000000     
  -2.8292498541492218E-002  0.14932035871394697        0.0000000000000000     
  -2.8832847797676982E-002  0.15702321260601060        0.0000000000000000     
  -2.9340386754490504E-002  0.16483894911682559        0.0000000000000000     
  -3.2666977319169226E-002  0.13443036139055792        0.0000000000000000     
  -3.3399826507229564E-002  0.14189587513380844        0.0000000000000000     
  -3.4093632630251669E-002  0.14947518381653771        0.0000000000000000     
  -3.4748395688235519E-002  0.15716828743874567        0.0000000000000000     
  -3.5364115681181113E-002  0.16497518600043237        0.0000000000000000     
  -3.8398812186606415E-002  0.13466637075402335        0.0000000000000000     
  -3.9245720754755624E-002  0.14211634494279635        0.0000000000000000     
  -4.0047455375892084E-002  0.14968001251986865        0.0000000000000000     
  -4.0804016050015789E-002  0.15735737348524026        0.0000000000000000     
  -4.1515402777126752E-002  0.16514842783891123        0.0000000000000000     
  -4.4308873733320507E-002  0.13496132687647000        0.0000000000000000     
  -4.5257021728514375E-002  0.14239179686759845        0.0000000000000000     
  -4.6153966778413477E-002  0.14993484482393993        0.0000000000000000     
  -4.6999708883017820E-002  0.15759047074549454        0.0000000000000000     
  -4.7794248042327403E-002  0.16535867463226217        0.0000000000000000     
  -2.3444215997054912E-002  0.16473971718809097        0.0000000000000000     
  -2.3802232071013472E-002  0.17265693535399926        0.0000000000000000     
  -2.4129068705471497E-002  0.18066249702349535        0.0000000000000000     
  -2.4424725900428993E-002  0.18875640219657919        0.0000000000000000     
  -2.4689203655885946E-002  0.19693865087325080        0.0000000000000000     
  -2.9340386754490504E-002  0.16483894911682559        0.0000000000000000     
  -2.9809548479936818E-002  0.17275385472476890        0.0000000000000000     
  -3.0234766042019957E-002  0.18075421590821736        0.0000000000000000     
  -3.0616039440739939E-002  0.18884003266717098        0.0000000000000000     
  -3.0953368676096753E-002  0.19701130500162978        0.0000000000000000     
  -3.5364115681181113E-002  0.16497518600043237        0.0000000000000000     
  -3.5933936890290147E-002  0.17288094924907396        0.0000000000000000     
  -3.6451003596764238E-002  0.18087064693214661        0.0000000000000000     
  -3.6915315800603435E-002  0.18894427904965030        0.0000000000000000     
  -3.7326873501807710E-002  0.19710184560158503        0.0000000000000000     
  -4.1515402777126752E-002  0.16514842783891123        0.0000000000000000     
  -4.2175397302073439E-002  0.17303821892691448        0.0000000000000000     
  -4.2777781369704351E-002  0.18101179009528318        0.0000000000000000     
  -4.3322554980019475E-002  0.18906914134401720        0.0000000000000000     
  -4.3809718133018816E-002  0.19721027267311669        0.0000000000000000     
  -4.7794248042327403E-002  0.16535867463226217        0.0000000000000000     
  -4.8533929715286729E-002  0.17322566375829046        0.0000000000000000     
  -4.9215099360840280E-002  0.18117764539762696        0.0000000000000000     
  -4.9837756978988054E-002  0.18921461955027166        0.0000000000000000     
  -5.0401902569730067E-002  0.19733658621622455        0.0000000000000000     
  -2.4689203655885946E-002  0.19693865087325080        0.0000000000000000     
  -2.4923209585755800E-002  0.20519356528948152        0.0000000000000000     
  -2.5127451303951970E-002  0.21350546768124262        0.0000000000000000     
  -2.5301928810474470E-002  0.22187435804853428        0.0000000000000000     
  -2.5446642105323290E-002  0.23030023639135627        0.0000000000000000     
  -3.0953368676096753E-002  0.19701130500162978        0.0000000000000000     
  -3.1250040618553326E-002  0.20525593362530106        0.0000000000000000     
  -3.1509342138572587E-002  0.21356181925189216        0.0000000000000000     
  -3.1731273236154524E-002  0.22192896188140307        0.0000000000000000     
  -3.1915833911299152E-002  0.23035736151383387        0.0000000000000000     
  -3.7326873501807710E-002  0.19710184560158503        0.0000000000000000     
  -3.7689509087385262E-002  0.20533404552165263        0.0000000000000000     
  -3.8007054944344275E-002  0.21363157774355487        0.0000000000000000     
  -3.8279511072684784E-002  0.22199444226729170        0.0000000000000000     
  -3.8506877472406761E-002  0.23042263909286323        0.0000000000000000     
  -4.3809718133018816E-002  0.19721027267311669        0.0000000000000000     
  -4.4241614992251606E-002  0.20542790097853622        0.0000000000000000     
  -4.4620589721267083E-002  0.21371474315623071        0.0000000000000000     
  -4.4946642320065261E-002  0.22207079920620004        0.0000000000000000     
  -4.5219772788646112E-002  0.23049606912844431        0.0000000000000000     
  -5.0401902569730067E-002  0.19733658621622455        0.0000000000000000     
  -5.0906358333152366E-002  0.20553749999595183        0.0000000000000000     
  -5.1349946469340976E-002  0.21381131548991975        0.0000000000000000     
  -5.1732666978295934E-002  0.22215803269812812        0.0000000000000000     
  -5.2054519860017204E-002  0.23057765162057711        0.0000000000000000     
  -2.5446642105323290E-002  0.23030023639135627        0.0000000000000000     
  -2.5568213453349510E-002  0.23875582416429639        0.0000000000000000     
  -2.5673265119404202E-002  0.24721384282194217        0.0000000000000000     
  -2.5761797103487378E-002  0.25567429236429368        0.0000000000000000     
  -2.5833809405599022E-002  0.26413717279135090        0.0000000000000000     
  -3.1915833911299152E-002  0.23035736151383387        0.0000000000000000     
  -3.2071010679909820E-002  0.23882186925455623        0.0000000000000000     
  -3.2204790057889898E-002  0.24729733620894195        0.0000000000000000     
  -3.2317172045239387E-002  0.25578376237699102        0.0000000000000000     
  -3.2408156641958272E-002  0.26428114775870348        0.0000000000000000     
  -3.8506877472406761E-002  0.23042263909286323        0.0000000000000000     
  -3.8697841187489979E-002  0.23889474676941225        0.0000000000000000     
  -3.8861089261914249E-002  0.24738934384608169        0.0000000000000000     
  -3.8996621695679558E-002  0.25590643032287147        0.0000000000000000     
  -3.9104438488785913E-002  0.26444600619978176        0.0000000000000000     
  -4.5219772788646112E-002  0.23049606912844431        0.0000000000000000     
  -4.5448704976089993E-002  0.23897445670886441        0.0000000000000000     
  -4.5642162731477254E-002  0.24748986573336135        0.0000000000000000     
  -4.5800146054807908E-002  0.25604229620193519        0.0000000000000000     
  -4.5922654946081921E-002  0.26463174811458579        0.0000000000000000     
  -5.2054519860017204E-002  0.23057765162057711        0.0000000000000000     
  -5.2323602045709849E-002  0.23906099907291276        0.0000000000000000     
  -5.2548010466578914E-002  0.24759890187078104        0.0000000000000000     
  -5.2727745122624417E-002  0.25619136001418197        0.0000000000000000     
  -5.2862806013846332E-002  0.26483837350311557        0.0000000000000000     
  -2.5833809405599022E-002  0.26413717279135090        0.0000000000000000     
  -2.5901413489046066E-002  0.27254717855931437        0.0000000000000000     
  -2.5976720817135427E-002  0.28084900412438479        0.0000000000000000     
  -2.6059731389867103E-002  0.28904264948656211        0.0000000000000000     
  -2.6150445207241094E-002  0.29712811464584632        0.0000000000000000     
  -3.2408156641958272E-002  0.26428114775870348        0.0000000000000000     
  -3.2492671995568774E-002  0.27273659469116146        0.0000000000000000     
  -3.2585646253593101E-002  0.28109720551144746        0.0000000000000000     
  -3.2687079416031252E-002  0.28936298021956114        0.0000000000000000     
  -3.2796971482883221E-002  0.29753391881550284        0.0000000000000000     
  -3.9104438488785913E-002  0.26444600619978176        0.0000000000000000     
  -3.9203543665853824E-002  0.27295701994514299        0.0000000000000000     
  -3.9312941251503870E-002  0.28138842002728576        0.0000000000000000     
  -3.9432631245736038E-002  0.28974020644621001        0.0000000000000000     
  -3.9562613648550300E-002  0.29801237920191581        0.0000000000000000     
  -4.5922654946081921E-002  0.26463174811458579        0.0000000000000000     
  -4.6034028499901243E-002  0.27320845432125884        0.0000000000000000     
  -4.6158605810867746E-002  0.28172264767189975        0.0000000000000000     
  -4.6296386878981452E-002  0.29017432816650857        0.0000000000000000     
  -4.6447371704242346E-002  0.29856349580508534        0.0000000000000000     
  -5.2862806013846332E-002  0.26483837350311557        0.0000000000000000     
  -5.2984126497710990E-002  0.27349089781950897        0.0000000000000000     
  -5.3122639931684708E-002  0.28209988844528949        0.0000000000000000     
  -5.3278346315767493E-002  0.29066534538045691        0.0000000000000000     
  -5.3451245649959338E-002  0.29918726862501133        0.0000000000000000     
  -2.8817992597669529E-002   5.7271040756807709E-002   0.0000000000000000     
  -3.0358444715857788E-002   6.2714376850107126E-002   0.0000000000000000     
  -3.1852748958829495E-002   6.8386859614089843E-002   0.0000000000000000     
  -3.3300905326584654E-002   7.4288489048755860E-002   0.0000000000000000     
  -3.4702913819123264E-002   8.0419265154105191E-002   0.0000000000000000     
  -3.3869188131588499E-002   5.8305041766974867E-002   0.0000000000000000     
  -3.5480145630312196E-002   6.3547984916527647E-002   0.0000000000000000     
  -3.7043234250329182E-002   6.9069541004542795E-002   0.0000000000000000     
  -3.8558453991639451E-002   7.4869710031020262E-002   0.0000000000000000     
  -4.0025804854243015E-002   8.0948491995960062E-002   0.0000000000000000     
  -3.8532787977233932E-002   5.9114701342429576E-002   0.0000000000000000     
  -4.0282957596251126E-002   6.4262552343624588E-002   0.0000000000000000     
  -4.1978480902319294E-002   6.9707927094784239E-002   0.0000000000000000     
  -4.3619357895438422E-002   7.5450825595908488E-002   0.0000000000000000     
  -4.5205588575608538E-002   8.1491247846997392E-002   0.0000000000000000     
  -4.2808792134605804E-002   5.9700019483171822E-002   0.0000000000000000     
  -4.4766880613674578E-002   6.4858079131397892E-002   0.0000000000000000     
  -4.6658488914799831E-002   7.0302017884814133E-002   0.0000000000000000     
  -4.8483617037981597E-002   7.6031835743420553E-002   0.0000000000000000     
  -5.0242264983219848E-002   8.2047532707217166E-002   0.0000000000000000     
  -4.6697200603704137E-002   6.0060996189201618E-002   0.0000000000000000     
  -4.8931914682582553E-002   6.5334565279847573E-002   0.0000000000000000     
  -5.1083258287770814E-002   7.0851813374632519E-002   0.0000000000000000     
  -5.3151231419268939E-002   7.6612740473556470E-002   0.0000000000000000     
  -5.5135834077076930E-002   8.2617346576619385E-002   0.0000000000000000     
  -3.4702913819123264E-002   8.0419265154105191E-002   0.0000000000000000     
  -3.6062625050582754E-002   8.6737164690457891E-002   0.0000000000000000     
  -3.7383889635100524E-002   9.3200164418134057E-002   0.0000000000000000     
  -3.8666707572676602E-002   9.9808264337133634E-002   0.0000000000000000     
  -3.9911078863310981E-002  0.10656146444745669        0.0000000000000000     
  -4.0025804854243015E-002   8.0948491995960062E-002   0.0000000000000000     
  -4.1453806614663649E-002   8.7239492600863625E-002   0.0000000000000000     
  -4.2850979049425163E-002   9.3676317547232421E-002   0.0000000000000000     
  -4.4217322158527549E-002  0.10025896683506637        0.0000000000000000     
  -4.5552835941970800E-002  0.10698744046436552        0.0000000000000000     
  -4.5205588575608538E-002   8.1491247846997392E-002   0.0000000000000000     
  -4.6749555560690166E-002   8.7754308245359389E-002   0.0000000000000000     
  -4.8263641468543873E-002   9.4165121188302947E-002   0.0000000000000000     
  -4.9747846299169653E-002  0.10072368667582811        0.0000000000000000     
  -5.1202170052567511E-002  0.10743000470793482        0.0000000000000000     
  -5.0242264983219848E-002   8.2047532707217166E-002   0.0000000000000000     
  -5.1949871888662305E-002   8.8281611623945155E-002   0.0000000000000000     
  -5.3621876892456656E-002   9.4666575341345691E-002   0.0000000000000000     
  -5.5258279994602914E-002  0.10120242385941884        0.0000000000000000     
  -5.6859081195101101E-002  0.10788915717816454        0.0000000000000000     
  -5.5135834077076930E-002   8.2617346576619385E-002   0.0000000000000000     
  -5.7054755598580024E-002   8.8821402736620883E-002   0.0000000000000000     
  -5.8925685321163504E-002   9.5180680006360624E-002   0.0000000000000000     
  -6.0748623244827354E-002  0.10169517838583855        0.0000000000000000     
  -6.2523569369571569E-002  0.10836489787505471        0.0000000000000000     
  -3.9911078863310981E-002  0.10656146444745669        0.0000000000000000     
  -4.1104802018059210E-002  0.11345576850375859        0.0000000000000000     
  -4.2235675547976879E-002  0.12048718026069476        0.0000000000000000     
  -4.3303699453063976E-002  0.12765569971826524        0.0000000000000000     
  -4.4308873733320507E-002  0.13496132687647000        0.0000000000000000     
  -4.5552835941970800E-002  0.10698744046436552        0.0000000000000000     
  -4.6842505880131405E-002  0.11385783603908239        0.0000000000000000     
  -4.8071317453385824E-002  0.12086625116316947        0.0000000000000000     
  -4.9239270661734072E-002  0.12801268583662676        0.0000000000000000     
  -5.0346365505176120E-002  0.13529714005945426        0.0000000000000000     
  -5.1202170052567511E-002  0.10743000470793482        0.0000000000000000     
  -5.2610352525872331E-002  0.11427925767977030        0.0000000000000000     
  -5.3956133516219008E-002  0.12126662798648170        0.0000000000000000     
  -5.5239513023607509E-002  0.12839211562806907        0.0000000000000000     
  -5.6460491048037874E-002  0.13565572060453238        0.0000000000000000     
  -5.6859081195101101E-002  0.10788915717816454        0.0000000000000000     
  -5.8408341955281995E-002  0.11472003342582228        0.0000000000000000     
  -5.9890123736476404E-002  0.12168831073063152        0.0000000000000000     
  -6.1304426538684328E-002  0.12879398909259218        0.0000000000000000     
  -6.2651250361905761E-002  0.13603706851170447        0.0000000000000000     
  -6.2523569369571569E-002  0.10836489787505471        0.0000000000000000     
  -6.4236474168360397E-002  0.11518016327723837        0.0000000000000000     
  -6.5873288114158032E-002  0.12213129939561890        0.0000000000000000     
  -6.7434011206964489E-002  0.12921830623019620        0.0000000000000000     
  -6.8918643446779768E-002  0.13644118378097039        0.0000000000000000     
  -4.4308873733320507E-002  0.13496132687647000        0.0000000000000000     
  -4.5257021728514375E-002  0.14239179686759845        0.0000000000000000     
  -4.6153966778413477E-002  0.14993484482393993        0.0000000000000000     
  -4.6999708883017820E-002  0.15759047074549454        0.0000000000000000     
  -4.7794248042327403E-002  0.16535867463226217        0.0000000000000000     
  -5.0346365505176120E-002  0.13529714005945426        0.0000000000000000     
  -5.1394595388426299E-002  0.14270617510907965        0.0000000000000000     
  -5.2385953716198912E-002  0.15022635226293068        0.0000000000000000     
  -5.3320440488493916E-002  0.15785767152100735        0.0000000000000000     
  -5.4198055705311367E-002  0.16560013288330971        0.0000000000000000     
  -5.6460491048037874E-002  0.13565572060453238        0.0000000000000000     
  -5.7619307694411898E-002  0.14304342386810492        0.0000000000000000     
  -5.8716203067631416E-002  0.15054120637102011        0.0000000000000000     
  -5.9751177167696422E-002  0.15814906811327786        0.0000000000000000     
  -6.0724229994606901E-002  0.16586700909487825        0.0000000000000000     
  -6.2651250361905761E-002  0.13603706851170447        0.0000000000000000     
  -6.3931158646471184E-002  0.14340354314467432        0.0000000000000000     
  -6.5144714832711004E-002  0.15087940714820819        0.0000000000000000     
  -6.6291918920625303E-002  0.15846466052230604        0.0000000000000000     
  -6.7372770910214028E-002  0.16615930326696782        0.0000000000000000     
  -6.8918643446779768E-002  0.13644118378097039        0.0000000000000000     
  -7.0330148244604096E-002  0.14378653293878782        0.0000000000000000     
  -7.1671489011437703E-002  0.15124095459449496        0.0000000000000000     
  -7.2942665747280575E-002  0.15880444874809185        0.0000000000000000     
  -7.4143678452132725E-002  0.16647701539957843        0.0000000000000000     
  -4.7794248042327403E-002  0.16535867463226217        0.0000000000000000     
  -4.8533929715286729E-002  0.17322566375829046        0.0000000000000000     
  -4.9215099360840280E-002  0.18117764539762696        0.0000000000000000     
  -4.9837756978988054E-002  0.18921461955027166        0.0000000000000000     
  -5.0401902569730067E-002  0.19733658621622455        0.0000000000000000     
  -5.4198055705311367E-002  0.16560013288330971        0.0000000000000000     
  -5.5017940010940618E-002  0.17344151813320735        0.0000000000000000     
  -5.5779234049671104E-002  0.18136960905407007        0.0000000000000000     
  -5.6481937821502813E-002  0.18938440564589784        0.0000000000000000     
  -5.7126051326435744E-002  0.19748590790869069        0.0000000000000000     
  -6.0724229994606901E-002  0.16586700909487825        0.0000000000000000     
  -6.1635834070045775E-002  0.17368401644167064        0.0000000000000000     
  -6.2486461915695943E-002  0.18158907727950457        0.0000000000000000     
  -6.3276113531557376E-002  0.18958219160838005        0.0000000000000000     
  -6.4004788917630104E-002  0.19766335942829699        0.0000000000000000     
  -6.7372770910214028E-002  0.16615930326696782        0.0000000000000000     
  -6.8387611892602174E-002  0.17395315868368036        0.0000000000000000     
  -6.9336782958914767E-002  0.18183605007393047        0.0000000000000000     
  -7.0220284109151765E-002  0.18980797743771818        0.0000000000000000     
  -7.1038115343313168E-002  0.19786894077504338        0.0000000000000000     
  -7.4143678452132725E-002  0.16647701539957843        0.0000000000000000     
  -7.5273273478609834E-002  0.17424894485923650        0.0000000000000000     
  -7.6330197179327569E-002  0.18211052743734779        0.0000000000000000     
  -7.7314449554285916E-002  0.19006176313391226        0.0000000000000000     
  -7.8226030603484903E-002  0.19810265194892995        0.0000000000000000     
  -5.0401902569730067E-002  0.19733658621622455        0.0000000000000000     
  -5.0906358333152366E-002  0.20553749999595183        0.0000000000000000     
  -5.1349946469340976E-002  0.21381131548991975        0.0000000000000000     
  -5.1732666978295934E-002  0.22215803269812812        0.0000000000000000     
  -5.2054519860017204E-002  0.23057765162057711        0.0000000000000000     
  -5.7126051326435744E-002  0.19748590790869069        0.0000000000000000     
  -5.7707059422705397E-002  0.20566864121621295        0.0000000000000000     
  -5.8220446968547279E-002  0.21392713094222890        0.0000000000000000     
  -5.8666213963961371E-002  0.22226137708673849        0.0000000000000000     
  -5.9044360408947699E-002  0.23067137964974177        0.0000000000000000     
  -6.4004788917630104E-002  0.19766335942829699        0.0000000000000000     
  -6.4667038573528596E-002  0.20582712328163288        0.0000000000000000     
  -6.5257412998867267E-002  0.21406802571076505        0.0000000000000000     
  -6.5775912193646147E-002  0.22238606671569353        0.0000000000000000     
  -6.6222536157865261E-002  0.23078124629641830        0.0000000000000000     
  -7.1038115343313168E-002  0.19786894077504338        0.0000000000000000     
  -7.1786295785621929E-002  0.20601294619221167        0.0000000000000000     
  -7.2460844560300955E-002  0.21423399979552829        0.0000000000000000     
  -7.3061761667350303E-002  0.22253210158499331        0.0000000000000000     
  -7.3589047106769889E-002  0.23090725156060671        0.0000000000000000     
  -7.8226030603484903E-002  0.19810265194892995        0.0000000000000000     
  -7.9064831058985430E-002  0.20622610994794927        0.0000000000000000     
  -7.9830741652848383E-002  0.21442505319651856        0.0000000000000000     
  -8.0523762385073763E-002  0.22269948169463777        0.0000000000000000     
  -8.1143893255661570E-002  0.23104939544230699        0.0000000000000000     
  -5.2054519860017204E-002  0.23057765162057711        0.0000000000000000     
  -5.2323602045709849E-002  0.23906099907291276        0.0000000000000000     
  -5.2548010466578914E-002  0.24759890187078104        0.0000000000000000     
  -5.2727745122624417E-002  0.25619136001418197        0.0000000000000000     
  -5.2862806013846332E-002  0.26483837350311557        0.0000000000000000     
  -5.9044360408947699E-002  0.23067137964974177        0.0000000000000000     
  -5.9361083157474584E-002  0.23915561291817539        0.0000000000000000     
  -5.9622579063510359E-002  0.24771255117897598        0.0000000000000000     
  -5.9828848127055030E-002  0.25634219443214351        0.0000000000000000     
  -5.9979890348108605E-002  0.26504454267767791        0.0000000000000000     
  -6.6222536157865261E-002  0.23078124629641830        0.0000000000000000     
  -6.6599699072509233E-002  0.23925953730127064        0.0000000000000000     
  -6.6909815118562699E-002  0.24782691257858158        0.0000000000000000     
  -6.7152884296025700E-002  0.25648337212835126        0.0000000000000000     
  -6.7328906604898209E-002  0.26522891595057974        0.0000000000000000     
  -7.3589047106769889E-002  0.23090725156060671        0.0000000000000000     
  -7.4039449790813769E-002  0.23937277222219827        0.0000000000000000     
  -7.4409718631735927E-002  0.24794198606959789        0.0000000000000000     
  -7.4699853629536420E-002  0.25661489310280539        0.0000000000000000     
  -7.4909854784215191E-002  0.26539149332182094        0.0000000000000000     
  -8.1143893255661570E-002  0.23104939544230699        0.0000000000000000     
  -8.1680335312388191E-002  0.23949531768095855        0.0000000000000000     
  -8.2122289603030058E-002  0.24805777165202483        0.0000000000000000     
  -8.2469756127587154E-002  0.25673675735550583        0.0000000000000000     
  -8.2722734886059482E-002  0.26553227479140151        0.0000000000000000     
  -5.2862806013846332E-002  0.26483837350311557        0.0000000000000000     
  -5.2984126497710990E-002  0.27349089781950897        0.0000000000000000     
  -5.3122639931684708E-002  0.28209988844528949        0.0000000000000000     
  -5.3278346315767493E-002  0.29066534538045691        0.0000000000000000     
  -5.3451245649959338E-002  0.29918726862501133        0.0000000000000000     
  -5.9979890348108605E-002  0.26504454267767791        0.0000000000000000     
  -6.0112561154847706E-002  0.27377559618849606        0.0000000000000000     
  -6.0263715975448981E-002  0.28249135523751467        0.0000000000000000     
  -6.0433354809912430E-002  0.29119181982473352        0.0000000000000000     
  -6.0621477658238061E-002  0.29987698995015299        0.0000000000000000     
  -6.7328906604898209E-002  0.26522891595057974        0.0000000000000000     
  -6.7478055966875977E-002  0.27403379517682241        0.0000000000000000     
  -6.7640506303654771E-002  0.28286826093863493        0.0000000000000000     
  -6.7816257615234521E-002  0.29173231323601723        0.0000000000000000     
  -6.8005309901615296E-002  0.30062595206896953        0.0000000000000000     
  -7.4909854784215191E-002  0.26539149332182094        0.0000000000000000     
  -7.5080610933795852E-002  0.27426549478448797        0.0000000000000000     
  -7.5253010916302043E-002  0.28323060554865037        0.0000000000000000     
  -7.5427054731733778E-002  0.29228682561430802        0.0000000000000000     
  -7.5602742380091029E-002  0.30143415498146092        0.0000000000000000     
  -8.2722734886059482E-002  0.26553227479140151        0.0000000000000000     
  -8.2920226055607268E-002  0.27447069501149290        0.0000000000000000     
  -8.3101229813390853E-002  0.28357838906756100        0.0000000000000000     
  -8.3265746159410167E-002  0.29285535695960574        0.0000000000000000     
  -8.3413775093665238E-002  0.30230159868762724        0.0000000000000000     
  -4.6697200603704137E-002   6.0060996189201618E-002   0.0000000000000000     
  -4.8931914682582553E-002   6.5334565279847573E-002   0.0000000000000000     
  -5.1083258287770814E-002   7.0851813374632519E-002   0.0000000000000000     
  -5.3151231419268939E-002   7.6612740473556470E-002   0.0000000000000000     
  -5.5135834077076930E-002   8.2617346576619385E-002   0.0000000000000000     
  -5.0656180536231193E-002   6.0433265315788937E-002   0.0000000000000000     
  -5.3177476767515483E-002   6.5834898869429864E-002   0.0000000000000000     
  -5.5598102086283907E-002   7.1434548852964755E-002   0.0000000000000000     
  -5.7918056492536445E-002   7.7232215266393622E-002   0.0000000000000000     
  -6.0137339986273131E-002   8.3227898109716453E-002   0.0000000000000000     
  -5.5143899083889267E-002   6.1052460718203791E-002   0.0000000000000000     
  -5.7902983833013844E-002   6.6501967980600957E-002   0.0000000000000000     
  -6.0548333375390777E-002   7.2127459608536185E-002   0.0000000000000000     
  -6.3079947711020115E-002   7.7928935602009503E-002   0.0000000000000000     
  -6.5497826839901796E-002   8.3906395961020855E-002   0.0000000000000000     
  -6.0160356246678343E-002   6.1918582396446174E-002   0.0000000000000000     
  -6.3108435879077607E-002   6.7335772613360864E-002   0.0000000000000000     
  -6.5933952155091458E-002   7.2930545641346836E-002   0.0000000000000000     
  -6.8636905074719895E-002   7.8702901480404069E-002   0.0000000000000000     
  -7.1217294637962933E-002   8.4652840130532564E-002   0.0000000000000000     
  -6.5705552024598435E-002   6.3031630350516080E-002   0.0000000000000000     
  -6.8793832905706787E-002   6.8336312767709587E-002   0.0000000000000000     
  -7.1754958425385915E-002   7.3843806951396682E-002   0.0000000000000000     
  -7.4588928583635833E-002   7.9554112901577337E-002   0.0000000000000000     
  -7.7295743380456527E-002   8.5467230618251594E-002   0.0000000000000000     
  -5.5135834077076930E-002   8.2617346576619385E-002   0.0000000000000000     
  -5.7054755598580024E-002   8.8821402736620883E-002   0.0000000000000000     
  -5.8925685321163504E-002   9.5180680006360624E-002   0.0000000000000000     
  -6.0748623244827354E-002  0.10169517838583855        0.0000000000000000     
  -6.2523569369571569E-002  0.10836489787505471        0.0000000000000000     
  -6.0137339986273131E-002   8.3227898109716453E-002   0.0000000000000000     
  -6.2275827851346680E-002   8.9402180591589359E-002   0.0000000000000000     
  -6.4353395371609820E-002   9.5735645920668411E-002   0.0000000000000000     
  -6.6370042547062566E-002  0.10222829409695360        0.0000000000000000     
  -6.8325769377704890E-002  0.10888012512044490        0.0000000000000000     
  -6.5497826839901796E-002   8.3906395961020855E-002   0.0000000000000000     
  -6.7824709807865549E-002   9.0052444197053272E-002   0.0000000000000000     
  -7.0083335660741000E-002   9.6359683821589728E-002   0.0000000000000000     
  -7.2273704398528149E-002  0.10282811483463022        0.0000000000000000     
  -7.4395816021227024E-002  0.10945773723617472        0.0000000000000000     
  -7.1217294637962933E-002   8.4652840130532564E-002   0.0000000000000000     
  -7.3701401468136626E-002   9.0772193553012651E-002   0.0000000000000000     
  -7.6115506188557058E-002   9.7052793709124591E-002   0.0000000000000000     
  -7.8459608799224145E-002  0.10349464059886844        0.0000000000000000     
  -8.0733709300137985E-002  0.11009773422224414        0.0000000000000000     
  -7.7295743380456527E-002   8.5467230618251594E-002   0.0000000000000000     
  -7.9905902832159925E-002   9.1561428659467453E-002   0.0000000000000000     
  -8.2449906955057925E-002   9.7814975583273012E-002   0.0000000000000000     
  -8.4927755749150541E-002  0.10422787138966826        0.0000000000000000     
  -8.7339449214437731E-002  0.11080011607865317        0.0000000000000000     
  -6.2523569369571569E-002  0.10836489787505471        0.0000000000000000     
  -6.4236474168360397E-002  0.11518016327723837        0.0000000000000000     
  -6.5873288114158032E-002  0.12213129939561890        0.0000000000000000     
  -6.7434011206964489E-002  0.12921830623019620        0.0000000000000000     
  -6.8918643446779768E-002  0.13644118378097039        0.0000000000000000     
  -6.8325769377704890E-002  0.10888012512044490        0.0000000000000000     
  -7.0208062698103396E-002  0.11567870365821527        0.0000000000000000     
  -7.2004409342824663E-002  0.12261159437733761        0.0000000000000000     
  -7.3714809311868648E-002  0.12967879727781190        0.0000000000000000     
  -7.5339262605235408E-002  0.13688031235963818        0.0000000000000000     
  -7.4395816021227024E-002  0.10945773723617472        0.0000000000000000     
  -7.6436421077506894E-002  0.11623471099294967        0.0000000000000000     
  -7.8382270116037031E-002  0.12314519607168148        0.0000000000000000     
  -8.0233363136817462E-002  0.13018919247237015        0.0000000000000000     
  -8.1989700139848201E-002  0.13736670019501573        0.0000000000000000     
  -8.0733709300137985E-002  0.11009773422224414        0.0000000000000000     
  -8.2921549306570877E-002  0.11684818528144156        0.0000000000000000     
  -8.5006870433795192E-002  0.12373210447865049        0.0000000000000000     
  -8.6989672681810917E-002  0.13074949181387097        0.0000000000000000     
  -8.8869956050618093E-002  0.13790034728710299        0.0000000000000000     
  -8.7339449214437731E-002  0.11080011607865317        0.0000000000000000     
  -8.9663447385295331E-002  0.11751912652369093        0.0000000000000000     
  -9.1878210296099105E-002  0.12437231959824464        0.0000000000000000     
  -9.3983737946849027E-002  0.13135969530231434        0.0000000000000000     
  -9.5980030337545152E-002  0.13848125363590003        0.0000000000000000     
  -6.8918643446779768E-002  0.13644118378097039        0.0000000000000000     
  -7.0330148244604096E-002  0.14378653293878782        0.0000000000000000     
  -7.1671489011437703E-002  0.15124095459449496        0.0000000000000000     
  -7.2942665747280575E-002  0.15880444874809185        0.0000000000000000     
  -7.4143678452132725E-002  0.16647701539957843        0.0000000000000000     
  -7.5339262605235408E-002  0.13688031235963818        0.0000000000000000     
  -7.6883810386950774E-002  0.14420351026243688        0.0000000000000000     
  -7.8354493821040594E-002  0.15163576162582848        0.0000000000000000     
  -7.9751312907504868E-002  0.15917706644981300        0.0000000000000000     
  -8.1074267646343609E-002  0.16682742473439044        0.0000000000000000     
  -8.1989700139848201E-002  0.13736670019501573        0.0000000000000000     
  -8.3659678971651275E-002  0.14466559212761296        0.0000000000000000     
  -8.5251697478748806E-002  0.15207374115815681        0.0000000000000000     
  -8.6765755661140823E-002  0.15959114728664717        0.0000000000000000     
  -8.8201853518827256E-002  0.16721781051308415        0.0000000000000000     
  -8.8869956050618093E-002  0.13790034728710299        0.0000000000000000     
  -9.0657753998705612E-002  0.14517277853431609        0.0000000000000000     
  -9.2363099984562380E-002  0.15255489319147994        0.0000000000000000     
  -9.3985994008188384E-002  0.16004669125859441        0.0000000000000000     
  -9.5526436069583651E-002  0.16764817273565960        0.0000000000000000     
  -9.5980030337545152E-002  0.13848125363590003        0.0000000000000000     
  -9.7878035468113772E-002  0.14572506948254629        0.0000000000000000     
  -9.9688701338481275E-002  0.15307921772579783        0.0000000000000000     
 -0.10141202794864761       0.16054369836565466        0.0000000000000000     
 -0.10304801529861285       0.16811851140211675        0.0000000000000000     
  -7.4143678452132725E-002  0.16647701539957843        0.0000000000000000     
  -7.5273273478609834E-002  0.17424894485923650        0.0000000000000000     
  -7.6330197179327569E-002  0.18211052743734779        0.0000000000000000     
  -7.7314449554285916E-002  0.19006176313391226        0.0000000000000000     
  -7.8226030603484903E-002  0.19810265194892995        0.0000000000000000     
  -8.1074267646343609E-002  0.16682742473439044        0.0000000000000000     
  -8.2320469032485688E-002  0.17457727639650159        0.0000000000000000     
  -8.3487028060859947E-002  0.18241706135308730        0.0000000000000000     
  -8.4573944731466399E-002  0.19034677960414756        0.0000000000000000     
  -8.5581219044305046E-002  0.19836643114968233        0.0000000000000000     
  -8.8201853518827256E-002  0.16721781051308415        0.0000000000000000     
  -8.9556848758646640E-002  0.17494405472363825        0.0000000000000000     
  -9.0827599087437427E-002  0.18276020380447988        0.0000000000000000     
  -9.2014104505199673E-002  0.19066625775560925        0.0000000000000000     
  -9.3116365011933322E-002  0.19866221657702612        0.0000000000000000     
  -9.5526436069583651E-002  0.16764817273565960        0.0000000000000000     
  -9.6982412657092690E-002  0.17534927984064635        0.0000000000000000     
  -9.8351910259060080E-002  0.18313995479152553        0.0000000000000000     
  -9.9634928875485737E-002  0.19102019758829727        0.0000000000000000     
 -0.10083146850636969       0.19899000823096144        0.0000000000000000     
 -0.10304801529861285       0.16811851140211675        0.0000000000000000     
 -0.10459716072782393       0.17579295174752602        0.0000000000000000     
 -0.10605996157572783       0.18355631431422431        0.0000000000000000     
 -0.10743641784232459       0.19140859910221170        0.0000000000000000     
 -0.10872652952761419       0.19934980611148811        0.0000000000000000     
  -7.8226030603484903E-002  0.19810265194892995        0.0000000000000000     
  -7.9064831058985430E-002  0.20622610994794927        0.0000000000000000     
  -7.9830741652848383E-002  0.21442505319651856        0.0000000000000000     
  -8.0523762385073763E-002  0.22269948169463777        0.0000000000000000     
  -8.1143893255661570E-002  0.23104939544230699        0.0000000000000000     
  -8.5581219044305046E-002  0.19836643114968233        0.0000000000000000     
  -8.6512884776962021E-002  0.20646813783274803        0.0000000000000000     
  -8.7372975707023404E-002  0.21464402149640108        0.0000000000000000     
  -8.8161491834489208E-002  0.22289408214064135        0.0000000000000000     
  -8.8878433159359393E-002  0.23121831976546897        0.0000000000000000     
  -9.3116365011933322E-002  0.19866221657702612        0.0000000000000000     
  -9.4140697322894679E-002  0.20674055313051024        0.0000000000000000     
  -9.5093418153339979E-002  0.21489374027784100        0.0000000000000000     
  -9.5974527503269250E-002  0.22312177801901847        0.0000000000000000     
  -9.6784025372682464E-002  0.23142466635404252        0.0000000000000000     
 -0.10083146850636969       0.19899000823096144        0.0000000000000000     
 -0.10194826869678336       0.20704335584123584        0.0000000000000000     
 -0.10299206899179808       0.21517420954083838        0.0000000000000000     
 -0.10396286939141391       0.22338256932976894        0.0000000000000000     
 -0.10486066989563080       0.23166843520802766        0.0000000000000000     
 -0.10872652952761419       0.19934980611148811        0.0000000000000000     
 -0.10993559889862810       0.20737654596492489        0.0000000000000000     
 -0.11106892822239775       0.21548542928539313        0.0000000000000000     
 -0.11212651749892316       0.22367645607289294        0.0000000000000000     
 -0.11310836672820432       0.23194962632742427        0.0000000000000000     
  -8.1143893255661570E-002  0.23104939544230699        0.0000000000000000     
  -8.1680335312388191E-002  0.23949531768095855        0.0000000000000000     
  -8.2122289603030058E-002  0.24805777165202483        0.0000000000000000     
  -8.2469756127587154E-002  0.25673675735550583        0.0000000000000000     
  -8.2722734886059482E-002  0.26553227479140151        0.0000000000000000     
  -8.8878433159359393E-002  0.23121831976546897        0.0000000000000000     
  -8.9509084132563116E-002  0.23964233153747555        0.0000000000000000     
  -9.0038729205029394E-002  0.24819171462325271        0.0000000000000000     
  -9.0467368376758284E-002  0.25686646902280041        0.0000000000000000     
  -9.0795001647749757E-002  0.26566659473611864        0.0000000000000000     
  -9.6784025372682464E-002  0.23142466635404252        0.0000000000000000     
  -9.7512424746669019E-002  0.23982897165167361        0.0000000000000000     
  -9.8150238610318241E-002  0.24836126028067168        0.0000000000000000     
  -9.8697466963630132E-002  0.25702153224103691        0.0000000000000000     
  -9.9154109806604704E-002  0.26580978753276940        0.0000000000000000     
 -0.10486066989563080       0.23166843520802766        0.0000000000000000     
 -0.10569035715470594       0.24005523802355255        0.0000000000000000     
 -0.10645681781889657       0.24856640862428189        0.0000000000000000     
 -0.10716005188820267       0.25720194701021559        0.0000000000000000     
 -0.10780005936262427       0.26596185318135368        0.0000000000000000     
 -0.11310836672820432       0.23194962632742427        0.0000000000000000     
 -0.11404288135667387       0.24032113065311256        0.0000000000000000     
 -0.11495846683076441       0.24880715965408320        0.0000000000000000     
 -0.11585512315047596       0.25740771333033624        0.0000000000000000     
 -0.11673285031580849       0.26612279168187170        0.0000000000000000     
  -8.2722734886059482E-002  0.26553227479140151        0.0000000000000000     
  -8.2920226055607268E-002  0.27447069501149290        0.0000000000000000     
  -8.3101229813390853E-002  0.28357838906756100        0.0000000000000000     
  -8.3265746159410167E-002  0.29285535695960574        0.0000000000000000     
  -8.3413775093665238E-002  0.30230159868762724        0.0000000000000000     
  -9.0795001647749757E-002  0.26566659473611864        0.0000000000000000     
  -9.1052066036395124E-002  0.27465506906496562        0.0000000000000000     
  -9.1268998561085585E-002  0.28389486931109964        0.0000000000000000     
  -9.1445799221821250E-002  0.29338599547452060        0.0000000000000000     
  -9.1582468018602023E-002  0.30312844755522850        0.0000000000000000     
  -9.9154109806604704E-002  0.26580978753276940        0.0000000000000000     
  -9.9531295580244178E-002  0.27482429015203474        0.0000000000000000     
  -9.9840152725550774E-002  0.28416330409499924        0.0000000000000000     
 -0.10008068124252451       0.29382682936166249        0.0000000000000000     
 -0.10025288113116539       0.30381486595202500        0.0000000000000000     
 -0.10780005936262427       0.26596185318135368        0.0000000000000000     
 -0.10835791468715446       0.27497835827270040        0.0000000000000000     
 -0.10881469230678636       0.28438369341925968        0.0000000000000000     
 -0.10917039222152000       0.29417785862103174        0.0000000000000000     
 -0.10942501443135536       0.30436085387801648        0.0000000000000000     
 -0.11673285031580849       0.26612279168187170        0.0000000000000000     
 -0.11753192335712599       0.27511727342696235        0.0000000000000000     
 -0.11819261730479239       0.28455603728388118        0.0000000000000000     
 -0.11871493215880770       0.29443908325262802        0.0000000000000000     
 -0.11909886791917192       0.30476641133320309        0.0000000000000000     
 </DataArray>
 <DataArray  type="Float64" Name="stress" NumberOfComponents="3" format="ascii">
   6152531022.5008879        104508848.02469254       -5243548.2940982329     
   5892432342.7733383        48962679.187431812        1099746.0962148563     
   5636383399.6590900        6915632.3945360184        5438541.8699868321     
   5384384193.1581573       -21632292.353990793        7772839.0272241002     
   5136434723.2705307       -36681095.058159351        8102637.5679305037     
   5812056264.9913416        82322846.178672791        170138114.63430548     
   5556844624.2786360        42420373.687582254        169060961.71798295     
   5303675069.3398237        9324853.7761592865        170137484.42665276     
   5052547600.1749039       -16963713.555619478        173367682.76030460     
   4803462216.7838793       -36445328.307749987        178751556.71895647     
   5434286943.2343817        48948475.058422089        352143824.38893068     
   5195842839.3694420        28253848.263398647        341303964.85332334     
   4957433170.4390011        7674004.5833177567        336775955.18423152     
   4719057936.4430294       -12791055.981828451        338559795.38165939     
   4480717137.3815384       -33141333.432047844        346655485.44560272     
   5019223057.2299795        4385734.6639440060        540773580.96978152     
   4809426988.0457611        6463102.9148728848        517828755.50223416     
   4597657702.9566097        1963084.8160145283        505353954.14273393     
   4383915201.9625244       -9114319.6326298714        503349176.89128178     
   4168199485.0635028       -26769110.431060791        511814423.74786717     
   4566864606.9781523       -51365375.004765272        736027384.37685061     
   4397597070.3075886       -22951862.358009100        698635333.66471601     
   4224348666.8926668       -7807905.5257592201        675871481.30215466     
   4047119396.7333941       -5933504.5080163479        667735827.28916097     
   3865909259.8297701       -17328659.304779053        674228371.62574446     
   5136434723.2705307       -36681095.058159351        8102637.5679305037     
   4996022013.4489298       -15509032.424144030        414464.79596952430     
   4854170448.7623844        866847.32672762871       -675564.28051801934     
   4710880029.2109041        12446544.194478989        4832550.3384569846     
   4566150754.7944784        19230058.179080009        16938808.652893893     
   4803462216.7838793       -36445328.307749987        178751556.71895647     
   4677296516.0245256       -17318939.293663740        172396141.07310501     
   4550230772.7726030       -1192691.9214599133        170873897.99964860     
   4422264987.0281410        11933413.808933496        174184827.49859527     
   4293399158.7911177        22059377.897468567        182328929.56993255     
   4480717137.3815384       -33141333.432047844        346655485.44560272     
   4363755671.0470858       -17573450.429113865        342261441.36030698     
   4246432974.5924635       -3209667.8267407417        340935598.72433847     
   4128749048.0176744        9950014.3750836849        342677957.53769714     
   4010703891.3227181        21905596.176345110        347488517.80039042     
   4168199485.0635028       -26769110.431060791        511814423.74786717     
   4055399478.5166206       -16272565.830465078        510010365.65756887     
   3942777054.2219543       -5184080.3891458511        509509537.89354038     
   3830332212.1795120        6496345.8929152489        510311940.45577395     
   3718064952.3892879        18768713.015706301        512417573.34427100     
   3865909259.8297701       -17328659.304779053        674228371.62574446     
   3752227938.4331241       -13416285.497727633        675642913.96490467     
   3639263011.6610837       -7115929.6086547375        676595715.50726318     
   3527014479.5136495        1572408.3624448776        677086776.25281596     
   3415482341.9908252        12648728.415564537        677116096.20157051     
   4566150754.7944784        19230058.179080009        16938808.652893893     
   4355364109.5389080        5604800.4061498642        12443747.496173095     
   4145626279.2543435       -4524407.4634118080        10876202.579489343     
   3936937263.9407825       -11157565.429626465        12236173.902855448     
   3729297063.5982461       -14294673.492442369        16523661.466271412     
   4293399158.7911177        22059377.897468567        182328929.56993255     
   4092085565.1854539        10146135.272365093        175891581.45100126     
   3891470996.2021837        562974.72190546989        173418599.48091233     
   3691555451.8413281       -6690103.7538373470        174909983.65966347     
   3492338932.1028805       -11613100.154889584        180365733.98727807     
   4010703891.3227181        21905596.176345110        347488517.80039042     
   3821825777.6778131        12593097.192299366        338700793.97921753     
   3633296898.3066998        4444712.4542443752        334914286.21568167     
   3445117253.2093892       -2539558.0378000736        336128994.50978905     
   3257286842.3858824       -8359714.2838368416        342344918.86154473     
   3718064952.3892879        18768713.015706301        512417573.34427100     
   3544584747.0159903        12945686.165991306        500871385.08080858     
   3371103985.5678849        7120805.7335877419        495363262.78379327     
   3197622668.0449800        1294071.7185059786        495893206.45321912     
   3024140794.4472613       -4534515.8792656660        502461216.08908856     
   3415482341.9908252        12648728.415564537        677116096.20157051     
   3260362473.1999846        11203902.193420172        662403354.75578868     
   3104892257.9857411        8591254.5599265099        654765529.18524790     
   2949071696.3480878        4810785.5150643587        654202619.48994815     
   2792900788.2870169       -137504.94117844105        660714625.66988885     
   3729297063.5982461       -14294673.492442369        16523661.466271412     
   3563042939.7271094       -5423261.7406165600        9275666.1039976422     
   3395471449.3727913       -943071.59939742088        7029863.0290711336     
   3226582592.5353098       -854103.06871080399        9786252.2414816376     
   3056376369.2146630       -5156356.1485981941        17544833.741229154     
   3492338932.1028805       -11613100.154889584        180365733.98727807     
   3337862991.7489133       -3330023.4647243023        172121272.55039239     
   3182545542.7786164        2148024.5043293238        168070529.62283328     
   3026386585.1920056        4821043.7523530722        168213505.20460588     
   2869386118.9890561        4689034.2792384624        172550199.29569229     
   3257286842.3858824       -8359714.2838368416        342344918.86154473     
   3112279160.4690495       -1357950.1793322563        333659158.86136729     
   2966905827.8027306        4424978.0935635567        328358643.59249347     
   2821166844.3869324        8989070.5348466635        326443373.05493408     
   2675062210.2216463        12334327.144520998        327913347.24868512     
   3024140794.4472613       -4534515.8792656660        502461216.08908856     
   2886291445.8875165        492958.11556577682        493889325.03692180     
   2748552304.4451323        5887789.1682602167        487894204.93805516     
   2610923370.1201072        11649977.278841019        484475855.79248482     
   2473404642.9124470        17779522.447279930        483634277.60021019     
   2792900788.2870169       -137504.94117844105        660714625.66988885     
   2659899848.0043211        2222701.4199715853        652811771.07705998     
   2527484972.7058220        6536457.7284559011        646677213.65951824     
   2395656162.3915291        12803763.984292746        642310953.41725552     
   2264413417.0614457        21024620.187484980        639712990.35027015     
   3056376369.2146630       -5156356.1485981941        17544833.741229154     
   2888362628.3223877       -9293280.0762519836        11949753.838893006     
   2721341584.3025851       -10121214.429009199        7168247.9297162052     
   2555313237.1552124       -7640159.2069839239        3200316.0137025965     
   2390277586.8803077       -1850114.4100867510        45958.090856023351     
   2869386118.9890561        4689034.2792384624        172550199.29569229     
   2704764778.2457957        1868735.6162443161        165642943.39766514     
   2540719873.4851642        969890.22869193554        160227815.48308486     
   2377251404.7071500        1992498.1165196896        156304815.55197388     
   2214359371.9117651        4936559.2797685862        153873943.60432127     
   2675062210.2216463        12334327.144520998        327913347.24868512     
   2515771995.3139491        11412271.452147841        319208277.65016621     
   2356641955.4990468        11024132.735770702        312673890.02538806     
   2197672090.7769299        11169910.995349407        308310184.37436157     
   2038862401.1476207        11849606.230942845        306117160.69709641     
   2473404642.9124470        17779522.447279930        483634277.60021019     
   2321384279.5268574        19337327.431499600        472645756.59638739     
   2169107830.3442321        20041513.092253804        464506471.55661666     
   2016575295.3645713        19892079.429564238        459216422.48089027     
   1863786674.5878751        18889026.443410516        456775609.36920327     
   2264413417.0614457        21024620.187484980        639712990.35027015     
   2121601630.8845205        25643903.554260850        625955380.23635888     
   1978117498.0207198        28022031.298119307        615725560.07678270     
   1833961018.4700646        28159003.419122577        609023529.87153697     
   1689132192.2325375        26054819.917220473        605849289.62064564     
   2390277586.8803077       -1850114.4100867510        45958.090856023351     
   2248295048.3353019        7126277.1302180290       -6812403.8382052416     
   2102860744.7141466        4596785.0833687782       -11420606.694781186     
   1953974676.0168750       -9438590.5505445004       -13778650.478878213     
   1801636842.2434542       -34979849.771611691       -13886535.190487361     
   2214359371.9117651        4936559.2797685862        153873943.60432127     
   2076724788.0038292        12887954.155816913        143365209.77064231     
   1936819327.9241977        13269761.792888522        134187435.04629187     
   1794642991.6728635        6081982.1909356117        126340619.43127123     
   1650195779.2498527       -8675384.6499385834        119824762.92556375     
   2038862401.1476207        11849606.230942845        306117160.69709641     
   1902949486.2677329        17988118.760058761        293335758.68065900     
   1765946584.1205838        20493340.398308516        280966115.81038630     
   1627853694.7061760        19365271.145692825        269008232.08626670     
   1488670818.0245149        14603911.002226889        257462107.50831312     
   1863786674.5878751        18889026.443410516        456775609.36920327     
   1726969143.1269920        22426770.942878723        443099242.89184970     
   1590242513.3032911        26267520.899618089        428915435.59749663     
   1453606785.1167722        30411276.313608527        414224187.48612618     
   1317061958.5674155        34858037.184830666        399025498.55776012     
   1689132192.2325375        26054819.917220473        605849289.62064564     
   1548783758.5816250        26203910.704327703        592655662.40421534     
   1409707115.4723308        30592303.296822488        578035394.40761495     
   1271902262.9046483        39219997.694693565        561988485.63083935     
   1135369200.8785806        52086993.897947133        544514936.07390916     
   1801636842.2434542       -34979849.771611691       -13886535.190487361     
   1770738102.2194188       -16922503.423301458       -8159088.1406826768     
   1748016540.9712036        28392105.511088610       -41326959.796137087     
   1733472158.4988022        100963977.03152472       -113390150.15680191     
   1727104954.8022454        200793111.13809764       -224348659.22270533     
   1650195779.2498527       -8675384.6499385834        119824762.92556375     
   1527393177.6386402       -13958146.642484188        135504937.06497857     
   1408827092.8176594       -5119186.0009233952        124771330.61353187     
   1294497524.7869411        17841497.274839580        87623943.571224272     
   1184404473.5464129        54923903.184603214        24062775.938066699     
   1488670818.0245149        14603911.002226889        257462107.50831312     
   1309625892.2957640       -3320498.0903196931        278497569.75415343     
   1130876821.3716667       -20258724.500686705        285600789.52351898     
   952423605.25223923       -36210768.228805244        278771766.81641090     
   774266243.93746531       -51176629.274772465        258010501.63281900     
   1317061958.5674155        34858037.184830666        399025498.55776012     
   1117436246.1907904        14990442.233227313        420818809.92685801     
   914165726.63323808       -17026509.988132477        441161416.93386263     
   707250399.89476132       -61192819.479255766        460053319.57875484     
   496690265.97535914       -117508486.24012232        477494517.86155099     
   1135369200.8785806        52086993.897947133        544514936.07390916     
   950824239.32372093        40974674.328138858        562468657.58308768     
   758693808.60235083        4577457.5366341472        591453212.84453845     
   558977908.71448195       -57104656.476532519        631468601.85826790     
   351676539.66010141       -144071667.71141106        682514824.62426698     
   1727104954.8022454        200793111.13809764       -224348659.22270533     
   1456700007.5697515        184877480.60832298       -96756006.015414208     
   1154029898.1050172        61411309.304413319        60069740.369752035     
   819094626.40807414       -169605402.77354193        246128579.93277034     
   451894192.47889721       -508172655.62557697        461420512.67364329     
   1184404473.5464129        54923903.184603214        24062775.938066699     
   977510910.69942546        11946406.239624202        155453476.00021815     
   732741435.87127602       -157284130.64254978        312711040.04610801     
   450096049.06196862       -452767707.46191752        495835468.07572734     
   129574750.27149934       -874504324.21848023        704826760.08904672     
   774266243.93746531       -51176629.274772465        258010501.63281900     
   621266267.77845359       -124101331.94422841        386653373.84275252     
   424779629.88934046       -341981573.71401119        537796880.84226859     
   184806330.27016541       -704817354.58401585        711441022.63140428     
  -98653631.079113722       -1212608674.5543480        907585799.21012247     
   496690265.97535914       -117508486.24012232        477494517.86155099     
   387966078.80679542       -223265733.94332018        596843687.51217806     
   230144480.15923056       -492681019.90987825        735327262.75827408     
   23225470.032646000       -925754344.13984895        892945243.59980941     
  -232790951.57294828       -1522485706.6331823        1069697630.0368195     
   351676539.66010141       -144071667.71141106        682514824.62426698     
   277610343.78449166       -285546799.75756568        786024417.00849664     
   148835986.68092972       -609382469.23022759        905302185.79405594     
  -34646531.650582433       -1115578676.1293709        1040348130.9809518     
  -272837211.21002907       -1804135420.4549901        1191162252.5691683     
   4566864606.9781523       -51365375.004765272        736027384.37685061     
   4397597070.3075886       -22951862.358009100        698635333.66471601     
   4224348666.8926668       -7807905.5257592201        675871481.30215466     
   4047119396.7333941       -5933504.5080163479        667735827.28916097     
   3865909259.8297701       -17328659.304779053        674228371.62574446     
   4142546606.0577517       -26239089.920648575        841004752.12342536     
   3999566775.4859757       -14633997.628879070        813666178.67165828     
   3854864257.2217908       -8771197.6451396942        795799585.48977375     
   3708439051.2651920       -8650689.9694423676        787404972.57777083     
   3560291157.6161838       -14272474.601780176        788482339.93565178     
   3763824775.7706418        12566046.353453398        935166874.83920538     
   3632400599.6414108        2943102.7933716774        920516320.87507129     
   3501511914.8717103       -4894869.5682795048        910181529.10112524     
   3371158721.4615316       -10947870.731505871        904162499.51737475     
   3241341019.4108891       -15215900.696295500        902459232.12381852     
   3430699116.1168327        65050033.817547441        1018513752.5241970     
   3296098542.7738886        29779438.908730388        1019185760.2749516     
   3164291639.8424196        3821078.7048183680        1019017312.1362110     
   3035278407.3224130       -12825046.794203281        1018008408.1079791     
   2909058845.2138772       -20158937.588324785        1016159048.1902519     
   3143169627.0963221        131212872.47162938        1091045385.1783917     
   2990660604.8834190        65875010.717208385        1109674496.8713038     
   2843203432.1339192        17376647.174148321        1122306934.5950336     
   2700798108.8478317       -14282218.157546639        1128942698.3495808     
   2563444635.0251570       -29101585.277866960        1129581788.1349444     
   3865909259.8297701       -17328659.304779053        674228371.62574446     
   3752227938.4331241       -13416285.497727633        675642913.96490467     
   3639263011.6610837       -7115929.6086547375        676595715.50726318     
   3527014479.5136495        1572408.3624448776        677086776.25281596     
   3415482341.9908252        12648728.415564537        677116096.20157051     
   3560291157.6161838       -14272474.601780176        788482339.93565178     
   3448055690.4949098       -11056787.294077873        787006979.34158576     
   3336266258.7463017       -6354315.4108197689        787266328.94830179     
   3224922862.3703632       -165058.95199465752        789260388.75580835     
   3114025501.3670897        7510982.0823757648        792989158.76409602     
   3241341019.4108891       -15215900.696295500        902459232.12381852     
   3136826980.8438106       -10814227.604295969        897778549.46926141     
   3032488618.3974619       -5826967.4431986809        897029028.01307976     
   2928325932.0718365       -254120.21301615238        900210667.75527072     
   2824338921.8669443        5904314.0862642527        907323468.69583654     
   2909058845.2138772       -20158937.588324785        1016159048.1902519     
   2818541809.4798236       -12688606.428379416        1007957624.3479395     
   2727930090.6145573       -5533885.7058022022        1005883812.7015916     
   2637223688.6180801        1305224.5794017315        1009937613.2512094     
   2546422603.4903898        7828724.4272265434        1020119025.9967844     
   2563444635.0251570       -29101585.277866960        1129581788.1349444     
   2493200176.4029503       -16679923.766328573        1117544203.9776154     
   2422590675.3975973       -5475070.1986155510        1113830683.0138383     
   2351616132.0090871        4512975.4252418280        1118441225.2436163     
   2280276546.2374296        13284213.105273724        1131375830.6669466     
   3415482341.9908252        12648728.415564537        677116096.20157051     
   3260362473.1999846        11203902.193420172        662403354.75578868     
   3104892257.9857411        8591254.5599265099        654765529.18524790     
   2949071696.3480878        4810785.5150643587        654202619.48994815     
   2792900788.2870169       -137504.94117844105        660714625.66988885     
   3114025501.3670897        7510982.0823757648        792989158.76409602     
   2975962434.8423591        7496732.5056686401        781428479.21855545     
   2837756247.9199147        7005414.9365909100        775583367.85352397     
   2699406940.5997639        6037029.3751584291        775453824.66899800     
   2560914512.8819070        4591575.8213622570        781039849.66498327     
   2824338921.8669443        5904314.0862642527        907323468.69583654     
   2699448807.0519409        6155485.9880634546        899156614.74718511     
   2574622797.8649292        6620343.3165136576        895345981.28431010     
   2449860894.3059096        7298886.0715998411        895891568.30721664     
   2325163096.3748856        8191114.2533344030        900793375.81589699     
   2546422603.4903898        7828724.4272265434        1020119025.9967844     
   2430821589.8287411        7180162.6406300068        1015587761.3416731     
   2315491907.8207836        7436039.6996785402        1014053369.4776146     
   2200433557.4665256        8596355.6043888330        1015515850.4045998     
   2085646538.7659574        10661110.354732275        1019975204.1226349     
   2280276546.2374296        13284213.105273724        1131375830.6669466     
   2170080783.1727586        10570762.463363409        1130721919.0020316     
   2060363577.7874856        9452504.0861127377        1131705532.4334297     
   1951124930.0816069        9929437.9735064507        1134326670.9611454     
   1842364840.0551224        12001564.125558019        1138585334.5851779     
   2792900788.2870169       -137504.94117844105        660714625.66988885     
   2659899848.0043211        2222701.4199715853        652811771.07705998     
   2527484972.7058220        6536457.7284559011        646677213.65951824     
   2395656162.3915291        12803763.984292746        642310953.41725552     
   2264413417.0614457        21024620.187484980        639712990.35027015     
   2560914512.8819070        4591575.8213622570        781039849.66498327     
   2433700921.6506443        6964285.7428225279        772867837.61704981     
   2306916942.5946302        10769036.248454571        767376449.91947985     
   2180562575.7138715        16005827.338270187        764565686.57228041     
   2054637821.0083668        22674659.012247920        764435547.57544315     
   2325163096.3748856        8191114.2533344030        900793375.81589699     
   2206343503.2667284        11358322.456605196        892169678.03574300     
   2087797069.5248749        15436061.880884647        887138931.78104341     
   1969523795.1493175        20424332.526158690        885701137.05179095     
   1851523680.1400642        26323134.392443657        887856293.84799325     
   2085646538.7659574        10661110.354732275        1019975204.1226349     
   1977827592.8525839        15404811.561327457        1010717292.3331478     
   1870125353.4965527        20537534.625736117        1005964659.2442045     
   1762539820.6978784        26059279.547991753        1005717304.8557924     
   1655070994.4565487        31970046.328075528        1009975229.1679164     
   1842364840.0551224        12001564.125558019        1138585334.5851779     
   1748153190.4081991        19103753.056964397        1128510680.5092566     
   1653901794.5096743        26073454.483037412        1123853632.3089559     
   1559610652.3595419        32910668.403750420        1124614189.9842756     
   1465279763.9578092        39615394.819133699        1130792353.5352209     
   2264413417.0614457        21024620.187484980        639712990.35027015     
   2121601630.8845205        25643903.554260850        625955380.23635888     
   1978117498.0207198        28022031.298119307        615725560.07678270     
   1833961018.4700646        28159003.419122577        609023529.87153697     
   1689132192.2325375        26054819.917220473        605849289.62064564     
   2054637821.0083668        22674659.012247920        764435547.57544315     
   1920821231.5448442        26963285.237246752        752331823.96038163     
   1786566685.9357932        29792057.643818021        743695997.97247088     
   1651874184.1812184        31160976.231976867        738528069.61171019     
   1516743726.2811189        31070041.001720786        736828038.87810421     
   1851523680.1400642        26323134.392443657        887856293.84799325     
   1726531166.4551308        30229767.195223451        877679912.36334515     
   1601335087.1660097        33457847.984060526        870911536.17866194     
   1475935442.2726989        36007376.758929372        867551165.29394364     
   1350332231.7752085        37878353.519856751        867598799.70919394     
   1655070994.4565487        31970046.328075528        1009975229.1679164     
   1538731435.6153803        35443349.428191364        1001999645.4452529     
   1422422701.7113659        39019402.318831325        997372174.69536114     
   1306144792.7445087        42698204.999993861        996092816.91824889     
   1189897708.7148066        46479757.471666992        998161572.11391389     
   1465279763.9578092        39615394.819133699        1130792353.5352209     
   1357422039.0255899        42604031.936140597        1125291023.2060905     
   1249829529.5718749        46476720.648171186        1123077913.5225606     
   1142502235.5966411        51233460.955134273        1124153024.4846179     
   1035440157.0999070        56874252.857107937        1128516356.0922668     
   1689132192.2325375        26054819.917220473        605849289.62064564     
   1548783758.5816250        26203910.704327703        592655662.40421534     
   1409707115.4723308        30592303.296822488        578035394.40761495     
   1271902262.9046483        39219997.694693565        561988485.63083935     
   1135369200.8785806        52086993.897947133        544514936.07390916     
   1516743726.2811189        31070041.001720786        736828038.87810421     
   1374417278.0482574        28662604.380893767        727623898.27797627     
   1232424805.1099076        27368418.741776884        718914816.64296329     
   1090766307.4660699        27187484.084362566        710700793.97306240     
   949441785.11673594        28119800.408630967        702981830.26827455     
   1350332231.7752085        37878353.519856751        867598799.70919394     
   1211518339.6612065        34561560.701366484        861290027.93707895     
   1072100607.5946064        29231968.040886819        857398014.87536240     
   932079035.57540238        21889575.538397908        855922760.52403414     
   791453623.60360384        12534383.193918556        856864264.88310087     
   1189897708.7148066        46479757.471666992        998161572.11391389     
   1060086943.4204603        43900779.665728211        993654051.38152790     
   928734522.92641425        36182951.194130033        993484989.10481000     
   795840447.23265004        23326272.056804657        997654385.28376877     
   661404716.33919454        5330742.2538346946        1006162239.9184004     
   1035440157.0999070        56874252.857107937        1128516356.0922668     
   920123089.32602298        56680261.273975879        1124715968.6113057     
   802326551.10532641        48221368.201479524        1127175739.3313046     
   682050542.43781865        31497573.639609665        1135895668.2522538     
   559295063.32349575        6508877.5883506536        1150875755.3741691     
   1135369200.8785806        52086993.897947133        544514936.07390916     
   950824239.32372093        40974674.328138858        562468657.58308768     
   758693808.60235083        4577457.5366341472        591453212.84453845     
   558977908.71448195       -57104656.476532519        631468601.85826790     
   351676539.66010141       -144071667.71141106        682514824.62426698     
   949441785.11673594        28119800.408630967        702981830.26827455     
   790654581.03212273        11185894.598293006        720785633.27986002     
   623207631.79760623       -34613828.378402591        748715705.11025155     
   447100937.41319227       -109279368.52141011        786772045.75945318     
   262334497.87886572       -212810725.83080631        834954655.22745574     
   791453623.60360384        12534383.193918556        856864264.88310087     
   655839705.75075746       -10996450.228499591        873264827.41647136     
   510491766.76461101       -66974020.761916250        898887093.83517349     
   355409806.64516377       -155398328.40634966        933731064.13921452     
   190593825.39241615       -276269373.16176915        977796738.32860065     
   661404716.33919454        5330742.2538346946        1006162239.9184004     
   546379613.47962773       -25572360.152223170        1019906239.9929168     
   420546213.50337350       -92503119.613905102        1041967379.0192961     
   283904516.41041303       -195461536.13128570        1072345656.9975592     
   136454522.20075512       -334447609.70431376        1111041073.9276795     
   559295063.32349575        6508877.5883506536        1150875755.3741691     
   462274304.21873456       -32541835.172862470        1160709871.0092006     
   353370972.01388705       -111201124.93436863        1177956560.6626334     
   232585066.70893022       -229468991.69623637        1202615824.3344665     
   99916588.303894520       -387345435.45837826        1234687662.0247061     
   351676539.66010141       -144071667.71141106        682514824.62426698     
   277610343.78449166       -285546799.75756568        786024417.00849664     
   148835986.68092972       -609382469.23022759        905302185.79405594     
  -34646531.650582433       -1115578676.1293709        1040348130.9809518     
  -272837211.21002907       -1804135420.4549901        1191162252.5691683     
   262334497.87886572       -212810725.83080631        834954655.22745574     
   223540908.77195325       -352711747.33148134        884548379.91245234     
   140553315.81306237       -639926115.00542891        945143446.35384488     
   13371719.002196610       -1074453828.8526387        1016739854.5516483     
  -158003881.66065156       -1656294888.8730977        1099337604.5058439     
   190593825.39241615       -276269373.16176915        977796738.32860065     
   173453315.49727392       -418682142.38405252        985741112.25297534     
   122632959.12612122       -673361066.52635992        999919993.28881860     
   38132756.278956413       -1040306145.5887055        1020333381.4361565     
  -80047293.044210494       -1519517379.5710731        1046981276.6949480     
   136454522.20075512       -334447609.70431376        1111041073.9276795     
   127347563.96044585       -483457984.91526175        1089602614.0300725     
   95074916.620101333       -709687323.79300392        1069631826.5990131     
   39636580.179706872       -1013135626.3375787        1051128711.6344959     
  -38967445.360727072       -1393802892.5489421        1034093269.1365511     
   99916588.303894520       -387345435.45837826        1234687662.0247061     
   85223654.161479264       -547039274.92510581        1196132885.2437425     
   57879188.294993013       -748904886.80539799        1154278946.2844012     
   17883190.704438210       -992942271.09926319        1109125845.1466784     
  -34764338.610184550       -1279151427.8066936        1060673581.8305854     
   3143169627.0963221        131212872.47162938        1091045385.1783917     
   2990660604.8834190        65875010.717208385        1109674496.8713038     
   2843203432.1339192        17376647.174148321        1122306934.5950336     
   2700798108.8478317       -14282218.157546639        1128942698.3495808     
   2563444635.0251570       -29101585.277866960        1129581788.1349444     
   2792842185.3001304        36802259.560264826        1226086099.8497648     
   2648729437.0507603        20940282.435460567        1224022932.3077085     
   2504707408.3377223        5380703.7651029825        1222997599.1768725     
   2360776099.1610222       -9876476.4507999420        1223010100.4572563     
   2216935509.5206575       -24831258.212247491        1224060436.1488624     
   2364773699.6705465       -80930666.501115680        1382081192.5326555     
   2249155820.7572899       -41287180.384530663        1353537760.8407123     
   2128667531.4532928       -17878395.570411444        1333066671.9403913     
   2003308831.7585597       -10704312.058748841        1320667925.8316927     
   1873079721.6730845       -19764929.849553704        1316341522.5146205     
   1858964170.2075691       -221985905.71251428        1559030663.2270687     
   1791939756.0030057       -120807377.74276447        1498218982.4703195     
   1715083801.4806323       -52400650.832393646        1452514152.8855894     
   1628396306.6404428       -16765724.981399298        1421916174.4728918     
   1531877271.4824405       -13902600.189779520        1406425047.2322190     
   1275413596.9111924       -386363458.07393432        1756934511.9329979     
   1277081242.7879097       -217620309.63924336        1658066597.1965191     
   1263956218.4197342       -98186062.020848095        1581340042.0124679     
   1236038523.8066754       -28060715.218736649        1526754846.3808498     
   1193328158.9487271       -7244269.2329261303        1494311010.3016589     
   2563444635.0251570       -29101585.277866960        1129581788.1349444     
   2493200176.4029503       -16679923.766328573        1117544203.9776154     
   2422590675.3975973       -5475070.1986155510        1113830683.0138383     
   2351616132.0090871        4512975.4252418280        1118441225.2436163     
   2280276546.2374296        13284213.105273724        1131375830.6669466     
   2216935509.5206575       -24831258.212247491        1224060436.1488624     
   2166460564.5190525       -12003289.690914869        1211831087.5539067     
   2115745267.1620960        23504.312580108643        1206391230.7789810     
   2064789617.4497833        11249123.798221827        1207740865.8240936     
   2013593615.3821192        21673568.766022205        1215879992.6892371     
   1873079721.6730845       -19764929.849553704        1316341522.5146205     
   1837989800.6534584       -7846001.2100131512        1304065881.1811337     
   1802784217.3062770        3687386.3376768827        1297045160.2941601     
   1767462971.6315401        14835232.793519974        1295279359.8537049     
   1732026063.6292486        25597538.157506108        1298768479.8597646     
   1531877271.4824405       -13902600.189779520        1406425047.2322190     
   1507787884.8061686       -4208058.3236219883        1394248584.8593001     
   1483707525.8301396        5516575.8766834736        1385792471.5593767     
   1459636194.5543537        15271302.411130130        1381056707.3324518     
   1435573890.9788096        25056121.279721022        1380041292.1785264     
   1193328158.9487271       -7244269.2329261303        1494311010.3016589     
   1175854816.9771867       -1089461.0317334533        1482379198.5884037     
   1158515192.7336826        5511072.9295874238        1472633164.5746293     
   1141309286.2182276        12557332.651066720        1465072908.2603328     
   1124237097.4308078        20049318.132663786        1459698429.6455173     
   2280276546.2374296        13284213.105273724        1131375830.6669466     
   2170080783.1727586        10570762.463363409        1130721919.0020316     
   2060363577.7874856        9452504.0861127377        1131705532.4334297     
   1951124930.0816069        9929437.9735064507        1134326670.9611454     
   1842364840.0551224        12001564.125558019        1138585334.5851779     
   2013593615.3821192        21673568.766022205        1215879992.6892371     
   1909071630.0593033        16414775.304381847        1211395201.6988227     
   1804997397.0130043        12648489.431125045        1210224716.8334589     
   1701370916.2432213        10374711.146260262        1212368538.0931439     
   1598192187.7499616        9593440.4498009086        1217826665.4778733     
   1732026063.6292486        25597538.157506108        1298768479.8597646     
   1637968658.9875195        19230642.757895768        1290416869.9071631     
   1544328201.2194309        14253570.270415425        1287056347.1083376     
   1451104690.3249831        10666320.695067763        1288686911.4632955     
   1358298126.3041701        8468894.0318480730        1295308562.9720371     
   1435573890.9788096        25056121.279721022        1380041292.1785264     
   1356771869.9574056        19018364.823916972        1367786923.6270411     
   1278355990.4067609        14267746.603973806        1362200423.2580671     
   1200326252.3268816        10804266.619918227        1363281791.0716093     
   1122682655.7177591        8627924.8717159629        1371031027.0676618     
   1124237097.4308078        20049318.132663786        1459698429.6455173     
   1065481262.9689610        15777941.502432287        1443505362.8584588     
   1007080764.5749969        12691018.431807458        1435656945.2826464     
   949035602.24891591        10788548.920795321        1436153176.9180806     
   891345775.99071527        10070532.969384015        1444994057.7647586     
   1842364840.0551224        12001564.125558019        1138585334.5851779     
   1748153190.4081991        19103753.056964397        1128510680.5092566     
   1653901794.5096743        26073454.483037412        1123853632.3089559     
   1559610652.3595419        32910668.403750420        1124614189.9842756     
   1465279763.9578092        39615394.819133699        1130792353.5352209     
   1598192187.7499616        9593440.4498009086        1217826665.4778733     
   1517440382.6310568        16315532.996419013        1209066445.7527184     
   1436752002.9702141        23249043.736573637        1205330061.2622969     
   1356127048.7674305        30393972.670261979        1206617512.0065973     
   1275565520.0227065        37750319.797480345        1212928797.9856339     
   1358298126.3041701        8468894.0318480730        1295308562.9720371     
   1289881106.7393088        14473372.501485288        1287983144.5922573     
   1221630684.3421710        21033174.863538325        1285287790.8063145     
   1153546859.1127532        28148301.117993712        1287222501.6142080     
   1085629631.0510676        35818751.264882684        1293787277.0159435     
   1122682655.7177591        8627924.8717159629        1371031027.0676618     
   1065475362.7329571        13577271.572170317        1365260777.0278656     
   1008537838.6255473        19425847.863933742        1363726820.9410157     
   951870083.39552355        26173653.746981502        1366429158.8071144     
   895472097.04288590        33820689.221320599        1373367790.6261473     
   891345775.99071527        10070532.969384015        1444994057.7647586     
   844223150.61199796        13627230.208473235        1440899343.0595562     
   797473465.82033539        18427062.737740278        1440647151.6664050     
   751096721.61572051        24470030.557167470        1444237483.5853057     
   705092917.99816334        31756133.666789591        1451670338.8162587     
   1465279763.9578092        39615394.819133699        1130792353.5352209     
   1357422039.0255899        42604031.936140597        1125291023.2060905     
   1249829529.5718749        46476720.648171186        1123077913.5225606     
   1142502235.5966411        51233460.955134273        1124153024.4846179     
   1035440157.0999070        56874252.857107937        1128516356.0922668     
   1275565520.0227065        37750319.797480345        1212928797.9856339     
   1177240454.7982471        39900934.634482026        1207989918.6493196     
   1078933279.7115588        42111183.264055312        1207289023.5841537     
   980643994.76264870        44381065.686225593        1210826112.7901440     
   882372599.95151162        46710581.900959224        1218601186.2672720     
   1085629631.0510676        35818751.264882684        1293787277.0159435     
   999550835.89309001        37945426.929459095        1289122302.4416051     
   913242605.53217077        39307318.584230989        1289645075.7639701     
   826704939.96830487        39904426.229181439        1295355596.9830399     
   739937839.20149636        39736749.864321232        1306253866.0988145     
   895472097.04288590        33820689.221320599        1373367790.6261473     
   824353182.31013370        36737508.821123064        1368688174.5829449     
   752757507.03370643        38065126.608677208        1370146070.0620043     
   680685071.21362269        37803542.584044099        1377741477.0633235     
   608135874.84988034        35952756.747211337        1391474395.5869014     
   705092917.99816334        31756133.666789591        1451670338.8162587     
   651647494.04935920        36277180.309411645        1446687535.0733466     
   597477984.21616638        38384607.337399036        1448792006.4782534     
   542584388.49860430        38078414.750825524        1457983753.0309865     
   486966706.89664769        35358602.549603105        1474262774.7315283     
   1035440157.0999070        56874252.857107937        1128516356.0922668     
   920123089.32602298        56680261.273975879        1124715968.6113057     
   802326551.10532641        48221368.201479524        1127175739.3313046     
   682050542.43781865        31497573.639609665        1135895668.2522538     
   559295063.32349575        6508877.5883506536        1150875755.3741691     
   882372599.95151162        46710581.900959224        1218601186.2672720     
   782500579.09709740        45065056.461868346        1215569038.4333074     
   680306368.86920655        35678899.777846813        1218492507.0724387     
   575789969.26781416        18552111.848827273        1227371592.1846602     
   468951380.29294169       -6315307.3251372874        1242206293.7699814     
   739937839.20149636        39736749.864321232        1306253866.0988145     
   654640746.04410231        36378654.802553266        1304173452.4973955     
   567178744.58654177        25804198.740243167        1307744113.6411953     
   477551834.82881165        8013381.6773585677        1316965849.5302234     
   385760016.77091348       -16993796.386080742        1331838660.1644902     
   608135874.84988034        35952756.747211337        1391474395.5869014     
   536543590.16703099        30621056.296015352        1390529210.8035555     
   462943678.25734556        18597265.088690519        1394930559.0375776     
   387336139.12080181       -118616.87481889129        1404678440.2889659     
   309720972.75742197       -25526589.594459876        1419772854.5577295     
   486966706.89664769        35358602.549603105        1474262774.7315283     
   428209111.46588331        27792260.942241192        1474636313.3518045     
   367601169.88160133        14058098.823156774        1480051843.2615821     
   305142882.14379084       -5843883.8076908737        1490509364.4608727     
   240834248.25246158       -31913686.950272992        1506008876.9496646     
   559295063.32349575        6508877.5883506536        1150875755.3741691     
   462274304.21873456       -32541835.172862470        1160709871.0092006     
   353370972.01388705       -111201124.93436863        1177956560.6626334     
   232585066.70893022       -229468991.69623637        1202615824.3344665     
   99916588.303894520       -387345435.45837826        1234687662.0247061     
   468951380.29294169       -6315307.3251372874        1242206293.7699814     
   390923571.23248726       -41374482.386324495        1241154448.5815492     
   302799276.91153985       -110088608.31581315        1246378866.8626301     
   204578497.33010942       -212457685.11358821        1257879548.6132421     
   96261232.488191143       -348481712.77965075        1275656493.8333547     
   385760016.77091348       -16993796.386080742        1331838660.1644902     
   323478556.18652064       -49035414.217725590        1321984623.2988071     
   252886698.18125272       -108778356.78562634        1317270539.3537588     
   173984442.75509781       -196222624.08981064        1317696408.3293450     
   86771789.908071384       -311368216.13023484        1323262230.2255657     
   309720972.75742197       -25526589.594459876        1419772854.5577295     
   259939259.08085001       -55524630.667042896        1403200395.1609929     
   203633235.82301727       -107270370.34383398        1390631578.1360245     
   140802902.98390669       -180763808.62488028        1382066403.4828002     
   71448260.563531518       -276004945.51014489        1377504871.2013261     
   240834248.25246158       -31913686.950272992        1506008876.9496646     
   200305679.91548023       -60842131.734243318        1484801764.1681020     
   155038889.83683616       -105564648.99042535        1466461983.2094109     
   105033878.01653126       -166081238.71881020        1450989534.0735929     
   50290644.454571366       -242391900.91938111        1438384416.7606416     
   99916588.303894520       -387345435.45837826        1234687662.0247061     
   85223654.161479264       -547039274.92510581        1196132885.2437425     
   57879188.294993013       -748904886.80539799        1154278946.2844012     
   17883190.704438210       -992942271.09926319        1109125845.1466784     
  -34764338.610184550       -1279151427.8066936        1060673581.8305854     
   96261232.488191143       -348481712.77965075        1275656493.8333547     
   79550386.823867470       -489648070.33452636        1221406808.2706649     
   51425528.194465518       -668861137.77299082        1164628472.5052140     
   11886656.600002050       -886120915.09498811        1105321486.5370064     
  -39066227.959530413       -1141427402.3005595        1043485850.3660643     
   86771789.908071384       -311368216.13023484        1323262230.2255657     
   70244495.509326458       -433346652.93705565        1254761407.7666414     
   43540706.904524952       -589246737.09740257        1184502447.0805914     
   6660424.0936543941       -779068468.61131024        1112485348.1674049     
  -40396352.923284590       -1002811847.4787750        1038710111.0271114     
   71448260.563531518       -276004945.51014489        1377504871.2013261     
   57305980.217875823       -378135022.73264289        1296196683.7316797     
   34224724.425161153       -510061684.77867031        1213900870.0105286     
   2204493.1853903830       -671784931.64821541        1130617430.0378907     
  -38754713.501441836       -863304763.34130442        1046346363.8137395     
   50290644.454571366       -242391900.91938111        1438384416.7606416     
   40734840.949513450       -324013179.72129023        1345712636.1657736     
   23477580.756398350       -431305980.81671786        1252823741.2950325     
  -1481136.1247687638       -564270304.20565915        1159717732.1484170     
  -34141309.693996936       -722906149.88814008        1066394608.7259359     
   1275413596.9111924       -386363458.07393432        1756934511.9329979     
   1277081242.7879097       -217620309.63924336        1658066597.1965191     
   1263956218.4197342       -98186062.020848095        1581340042.0124679     
   1236038523.8066754       -28060715.218736649        1526754846.3808498     
   1193328158.9487271       -7244269.2329261303        1494311010.3016589     
   851399795.61180663       -88070504.188031554        1592747084.4577737     
   866278293.14090192       -40114696.075874746        1522892961.6712356     
   877053252.13888001       -5837349.7341132164        1468933674.5239162     
   883724672.60574257        14761534.837264657        1430869223.0158138     
   886292554.54148674        21681957.638246626        1408699607.1469281     
   550699829.62447977        247216600.29149401        1374343331.7578743     
   560941967.62534869        169030904.72693679        1345973654.5873520     
   577769698.80886698        112797186.43788266        1327252289.1428261     
   601183023.17504025        78515445.424341902        1318179235.4243066     
   631181940.72386420        66185681.686304778        1318754493.4317887     
   373313698.94921041        619497855.36463428        1101723253.8333178     
   361072266.24123943        409816492.76917577        1127308675.9448655     
   366105558.42969143        257717546.49512878        1156295885.8692014     
   388413575.51456350        163201016.54248175        1188684883.6063278     
   427996317.49586052        126266902.91125020        1224475669.1562443     
   319241403.58600056        1028773261.0313923        774886850.68409395     
   266669188.98858094        682242068.05085325        866898025.74377859     
   242060831.00135320        428923730.43762195        956064464.70303917     
   245416329.62431848        268818248.19170004        1042386167.5618771     
   276735684.85747349        201925621.31307733        1125863134.3202903     
   1193328158.9487271       -7244269.2329261303        1494311010.3016589     
   1175854816.9771867       -1089461.0317334533        1482379198.5884037     
   1158515192.7336826        5511072.9295874238        1472633164.5746293     
   1141309286.2182276        12557332.651066720        1465072908.2603328     
   1124237097.4308078        20049318.132663786        1459698429.6455173     
   886292554.54148674        21681957.638246626        1408699607.1469281     
   869420441.85344267        17661140.856706679        1414667757.0979891     
   853283137.23801804        16089684.317233592        1421260834.5636630     
   837880640.69521344        16967588.019826472        1428478839.5439434     
   823212952.22503257        20294851.964496702        1436321772.0388327     
   631181940.72386420        66185681.686304778        1318754493.4317887     
   610451485.36254442        50651368.334997952        1343323877.1158445     
   591056928.41842675        39570049.707698524        1366957338.1296391     
   572998269.89150631        32941725.804388314        1389654876.4731762     
   556275509.78178549        30766396.625079781        1411416492.1464491     
   427996317.49586052        126266902.91125020        1224475669.1562443     
   398947947.50449431        97881221.403148264        1268347558.6419671     
   371836566.27490717        75952169.100974917        1309722675.2725594     
   346662173.80710089        60479746.004737347        1348601019.0480232     
   323424770.10107273        51463952.114428915        1384982589.9683564     
   276735684.85747349        201925621.31307733        1125863134.3202903     
   234909828.27928844        159350700.06114352        1189738801.6763589     
   195622050.80746746        125236042.49708942        1249556845.9924266     
   158872352.44199893        99581648.620876774        1305317267.2684937     
   124660733.18289007        82387518.432530433        1357020065.5045602     
   1124237097.4308078        20049318.132663786        1459698429.6455173     
   1065481262.9689610        15777941.502432287        1443505362.8584588     
   1007080764.5749969        12691018.431807458        1435656945.2826464     
   949035602.24891591        10788548.920795321        1436153176.9180806     
   891345775.99071527        10070532.969384015        1444994057.7647586     
   823212952.22503257        20294851.964496702        1436321772.0388327     
   783930493.81480253        17807815.898467720        1431380814.4355569     
   744948478.52183557        16322256.889979154        1432662956.7613070     
   706266906.34612775        15838174.939021796        1440168199.0160866     
   667885777.28768277        16355570.045606107        1453896541.1998944     
   556275509.78178549        30766396.625079781        1411416492.1464491     
   530404858.04541641        28245230.309938163        1417663601.9512234     
   504779756.47568297        26542564.550250202        1428012262.4028096     
   479400205.07259035        25658399.346030265        1442462473.5012112     
   454266203.83613718        25592734.697275877        1461014235.2464225     
   323424770.10107273        51463952.114428915        1384982589.9683564     
   304904355.66079819        47090184.736829050        1402353725.4054589     
   286574598.43654054        43351941.412622616        1421704862.2071555     
   268435498.42830336        40249222.141817175        1443036000.3734550     
   250487055.63607869        37782026.924384311        1466347139.9043441     
   124660733.18289007        82387518.432530433        1357020065.5045602     
   107428986.66095534        74342679.179167494        1385451184.7982633     
   90333004.404410183        66750387.477104485        1413740756.1743495     
   73372786.413262293        59610643.326364338        1441888779.6328111     
   56548332.687512897        52923446.726953879        1469895255.1736562     
   891345775.99071527        10070532.969384015        1444994057.7647586     
   844223150.61199796        13627230.208473235        1440899343.0595562     
   797473465.82033539        18427062.737740278        1440647151.6664050     
   751096721.61572051        24470030.557167470        1444237483.5853057     
   705092917.99816334        31756133.666789591        1451670338.8162587     
   667885777.28768277        16355570.045606107        1453896541.1998944     
   630533952.64283812        17663187.622853249        1453648417.5109911     
   593199112.01035500        19027418.574635744        1457592789.4580610     
   555881255.39022803        20448262.900935501        1465729657.0410945     
   518580382.78246200        21925720.601775020        1478059020.2601004     
   454266203.83613718        25592734.697275877        1461014235.2464225     
   427685100.85064244        24951248.890322506        1464197419.9033463     
   400765025.30281848        23179854.542270586        1471923072.5201578     
   373505977.19265532        20278551.653089359        1484191193.0968499     
   345907956.52015615        16247340.222789049        1501001781.6334319     
   250487055.63607869        37782026.924384311        1466347139.9043441     
   235676595.23541337        35491414.010888398        1472546350.2366168     
   220171205.69771838        30884370.640626580        1483638000.8526936     
   203970887.02299881        23960896.813616484        1499622091.7525740     
   187075639.21124265        14720992.529815823        1520498622.9362497     
   56548332.687512897        52923446.726953879        1469895255.1736562     
   54508435.797143608        49283682.984528758        1478695208.5108008     
   51417653.195064396        42140966.869733058        1492737574.4556653     
   47275984.881254353        31495298.382504724        1512022353.0082507     
   42083430.855720200        17346677.522859912        1536549544.1685493     
   705092917.99816334        31756133.666789591        1451670338.8162587     
   651647494.04935920        36277180.309411645        1446687535.0733466     
   597477984.21616638        38384607.337399036        1448792006.4782534     
   542584388.49860430        38078414.750825524        1457983753.0309865     
   486966706.89664769        35358602.549603105        1474262774.7315283     
   518580382.78246200        21925720.601775020        1478059020.2601004     
   480924549.98055512        23124872.762371302        1476790820.2720780     
   443138446.91441870        23889790.708870292        1481347775.5143108     
   405222073.58404297        24220474.441237062        1491729885.9868116     
   367175429.98944759        24116923.959536999        1507937151.6895773     
   345907956.52015615        16247340.222789049        1501001781.6334319     
   320435657.95784038        13042780.829162747        1504140970.2904723     
   295426904.75143957        11383372.621919677        1511843194.2602158     
   270881696.90097320        11269115.601126254        1524108453.5426686     
   246800034.40642640        12700009.766731188        1540936748.1378260     
   187075639.21124265        14720992.529815823        1520498622.9362497     
   170180817.98120806        6030904.5097564608        1528737985.1285279     
   154343357.72725454        865353.07663350552        1540278262.7159672     
   139563258.44937626       -775661.76957111061        1555119455.6985490     
   125840520.14758602        1107859.9711829796        1573261564.0762784     
   42083430.855720200        17346677.522859912        1536549544.1685493     
   30160030.050676737        2089243.8042204231        1550581864.7862592     
   19887805.841852490       -7664267.9270244371        1566652980.8815627     
   11266758.229275078       -11913857.670778124        1584762892.4544566     
   4296887.2129216902       -10659525.427119087        1604911599.5049450     
   486966706.89664769        35358602.549603105        1474262774.7315283     
   428209111.46588331        27792260.942241192        1474636313.3518045     
   367601169.88160133        14058098.823156774        1480051843.2615821     
   305142882.14379084       -5843883.8076908737        1490509364.4608727     
   240834248.25246158       -31913686.950272992        1506008876.9496646     
   367175429.98944759        24116923.959536999        1507937151.6895773     
   322613162.04174447        19547206.837184995        1506208903.2674265     
   276525243.91778451        9891989.1273077130        1509666617.5077417     
   228911675.61757973       -4848729.1700505018        1518310294.4105232     
   179772457.14113691       -24674948.054870062        1532139933.9757667     
   246800034.40642640        12700009.766731188        1540936748.1378260     
   216844440.72166169        11250321.163325652        1537485524.6467440     
   185687892.83791995        5797451.8966659456        1539364235.1910813     
   153330390.75520980       -3658598.0332240462        1546572879.7708383     
   119771934.47352530       -17117828.626359887        1559111458.3860319     
   125840520.14758602        1107859.9711829796        1573261564.0762784     
   110902947.50564346        2901603.9206923172        1568466177.4897516     
   95089116.642000481        1774487.1312002465        1569144696.3116028     
   78399027.556665599       -2273490.3972634114        1575297120.5418365     
   60832680.249631584       -9242328.6647243425        1586923450.1804571     
   4296887.2129216902       -10659525.427119087        1604911599.5049450     
   4788682.3936887626       -5498944.8907186249        1599150861.7964542     
   4728915.3300234657       -2176905.1690927264        1599008000.8693073     
   4117586.0219463860       -693406.26217276626        1604483016.7235053     
   2954694.4694484682       -1048448.1699889391        1615575909.3590417     
   240834248.25246158       -31913686.950272992        1506008876.9496646     
   200305679.91548023       -60842131.734243318        1484801764.1681020     
   155038889.83683616       -105564648.99042535        1466461983.2094109     
   105033878.01653126       -166081238.71881020        1450989534.0735929     
   50290644.454571366       -242391900.91938111        1438384416.7606416     
   179772457.14113691       -24674948.054870062        1532139933.9757667     
   148863847.43273458       -46686332.169751808        1506520815.0035083     
   114434065.13544863       -80434958.247579008        1483838087.6144207     
   76483110.249258161       -125920826.28842333        1464091751.8084981     
   35010982.774191722       -183143936.29218328        1447281807.5857565     
   119771934.47352530       -17117828.626359887        1559111458.3860319     
   98680596.994565219       -32152957.991897419        1530500223.9013033     
   75285136.079489782       -54868498.811150700        1504894440.7600465     
   49585551.728297114       -85264451.084129483        1482294108.9622650     
   21581843.940984622       -123340814.81084037        1462699228.5079517     
   60832680.249631584       -9242328.6647243425        1586923450.1804571     
   49755928.600976944       -17242009.200660359        1556739990.8614888     
   37592102.668986082       -28865270.681049213        1529631042.6463010     
   24341202.453637220       -44112113.105965301        1505596605.5348897     
   10003227.954950128       -62982536.475342318        1484636679.5272522     
   2954694.4694484682       -1048448.1699889391        1615575909.3590417     
   2089842.2519677328       -1953485.7960495921        1585240115.8840704     
   1354964.9039167711       -2425273.8573457222        1558047893.2731841     
   750062.42529334093       -2463812.3538834131        1533999241.5263743     
   275134.81609025935       -2069101.2856852217        1513094160.6436508     
   50290644.454571366       -242391900.91938111        1438384416.7606416     
   40734840.949513450       -324013179.72129023        1345712636.1657736     
   23477580.756398350       -431305980.81671786        1252823741.2950325     
  -1481136.1247687638       -564270304.20565915        1159717732.1484170     
  -34141309.693996936       -722906149.88814008        1066394608.7259359     
   35010982.774191722       -183143936.29218328        1447281807.5857565     
   30491329.327358201       -243439979.21075302        1347067057.5784793     
   20157458.278261647       -323116747.47019798        1246022175.1495616     
   4009369.6268911660       -422174241.07055068        1144147160.2989800     
  -17952936.626739234       -540612460.01177931        1041442013.0267695     
   21581843.940984622       -123340814.81084037        1462699228.5079517     
   20346860.135871924       -162837065.97098842        1357143288.0217044     
   15184897.814274624       -215423245.51941985        1250144196.9680192     
   6095956.9761973172       -281099353.45611835        1141701955.3469009     
  -6919962.3783611804       -359865389.78108251        1031816563.1583549     
   10003227.954950128       -62982536.475342318        1484636679.5272522     
   10301433.375041366       -82204440.002040416        1375941327.4954367     
   8559899.3644313142       -108225474.96441191        1265189806.7504022     
   4778625.9231378734       -141045641.36239067        1152382117.2921765     
  -1042386.9488574341       -180664939.19604799        1037518259.1207190     
   275134.81609025935       -2069101.2856852217        1513094160.6436508     
   355049.04486861476       -1542101.3039017408        1403461175.9996796     
   282462.92874024261       -1523435.8051399919        1291159004.4967272     
   57376.467707659234       -2013104.7893929742        1176187646.1347723     
  -320210.33823467128       -3011108.2566777533        1058547100.9138477     
   319241403.58600056        1028773261.0313923        774886850.68409395     
   266669188.98858094        682242068.05085325        866898025.74377859     
   242060831.00135320        428923730.43762195        956064464.70303917     
   245416329.62431848        268818248.19170004        1042386167.5618771     
   276735684.85747349        201925621.31307733        1125863134.3202903     
  -30351792.242756456        489997061.41562325        1088948660.8995869     
  -31680378.893312991        330110012.59417933        1154711460.3410928     
  -19082303.871831149        216645169.34619686        1219665445.6515865     
   7442432.8216875643        149602531.67167193        1283810616.8310738     
   47893831.187247105        128982099.57061578        1347146973.8795464     
  -527666337.40727955       -93095543.000870869        1477072317.8193984     
  -471934376.19836932       -64593371.689444199        1500210014.2148795     
  -416312948.25557119       -36459644.598397836        1524574818.4487662     
  -360802053.57888705       -8694361.7277308553        1550166730.5210526     
  -305401692.16831887        18702476.922552347        1576985750.4317400     
  -1172702231.9075747       -720504552.21809745        1939257821.4435308     
  -1054092802.9265862       -501868084.80001712        1903393687.3651459     
  -949631102.14986348       -330390711.39615512        1870792583.0945740     
  -859317129.57740855       -206072432.00651860        1841454508.6318164     
  -783150885.20922279       -128913246.63111246        1815379463.9768720     
  -1965459475.7436385       -1392229966.2360578        2475505171.7719846     
  -1778155659.0779655       -981714126.73753881        2364262479.7918830     
  -1619036765.5547121       -665148031.04708254        2258318739.5890102     
  -1488102795.1738772       -442531679.16469216        2157673951.1633644     
  -1385353747.9354653       -313865071.09037554        2062328114.5149441     
   276735684.85747349        201925621.31307733        1125863134.3202903     
   234909828.27928844        159350700.06114352        1189738801.6763589     
   195622050.80746746        125236042.49708942        1249556845.9924266     
   158872352.44199893        99581648.620876774        1305317267.2684937     
   124660733.18289007        82387518.432530433        1357020065.5045602     
   47893831.187247105        128982099.57061578        1347146973.8795464     
   8033492.8386763185        106434868.41464797        1371848883.5789015     
  -31138086.109842692        86183501.925519064        1397498578.7804313     
  -69620905.658313870        68228000.103216663        1424096059.4841337     
  -107414965.80673791        52568362.947737627        1451641325.6900115     
  -305401692.16831887        18702476.922552347        1576985750.4317400     
  -328995345.02392495        20473286.041549817        1560356362.8170252     
  -353749558.18578953        18375560.806353986        1549680169.2466555     
  -379664331.65391415        12409301.216956869        1544957169.7206333     
  -406739665.42829454        2574507.2733711898        1546187364.2389560     
  -783150885.20922279       -128913246.63111246        1815379463.9768720     
  -776176685.30851269       -98534047.058142990        1755261239.3907263     
  -772212365.42037046       -78187780.860399485        1706101617.3911021     
  -771257925.54479539       -67874448.037878782        1667900597.9779954     
  -773313365.68178844       -67594048.590585530        1640658181.1514084     
  -1385353747.9354653       -313865071.09037554        2062328114.5149441     
  -1333510528.0150888       -250587130.88443229        1956563513.3000078     
  -1286526507.8135889       -203506523.07474920        1866762923.2137673     
  -1244401687.3309596       -172623247.66130236        1792926344.2562163     
  -1207136066.5672085       -157937304.64411011        1735053776.4273596     
   124660733.18289007        82387518.432530433        1357020065.5045602     
   107428986.66095534        74342679.179167494        1385451184.7982633     
   90333004.404410183        66750387.477104485        1413740756.1743495     
   73372786.413262293        59610643.326364338        1441888779.6328111     
   56548332.687512897        52923446.726953879        1469895255.1736562     
  -107414965.80673791        52568362.947737627        1451641325.6900115     
  -120003914.05859412        45379374.280702785        1458390861.4209564     
  -132682205.28008895        37892575.714874029        1468655824.3727400     
  -145449839.47121972        30107967.250256106        1482436214.5453613     
  -158306816.63198492        22025548.886859253        1499732031.9388132     
  -406739665.42829454        2574507.2733711898        1546187364.2389560     
  -404237315.01448876       -624080.68866798282        1530992691.2996159     
  -402049414.80534667       -4870835.9995902479        1522970420.7195630     
  -400175964.80087125       -10165758.659399554        1522120552.4987996     
  -398616965.00106329       -16508848.668102860        1528443086.6373329     
  -773313365.68178844       -67594048.590585530        1640658181.1514084     
  -745271216.20672500       -63667685.728933305        1603256674.4342370     
  -717768624.17136252       -61539847.666282177        1576684545.2148142     
  -690805589.57569695       -61210534.402622491        1560941793.4931359     
  -664382112.41972280       -62679745.937932670        1556028419.2692044     
  -1207136066.5672085       -157937304.64411011        1735053776.4273596     
  -1143105617.6353099       -143751440.84011659        1675182810.8248241     
  -1079839833.3781331       -132114459.28519467        1629798197.8584955     
  -1017338713.7956864       -123026359.97937310        1598899937.5283659     
  -955602258.88796926       -116487142.92265189        1582488029.8344374     
   56548332.687512897        52923446.726953879        1469895255.1736562     
   54508435.797143608        49283682.984528758        1478695208.5108008     
   51417653.195064396        42140966.869733058        1492737574.4556653     
   47275984.881254353        31495298.382504724        1512022353.0082507     
   42083430.855720200        17346677.522859912        1536549544.1685493     
  -158306816.63198492        22025548.886859253        1499732031.9388132     
  -146197602.67842266        20686052.717746325        1498708690.5418248     
  -134491530.46292737        18002750.755075738        1502796036.9770627     
  -123188599.98549601        13975642.998859875        1511994071.2445395     
  -112288811.24613196        8604729.4490850195        1526302793.3442492     
  -398616965.00106329       -16508848.668102860        1528443086.6373329     
  -372734996.70495987       -15660984.214340717        1518352151.8088017     
  -346608426.17326534       -13997778.975272119        1513240180.0370178     
  -320237253.40597564       -11519232.950890422        1513107171.3219867     
  -293621478.40309513       -8225346.1412031800        1517953125.6637018     
  -664382112.41972280       -62679745.937932670        1556028419.2692044     
  -625103746.28246284       -59757427.811714172        1537625592.3117380     
  -584933033.93595386       -53860622.321331799        1524070003.6355355     
  -543869975.38018823       -44989329.466760620        1515361653.2405987     
  -501914570.61517560       -33143549.248033240        1511500541.1269267     
  -955602258.88796926       -116487142.92265189        1582488029.8344374     
  -903303851.41093302       -111603278.07437778        1556529012.0506375     
  -849465353.75099409       -101585779.28310034        1535285507.7726123     
  -794086765.90813935       -86434646.548766494        1518757517.0003700     
  -737168087.88237619       -66149879.871405989        1506945039.7339115     
   42083430.855720200        17346677.522859912        1536549544.1685493     
   30160030.050676737        2089243.8042204231        1550581864.7862592     
   19887805.841852490       -7664267.9270244371        1566652980.8815627     
   11266758.229275078       -11913857.670778124        1584762892.4544566     
   4296887.2129216902       -10659525.427119087        1604911599.5049450     
  -112288811.24613196        8604729.4490850195        1526302793.3442492     
  -114090137.38137402       -166854.00175551325        1533360823.6731961     
  -115218213.27658579       -6694269.9858308546        1544669535.1318281     
  -115673038.93177411       -10977518.503160112        1560228927.7201471     
  -115454614.34693596       -13016599.553734470        1580039001.4381511     
  -293621478.40309513       -8225346.1412031800        1517953125.6637018     
  -278981056.57683975       -8615177.3367226273        1516895951.6216514     
  -264645310.86676332       -10020595.586172387        1522301344.3613770     
  -250614241.27286732       -12441600.889555320        1534169303.8828800     
  -236887847.79514465       -15878193.246851832        1552499830.1861608     
  -501914570.61517560       -33143549.248033240        1511500541.1269267     
  -464512727.53573525       -23255726.200732023        1501187248.6316350     
  -428393486.92867428       -17643244.728030577        1499548408.5702152     
  -393556848.79400414       -16306104.829963580        1506584020.9426613     
  -360002813.13170773       -19244306.506477192        1522294085.7489765     
  -737168087.88237619       -66149879.871405989        1506945039.7339115     
  -670685150.25805652       -44088500.593769133        1486234714.7031393     
  -606462741.46231890       -29562217.411403894        1476410727.7583289     
  -544500861.49518132       -22571030.324374408        1477473078.8994799     
  -484799510.35662317       -23114939.332608253        1489421768.1265941     
   4296887.2129216902       -10659525.427119087        1604911599.5049450     
   4788682.3936887626       -5498944.8907186249        1599150861.7964542     
   4728915.3300234657       -2176905.1690927264        1599008000.8693073     
   4117586.0219463860       -693406.26217276626        1604483016.7235053     
   2954694.4694484682       -1048448.1699889391        1615575909.3590417     
  -115454614.34693596       -13016599.553734470        1580039001.4381511     
  -100798262.98079512       -9282794.4351482689        1573524267.2017748     
  -85864716.930683210       -4625007.0366581157        1572616724.4999928     
  -70653976.196585283        956762.64178543165        1577316373.3328047     
  -55166040.778510556        7462514.6001513004        1587623213.7002101     
  -236887847.79514465       -15878193.246851832        1552499830.1861608     
  -208097469.52005914       -13580322.329030275        1546197982.5050309     
  -178201139.63259351       -7595946.0366095677        1545492641.1117554     
  -147198858.13273886        2074935.6304441616        1550383806.0063207     
  -115090625.02050379        15432322.672094598        1560871477.1887379     
  -360002813.13170773       -19244306.506477192        1522294085.7489765     
  -317108937.22409225       -18391528.572327167        1517172007.7062342     
  -272280352.77569652       -11089722.168909684        1517635750.7045908     
  -225517059.78650773        2661112.7038180679        1523685314.7440476     
  -176819058.25653246        22860976.045833915        1535320699.8246059     
  -484799510.35662317       -23114939.332608253        1489421768.1265941     
  -427832666.09290361       -23716413.165070891        1486446342.8053741     
  -368102356.35999215       -15106335.433559239        1489046053.2785046     
  -305608581.15789050        2715293.8619182408        1497220899.5459912     
  -240351340.48660821        29748474.721332476        1510970881.6078248     
   2954694.4694484682       -1048448.1699889391        1615575909.3590417     
   2089842.2519677328       -1953485.7960495921        1585240115.8840704     
   1354964.9039167711       -2425273.8573457222        1558047893.2731841     
   750062.42529334093       -2463812.3538834131        1533999241.5263743     
   275134.81609025935       -2069101.2856852217        1513094160.6436508     
  -55166040.778510556        7462514.6001513004        1587623213.7002101     
  -45506337.899117172        14474631.198201807        1557428255.9999797     
  -34637125.702880405        25518445.519062534        1530358503.4584703     
  -22558404.189805754        40593957.562717266        1506413956.0756841     
  -9270173.3598792180        59701167.329210579        1485594613.8516185     
  -115090625.02050379        15432322.672094598        1560871477.1887379     
  -94958840.488128051        30345851.461045437        1532076812.1185615     
  -72538012.191484675        52889526.130889527        1506388986.5017529     
  -47828140.130573981        83063346.681624070        1483808000.3383052     
  -20829224.305395171        120867313.11325243        1464333853.6282239     
  -176819058.25653246        22860976.045833915        1535320699.8246059     
  -146267665.51505306        45660174.992519818        1509185784.2398162     
  -112347694.56187242        79687967.978211015        1486139342.4030311     
  -75059145.397012353        124944355.00283307        1466181374.3142562     
  -34402018.020459354        181429336.06643146        1449311879.9734819     
  -240351340.48660821        29748474.721332476        1510970881.6078248     
  -199432812.97988686        60417601.792644873        1488755172.3637393     
  -154066172.81406128        105913771.06097057        1469609571.1623011     
  -104251419.98912486        166236982.52633274        1453534078.0035174     
  -49988554.505079851        241387236.18872368        1440528692.8873799     
   275134.81609025935       -2069101.2856852217        1513094160.6436508     
   355049.04486861476       -1542101.3039017408        1403461175.9996796     
   282462.92874024261       -1523435.8051399919        1291159004.4967272     
   57376.467707659234       -2013104.7893929742        1176187646.1347723     
  -320210.33823467128       -3011108.2566777533        1058547100.9138477     
  -9270173.3598792180        59701167.329210579        1485594613.8516185     
  -9572306.4370724149        79369400.030244127        1376559852.3785501     
  -8025839.7498027906        105199631.94615585        1265483187.6708183     
  -4630773.2980693728        137191863.07694185        1152364619.7284298     
   612892.91813078523        175346093.42262220        1037204148.5513654     
  -20829224.305395171        120867313.11325243        1464333853.6282239     
  -19721165.761922829        160214450.21149391        1358231932.1203225     
  -14763407.344618052        212393920.22251761        1250715391.0020840     
  -5955949.0534574389        277405723.14638692        1141784230.2734962     
   6701209.1115264595        355249858.98300457        1031438449.9346006     
  -34402018.020459354        181429336.06643146        1449311879.9734819     
  -30091528.929675102        240993049.23987812        1348477415.2250156     
  -19930239.855673835        320059429.02404666        1246855614.4905350     
  -3918150.7984577119        418628475.41893160        1144446477.7700479     
   17944738.241964132        536700188.42450619        1041250005.0635451     
  -49988554.505079851        241387236.18872368        1440528692.8873799     
  -40683395.940324038        321705197.11540657        1347296301.6926131     
  -23526337.282994211        428196158.35066813        1253903858.1361682     
   1482621.4669479430        560860119.89464092        1160351362.2180383     
   34343480.309448183        719697081.74713516        1066638813.9382237     
  -1965459475.7436385       -1392229966.2360578        2475505171.7719846     
  -1778155659.0779655       -981714126.73753881        2364262479.7918830     
  -1619036765.5547121       -665148031.04708254        2258318739.5890102     
  -1488102795.1738772       -442531679.16469216        2157673951.1633644     
  -1385353747.9354653       -313865071.09037554        2062328114.5149441     
  -2360495419.1343303       -759930289.16379476        2008402064.2886369     
  -2229401722.0448675       -576319463.05454373        1930339818.2565942     
  -2109201513.5626509       -429020265.63611639        1856102762.3246844     
  -1999894793.6876814       -318032696.90851188        1785690896.4929121     
  -1901481562.4199626       -243356756.87174344        1719104220.7612724     
  -2593494028.3138580       -79019411.828186154        1450426910.6919286     
  -2522821198.4494367       -123576823.40285027        1425718450.8989720     
  -2445750422.6570892       -146807748.55110002        1403361419.5290620     
  -2362281700.9368172       -148712187.27292931        1383355816.5821946     
  -2272415033.2886233       -129290139.56835210        1365701642.0583720     
  -2664455303.2822213        650502665.77077556        801579710.98184896     
  -2658414088.2916760        376513792.21754038        850398377.71901953     
  -2628683492.8380289        181489520.20796943        900094711.20214331     
  -2575263516.9212880        65429849.742046833        950668711.43122029     
  -2498154160.5414472        28334780.819787860        1002120378.4062481     
  -2573379244.0394201        1428635943.6330831        61860465.158408709     
  -2636180391.5715771        923952383.80663729        204379598.71673584     
  -2658000724.1054707        555871540.64107990        346302637.34392810     
  -2638840241.6410856        324393414.13643610        487629581.03998226     
  -2578698944.1784391        229518004.29267430        628360429.80489516     
  -1385353747.9354653       -313865071.09037554        2062328114.5149441     
  -1333510528.0150888       -250587130.88443229        1956563513.3000078     
  -1286526507.8135889       -203506523.07474920        1866762923.2137673     
  -1244401687.3309596       -172623247.66130236        1792926344.2562163     
  -1207136066.5672085       -157937304.64411011        1735053776.4273596     
  -1901481562.4199626       -243356756.87174344        1719104220.7612724     
  -1820724241.3143814       -195997410.94109046        1656202037.6156268     
  -1743591994.9361515       -160721647.43494910        1603250981.3934364     
  -1670084823.2852807       -137529466.35333925        1560251052.0947030     
  -1600202726.3617682       -126420867.69624710        1527202249.7194247     
  -2272415033.2886233       -129290139.56835210        1365701642.0583720     
  -2179923280.1556549       -103003288.66033626        1347101689.4721222     
  -2089822476.7585225       -84686270.205108047        1332439979.6040907     
  -2002112623.0972302       -74339084.202674747        1321716512.4542775     
  -1916793719.1717689       -71961730.653021336        1314931288.0226853     
  -2498154160.5414472        28334780.819787860        1002120378.4062481     
  -2411107644.5389123        28395235.957822800        1029262468.8694984     
  -2325217953.2806964        24599608.614793658        1054329917.8457308     
  -2240485086.7667947        16947898.790713787        1077322725.3349457     
  -2156909044.9972134        5440106.4855720997        1098240891.3371437     
  -2578698944.1784391        229518004.29267430        628360429.80489516     
  -2514277334.4641576        198198162.91338241        702684375.80775154     
  -2449778424.5026722        167135989.02476072        768920796.11835587     
  -2385202214.2939878        136331482.62680507        827069690.73670328     
  -2320548703.8380980        105784643.71953654        877131059.66279805     
  -1207136066.5672085       -157937304.64411011        1735053776.4273596     
  -1143105617.6353099       -143751440.84011659        1675182810.8248241     
  -1079839833.3781331       -132114459.28519467        1629798197.8584955     
  -1017338713.7956864       -123026359.97937310        1598899937.5283659     
  -955602258.88796926       -116487142.92265189        1582488029.8344374     
  -1600202726.3617682       -126420867.69624710        1527202249.7194247     
  -1504535788.1890957       -113628121.45082027        1491281187.3490319     
  -1409233646.5768135       -102051363.74002600        1465531021.9642456     
  -1314296301.5249209       -91690594.563865542        1449951753.5650566     
  -1219723753.0334160       -82545813.922329128        1444543382.1514676     
  -1916793719.1717689       -71961730.653021336        1314931288.0226853     
  -1801820165.0457621       -64261063.952404857        1303426641.6844988     
  -1686811539.3658028       -56443492.071952820        1297777436.6813138     
  -1571767842.1318951       -48509015.011673212        1297983673.0131278     
  -1456689073.3440402       -40457632.771562874        1304045350.6799393     
  -2156909044.9972134        5440106.4855720997        1098240891.3371437     
  -2034958748.2052987        4349731.6551562548        1111619173.8312235     
  -1912573511.7450972        4709155.7190284729        1126537442.0097039     
  -1789753335.6166110        6518378.6771899462        1142995695.8725789     
  -1666498219.8198290        9777400.5296590328        1160993935.4198542     
  -2320548703.8380980        105784643.71953654        877131059.66279805     
  -2203951537.6677117        92204265.371856093        915858783.78920889     
  -2086519563.7147002        81406579.632918000        951811037.94941115     
  -1968252781.9790614        73391586.502742052        984987822.14341474     
  -1849151192.4607973        68159285.981317043        1015389136.3712130     
  -955602258.88796926       -116487142.92265189        1582488029.8344374     
  -903303851.41093302       -111603278.07437778        1556529012.0506375     
  -849465353.75099409       -101585779.28310034        1535285507.7726123     
  -794086765.90813935       -86434646.548766494        1518757517.0003700     
  -737168087.88237619       -66149879.871405989        1506945039.7339115     
  -1219723753.0334160       -82545813.922329128        1444543382.1514676     
  -1156569419.9453912       -82017286.271545112        1429473825.7917120     
  -1092516744.1671181       -78494282.986598551        1419044545.7494311     
  -1027565725.6985953       -71976804.067487061        1413255542.0246274     
  -961716364.53981876       -62464849.514196783        1412106814.6172986     
  -1456689073.3440402       -40457632.771562874        1304045350.6799393     
  -1382893778.0401788       -44348931.336804569        1299116550.3361275     
  -1308841887.5387323       -47384912.576757073        1298752789.1214893     
  -1234533401.8396921       -49565576.491399944        1302954067.0360186     
  -1159968320.9430618       -50890923.080741048        1311720384.0797246     
  -1666498219.8198290        9777400.5296590328        1160993935.4198542     
  -1582276925.6952972        1401786.7298265696        1165457185.6838856     
  -1498440783.8658307       -8257668.0535609722        1174410237.8887820     
  -1414989794.3314326       -19200963.820509195        1187853092.0345473     
  -1331923957.0921059       -31428100.571022213        1205785748.1211774     
  -1849151192.4607973        68159285.981317043        1015389136.3712130     
  -1754718862.9107409        55234867.928373694        1028495731.8349822     
  -1661313433.1484103        38887450.583004951        1046016892.0513177     
  -1568934903.1738129        19117033.945193231        1067952617.0202115     
  -1477583272.9869411       -4076381.9850342274        1094302906.7416697     
  -737168087.88237619       -66149879.871405989        1506945039.7339115     
  -670685150.25805652       -44088500.593769133        1486234714.7031393     
  -606462741.46231890       -29562217.411403894        1476410727.7583289     
  -544500861.49518132       -22571030.324374408        1477473078.8994799     
  -484799510.35662317       -23114939.332608253        1489421768.1265941     
  -961716364.53981876       -62464849.514196783        1412106814.6172986     
  -872624301.37007153       -46733951.139305681        1397007497.3963337     
  -784927635.91146386       -35654378.468211621        1389874357.3326752     
  -698626368.16399133       -29226131.500901103        1390707394.4263287     
  -613720498.12766385       -27449210.237410128        1399506608.6772914     
  -1159968320.9430618       -50890923.080741048        1311720384.0797246     
  -1056610449.1668923       -43993500.690300643        1303241394.3055890     
  -953782843.98440695       -38863633.612144589        1299808420.7601073     
  -851485505.39561474       -35501321.846298337        1301421463.4432881     
  -749718433.40051007       -33906565.392740339        1308080522.3551273     
  -1331923957.0921059       -31428100.571022213        1205785748.1211774     
  -1222643593.6485138       -35867149.246734142        1204936405.4308965     
  -1113028365.6811607       -39189982.843234599        1206212918.0406225     
  -1003078273.1900460       -41396601.360527992        1209615285.9503560     
  -892793316.17516732       -42487004.798617154        1215143509.1600938     
  -1477583272.9869411       -4076381.9850342274        1094302906.7416697     
  -1370723734.8149319       -22354896.808589935        1102092530.7722683     
  -1262664201.0017147       -36633426.161456227        1109087849.1742215     
  -1153404671.5472784       -46911970.043592572        1115288861.9475355     
  -1042945146.4516386       -53190528.455044866        1120695569.0921979     
  -484799510.35662317       -23114939.332608253        1489421768.1265941     
  -427832666.09290361       -23716413.165070891        1486446342.8053741     
  -368102356.35999215       -15106335.433559239        1489046053.2785046     
  -305608581.15789050        2715293.8619182408        1497220899.5459912     
  -240351340.48660821        29748474.721332476        1510970881.6078248     
  -613720498.12766385       -27449210.237410128        1399506608.6772914     
  -542061777.04562104       -27757510.229413480        1397248522.5721617     
  -467762214.23212266       -19263004.449903876        1400649088.8774426     
  -390821809.68720502       -1965692.8989957571        1409708307.5931263     
  -311240563.41084236        24134424.423399687        1424426178.7192218     
  -749718433.40051007       -33906565.392740339        1308080522.3551273     
  -663129216.59712553       -33850105.873365551        1306396714.4387162     
  -574021781.80004799       -25399586.375014395        1310455075.5487673     
  -482396129.00928622       -8555006.8977200091        1320255605.6852796     
  -388252258.22483134        16683632.558560386        1335798304.8482516     
  -892793316.17516732       -42487004.798617154        1215143509.1600938     
  -791034984.74743533       -41994200.096979231        1213890918.4050279     
  -686881059.06375396       -33516081.208845377        1218464013.2924805     
  -580331539.12414026       -17052648.134269357        1228862793.8224437     
  -471386424.92857856        7396099.1268002987        1245087259.9949253     
  -1042945146.4516386       -53190528.455044866        1120695569.0921979     
  -925779081.49654078       -52189792.900218278        1119731134.4711051     
  -806340046.02324736       -43612488.951414257        1124675902.1085787     
  -684628040.03177166       -27458616.608668923        1135529872.0046217     
  -560643063.52209866       -3728175.8719249964        1152293044.1592326     
  -240351340.48660821        29748474.721332476        1510970881.6078248     
  -199432812.97988686        60417601.792644873        1488755172.3637393     
  -154066172.81406128        105913771.06097057        1469609571.1623011     
  -104251419.98912486        166236982.52633274        1453534078.0035174     
  -49988554.505079851        241387236.18872368        1440528692.8873799     
  -311240563.41084236        24134424.423399687        1424426178.7192218     
  -260866143.35576910        55105857.904504716        1406897339.4341893     
  -204143533.80681807        107237923.03187047        1393502392.5875971     
  -141072734.76397818        180530619.80552652        1384241338.1794415     
  -71653746.227257952        274983948.22546154        1379114176.2097230     
  -388252258.22483134        16683632.558560386        1335798304.8482516     
  -325382561.63344955        48869187.645823419        1325173091.8295214     
  -254264598.71340865        108548963.82861446        1319745555.6450148     
  -174898369.46469796        195722961.10697392        1319515696.2947350     
  -87283873.887329757        310391179.48086125        1324483513.7786825     
  -471386424.92857856        7396099.1268002987        1245087259.9949253     
  -392982067.81292224        41707591.016611949        1243582429.5497327     
  -304429367.53382885        109846893.45121910        1248339060.3345547     
  -205728324.09128541        211814006.43065420        1259357152.3493891     
  -96878937.485303998        347608929.95488858        1276636705.5942335     
  -560643063.52209866       -3728175.8719249964        1152293044.1592326     
  -463664661.89419949        33621068.016842484        1162125352.5948203     
  -354637840.26808375        111131711.89966501        1179282906.6562123     
  -233562598.64374179        228803755.77657509        1203765706.3434086     
  -100438937.02118850        386637199.64752287        1235573751.6563928     
  -49988554.505079851        241387236.18872368        1440528692.8873799     
  -40683395.940324038        321705197.11540657        1347296301.6926131     
  -23526337.282994211        428196158.35066813        1253903858.1361682     
   1482621.4669479430        560860119.89464092        1160351362.2180383     
   34343480.309448183        719697081.74713516        1066638813.9382237     
  -71653746.227257952        274983948.22546154        1379114176.2097230     
  -57533745.110771760        376187606.86221719        1297450181.8841283     
  -34372905.064292133        507527395.26560593        1214830188.5653818     
  -2171226.0878102183        669003313.43567419        1131254196.2534695     
   39071291.818652451        860615361.37234771        1046722204.9484051     
  -87283873.887329757        310391179.48086125        1324483513.7786825     
  -70623163.451889217        431798295.85786676        1255775011.6325548     
  -43732675.249047190        587304671.45954072        1185314563.8617988     
  -6612409.2788113058        776910306.28587484        1113102170.4664192     
   40737634.458822787        1000615200.3368503        1039137831.4464068     
  -96878937.485303998        347608929.95488858        1276636705.5942335     
  -79951650.963691592        488537264.10231090        1222270790.9378922     
  -51605647.837276608        667527986.93240273        1165356984.0254474     
  -11840928.106058061        884581098.44518161        1105895284.8568826     
   39342508.229967475        1139696598.6406450        1043885693.4322511     
  -100438937.02118850        386637199.64752287        1235573751.6563928     
  -85519207.646186709        546404511.59552717        1196937519.8001392     
  -57991822.828971654        748197341.68423688        1154957449.0563028     
  -17856782.569550812        992015689.91364086        1109633539.4248917     
   34885913.132078886        1277859556.2837298        1060965790.9059117     
  -2573379244.0394201        1428635943.6330831        61860465.158408709     
  -2636180391.5715771        923952383.80663729        204379598.71673584     
  -2658000724.1054707        555871540.64107990        346302637.34392810     
  -2638840241.6410856        324393414.13643610        487629581.03998226     
  -2578698944.1784391        229518004.29267430        628360429.80489516     
  -2865954145.5481791        910127918.53253555        181838023.78295740     
  -2858472232.8110166        628706803.93345845        310148808.80292022     
  -2829350101.5760274        419419750.99379539        441597478.52411103     
  -2778587751.8432093        282266759.71356142        576184032.94652593     
  -2706185183.6125689        217247830.09273911        713908472.07016015     
  -3308826974.3729324        346530515.23719501        390858184.39682657     
  -3220393488.1311269        291572399.83607578        482396591.62791431     
  -3129660379.8919406        244279691.09290481        580806863.19258368     
  -3036627649.6553674        204652389.00767696        686088999.09084010     
  -2941295297.4214163        172690493.58038187        798242999.32268524     
  -3901997730.5136886       -262156266.25294840        688920947.00002730     
  -3721944157.5319266       -87450828.485509157        721122947.19171238     
  -3558931559.0532155        30451360.938409805        763930791.34934866     
  -3412959935.0775695        91550302.018777370        817344479.47293055     
  -3284029285.6049843        95845994.755613804        881364011.56245983     
  -4645466413.9704437       -915932425.93789268        1076026311.5925491     
  -4363124241.0133953       -508362881.03129482        1026327875.4943202     
  -4117163639.0598483       -222065239.46970296        990969262.99439895     
  -3907584608.1098061       -57039501.253126621        969950474.09279025     
  -3734387148.1632719       -13285666.381577253        963271508.78949189     
  -2578698944.1784391        229518004.29267430        628360429.80489516     
  -2514277334.4641576        198198162.91338241        702684375.80775154     
  -2449778424.5026722        167135989.02476072        768920796.11835587     
  -2385202214.2939878        136331482.62680507        827069690.73670328     
  -2320548703.8380980        105784643.71953654        877131059.66279805     
  -2706185183.6125689        217247830.09273911        713908472.07016015     
  -2658494377.5420179        178909499.44282329        753561245.96858788     
  -2609964145.3853774        143369255.74654186        790051347.97269630     
  -2560594487.1426511        110627099.00388181        823378778.08248699     
  -2510385402.8138285        80683029.214862466        853543536.29795563     
  -2941295297.4214163        172690493.58038187        798242999.32268524     
  -2896264284.1433506        131554976.91523278        804113747.92871451     
  -2849631718.9403105        95757966.666661978        811746678.43836033     
  -2801397601.8122973        65299462.834670782        821141790.85162091     
  -2751561932.7593083        40179465.419260263        832299085.16850209     
  -3284029285.6049843        95845994.755613804        881364011.56245983     
  -3227587054.2681608        56134595.330590487        854341881.68812609     
  -3168781145.1674724        24302121.785104632        834006787.51534379     
  -3107611558.3029237        348574.11916387081        820358729.04411352     
  -3044078293.6745152       -15726047.667255282        813397706.27443933     
  -3734387148.1632719       -13285666.381577253        963271508.78949189     
  -3652462687.9164395       -47351645.311084032        904245647.24682713     
  -3567412424.0668640       -70998278.898114204        856831675.20365214     
  -3479236356.6145396       -84225567.142643809        821029592.65996492     
  -3387934485.5594726       -87033510.044699192        796839399.61576235     
  -2320548703.8380980        105784643.71953654        877131059.66279805     
  -2203951537.6677117        92204265.371856093        915858783.78920889     
  -2086519563.7147002        81406579.632918000        951811037.94941115     
  -1968252781.9790614        73391586.502742052        984987822.14341474     
  -1849151192.4607973        68159285.981317043        1015389136.3712130     
  -2510385402.8138285        80683029.214862466        853543536.29795563     
  -2396238866.2275305        71677949.102973104        876280685.90429592     
  -2281772797.0460649        63737977.641631365        898852367.74236226     
  -2166987195.2694392        56863114.830830693        921258581.81215215     
  -2051882060.8976483        51053360.670576215        943499328.11366117     
  -2751561932.7593083        40179465.419260263        832299085.16850209     
  -2632408876.6201515        37986828.284256935        838444505.86940229     
  -2513451563.0732975        35141715.841587067        847034460.99995065     
  -2394689992.1187482        31644128.091239691        858068950.56015229     
  -2276124163.7564950        27494065.033231735        871547974.55000520     
  -3044078293.6745152       -15726047.667255282        813397706.27443933     
  -2912461568.8455787       -8869097.0843015909        802350243.68452191     
  -2781555861.7964001       -4382205.7672245502        796357317.72218251     
  -2651361172.5269899       -2265373.7160345316        795418928.38742208     
  -2521877501.0373430       -2518600.9307105541        799535075.68024004     
  -3387934485.5594726       -87033510.044699192        796839399.61576235     
  -3236396942.9038110       -68889827.002708077        767997899.34965348     
  -3086085693.2153692       -54833787.184787989        746820937.90905380     
  -2937000736.4941635       -44865390.590985298        733308515.29395878     
  -2789142072.7401791       -38984637.221252680        727460631.50437176     
  -1849151192.4607973        68159285.981317043        1015389136.3712130     
  -1754718862.9107409        55234867.928373694        1028495731.8349822     
  -1661313433.1484103        38887450.583004951        1046016892.0513177     
  -1568934903.1738129        19117033.945193231        1067952617.0202115     
  -1477583272.9869411       -4076381.9850342274        1094302906.7416697     
  -2051882060.8976483        51053360.670576215        943499328.11366117     
  -1945424292.7868047        41934632.650206447        947788149.25991428     
  -1839757330.2261834        30179886.129108071        956034506.84669220     
  -1734881173.2157776        15789121.107287049        968238400.87399149     
  -1630795821.7555850       -1237662.4152487516        984399831.34181619     
  -2276124163.7564950        27494065.033231735        871547974.55000520     
  -2158946752.2621202        21789288.492260337        867294464.65583599     
  -2042324052.0804513        14235474.242275715        866541462.89015162     
  -1926256063.2114902        4832622.2832695246        869288969.25295222     
  -1810742785.6552320       -6419267.3847640753        875536983.74423993     
  -2521877501.0373430       -2518600.9307105541        799535075.68024004     
  -2395286241.3366795       -5201164.5454438925        787014678.02274203     
  -2269013598.7112207       -8945785.0775034428        777537760.18169320     
  -2143059573.1609550       -13752462.526880145        771104322.15709102     
  -2017424164.6858842       -19621196.893574476        767714363.94893146     
  -2789142072.7401791       -38984637.221252680        727460631.50437176     
  -2654442760.0104923       -39036726.462937474        706948789.36064088     
  -2519825970.1184907       -39363891.830237150        689023398.72132087     
  -2385291703.0641761       -39966133.323155880        673684459.58641052     
  -2250839958.8475456       -40843450.941700935        660931971.95590520     
  -1477583272.9869411       -4076381.9850342274        1094302906.7416697     
  -1370723734.8149319       -22354896.808589935        1102092530.7722683     
  -1262664201.0017147       -36633426.161456227        1109087849.1742215     
  -1153404671.5472784       -46911970.043592572        1115288861.9475355     
  -1042945146.4516386       -53190528.455044866        1120695569.0921979     
  -1630795821.7555850       -1237662.4152487516        984399831.34181619     
  -1522995206.3427038       -16879985.857824028        984949593.60048580     
  -1414225841.9329042       -29293145.977336287        986409215.20055854     
  -1304487728.5261939       -38477142.773814917        988778696.14202511     
  -1193780866.1225736       -44431976.247257888        992058036.42488146     
  -1810742785.6552320       -6419267.3847640753        875536983.74423993     
  -1697132050.2299364       -17964686.614884734        868577096.47930706     
  -1582783812.4520245       -27051764.669616282        864231233.52580845     
  -1467698072.3214910       -33680501.548951983        862499394.88374448     
  -1351874829.8383512       -37850897.252916873        863381580.55311501     
  -2017424164.6858842       -19621196.893574476        767714363.94893146     
  -1893134266.4766376       -25608999.079788566        752975039.40871298     
  -1768338112.5590658       -29909282.238262296        742553904.14996600     
  -1643035702.9331801       -32522046.369016469        736450958.17269838     
  -1517227037.5989721       -33447291.472032249        734666201.47689342     
  -2250839958.8475456       -40843450.941700935        660931971.95590520     
  -2111001855.0828025       -39812923.252534866        638143422.38871753     
  -1970888742.2540350       -37865698.683286548        621377227.07304227     
  -1830500620.3612456       -35001777.233970642        610633386.00887871     
  -1689837489.4044433       -31221158.904609323        605911899.19622862     
  -1042945146.4516386       -53190528.455044866        1120695569.0921979     
  -925779081.49654078       -52189792.900218278        1119731134.4711051     
  -806340046.02324736       -43612488.951414257        1124675902.1085787     
  -684628040.03177166       -27458616.608668923        1135529872.0046217     
  -560643063.52209866       -3728175.8719249964        1152293044.1592326     
  -1193780866.1225736       -44431976.247257888        992058036.42488146     
  -1062866274.8911465       -40821528.213598311        989738877.47517145     
  -930610786.81570196       -32741424.033213615        991484064.36895323     
  -797014401.89624429       -20191663.706121445        997293597.10622442     
  -662077120.13277221       -3172247.2323093116        1007167475.6869887     
  -1351874829.8383512       -37850897.252916873        863381580.55311501     
  -1212482730.6593897       -33212042.239062905        858620277.98824859     
  -1072681808.3105962       -27210443.325750709        856078464.85179973     
  -932472062.79196119       -19846100.512973666        855756141.14375949     
  -791853494.10347867       -11119013.800710112        857653306.86413264     
  -1517227037.5989721       -33447291.472032249        734666201.47689342     
  -1374628448.8012819       -29361334.976628780        726375336.01034117     
  -1232553110.5079274       -27019546.829016030        718459103.55712533     
  -1091001022.7188969       -26421927.029151678        710917504.11724210     
  -949972185.43422163       -27568475.577128530        703750537.69068730     
  -1689837489.4044433       -31221158.904609323        605911899.19622862     
  -1549303429.3168137       -29269406.426286697        593004051.54144669     
  -1410224693.4077005       -32168734.543020546        578625980.48492420     
  -1272601281.6770866       -39919143.254750848        562777686.02664995     
  -1136433194.1249909       -52520632.561541557        545459168.16663384     
  -560643063.52209866       -3728175.8719249964        1152293044.1592326     
  -463664661.89419949        33621068.016842484        1162125352.5948203     
  -354637840.26808375        111131711.89966501        1179282906.6562123     
  -233562598.64374179        228803755.77657509        1203765706.3434086     
  -100438937.02118850        386637199.64752287        1235573751.6563928     
  -662077120.13277221       -3172247.2323093116        1007167475.6869887     
  -547154833.64076567        26450249.131307811        1020950585.5143958     
  -421304710.93479472        92498866.208124340        1042994533.6557425     
  -284526752.01488233        194973603.99809429        1073299320.1110182     
  -136820956.88101199        333874462.50125349        1111864944.8802314     
  -791853494.10347867       -11119013.800710112        857653306.86413264     
  -656314200.78125715        11578671.627617180        874079870.33505678     
  -510967655.02935231        66967198.488223881        899702864.80804670     
  -355813856.84776127        155046566.78111222        934522290.28310704     
  -190852806.23648345        275816776.50629973        978538146.76023209     
  -949972185.43422163       -27568475.577128530        703750537.69068730     
  -791142763.31568480       -10993664.494248420        721513207.05680585     
  -623626672.55174327        34536708.739986271        749407900.11312783     
  -447423913.14238483        109022644.12561664        787434616.85964918     
  -262534485.08760929        212464141.66263133        835593357.29636872     
  -1136433194.1249909       -52520632.561541557        545459168.16663384     
  -951640521.24406278       -41266759.234332472        563250595.67964208     
  -759281763.50198662       -4792603.0366353095        592109639.57098556     
  -559356920.89876103        56901836.031559885        632036299.84065843     
  -351865993.43437439        143816557.97029787        683030576.48867035     
  -100438937.02118850        386637199.64752287        1235573751.6563928     
  -85519207.646186709        546404511.59552717        1196937519.8001392     
  -57991822.828971654        748197341.68423688        1154957449.0563028     
  -17856782.569550812        992015689.91364086        1109633539.4248917     
   34885913.132078886        1277859556.2837298        1060965790.9059117     
  -136820956.88101199        333874462.50125349        1111864944.8802314     
  -127602377.29727399        482900749.83163011        1090295295.0172350     
  -95242451.405115932        709064858.19008327        1070162682.1910645     
  -39741179.204529703        1012366787.5766302        1051467106.4017168     
   38901439.304474413        1392806537.9912274        1034208567.6492026     
  -190852806.23648345        275816776.50629973        978538146.76023209     
  -173675730.94572011        418199932.86854196        986324384.90107298     
  -122823618.48033002        672833213.14621627        1000328536.0031354     
  -38296468.840298235        1039716617.3393627        1020550600.0664250     
   79905717.974364936        1518850145.4479601        1046990577.0909474     
  -262534485.08760929        212464141.66263133        835593357.29636872     
  -223739268.59153527        352302060.70622146        885024789.45163572     
  -140735324.05461755        639502406.55262351        945455010.49252963     
  -13522651.476843834        1074065179.2018790        1016884020.4190432     
   157898749.14176887        1655990378.6539533        1099311819.2311983     
  -351865993.43437439        143816557.97029787        683030576.48867035     
  -277792990.23470199        285207133.34471548        786396508.66894400     
  -148977568.12798074        609072438.40930140        905542105.65922940     
   34580272.885824025        1115412473.1641574        1040467367.4595649     
   272880532.80668479        1804227237.6092005        1191172294.0699172     
  -4645466413.9704437       -915932425.93789268        1076026311.5925491     
  -4363124241.0133953       -508362881.03129482        1026327875.4943202     
  -4117163639.0598483       -222065239.46970296        990969262.99439895     
  -3907584608.1098061       -57039501.253126621        969950474.09279025     
  -3734387148.1632719       -13285666.381577253        963271508.78949189     
  -5112078083.2180481       -581817477.12332511        797003888.19793522     
  -4843991989.2677126       -332491004.05706549        749617619.72105575     
  -4597330132.5888691       -154578655.22913671        713442944.98848128     
  -4372092513.1815233       -48080430.639537573        688479864.00020301     
  -4168279131.0456800       -12996330.288266897        674728376.75622773     
  -5471271645.6786795       -215477096.27265906        450038565.71413285     
  -5226379430.3179302       -127075034.92161584        422414687.54595226     
  -4987954118.4966784       -60229318.702206135        402874173.26805502     
  -4755995710.2149210       -14939947.614459038        391417022.88045555     
  -4530504205.4726496        8793078.3416700363        388043236.38314521     
  -5723047101.3523273        183088716.61409736        35130344.141151249     
  -5510286564.1640568        107885026.37506771        44719078.969003730     
  -5289035596.7832747        60982770.111084223        59262947.833127864     
  -5059294199.2099810        42381947.822142363        78761950.733545318     
  -4821062371.4441776        52082559.508232117        103216087.67023940     
  -5867404450.2389917        613879961.53694820       -447720776.52101177     
  -5695713390.8060856        372389179.83298373       -383469206.00978994     
  -5500574567.4486618        209057611.21074247       -317390731.31629521     
  -5281987980.1667233        123885255.67021871       -249485352.44052866     
  -5039953628.9602575        116872113.21144843       -179753069.38248950     
  -3734387148.1632719       -13285666.381577253        963271508.78949189     
  -3652462687.9164395       -47351645.311084032        904245647.24682713     
  -3567412424.0668640       -70998278.898114204        856831675.20365214     
  -3479236356.6145396       -84225567.142643809        821029592.65996492     
  -3387934485.5594726       -87033510.044699192        796839399.61576235     
  -4168279131.0456800       -12996330.288266897        674728376.75622773     
  -4058102449.8007636       -35630932.925136805        641646868.30760193     
  -3946036273.7376509       -51967219.501350164        616047938.13663626     
  -3832080602.8563437       -62005190.016915560        597931586.24333262     
  -3716235437.1568475       -65744844.471853971        587297812.62768805     
  -4530504205.4726496        8793078.3416700363        388043236.38314521     
  -4403873335.2920017       -5949557.6212494373        379463720.77991074     
  -4276589279.0777173       -18514906.805370331        374237472.23251194     
  -4148652036.8297882       -28902969.210675955        372364490.74094856     
  -4020061608.5482221       -37113744.837203741        373844776.30521142     
  -4821062371.4441776        52082559.508232117        103216087.67023940     
  -4689775344.3901672        41692480.600560904        117696204.66374923     
  -4559071440.0870686        29358659.189842224        131400277.49127226     
  -4428950658.5348892        15081095.276052952        144328306.15280244     
  -4299412999.7336226       -1140211.1407606602        156480290.64833441     
  -5039953628.9602575        116872113.21144843       -179753069.38248950     
  -4915808477.0952530        107295181.74027157       -143655680.04087126     
  -4793482756.7657099        91653478.484236479       -112463646.08707970     
  -4672976467.9716368        69947003.443303108       -86176967.521100804     
  -4554289610.7130299        42175756.617466927       -64795644.342947774     
  -3387934485.5594726       -87033510.044699192        796839399.61576235     
  -3236396942.9038110       -68889827.002708077        767997899.34965348     
  -3086085693.2153692       -54833787.184787989        746820937.90905380     
  -2937000736.4941635       -44865390.590985298        733308515.29395878     
  -2789142072.7401791       -38984637.221252680        727460631.50437176     
  -3716235437.1568475       -65744844.471853971        587297812.62768805     
  -3547016070.7583742       -51739014.144687176        565485174.55244768     
  -3378543413.7457371       -40222215.103628159        550564289.61881411     
  -3210817466.1189370       -31194447.348693609        542535157.82679904     
  -3043838227.8779740       -24655710.879878283        541397779.17639589     
  -4020061608.5482221       -37113744.837203741        373844776.30521142     
  -3835368377.5037827       -27908154.953912973        359620514.59912378     
  -3650942272.2637887       -19592984.418772697        351515220.35075420     
  -3466783292.8282371       -12168233.231773376        349528893.56010473     
  -3282891439.1971254       -5633901.3929090500        353661534.22717714     
  -4299412999.7336226       -1140211.1407606602        156480290.64833441     
  -4101453863.1400452        2602750.5696082115        150403919.48968586     
  -3903282268.7695298        7053904.8697652817        149673730.10486794     
  -3704898216.6220541        12213251.759798765        154289722.49387702     
  -3506301706.6976347        18080791.239638805        164251896.65671715     
  -4554289610.7130299        42175756.617466927       -64795644.342947774     
  -4345272527.6671543        39793702.425858736       -62164610.775853850     
  -4135563403.2629509        39718452.762014627       -54960181.118833654     
  -3925162237.5003958        41950007.626020432       -43182355.371873431     
  -3714069030.3794994        46488367.017806530       -26831133.534981173     
  -2789142072.7401791       -38984637.221252680        727460631.50437176     
  -2654442760.0104923       -39036726.462937474        706948789.36064088     
  -2519825970.1184907       -39363891.830237150        689023398.72132087     
  -2385291703.0641761       -39966133.323155880        673684459.58641052     
  -2250839958.8475456       -40843450.941700935        660931971.95590520     
  -3043838227.8779740       -24655710.879878283        541397779.17639589     
  -2902695517.3531094       -26911833.933795810        526492999.06823367     
  -2761494383.9531097       -28973214.070590258        514466850.48554373     
  -2620234827.6779737       -30839851.290270567        505319333.42832792     
  -2478916848.5277076       -32511745.592839956        499050447.89658439     
  -3282891439.1971254       -5633901.3929090500        353661534.22717714     
  -3134470530.8168974       -9843618.2409952879        344528252.81953871     
  -2985850253.8487206       -13388773.129240274        338565782.95843369     
  -2837030608.2925863       -16269366.057622552        335774124.64387757     
  -2688011594.1484933       -18485397.026153088        336153277.87584597     
  -3506301706.6976347        18080791.239638805        164251896.65671715     
  -3349767800.4018669        12167920.615438938        161054550.61456737     
  -3192893579.8053231        7389430.9938186407        161320196.14000452     
  -3035679044.9080086        3745322.3747721910        165048833.23305237     
  -2878124195.7099209        1235594.7583016157        172240461.89369556     
  -3714069030.3794994        46488367.017806530       -26831133.534981173     
  -3548587326.1080079        39122782.635521889       -23928107.546693757     
  -3382624361.8229260        33361398.298560858       -17269909.969751358     
  -3216180137.5242443        29204214.006928921       -6856540.8041395675     
  -3049254653.2119598        26651229.760625839        7311999.9501393735     
  -2250839958.8475456       -40843450.941700935        660931971.95590520     
  -2111001855.0828025       -39812923.252534866        638143422.38871753     
  -1970888742.2540350       -37865698.683286548        621377227.07304227     
  -1830500620.3612456       -35001777.233970642        610633386.00887871     
  -1689837489.4044433       -31221158.904609323        605911899.19622862     
  -2478916848.5277076       -32511745.592839956        499050447.89658439     
  -2325338853.8329525       -30296186.324248075        482238032.73602307     
  -2171681183.8323607       -27815042.702877998        469698941.36716652     
  -2017943838.5259368       -25068314.728721857        461433173.79001844     
  -1864126817.9136703       -22056002.401783705        457440730.00456744     
  -2688011594.1484933       -18485397.026153088        336153277.87584597     
  -2525690938.4088860       -16583975.143684983        325089107.73736322     
  -2363485941.1216431       -15068081.435756564        316549230.93077666     
  -2201396602.2867384       -13937715.902286291        310533647.45608824     
  -2039422921.9041932       -13192878.543350339        307042357.31330425     
  -2878124195.7099209        1235594.7583016157        172240461.89369556     
  -2712058108.8106298        1323710.2890791893        166696647.39274207     
  -2546303014.1218781        375185.11806595325        161928095.76388168     
  -2380858911.6436610       -1609980.7547202110        157934807.00710571     
  -2215725801.3759689       -4631787.3292810917        154716781.12242809     
  -3049254653.2119598        26651229.760625839        7311999.9501393735     
  -2884440365.0381408        23426869.974193096        7060651.7021603715     
  -2720132402.8330650        18514756.958619595        5835535.8664684808     
  -2556330766.5966840        11914890.714059949        3636652.4430630617     
  -2393035456.3290391        3627271.2403798103        464001.43194603472     
  -1689837489.4044433       -31221158.904609323        605911899.19622862     
  -1549303429.3168137       -29269406.426286697        593004051.54144669     
  -1410224693.4077005       -32168734.543020546        578625980.48492420     
  -1272601281.6770866       -39919143.254750848        562777686.02664995     
  -1136433194.1249909       -52520632.561541557        545459168.16663384     
  -1864126817.9136703       -22056002.401783705        457440730.00456744     
  -1727392043.5517094       -24352157.806991935        443713507.49888849     
  -1590858127.2584836       -27317840.108000338        429514267.34833413     
  -1454525069.0339839       -30953049.304771662        414843009.55290443     
  -1318392868.8782265       -35257785.397337914        399699734.11261082     
  -2039422921.9041932       -13192878.543350339        307042357.31330425     
  -1903635416.8196645       -18881336.897591829        293959303.75145650     
  -1766794303.6941233       -21057768.448437095        281402438.30160606     
  -1628899582.5275319       -19722173.195787668        269371760.96376282     
  -1489951253.3199034       -14874551.139689922        257867271.73791686     
  -2215725801.3759689       -4631787.3292810917        154716781.12242809     
  -2078033549.1206989       -12856943.698160291        143741440.29915029     
  -1938033222.7146113       -13388519.564315200        134290493.34474647     
  -1795724822.1577272       -6226514.9278179407        126363940.25920643     
  -1651108347.4500172        8629070.2114385366        119961781.04254901     
  -2393035456.3290391        3627271.2403798103        464001.43194603472     
  -2250586440.4547811       -6278978.2085897923       -6940082.8580287090     
  -2104574884.3199673       -4310093.4556866884       -11821567.522256646     
  -1955000787.9245567        9533925.4991997480       -14180452.560741462     
  -1801864151.2685530        35253078.656053901       -14016737.973478509     
  -1136433194.1249909       -52520632.561541557        545459168.16663384     
  -951640521.24406278       -41266759.234332472        563250595.67964208     
  -759281763.50198662       -4792603.0366353095        592109639.57098556     
  -559356920.89876103        56901836.031559885        632036299.84065843     
  -351865993.43437439        143816557.97029787        683030576.48867035     
  -1318392868.8782265       -35257785.397337914        399699734.11261082     
  -1118452593.7112961       -15227966.226987720        421405079.44721365     
  -914888076.23854506        16882660.629436672        441669591.89045256     
  -707699316.45998275        61074095.171912462        460493271.44232357     
  -496886314.37558484        117346337.40047351        477876118.10283452     
  -1489951253.3199034       -14874551.139689922        257867271.73791686     
  -1310601802.3518255        3209685.9283549190        278887718.57956219     
  -1131569951.6332572        20235255.498043478        285958883.26014596     
  -952855701.16420555        36202157.569338202        279080765.77966189     
  -774459050.94465685        51110392.142290741        258253366.13811785     
  -1651108347.4500172        8629070.2114385366        119961781.04254901     
  -1528088147.1656482        14046197.231706202        135698513.07669055     
  -1409327389.6861169        5265181.5692088008        124977513.68007526     
  -1294826075.0114384       -17713976.776125789        87798782.852680832     
  -1184584203.1415806       -54891277.804234207        24162320.594532873     
  -1801864151.2685530        35253078.656053901       -14016737.973478509     
  -1770911628.1527524        17281567.683099747       -8162537.0613893969     
  -1748160390.3971176       -28027561.157051563       -41274516.849772073     
  -1733610438.0016739       -100674307.86451632       -113352677.33862141     
  -1727261770.9663713       -200658672.43911928       -224397018.52793485     
  -351865993.43437439        143816557.97029787        683030576.48867035     
  -277792990.23470199        285207133.34471548        786396508.66894400     
  -148977568.12798074        609072438.40930140        905542105.65922940     
   34580272.885824025        1115412473.1641574        1040467367.4595649     
   272880532.80668479        1804227237.6092005        1191172294.0699172     
  -496886314.37558484        117346337.40047351        477876118.10283452     
  -388133666.29267156        223011235.03243843        597121864.74244225     
  -230250912.20535237        492443152.67910397        735508983.65354466     
  -23238052.113624156        925642090.34045649        893037474.83613718     
   232904913.98253530        1522608048.0165629        1069707338.2902207     
  -774459050.94465685        51110392.142290741        258253366.13811785     
  -621421879.51718271        123931075.57017565        386831228.85064876     
  -424866914.98793530        341811069.33730328        537912171.29613876     
  -184794157.35694268        704750373.44360447        711496193.47457194     
   98796393.375840127        1212748987.8891618        907583295.38597453     
  -1184584203.1415806       -54891277.804234207        24162320.594532873     
  -977657629.90820646       -12033345.041976035        155524600.99354979     
  -732825576.47573733        157176188.38393679        312751668.58698863     
  -450088042.84413862        452737322.47360420        495843523.37486356     
  -129445029.01343876        874650057.22695875        704800165.35713124     
  -1727261770.9663713       -200658672.43911928       -224397018.52793485     
  -1456840917.4657815       -184882026.80415958       -96798018.828852654     
  -1154126896.6687229       -61461490.180938125        60027475.526127122     
  -819119708.57523298        169602937.43038267        246079464.53698143     
  -451819353.18523097        508311256.03005505        461357948.20373589     
 </DataArray>
 <DataArray  type="Float64" Name="VM" NumberOfComponents="1" format="ascii">
   6100954731.5932159     
   5868104516.1113205     
   5632936643.6620150     
   5395249662.4063787     
   5154892256.6533689     
   5778853778.9683981     
   5543495563.9310713     
   5307206467.6586647     
   5069951089.5178576     
   4831717877.1756401     
   5444252592.8618336     
   5215385290.2214403     
   4987826510.2962980     
   4761712019.6429577     
   4537282383.8328037     
   5103715759.1282539     
   4889170253.0727930     
   4679271574.9500399     
   4474241070.2648678     
   4274581211.9949670     
   4766411478.7762918     
   4572154176.2895203     
   4387319536.5596771     
   4211987372.2760658     
   4046763818.5904737     
   5154892256.6533689     
   5003794607.2650251     
   4853737224.1960726     
   4704676551.0745125     
   4556660612.3008928     
   4831717877.1756401     
   4695483973.6989422     
   4560441009.2157784     
   4426603479.6657953     
   4294040609.2662196     
   4537282383.8328037     
   4412571507.5737419     
   4288886125.3713980     
   4166277851.9513850     
   4044825522.7139473     
   4274581211.9949670     
   4158467650.5858603     
   4042864993.3936291     
   3927831300.4697738     
   3813435625.4071956     
   4046763818.5904737     
   3936904304.3389030     
   3826686285.8935027     
   3716130677.4431705     
   3605265140.5181599     
   4556660612.3008928     
   4352617779.5060768     
   4147933111.2414446     
   3942584852.4086266     
   3736574514.7525125     
   4294040609.2662196     
   4098360880.6992168     
   3902765437.9118438     
   3707304115.8832660     
   3512081769.6289954     
   4044825522.7139473     
   3860380411.4459548     
   3677121140.7939897     
   3495216233.0502634     
   3314938547.8703675     
   3813435625.4071956     
   3642935350.9255958     
   3475131953.9183602     
   3310345097.6257601     
   3149057468.8228707     
   3605265140.5181599     
   3451071545.9093885     
   3301500949.2975950     
   3157024368.6898446     
   3018329060.8385897     
   3736574514.7525125     
   3565793856.9843493     
   3395964911.8480153     
   3227054245.3197885     
   3059108747.1613998     
   3512081769.6289954     
   3352809687.4443889     
   3194762537.1599021     
   3037982227.2939491     
   2882579530.7065144     
   3314938547.8703675     
   3166148297.1647015     
   3018754623.1273832     
   2872873009.1907797     
   2728680333.3590980     
   3149057468.8228707     
   3010155432.6936831     
   2872718887.3055153     
   2736930750.5322132     
   2603032275.8350625     
   3018329060.8385897     
   2889229932.7011299     
   2761571376.9246125     
   2635592732.4465828     
   2511593091.2569041     
   3059108747.1613998     
   2893094500.7830625     
   2726444551.1472397     
   2559147873.4212880     
   2391203182.2096820     
   2882579530.7065144     
   2719009794.3239350     
   2555349889.0355177     
   2391628133.3808355     
   2227894084.7459230     
   2728680333.3590980     
   2570254865.3751340     
   2412715853.2872586     
   2256214771.0728703     
   2100967333.2987242     
   2603032275.8350625     
   2452446038.3961129     
   2304182506.9384737     
   2158586785.0925274     
   2016131027.4518280     
   2511593091.2569041     
   2371266614.3854275     
   2235096663.6296816     
   2103637899.4406903     
   1977623944.6855769     
   2391203182.2096820     
   2244771405.0985246     
   2100659261.7464082     
   1958856411.7992280     
   1819537961.9239817     
   2227894084.7459230     
   2085149385.7101872     
   1944161224.7070129     
   1804924188.9088545     
   1667516529.6680131     
   2100967333.2987242     
   1960981244.2530019     
   1821983272.4794571     
   1683999739.8165262     
   1547085606.2041826     
   2016131027.4518280     
   1879682381.9792969     
   1743472069.7502139     
   1607618277.5667369     
   1472284325.8804169     
   1977623944.6855769     
   1847310419.7756202     
   1716816415.4509959     
   1586468639.6922801     
   1456752503.1458268     
   1819537961.9239817     
   1779315832.4277847     
   1735471642.4983373     
   1696665312.9626966     
   1681492070.7310200     
   1667516529.6680131     
   1552265792.5806124     
   1427843018.7814267     
   1294596559.9771504     
   1158669723.0094733     
   1547085606.2041826     
   1397198018.4749596     
   1243746901.8782849     
   1084458864.0998125     
   917300309.20597255     
   1472284325.8804169     
   1327931860.6488235     
   1198091865.0261595     
   1087278026.0452282     
   1001437881.0997672     
   1456752503.1458268     
   1347552936.5342951     
   1273426506.9446437     
   1242535822.8541086     
   1261974293.3372061     
   1681492070.7310200     
   1383809503.3595986     
   1129385226.0127892     
   1010120144.9636126     
   1153609444.1029451     
   1158669723.0094733     
   1008211239.9280386     
   985018524.20227349     
   1161435508.6609828     
   1544410370.8598843     
   917300309.20597255     
   962795607.54345798     
   1144697511.2103057     
   1476353811.8928635     
   1957462652.6425374     
   1001437881.0997672     
   1164324679.6135881     
   1425204348.9989100     
   1808622468.1043913     
   2334628989.1013503     
   1261974293.3372061     
   1446159872.0320761     
   1715492153.4710801     
   2110459176.0527902     
   2663402338.7832270     
   4766411478.7762918     
   4572154176.2895203     
   4387319536.5596771     
   4211987372.2760658     
   4046763818.5904737     
   4403628561.2412682     
   4247521176.7699652     
   4098018800.9093618     
   3955337578.5651083     
   3819922014.4951215     
   4091802744.8811417     
   3965564668.5900884     
   3842270206.7400599     
   3722132113.1386743     
   3605432158.2523699     
   3829212925.7780919     
   3726018692.2917967     
   3621581701.7593551     
   3515825711.8813396     
   3408725702.8162260     
   3613232334.7279224     
   3527819870.4384222     
   3437065743.8869128     
   3340153086.7270250     
   3236442591.7996187     
   4046763818.5904737     
   3936904304.3389030     
   3826686285.8935027     
   3716130677.4431705     
   3605265140.5181599     
   3819922014.4951215     
   3712879566.0840702     
   3607114834.9842067     
   3502778280.4009094     
   3400046656.4480748     
   3605432158.2523699     
   3505958041.3712754     
   3409937626.7030568     
   3317676101.5584812     
   3229544403.3106794     
   3408725702.8162260     
   3320848990.4969692     
   3239156678.9013934     
   3164084427.7955732     
   3096178710.1614194     
   3236442591.7996187     
   3163009148.2449169     
   3099047560.4928365     
   3045035030.4113965     
   3001596196.8111439     
   3605265140.5181599     
   3451071545.9093885     
   3301500949.2975950     
   3157024368.6898446     
   3018329060.8385897     
   3400046656.4480748     
   3265882732.8414083     
   3136497827.1815219     
   3012395023.9414616     
   2894238299.1028700     
   3229544403.3106794     
   3113822921.4464726     
   3002767851.8335328     
   2896869953.2634053     
   2796728617.5561819     
   3096178710.1614194     
   2997623552.9013186     
   2903317531.4742646     
   2813695675.8113670     
   2729257790.5182748     
   3001596196.8111439     
   2919249751.6253095     
   2840419698.5287457     
   2765448336.5114598     
   2694711612.4067016     
   3018329060.8385897     
   2889229932.7011299     
   2761571376.9246125     
   2635592732.4465828     
   2511593091.2569041     
   2894238299.1028700     
   2774522260.1299710     
   2657769427.1076212     
   2544383951.4265046     
   2434860904.2171593     
   2796728617.5561819     
   2689037096.8351092     
   2586107879.3445497     
   2488496420.8599348     
   2396864896.9929476     
   2729257790.5182748     
   2635568168.1495829     
   2548583440.0431414     
   2468946552.5914960     
   2397398438.8880658     
   2694711612.4067016     
   2616030831.5710502     
   2545994697.2282834     
   2485238801.1962433     
   2434469258.4303513     
   2511593091.2569041     
   2371266614.3854275     
   2235096663.6296816     
   2103637899.4406903     
   1977623944.6855769     
   2434860904.2171593     
   2310086381.8435445     
   2190601242.6964293     
   2077126968.5375049     
   1970557856.4272563     
   2396864896.9929476     
   2289235059.5879712     
   2187984683.3581772     
   2093913195.5753646     
   2007950840.0263326     
   2397398438.8880658     
   2307904403.2277932     
   2225659573.4759903     
   2151434409.4003735     
   2086070550.1677012     
   2434469258.4303513     
   2363348832.5663581     
   2300012600.0035043     
   2245119584.6902924     
   2199347315.0376077     
   1977623944.6855769     
   1847310419.7756202     
   1716816415.4509959     
   1586468639.6922801     
   1456752503.1458268     
   1970557856.4272563     
   1854389288.2639909     
   1742528609.0124819     
   1635891793.7418215     
   1535604986.3378205     
   2007950840.0263326     
   1911167381.6932163     
   1823268679.5420699     
   1745468127.3425443     
   1679072562.8691080     
   2086070550.1677012     
   2010278111.1619725     
   1947123502.7205837     
   1897705182.3350692     
   1863074393.7517016     
   2199347315.0376077     
   2143045581.5426645     
   2102127339.8470266     
   2077373103.1909595     
   2069482535.1200104     
   1456752503.1458268     
   1347552936.5342951     
   1273426506.9446437     
   1242535822.8541086     
   1261974293.3372061     
   1535604986.3378205     
   1474791985.1171925     
   1446680024.2946491     
   1455242554.5906713     
   1503789618.7858365     
   1679072562.8691080     
   1650827951.8614860     
   1650233641.6301432     
   1679659477.8104794     
   1741713350.1103814     
   1863074393.7517016     
   1853046966.2194490     
   1865852576.7975967     
   1903700350.2867258     
   1969606238.0365438     
   2069482535.1200104     
   2066770904.4701722     
   2083093123.2377069     
   2121079290.1177433     
   2184509765.0646753     
   1261974293.3372061     
   1446159872.0320761     
   1715492153.4710801     
   2110459176.0527902     
   2663402338.7832270     
   1503789618.7858365     
   1612606315.3635709     
   1788600795.9151313     
   2066464837.2006094     
   2476329232.9478879     
   1741713350.1103814     
   1786913320.7577560     
   1884290372.4378915     
   2060728354.7753491     
   2341413411.6433387     
   1969606238.0365438     
   1968049235.0001488     
   2003123943.7137637     
   2093510638.2811177     
   2257861531.3692894     
   2184509765.0646753     
   2155304471.0673118     
   2145841139.1301606     
   2166677539.3110766     
   2228913058.5801015     
   3613232334.7279224     
   3527819870.4384222     
   3437065743.8869128     
   3340153086.7270250     
   3236442591.7996187     
   3494052138.7095666     
   3384588217.2084446     
   3278304508.0574098     
   3175521784.2375755     
   3076595650.5315514     
   3394190979.2069664     
   3263351229.8647985     
   3146554069.4816499     
   3044223416.8249617     
   2957043218.6873250     
   3348047072.5645213     
   3190000378.2068939     
   3059987234.4075913     
   2957159733.1451535     
   2881359501.1501431     
   3395465566.0692015     
   3194333801.8364172     
   3038624309.4411082     
   2925098946.0069442     
   2851600524.5071807     
   3236442591.7996187     
   3163009148.2449169     
   3099047560.4928365     
   3045035030.4113965     
   3001596196.8111439     
   3076595650.5315514     
   3020811789.0106516     
   2973628711.1935201     
   2935331264.1055126     
   2906282797.9511595     
   2957043218.6873250     
   2914524387.3783636     
   2879301202.1359358     
   2851520747.9118266     
   2831365855.6655903     
   2881359501.1501431     
   2848082551.7931380     
   2820371569.9108315     
   2798291152.4709210     
   2781918797.6122861     
   2851600524.5071807     
   2824227513.9865522     
   2800312210.1325898     
   2779879251.4427032     
   2762956632.9754558     
   3001596196.8111439     
   2919249751.6253095     
   2840419698.5287457     
   2765448336.5114598     
   2694711612.4067016     
   2906282797.9511595     
   2831240356.4153609     
   2762114532.8738923     
   2699376189.7770596     
   2643536173.9441028     
   2831365855.6655903     
   2765382261.0517406     
   2707892665.6546054     
   2659413941.4580865     
   2620499009.5625424     
   2781918797.6122861     
   2725419459.1361508     
   2680098566.6267166     
   2646420776.2454386     
   2624877634.5718255     
   2762956632.9754558     
   2714739649.0161476     
   2680470936.4951444     
   2660480049.3176088     
   2655116920.5729771     
   2694711612.4067016     
   2616030831.5710502     
   2545994697.2282834     
   2485238801.1962433     
   2434469258.4303513     
   2643536173.9441028     
   2581406336.3908567     
   2527816329.4958043     
   2483256679.9182630     
   2448250045.0649924     
   2620499009.5625424     
   2573331607.1885104     
   2534368415.8298802     
   2503960384.0050116     
   2482467590.0286870     
   2624877634.5718255     
   2590900772.0121555     
   2564602651.3571706     
   2546215571.3831296     
   2535970405.4048762     
   2655116920.5729771     
   2632483002.1673594     
   2616868555.8422418     
   2608415502.7269859     
   2607261737.5096626     
   2434469258.4303513     
   2363348832.5663581     
   2300012600.0035043     
   2245119584.6902924     
   2199347315.0376077     
   2448250045.0649924     
   2391282733.0195580     
   2343731122.8367805     
   2306167800.5194240     
   2279147581.7782240     
   2482467590.0286870     
   2438877257.6148248     
   2406078400.2479830     
   2384508880.8004627     
   2374569809.1306477     
   2535970405.4048762     
   2504105646.5656495     
   2484218140.2540979     
   2476599220.6634755     
   2481503709.9591894     
   2607261737.5096626     
   2584769821.2958913     
   2575366808.0474343     
   2579212457.9484973     
   2596443823.5851154     
   2199347315.0376077     
   2143045581.5426645     
   2102127339.8470266     
   2077373103.1909595     
   2069482535.1200104     
   2279147581.7782240     
   2238727058.9367914     
   2212236227.4484339     
   2200118002.6439300     
   2202758788.6824155     
   2374569809.1306477     
   2347055207.2295461     
   2332017579.7421479     
   2329697471.9043789     
   2340307192.8616199     
   2481503709.9591894     
   2464366368.8770218     
   2458362669.5042782     
   2463623308.2959790     
   2480272098.6858506     
   2596443823.5851154     
   2587642039.2926030     
   2588787525.6368880     
   2599958469.9924793     
   2621238970.3545327     
   2069482535.1200104     
   2066770904.4701722     
   2083093123.2377069     
   2121079290.1177433     
   2184509765.0646753     
   2202758788.6824155     
   2189086668.5564470     
   2190324746.2553611     
   2208446915.8118343     
   2246363612.3680806     
   2340307192.8616199     
   2316427159.6293817     
   2304104605.7093682     
   2304752711.6820731     
   2320466823.0333943     
   2480272098.6858506     
   2447855894.7206106     
   2424125780.1594734     
   2410036454.4781737     
   2406982066.3431191     
   2621238970.3545327     
   2582618824.2934785     
   2550113688.2616110     
   2524315973.4722786     
   2506057106.0130143     
   2184509765.0646753     
   2155304471.0673118     
   2145841139.1301606     
   2166677539.3110766     
   2228913058.5801015     
   2246363612.3680806     
   2181865936.3257456     
   2133891932.7794626     
   2112129576.8959944     
   2127528984.8870747     
   2320466823.0333943     
   2224059891.0638394     
   2141004874.1728299     
   2079675916.1210387     
   2050246231.4845881     
   2406982066.3431191     
   2282173743.9706826     
   2167823088.0954223     
   2070668519.7781227     
   1999465441.7261994     
   2506057106.0130143     
   2356410403.6967931     
   2214814675.5742869     
   2086241372.3295004     
   1977541491.9515383     
   3395465566.0692015     
   3194333801.8364172     
   3038624309.4411082     
   2925098946.0069442     
   2851600524.5071807     
   2901405014.8311067     
   2782877409.9083509     
   2692150547.1942844     
   2628745378.9713631     
   2592310126.3984151     
   2427900943.3642983     
   2383976939.0744705     
   2359272377.4078960     
   2352269763.3964844     
   2361850169.1641936     
   1983243822.3421922     
   1990684284.8600347     
   2029078686.1139665     
   2086390530.2277896     
   2154786393.6270089     
   1622717279.9482529     
   1615292641.5694780     
   1697327652.4629493     
   1823794616.8834074     
   1965751755.0230970     
   2851600524.5071807     
   2824227513.9865522     
   2800312210.1325898     
   2779879251.4427032     
   2762956632.9754558     
   2592310126.3984151     
   2597056690.3014817     
   2602800225.4338698     
   2609553685.7187591     
   2617335507.5773087     
   2361850169.1641936     
   2399552768.8609877     
   2435824916.1684637     
   2470619082.2993155     
   2503909735.5708480     
   2154786393.6270089     
   2226164251.4609103     
   2293885312.8741961     
   2357761766.5778403     
   2417671964.2969422     
   1965751755.0230970     
   2071129516.9755874     
   2171089601.0376410     
   2265148044.3944321     
   2352991263.8350892     
   2762956632.9754558     
   2714739649.0161476     
   2680470936.4951444     
   2660480049.3176088     
   2655116920.5729771     
   2617335507.5773087     
   2597586794.5713267     
   2588556519.4358611     
   2590392081.5854292     
   2603240427.0640936     
   2503909735.5708480     
   2509273991.4151239     
   2521857653.7403955     
   2541707345.5750208     
   2568866412.3224335     
   2417671964.2969422     
   2445529403.3480873     
   2476956796.5069442     
   2511957800.5639219     
   2550535069.7523146     
   2352991263.8350892     
   2401563286.4468493     
   2450015240.7428756     
   2498338038.3919382     
   2546523523.5545726     
   2655116920.5729771     
   2632483002.1673594     
   2616868555.8422418     
   2608415502.7269859     
   2607261737.5096626     
   2603240427.0640936     
   2593458883.2909837     
   2591271965.8471899     
   2596756742.1857929     
   2609983046.7198453     
   2568866412.3224335     
   2569919859.8920650     
   2579056577.5922728     
   2596307814.4556165     
   2621700831.8252339     
   2550535069.7523146     
   2560003293.5880408     
   2578017553.8133216     
   2604590212.7147021     
   2639736397.8952737     
   2546523523.5545726     
   2561704946.6185918     
   2585932954.4874787     
   2619231335.5842309     
   2661633975.5351958     
   2607261737.5096626     
   2584769821.2958913     
   2575366808.0474343     
   2579212457.9484973     
   2596443823.5851154     
   2609983046.7198453     
   2600660539.9412098     
   2601831973.1576805     
   2613570555.3254766     
   2635937715.6566820     
   2621700831.8252339     
   2624116980.7165856     
   2634587864.3113685     
   2653143611.6438270     
   2679812562.4133549     
   2639736397.8952737     
   2653128534.3684001     
   2672276265.5079203     
   2697179327.2084560     
   2727847777.4958267     
   2661633975.5351958     
   2685844995.3242855     
   2713634348.7676764     
   2744963275.9476762     
   2779820429.1243563     
   2596443823.5851154     
   2587642039.2926030     
   2588787525.6368880     
   2599958469.9924793     
   2621238970.3545327     
   2635937715.6566820     
   2627575106.4921193     
   2628898736.2236342     
   2639949326.4959559     
   2660774548.3786345     
   2679812562.4133549     
   2671384234.2673936     
   2672520127.7305336     
   2683234537.9527965     
   2703548444.3236513     
   2727847777.4958267     
   2718868245.5079341     
   2719470828.7427969     
   2729654349.8543777     
   2749422917.8952923     
   2779820429.1243563     
   2769824893.1886630     
   2769569850.4440570     
   2779049755.4648614     
   2798261868.3766651     
   2621238970.3545327     
   2582618824.2934785     
   2550113688.2616110     
   2524315973.4722786     
   2506057106.0130143     
   2660774548.3786345     
   2615359413.8912835     
   2575673862.8538837     
   2542052420.8259921     
   2514965886.6911530     
   2703548444.3236513     
   2653532994.3504438     
   2609009585.9860787     
   2570125311.1086626     
   2537086469.5623145     
   2749422917.8952923     
   2697025960.0035801     
   2650027331.2053232     
   2608462292.2959571     
   2572379269.0295582     
   2798261868.3766651     
   2745718656.5722589     
   2698620150.6034813     
   2656966221.0853381     
   2620756902.7063231     
   2506057106.0130143     
   2356410403.6967931     
   2214814675.5742869     
   2086241372.3295004     
   1977541491.9515383     
   2514965886.6911530     
   2347633814.3030887     
   2183812663.8678126     
   2026612442.1576920     
   1880607071.6954789     
   2537086469.5623145     
   2357065302.5414391     
   2176807404.3057241     
   1997803203.8462696     
   1822360279.8861718     
   2572379269.0295582     
   2384817419.2539682     
   2194271670.9191060     
   2001135763.8440228     
   1806041250.3808408     
   2620756902.7063231     
   2430866690.9711566     
   2236353629.3786445     
   2037217786.1357787     
   1833459598.5946720     
   1622717279.9482529     
   1615292641.5694780     
   1697327652.4629493     
   1823794616.8834074     
   1965751755.0230970     
   1952771926.9594574     
   2029903925.5655403     
   2124661090.7684493     
   2228414683.1686206     
   2336058146.0808897     
   2604458303.7093024     
   2635962971.4358606     
   2670665139.1701365     
   2708536033.9987469     
   2749542492.0368977     
   3511635335.8644753     
   3420919505.4576592     
   3346162372.6037292     
   3282784538.7327347     
   3227350803.0013533     
   4631343349.0222616     
   4375976561.2428608     
   4157741384.8577456     
   3964646544.8936849     
   3787148517.4131498     
   1965751755.0230970     
   2071129516.9755874     
   2171089601.0376410     
   2265148044.3944321     
   2352991263.8350892     
   2336058146.0808897     
   2378328394.6079593     
   2422826365.7957230     
   2469494074.8209786     
   2518280296.5365028     
   2749542492.0368977     
   2723881173.1139250     
   2708597910.0887752     
   2703643529.2681065     
   2708980810.8851686     
   3227350803.0013533     
   3127060189.8161392     
   3045389282.4682403     
   2982075491.4366231     
   2936935296.8474569     
   3787148517.4131498     
   3604345433.7789402     
   3448066162.1043739     
   3317721554.3482366     
   3212896618.3177767     
   2352991263.8350892     
   2401563286.4468493     
   2450015240.7428756     
   2498338038.3919382     
   2546523523.5545726     
   2518280296.5365028     
   2530339432.4792047     
   2548512875.5401268     
   2572798619.2246451     
   2603194474.1787415     
   2708980810.8851686     
   2682344456.2664604     
   2667962864.6938806     
   2665844890.8726335     
   2676004881.7196946     
   2936935296.8474569     
   2867634732.4388866     
   2816488956.8862567     
   2783575463.4687629     
   2769000246.3998117     
   3212896618.3177767     
   3095439257.8912578     
   3001594965.6190066     
   2931620216.8250737     
   2885868092.6989055     
   2546523523.5545726     
   2561704946.6185918     
   2585932954.4874787     
   2619231335.5842309     
   2661633975.5351958     
   2603194474.1787415     
   2600617065.3210263     
   2606917926.3192191     
   2622111859.5693927     
   2646214217.3777747     
   2676004881.7196946     
   2655093033.7754521     
   2642947051.7218852     
   2639597628.3125644     
   2645072998.1875758     
   2769000246.3998117     
   2729441048.6760483     
   2698501601.1755729     
   2676249813.5848041     
   2662758561.7633567     
   2885868092.6989055     
   2827710940.8145137     
   2777934885.6607299     
   2736655133.0610738     
   2704011663.1177144     
   2661633975.5351958     
   2685844995.3242855     
   2713634348.7676764     
   2744963275.9476762     
   2779820429.1243563     
   2646214217.3777747     
   2658304684.8732753     
   2677790258.1022787     
   2704657811.1856017     
   2738898704.1424818     
   2645072998.1875758     
   2641670146.7200146     
   2649469720.2268724     
   2668495944.8955054     
   2698772644.4835720     
   2662758561.7633567     
   2639355941.9673090     
   2631009369.3360462     
   2637825191.2387371     
   2659921467.7947721     
   2704011663.1177144     
   2654971515.0227246     
   2624901618.9535332     
   2614092728.0302372     
   2622878259.5652528     
   2779820429.1243563     
   2769824893.1886630     
   2769569850.4440570     
   2779049755.4648614     
   2798261868.3766651     
   2738898704.1424818     
   2727131575.2923341     
   2725136162.0871224     
   2732918096.7572579     
   2750482333.0833130     
   2698772644.4835720     
   2685674506.4454770     
   2682555171.7558393     
   2689432481.9799600     
   2706329512.2945714     
   2659921467.7947721     
   2645845216.7905097     
   2642138314.7805047     
   2648832944.3715968     
   2665981772.9634795     
   2622878259.5652528     
   2608069169.3805633     
   2604216065.3086805     
   2611368426.8816962     
   2629620284.2993970     
   2798261868.3766651     
   2745718656.5722589     
   2698620150.6034813     
   2656966221.0853381     
   2620756902.7063231     
   2750482333.0833130     
   2698089573.5607071     
   2651174504.7180128     
   2609774225.3059626     
   2573942049.8100457     
   2706329512.2945714     
   2656049271.6909890     
   2611420858.8888273     
   2572589816.0295558     
   2539760075.4767098     
   2665981772.9634795     
   2619748629.6996861     
   2579487424.1435790     
   2545522863.9361348     
   2518304273.5966177     
   2629620284.2993970     
   2589333674.0362015     
   2555489917.1816592     
   2528659226.1838870     
   2509621883.3690581     
   2620756902.7063231     
   2430866690.9711566     
   2236353629.3786445     
   2037217786.1357787     
   1833459598.5946720     
   2573942049.8100457     
   2385770726.7195373     
   2194611306.5610323     
   2000827580.3221164     
   1804997644.6117351     
   2539760075.4767098     
   2358728291.7834282     
   2177459933.3567920     
   1997412152.8671579     
   1820841177.2940524     
   2518304273.5966177     
   2349767864.5611205     
   2184756481.6052456     
   2026370801.0315597     
   1879186760.4430063     
   2509621883.3690581     
   2358783458.9318252     
   2216033389.2257056     
   2086379778.5649443     
   1976760364.7781842     
   4631343349.0222616     
   4375976561.2428608     
   4157741384.8577456     
   3964646544.8936849     
   3787148517.4131498     
   4056680571.2585673     
   3898225750.2883320     
   3750100213.6530547     
   3609815505.0923572     
   3475352388.2584801     
   3583117865.6898847     
   3488001591.8304472     
   3398891341.7998018     
   3315450198.1388111     
   3237623834.2737460     
   3344144308.8104076     
   3221706050.0154805     
   3138551469.1909151     
   3084813665.1124153     
   3053702257.6994758     
   3514425078.0428057     
   3219340504.2803655     
   3035003216.8792815     
   2939060926.2656894     
   2911826760.5705404     
   3787148517.4131498     
   3604345433.7789402     
   3448066162.1043739     
   3317721554.3482366     
   3212896618.3177767     
   3475352388.2584801     
   3350464158.7213855     
   3239900097.6721730     
   3143495161.9590430     
   3061269690.6238708     
   3237623834.2737460     
   3159459574.5620980     
   3086055633.8991923     
   3017606610.2155523     
   2954399048.1756983     
   3053702257.6994758     
   3010125250.3733926     
   2966357673.9144969     
   2922311573.6279392     
   2877919249.0841112     
   2911826760.5705404     
   2887991373.1070890     
   2865748153.6183028     
   2843428713.8019691     
   2819519778.8056817     
   3212896618.3177767     
   3095439257.8912578     
   3001594965.6190066     
   2931620216.8250737     
   2885868092.6989055     
   3061269690.6238708     
   2962657667.0081520     
   2880257499.7806334     
   2814667580.1971354     
   2766581555.6220789     
   2954399048.1756983     
   2869087231.4044209     
   2793919885.9063940     
   2729624005.3301234     
   2676984967.2248054     
   2877919249.0841112     
   2803037480.0266924     
   2733903078.9727635     
   2671000423.8003030     
   2614828233.1820498     
   2819519778.8056817     
   2754180399.8500180     
   2692188718.8453007     
   2633336583.5680909     
   2577418852.3746648     
   2885868092.6989055     
   2827710940.8145137     
   2777934885.6607299     
   2736655133.0610738     
   2704011663.1177144     
   2766581555.6220789     
   2716561655.6710749     
   2674894416.3698273     
   2641776819.7255321     
   2617415466.2429957     
   2676984967.2248054     
   2629856194.1513605     
   2591055668.9987540     
   2560938696.9015560     
   2539865278.1352491     
   2614828233.1820498     
   2565285871.8625798     
   2524032005.7037716     
   2491662202.6258903     
   2468786569.1512084     
   2577418852.3746648     
   2520401010.6216145     
   2471544621.5629482     
   2431765603.3809285     
   2402028789.7473874     
   2704011663.1177144     
   2654971515.0227246     
   2624901618.9535332     
   2614092728.0302372     
   2622878259.5652528     
   2617415466.2429957     
   2564715558.3830733     
   2526786241.2228932     
   2504139771.1962409     
   2497281804.1179996     
   2539865278.1352491     
   2483383069.9997883     
   2437755201.1100326     
   2403570786.4154453     
   2381392652.7063103     
   2468786569.1512084     
   2409959811.4147201     
   2358303891.7737617     
   2314273771.4790263     
   2278305111.4012413     
   2402028789.7473874     
   2343622143.2013130     
   2289024846.5639725     
   2238312382.2722726     
   2191566718.8300762     
   2622878259.5652528     
   2608069169.3805633     
   2604216065.3086805     
   2611368426.8816962     
   2629620284.2993970     
   2497281804.1179996     
   2477189025.0194755     
   2468930063.2681265     
   2472611949.4799237     
   2488359818.5293894     
   2381392652.7063103     
   2353392512.9207916     
   2338256560.8237967     
   2336209944.3854074     
   2347459680.4492025     
   2278305111.4012413     
   2239391538.7581449     
   2214468561.6892819     
   2203971550.7909775     
   2208273791.8156915     
   2191566718.8300762     
   2138426501.9393890     
   2100382697.7520726     
   2078209532.4094555     
   2072578622.6056287     
   2629620284.2993970     
   2589333674.0362015     
   2555489917.1816592     
   2528659226.1838870     
   2509621883.3690581     
   2488359818.5293894     
   2454290818.9686007     
   2429117789.9680429     
   2413779819.3704805     
   2409631049.4016814     
   2347459680.4492025     
   2322157264.3351469     
   2308510021.0677238     
   2307919747.7847538     
   2322460556.8922849     
   2208273791.8156915     
   2193640020.9210672     
   2193908710.2219448     
   2211042009.7176671     
   2247954028.6043639     
   2072578622.6056287     
   2069615955.0673919     
   2085582481.5211043     
   2123086967.8905396     
   2185940809.1056428     
   2509621883.3690581     
   2358783458.9318252     
   2216033389.2257056     
   2086379778.5649443     
   1976760364.7781842     
   2409631049.4016814     
   2283988102.5705252     
   2168789502.3888431     
   2070804402.8060322     
   1998860209.0048203     
   2322460556.8922849     
   2225498820.6401181     
   2141829959.2592509     
   2079846129.5439458     
   2049768263.9680550     
   2247954028.6043639     
   2183107405.7110605     
   2134683974.5246956     
   2112371021.3174250     
   2127136495.3741896     
   2185940809.1056428     
   2156519831.8054614     
   2146702533.8156126     
   2167022837.3620758     
   2228566356.0825419     
   3514425078.0428057     
   3219340504.2803655     
   3035003216.8792815     
   2939060926.2656894     
   2911826760.5705404     
   3427769839.7433991     
   3263717748.7479801     
   3154813027.5827470     
   3095236905.1645198     
   3080185651.2447104     
   3559963373.6203837     
   3477505708.8863397     
   3410420643.9626098     
   3361041137.8064361     
   3331748704.1772470     
   3961718724.8159046     
   3885239217.0798521     
   3811307675.6912065     
   3738086473.5120001     
   3665951911.8149476     
   4651650777.9249010     
   4498586697.6107235     
   4362583032.1648293     
   4227528363.4373622     
   4084101621.9536972     
   2911826760.5705404     
   2887991373.1070890     
   2865748153.6183028     
   2843428713.8019691     
   2819519778.8056817     
   3080185651.2447104     
   3046111376.3367548     
   3013171020.3770423     
   2980941371.2864437     
   2949016755.7557020     
   3331748704.1772470     
   3275128738.7552180     
   3221683328.7572699     
   3171410384.0278835     
   3124328575.5974441     
   3665951911.8149476     
   3576499508.0773005     
   3493633439.4520173     
   3417206210.4473734     
   3347183313.1700382     
   4084101621.9536972     
   3952563259.3191676     
   3831536712.0336332     
   3720404237.7220135     
   3618794021.0205574     
   2819519778.8056817     
   2754180399.8500180     
   2692188718.8453007     
   2633336583.5680909     
   2577418852.3746648     
   2949016755.7557020     
   2867483119.6304784     
   2789227840.7550044     
   2714487186.1364779     
   2643511842.0068831     
   3124328575.5974441     
   3023240633.0078239     
   2925645712.5023594     
   2831989823.0382047     
   2742784106.3519630     
   3347183313.1700382     
   3223038610.8607178     
   3102811273.4020557     
   2986936338.4747248     
   2875985028.1767416     
   3618794021.0205574     
   3467782933.6637120     
   3321285056.0961943     
   3179534664.0725923     
   3042974946.1950164     
   2577418852.3746648     
   2520401010.6216145     
   2471544621.5629482     
   2431765603.3809285     
   2402028789.7473874     
   2643511842.0068831     
   2561820050.8778811     
   2486593545.6410947     
   2418658932.8087626     
   2358941977.4987226     
   2742784106.3519630     
   2639160251.1193943     
   2540284620.7845292     
   2446790669.3189144     
   2359428327.0321984     
   2875985028.1767416     
   2753750399.4451852     
   2634748476.7507100     
   2519370307.2032981     
   2408102366.7430453     
   3042974946.1950164     
   2905735577.8849592     
   2770585138.6848392     
   2637695048.2504649     
   2507291337.4902010     
   2402028789.7473874     
   2343622143.2013130     
   2289024846.5639725     
   2238312382.2722726     
   2191566718.8300762     
   2358941977.4987226     
   2281330379.5641050     
   2208727035.1623726     
   2141500804.0267563     
   2080043835.2715511     
   2359428327.0321984     
   2261276187.9172678     
   2168825989.9584374     
   2082679720.6980886     
   2003524851.7563968     
   2408102366.7430453     
   2288459335.0049829     
   2174668577.8519983     
   2067430570.2191966     
   1967626172.0026517     
   2507291337.4902010     
   2365491456.0810680     
   2229245643.9798064     
   2099167993.9771180     
   1976146377.5093026     
   2191566718.8300762     
   2138426501.9393890     
   2100382697.7520726     
   2078209532.4094555     
   2072578622.6056287     
   2080043835.2715511     
   2006666994.4453568     
   1945703180.0090125     
   1898243970.0492771     
   1865318974.3550551     
   2003524851.7563968     
   1908568764.6899176     
   1822308847.7269483     
   1745951832.2752008     
   1680791046.7954240     
   1967626172.0026517     
   1852827007.6248832     
   1742172393.9086277     
   1636571444.6279058     
   1537144217.9740384     
   1976146377.5093026     
   1846838389.7701459     
   1717215025.9787261     
   1587596478.6189976     
   1458468286.8494346     
   2072578622.6056287     
   2069615955.0673919     
   2085582481.5211043     
   2123086967.8905396     
   2185940809.1056428     
   1865318974.3550551     
   1855147084.0624263     
   1867762484.7668746     
   1905350276.6669123     
   1970939908.1023376     
   1680791046.7954240     
   1652431088.2980983     
   1651722239.7747111     
   1681013500.4278913     
   1742914457.9263904     
   1537144217.9740384     
   1476168722.8670833     
   1447921830.0643373     
   1456369891.3827853     
   1504823347.6581514     
   1458468286.8494346     
   1349001559.4594312     
   1274627123.9714694     
   1243525662.2386274     
   1262810096.9583077     
   2185940809.1056428     
   2156519831.8054614     
   2146702533.8156126     
   2167022837.3620758     
   2228566356.0825419     
   1970939908.1023376     
   1969092754.4346857     
   2003776851.8555512     
   2093668491.2786427     
   2257432895.8902793     
   1742914457.9263904     
   1787789976.2401114     
   1884781558.6078291     
   2060792401.1951666     
   2341045425.0775456     
   1504823347.6581514     
   1613321555.5199039     
   1788973411.8872573     
   2066514556.7620571     
   2476129392.3175654     
   1262810096.9583077     
   1446720084.6336713     
   1715785883.2291486     
   2110565455.2999496     
   2663463069.5190845     
   4651650777.9249010     
   4498586697.6107235     
   4362583032.1648293     
   4227528363.4373622     
   4084101621.9536972     
   5040159037.7464256     
   4863127042.0482979     
   4687823834.8282213     
   4508803183.7950039     
   4322767936.6109180     
   5423090834.9930773     
   5215587231.5869732     
   5006976690.5033264     
   4796695313.2603750     
   4584442759.1961699     
   5817071202.4691372     
   5565552443.1545343     
   5320779339.0777473     
   5082448927.5425882     
   4850609130.0449448     
   6245520577.9247169     
   5928068206.8869448     
   5634906677.5947618     
   5362446627.5959625     
   5108889820.8786764     
   4084101621.9536972     
   3952563259.3191676     
   3831536712.0336332     
   3720404237.7220135     
   3618794021.0205574     
   4322767936.6109180     
   4190465748.7079821     
   4062927948.9803424     
   3940005590.0872822     
   3821669929.5295119     
   4584442759.1961699     
   4449709293.7102299     
   4316310816.9614534     
   4184280904.0657320     
   4053683877.1815624     
   4850609130.0449448     
   4715168777.5871048     
   4579480390.8405380     
   4443547769.7327013     
   4307378489.0398293     
   5108889820.8786764     
   4976548871.1234961     
   4843878702.3741455     
   4710705017.7013264     
   4576899462.4591923     
   3618794021.0205574     
   3467782933.6637120     
   3321285056.0961943     
   3179534664.0725923     
   3042974946.1950164     
   3821669929.5295119     
   3655106190.6683745     
   3491367072.6863313     
   3330644894.0589805     
   3173302023.4686198     
   4053683877.1815624     
   3871920988.9725065     
   3691736631.4245009     
   3513269300.8025846     
   3336786163.0800343     
   4307378489.0398293     
   4111018078.7913127     
   3915405762.5639229     
   3720629619.9855175     
   3526869906.7658525     
   4576899462.4591923     
   4366633105.3656940     
   4156655177.1947970     
   3947013190.6394525     
   3737818971.5509448     
   3042974946.1950164     
   2905735577.8849592     
   2770585138.6848392     
   2637695048.2504649     
   2507291337.4902010     
   3173302023.4686198     
   3029823969.7625546     
   2888028693.1647139     
   2748056928.5192037     
   2610104574.5770884     
   3336786163.0800343     
   3185945232.5894232     
   3036343935.4227448     
   2888093395.9134727     
   2741360274.9969273     
   3526869906.7658525     
   3367442321.4656091     
   3208783305.1608505     
   3050975948.7478075     
   2894159107.2253280     
   3737818971.5509448     
   3568550248.5954037     
   3399559439.7060738     
   3230903064.5622468     
   3062693424.1895261     
   2507291337.4902010     
   2365491456.0810680     
   2229245643.9798064     
   2099167993.9771180     
   1976146377.5093026     
   2610104574.5770884     
   2456690925.9244504     
   2306169708.0898151     
   2158912000.5736375     
   2015464249.0838418     
   2741360274.9969273     
   2579641938.8662348     
   2418943961.5529180     
   2259414140.5816646     
   2101270823.8299084     
   2894159107.2253280     
   2728042197.9422483     
   2561889271.6275172     
   2395723026.9705081     
   2229576497.1688514     
   3062693424.1895261     
   2896250680.7052445     
   2729455593.3258719     
   2562316731.0669231     
   2394851287.0164866     
   1976146377.5093026     
   1846838389.7701459     
   1717215025.9787261     
   1587596478.6189976     
   1458468286.8494346     
   2015464249.0838418     
   1879642414.4733999     
   1744008186.6393015     
   1608683762.9744008     
   1473838148.3897312     
   2101270823.8299084     
   1961498748.4584794     
   1822734975.9855623     
   1685010626.4362056     
   1548386328.7076244     
   2229576497.1688514     
   2086541726.6151941     
   1945329390.8465540     
   1805931569.9061320     
   1668428377.9837179     
   2394851287.0164866     
   2247485675.7186089     
   2102522854.7048283     
   1959939046.0135474     
   1819908751.7411191     
   1458468286.8494346     
   1349001559.4594312     
   1274627123.9714694     
   1243525662.2386274     
   1262810096.9583077     
   1473838148.3897312     
   1329241535.5995879     
   1199152636.8150489     
   1088095869.9289918     
   1002033289.9512651     
   1548386328.7076244     
   1398295063.7465029     
   1244618446.2861459     
   1085079829.8616934     
   917641761.76325548     
   1668428377.9837179     
   1553047574.2941718     
   1428464180.4506538     
   1295020350.9181290     
   1158870527.4291611     
   1819908751.7411191     
   1779671502.6950238     
   1735789267.0791495     
   1696925727.4375141     
   1681716129.4709163     
   1262810096.9583077     
   1446720084.6336713     
   1715785883.2291486     
   2110565455.2999496     
   2663463069.5190845     
   1002033289.9512651     
   1164733225.3346927     
   1425419805.3243074     
   1808704287.6033921     
   2334690223.3841329     
   917641761.76325548     
   963043480.11310589     
   1144822881.1464779     
   1476392976.4314380     
   1957505535.9021609     
   1158870527.4291611     
   1008344413.2138748     
   985069149.45320141     
   1161423430.0567870     
   1544414989.3859746     
   1681716129.4709163     
   1383955451.0290501     
   1129452054.2795949     
   1010105277.0099213     
   1153576782.4241817     
 </DataArray>
 <DataArray  type="Float64" Name="strain" NumberOfComponents="3" format="ascii">
  0.10201963946822468       -2.9020840978759566E-002  -2.2722042607759008E-004
   9.7962392316951807E-002  -2.8646117060742826E-002   4.7655664169310441E-005
   9.3905145165678827E-002  -2.8066656458386519E-002   2.3567014769942940E-004
   8.9847898014405903E-002  -2.7282459171690629E-002   3.3682302451304436E-004
   8.5790650863132978E-002  -2.6293525200655310E-002   3.5111429461032184E-004
   9.6455990185629004E-002  -2.7688233888645497E-002   7.3726516341532378E-003
   9.2401975202872688E-002  -2.7077216893266809E-002   7.3259750077792618E-003
   8.8347960220116262E-002  -2.6362961117096462E-002   7.3726243251549528E-003
   8.4293945237359835E-002  -2.5545466560134844E-002   7.5125995862798667E-003
   8.0239930254603409E-002  -2.4624733222381900E-002   7.7459007911547806E-003
   9.0326706678614255E-002  -2.6355626798531540E-002   1.5259565723520330E-002
   8.6456111414840386E-002  -2.5508316725790570E-002   1.4789838476977346E-002
   8.2585516151066768E-002  -2.4659265775806377E-002   1.4593624724650034E-002
   7.8714920887292969E-002  -2.3808473948578955E-002   1.4670924466538574E-002
   7.4844325623519226E-002  -2.2955941244108491E-002   1.5021737702642785E-002
   8.3631788947179944E-002  -2.5023019708417499E-002   2.3433521842023866E-002
   8.0124800952854999E-002  -2.3939416558314261E-002   2.2439246071763480E-002
   7.6617812958530096E-002  -2.2955570434516140E-002   2.1898671346185138E-002
   7.3110824964205220E-002  -2.2071481337023118E-002   2.1811797665288877E-002
   6.9603836969880345E-002  -2.1287149265835192E-002   2.2178625029074243E-002
   7.6371236991326363E-002  -2.3690412618303514E-002   3.1894519989663528E-002
   7.3408043816916513E-002  -2.2370516390838091E-002   3.0274197792137691E-002
   7.0444850642506579E-002  -2.1251875093225986E-002   2.9287764189760035E-002
   6.7481657468096659E-002  -2.0334488725467247E-002   2.8935219182530308E-002
   6.4518464293686739E-002  -1.9618357287561838E-002   2.9216562770448928E-002
   8.5790650863132978E-002  -2.6293525200655310E-002   3.5111429461032184E-004
   8.3344578719602880E-002  -2.5238593940980381E-002   1.7960141158679388E-005
   8.0898506576072782E-002  -2.4256404788366465E-002  -2.9274452155780839E-005
   7.8452434432542684E-002  -2.3346957742813208E-002   2.0941051466646932E-004
   7.6006362289012586E-002  -2.2510252804321063E-002   7.3401504162540210E-004
   8.0239930254603409E-002  -2.4624733222381900E-002   7.7459007911547806E-003
   7.8041536630210406E-002  -2.3675131568350355E-002   7.4704994465012164E-003
   7.5843143005817348E-002  -2.2771032062554014E-002   7.4045355799847723E-003
   7.3644749381424360E-002  -2.1912434704991816E-002   7.5480091916057951E-003
   7.1446355757031288E-002  -2.1099339495664449E-002   7.9009202813637436E-003
   7.4844325623519226E-002  -2.2955941244108491E-002   1.5021737702642785E-002
   7.2817128436263673E-002  -2.2111669195720662E-002   1.4831329125613302E-002
   7.0789931249008092E-002  -2.1285659336741328E-002   1.4773875944721335E-002
   6.8762734061752484E-002  -2.0477911667170310E-002   1.4849378159966876E-002
   6.6735536874496904E-002  -1.9688426187007835E-002   1.5057835771350253E-002
   6.9603836969880345E-002  -2.1287149265835192E-002   2.2178625029074243E-002
   6.7671354137762679E-002  -2.0548206823090859E-002   2.2100449178494651E-002
   6.5738871305644972E-002  -1.9800286610928870E-002   2.2078746642053417E-002
   6.3806388473527292E-002  -1.9043388629348970E-002   2.2113517419750206E-002
   6.1873905641409599E-002  -1.8277512878351332E-002   2.2204761511585076E-002
   6.4518464293686739E-002  -1.9618357287561838E-002   2.9216562770448928E-002
   6.2604213734707370E-002  -1.8984744450461083E-002   2.9277859605145867E-002
   6.0689963175728001E-002  -1.8314913885116330E-002   2.9319147671981405E-002
   5.8775712616748604E-002  -1.7608865591527502E-002   2.9340426970955361E-002
   5.6861462057769263E-002  -1.6866599569694718E-002   2.9341697502068054E-002
   7.6006362289012586E-002  -2.2510252804321063E-002   7.3401504162540210E-004
   7.2561377823617712E-002  -2.1683407207592043E-002   5.3922905816750077E-004
   6.9116393358222783E-002  -2.0803538187328580E-002   4.7130211177787151E-004
   6.5671408892827854E-002  -1.9870645743531028E-002   5.3023420245706943E-004
   6.2226424427432980E-002  -1.8884729876198603E-002   7.1602533020509451E-004
   7.1446355757031288E-002  -2.1099339495664449E-002   7.9009202813637436E-003
   6.8150695410062412E-002  -2.0291325571387853E-002   7.6219685295433881E-003
   6.4855035063093536E-002  -1.9447972068979164E-002   7.5148059775062004E-003
   6.1559374716124660E-002  -1.8569278988437264E-002   7.5794326252520833E-003
   5.8263714369155784E-002  -1.7655246329762564E-002   7.8158484727820499E-003
   6.6735536874496904E-002  -1.9688426187007835E-002   1.5057835771350253E-002
   6.3634130808668726E-002  -1.8899243935184079E-002   1.4677034405766093E-002
   6.0532724742840438E-002  -1.8092405950629428E-002   1.4512952402679538E-002
   5.7431318677012150E-002  -1.7267912233343615E-002   1.4565589762090859E-002
   5.4329912611183889E-002  -1.6425762783326692E-002   1.4834946484000272E-002
   6.1873905641409599E-002  -1.8277512878351332E-002   2.2204761511585076E-002
   5.9011684019436551E-002  -1.7507162298980097E-002   2.1704426686835039E-002
   5.6149462397463476E-002  -1.6736839832279631E-002   2.1465741387297708E-002
   5.3287240775490470E-002  -1.5966545478249800E-002   2.1488705612972829E-002
   5.0425019153517353E-002  -1.5196279236890736E-002   2.1773319363860504E-002
   5.6861462057769263E-002  -1.6866599569694718E-002   2.9341697502068054E-002
   5.4283355042365977E-002  -1.6115080662776254E-002   2.8704145372750844E-002
   5.1705248026962719E-002  -1.5381273713929930E-002   2.8373172931360741E-002
   4.9127141011559475E-002  -1.4665178723156033E-002   2.8348780177897756E-002
   4.6549033996156175E-002  -1.3966795690454725E-002   2.8630967112361849E-002
   6.2226424427432980E-002  -1.8884729876198603E-002   7.1602533020509451E-004
   5.9411165304154911E-002  -1.7905602394312492E-002   4.0194553117323117E-004
   5.6595906180876843E-002  -1.6993075106853911E-002   3.0462739792641580E-004
   5.3780647057598718E-002  -1.6147148013821729E-002   4.2407093046420430E-004
   5.0965387934320705E-002  -1.5367821115216618E-002   7.6027612878659667E-004
   5.8263714369155784E-002  -1.7655246329762564E-002   7.8158484727820499E-003
   5.5647699979805509E-002  -1.6744815349823305E-002   7.4585884771836697E-003
   5.3031685590455291E-002  -1.5876927305487593E-002   7.2830562836561086E-003
   5.0415671201104989E-002  -1.5051582196754142E-002   7.2892518921995886E-003
   4.7799656811754743E-002  -1.4268780023624639E-002   7.4771753028133325E-003
   5.4329912611183889E-002  -1.6425762783326692E-002   1.4834946484000272E-002
   5.1878109092047486E-002  -1.5584028305334119E-002   1.4458563550659248E-002
   4.9426305572911028E-002  -1.4760779504120927E-002   1.4228874555674717E-002
   4.6974502053774639E-002  -1.3956016379687217E-002   1.4145879499047144E-002
   4.4522698534638167E-002  -1.3169738932032882E-002   1.4209578380776355E-002
   5.0425019153517353E-002  -1.5196279236890736E-002   2.1773319363860504E-002
   4.8102392640880780E-002  -1.4423241260844821E-002   2.1401870751599945E-002
   4.5779766128244234E-002  -1.3644631702754657E-002   2.1142082213982390E-002
   4.3457139615607578E-002  -1.2860450562619851E-002   2.0993953751007675E-002
   4.1134513102971053E-002  -1.2070697840440903E-002   2.0957485362675776E-002
   4.6549033996156175E-002  -1.3966795690454725E-002   2.8630967112361849E-002
   4.4320550626305494E-002  -1.3262454216355413E-002   2.8288510080005935E-002
   4.2092067256454757E-002  -1.2528483901388179E-002   2.8022679258579125E-002
   3.9863583886604020E-002  -1.1764884745552765E-002   2.7833474648081072E-002
   3.7635100516753339E-002  -1.0971656748849146E-002   2.7720896248511706E-002
   5.0965387934320705E-002  -1.5367821115216618E-002   7.6027612878659667E-004
   4.8185843539087725E-002  -1.4596701142882806E-002   5.1782266635203023E-004
   4.5406299143854800E-002  -1.3775394828663079E-002   3.1062407695436889E-004
   4.2626754748621792E-002  -1.2903902172559129E-002   1.3868036059377919E-004
   3.9847210353388895E-002  -1.1982223174569651E-002   1.9915172704276785E-006
   4.7799656811754743E-002  -1.4268780023624639E-002   7.4771753028133325E-003
   4.5070069292682036E-002  -1.3492678297624905E-002   7.1778608805654898E-003
   4.2340481773609273E-002  -1.2687434530280955E-002   6.9432053376003444E-003
   3.9610894254536566E-002  -1.1853048721593755E-002   6.7732086739188679E-003
   3.6881306735463915E-002  -1.0989520871562686E-002   6.6678708895205885E-003
   4.4522698534638167E-002  -1.3169738932032882E-002   1.4209578380776355E-002
   4.1872471897971747E-002  -1.2388655452367281E-002   1.3832358698173869E-002
   3.9222245261305258E-002  -1.1599474231899054E-002   1.3549201901100150E-002
   3.6572018624638748E-002  -1.0802195270628825E-002   1.3360107989555670E-002
   3.3921791987972294E-002  -9.9968185685557209E-003   1.3265076963540845E-002
   4.1134513102971053E-002  -1.2070697840440903E-002   2.0957485362675776E-002
   3.8593051354956796E-002  -1.1284632607109296E-002   2.0481316119176786E-002
   3.6051589606942602E-002  -1.0511513933516931E-002   2.0128613767453389E-002
   3.3510127858928367E-002  -9.7513418196634519E-003   1.9899378307505246E-002
   3.0968666110914200E-002  -9.0041162655492002E-003   1.9793609739332141E-002
   3.7635100516753339E-002  -1.0971656748849146E-002   2.7720896248511706E-002
   3.5231807663637371E-002  -1.0180609761851589E-002   2.7124733143575552E-002
   3.2828514810521403E-002  -9.4235536351349458E-003   2.6681440936660583E-002
   3.0425221957405463E-002  -8.7004883686982795E-003   2.6391019627766604E-002
   2.8021929104289522E-002  -8.0114139625423464E-003   2.6253469216894643E-002
   3.9847210353388895E-002  -1.1982223174569651E-002   1.9915172704276785E-006
   3.7435952753270607E-002  -1.1122703956172875E-002  -2.9520416632222712E-004
   3.5024695153152263E-002  -1.0437690638847918E-002  -4.9489295677385137E-004
   3.2613437553033975E-002  -9.9271832225934498E-003  -5.9707485408472261E-004
   3.0202179952915631E-002  -9.5911817074108008E-003  -6.0174985825445226E-004
   3.6881306735463915E-002  -1.0989520871562686E-002   6.6678708895205885E-003
   3.4547640029284732E-002  -1.0168824704088864E-002   6.2124924233945000E-003
   3.2213973323105521E-002  -9.4629339430728487E-003   5.8147888520059809E-003
   2.9880306616926380E-002  -8.8718485885153908E-003   5.4747601753550867E-003
   2.7546639910747239E-002  -8.3955686404149077E-003   5.1924063934410958E-003
   3.3921791987972294E-002  -9.9968185685557209E-003   1.3265076963540845E-002
   3.1625884177328589E-002  -9.2149454520043528E-003   1.2711216209495224E-002
   2.9329976366684857E-002  -8.4881772472977790E-003   1.2175198351783406E-002
   2.7034068556041138E-002  -7.8165139544359996E-003   1.1657023390404891E-002
   2.4738160745397447E-002  -7.1999555734187926E-003   1.1156691325360235E-002
   3.0968666110914200E-002  -9.0041162655492002E-003   1.9793609739332141E-002
   2.8670685197402138E-002  -8.2610661999203139E-003   1.9200967191980153E-002
   2.6372704283890096E-002  -7.5134205515228203E-003   1.8586335542558188E-002
   2.4074723370378161E-002  -6.7611793203570525E-003   1.7949714791065469E-002
   2.1776742456866102E-002  -6.0043425064232325E-003   1.7291104937502938E-002
   2.8021929104289522E-002  -8.0114139625423464E-003   2.6253469216894643E-002
   2.5682043089505446E-002  -7.3071869478359974E-003   2.5681745370849329E-002
   2.3342157074721398E-002  -6.5386638557479448E-003   2.5048200424329981E-002
   2.1002271059937336E-002  -5.7058446862783482E-003   2.4352834377336374E-002
   1.8662385045153274E-002  -4.8087294394271174E-003   2.3595647229869399E-002
   3.0202179952915631E-002  -9.5911817074108008E-003  -6.0174985825445226E-004
   2.9596914220773485E-002  -9.1357322348187830E-003  -3.5356048609624935E-004
   2.8991648488631283E-002  -8.2668809463378734E-003  -1.7908349244992738E-003
   2.8386382756489081E-002  -6.9846278419685992E-003  -4.9135731734614163E-003
   2.7781117024346935E-002  -5.2889729217096004E-003  -9.7217752329838980E-003
   2.7546639910747239E-002  -8.3955686404149077E-003   5.1924063934410958E-003
   2.5526343693856424E-002  -7.8696016655679379E-003   5.8718806061490714E-003
   2.3506047476965608E-002  -7.1294552307703540E-003   5.4067576599197142E-003
   2.1485751260074820E-002  -6.1751293360207127E-003   3.7970375547530522E-003
   1.9465455043183866E-002  -5.0066239813220115E-003   1.0427202906495570E-003
   2.4738160745397447E-002  -7.1999555734187926E-003   1.1156691325360235E-002
   2.1843700695380996E-002  -6.6034710963174814E-003   1.2068228022679983E-002
   1.8949240645364546E-002  -5.9920295152031122E-003   1.2376034212685821E-002
   1.6054780595348012E-002  -5.3656308300746164E-003   1.2080109895377805E-002
   1.3160320545331616E-002  -4.7242750409335343E-003   1.1180455070755491E-002
   2.1776742456866102E-002  -6.0043425064232325E-003   1.7291104937502938E-002
   1.8548985225347037E-002  -5.3373405270668306E-003   1.8235481763497180E-002
   1.5321227993827964E-002  -4.8546037996350655E-003   1.9116994733800713E-002
   1.2093470762308968E-002  -4.5561323241280691E-003   1.9935643848412711E-002
   8.8657135307899301E-003  -4.4419261005455013E-003   2.0691429107333875E-002
   1.8662385045153274E-002  -4.8087294394271174E-003   2.3595647229869399E-002
   1.5642197283754655E-002  -4.0712099578162908E-003   2.4373641828600467E-002
   1.2622009522356009E-002  -3.7171780840678514E-003   2.5629639223263334E-002
   9.6018217609573631E-003  -3.7466338181812858E-003   2.7363639413858276E-002
   6.5816339995587447E-003  -4.1595771601573572E-003   2.9575642400384905E-002
   2.7781117024346935E-002  -5.2889729217096004E-003  -9.7217752329838980E-003
   2.3353946056454244E-002  -4.2022086943767079E-003  -4.1927602606679493E-003
   1.8926775088561554E-002  -4.7466276687848641E-003   2.6030220826892547E-003
   1.4499604120668946E-002  -6.9222298449327369E-003   1.0665571797086715E-002
   1.0072433152776172E-002  -1.0729015222820770E-002   1.9994888882524542E-002
   1.9465455043183866E-002  -5.0066239813220115E-003   1.0427202906495570E-003
   1.6232116480458969E-002  -4.6884477828367244E-003   6.7363172933427862E-003
   1.2998777917734017E-002  -6.2851093567322103E-003   1.3550811735331347E-002
   9.7654393550090646E-003  -9.7966087030084692E-003   2.1486203616614852E-002
   6.5321007922840568E-003  -1.5222945821665501E-002   3.0542492937192023E-002
   1.3160320545331616E-002  -4.7242750409335343E-003   1.1180455070755491E-002
   1.0974944456028701E-002  -5.1746868712960747E-003   1.6754979533185943E-002
   8.7895683667257307E-003  -7.8235910446802226E-003   2.3304531503164971E-002
   6.6041922774228365E-003  -1.2670987561084424E-002   3.0829110980694185E-002
   4.4188161881198451E-003  -1.9716876420510232E-002   3.9328717965771975E-002
   8.8657135307899301E-003  -4.4419261005455013E-003   2.0691429107333875E-002
   7.5824299831631914E-003  -5.6609259597559802E-003   2.5863226458861049E-002
   6.2991464355365671E-003  -9.3620727326274578E-003   3.1864181386191875E-002
   5.0158628879100105E-003  -1.5545366419160711E-002   3.8694293889325077E-002
   3.7325793402834401E-003  -2.4210807019354963E-002   4.6353563968262179E-002
   6.5816339995587447E-003  -4.1595771601573572E-003   2.9575642400384905E-002
   6.0545730618626892E-003  -6.1471650482152196E-003   3.4061058070368189E-002
   5.5275121241666336E-003  -1.0900554420575109E-002   3.9229761384409090E-002
   5.0004511864704809E-003  -1.8419745277236603E-002   4.5081752342507914E-002
   4.4733902487744670E-003  -2.8704737618199694E-002   5.1617030944663966E-002
   7.6371236991326363E-002  -2.3690412618303514E-002   3.1894519989663528E-002
   7.3408043816916513E-002  -2.2370516390838091E-002   3.0274197792137691E-002
   7.0444850642506579E-002  -2.1251875093225986E-002   2.9287764189760035E-002
   6.7481657468096659E-002  -2.0334488725467247E-002   2.8935219182530308E-002
   6.4518464293686739E-002  -1.9618357287561838E-002   2.9216562770448928E-002
   6.9173638883899102E-002  -2.1150051195632902E-002   3.6443539258681767E-002
   6.6732616246243992E-002  -2.0241733837911197E-002   3.5258867742438527E-002
   6.4291593608588882E-002  -1.9420507913527951E-002   3.4484648704556864E-002
   6.1850570970933744E-002  -1.8686373422483332E-002   3.4120882145036738E-002
   5.9409548333278633E-002  -1.8039330364777256E-002   3.4167568063878245E-002
   6.2667582697743432E-002  -1.8609689772962318E-002   4.0523897909698903E-002
   6.0525294480056654E-002  -1.8112951284984191E-002   3.9889040571253087E-002
   5.8383006262369898E-002  -1.7589140733829875E-002   3.9441199594382095E-002
   5.6240718044683058E-002  -1.7038258119499421E-002   3.9180374979086240E-002
   5.4098429826996294E-002  -1.6460303441992702E-002   3.9106566725365471E-002
   5.6853068432859477E-002  -1.6069328350291706E-002   4.4135595942715204E-002
   5.4786078518354486E-002  -1.5984168732057269E-002   4.4164716278581234E-002
   5.2719088603849565E-002  -1.5757773554131792E-002   4.4157416859235812E-002
   5.0652098689344567E-002  -1.5390142816515453E-002   4.4113697684679092E-002
   4.8585108774839583E-002  -1.4881276519208134E-002   4.4033558754910919E-002
   5.1730096089247224E-002  -1.3528966927621122E-002   4.7278633357730304E-002
   4.9514968361137612E-002  -1.3855386179130291E-002   4.8085894864423162E-002
   4.7299840633027918E-002  -1.3926406374433792E-002   4.8633300499118126E-002
   4.5084712904918264E-002  -1.3742027513531603E-002   4.8920850261815169E-002
   4.2869585176808611E-002  -1.3302249596423565E-002   4.8948544152514262E-002
   6.4518464293686739E-002  -1.9618357287561838E-002   2.9216562770448928E-002
   6.2604213734707370E-002  -1.8984744450461083E-002   2.9277859605145867E-002
   6.0689963175728001E-002  -1.8314913885116330E-002   2.9319147671981405E-002
   5.8775712616748604E-002  -1.7608865591527502E-002   2.9340426970955361E-002
   5.6861462057769263E-002  -1.6866599569694718E-002   2.9341697502068054E-002
   5.9409548333278633E-002  -1.8039330364777256E-002   3.4167568063878245E-002
   5.7522878778052219E-002  -1.7424558240709181E-002   3.4103635771468715E-002
   5.5636209222825792E-002  -1.6787236550578503E-002   3.4114874254426414E-002
   5.3749539667599364E-002  -1.6127365294385063E-002   3.4201283512751694E-002
   5.1862870112372950E-002  -1.5444944472129185E-002   3.4362863546444161E-002
   5.4098429826996294E-002  -1.6460303441992702E-002   3.9106566725365471E-002
   5.2334520818751659E-002  -1.5864372030957322E-002   3.8903737143667995E-002
   5.0570611810507024E-002  -1.5259559216040622E-002   3.8871257880566792E-002
   4.8806702802262361E-002  -1.4645864997242786E-002   3.9009128936061732E-002
   4.7042793794017754E-002  -1.4023289374563652E-002   3.9317350310152918E-002
   4.8585108774839583E-002  -1.4881276519208134E-002   4.4033558754910919E-002
   4.7039139856805620E-002  -1.4304185821205441E-002   4.3678163721744045E-002
   4.5493170938771636E-002  -1.3731881881502823E-002   4.3588298550402305E-002
   4.3947202020737666E-002  -1.3164364700100373E-002   4.3763963240885738E-002
   4.2401233102703703E-002  -1.2601634276998175E-002   4.4205157793193992E-002
   4.2869585176808611E-002  -1.3302249596423565E-002   4.8948544152514262E-002
   4.1636735892214144E-002  -1.2743999611453560E-002   4.8426915505696666E-002
   4.0403886607619705E-002  -1.2204204546964914E-002   4.8265996263932992E-002
   3.9171037323025237E-002  -1.1682864402958071E-002   4.8465786427223378E-002
   3.7938188038430798E-002  -1.1179979179432586E-002   4.9026285995567687E-002
   5.6861462057769263E-002  -1.6866599569694718E-002   2.9341697502068054E-002
   5.4283355042365977E-002  -1.6115080662776254E-002   2.8704145372750844E-002
   5.1705248026962719E-002  -1.5381273713929930E-002   2.8373172931360741E-002
   4.9127141011559475E-002  -1.4665178723156033E-002   2.8348780177897756E-002
   4.6549033996156175E-002  -1.3966795690454725E-002   2.8630967112361849E-002
   5.1862870112372950E-002  -1.5444944472129185E-002   3.4362863546444161E-002
   4.9561890251510976E-002  -1.4754866632450653E-002   3.3861900766137404E-002
   4.7260910390648961E-002  -1.4072024323989726E-002   3.3608612606986041E-002
   4.4959930529786939E-002  -1.3396417546746180E-002   3.3602999068989912E-002
   4.2658950668924972E-002  -1.2728046300720164E-002   3.3845060152149276E-002
   4.7042793794017754E-002  -1.4023289374563652E-002   3.9317350310152918E-002
   4.4960036020925367E-002  -1.3394652602125315E-002   3.8963453305711354E-002
   4.2877278247832919E-002  -1.2762774934049419E-002   3.8798325855653439E-002
   4.0794520474740498E-002  -1.2127656370336219E-002   3.8821967959979387E-002
   3.8711762701648084E-002  -1.1489296910985519E-002   3.9034379618688872E-002
   4.2401233102703703E-002  -1.2601634276998175E-002   4.4205157793193992E-002
   4.0477792350609207E-002  -1.2034438571799873E-002   4.4008802991472501E-002
   3.8554351598514662E-002  -1.1453525544109274E-002   4.3942312677363302E-002
   3.6630910846420145E-002  -1.0858895193926146E-002   4.4005686850865991E-002
   3.4707470094325628E-002  -1.0250547521250916E-002   4.4198925511980847E-002
   3.7938188038430798E-002  -1.1179979179432586E-002   4.9026285995567687E-002
   3.6115159240562494E-002  -1.0674224541474403E-002   4.8997949823421372E-002
   3.4292130442694191E-002  -1.0144276154168880E-002   4.9040573072115290E-002
   3.2469101644825915E-002  -9.5901340175162594E-003   4.9154155741649636E-002
   3.0646072846957584E-002  -9.0117981315163131E-003   4.9338697832024381E-002
   4.6549033996156175E-002  -1.3966795690454725E-002   2.8630967112361849E-002
   4.4320550626305494E-002  -1.3262454216355413E-002   2.8288510080005935E-002
   4.2092067256454757E-002  -1.2528483901388179E-002   2.8022679258579125E-002
   3.9863583886604020E-002  -1.1764884745552765E-002   2.7833474648081072E-002
   3.7635100516753339E-002  -1.0971656748849146E-002   2.7720896248511706E-002
   4.2658950668924972E-002  -1.2728046300720164E-002   3.3845060152149276E-002
   4.0526860598796621E-002  -1.2052433179206179E-002   3.3490939630072158E-002
   3.8394770528668229E-002  -1.1355100775498908E-002   3.3252979496510793E-002
   3.6262680458539844E-002  -1.0636049089598188E-002   3.3131179751465484E-002
   3.4130590388411541E-002  -9.8952781215043695E-003   3.3125540394935871E-002
   3.8711762701648084E-002  -1.1489296910985519E-002   3.9034379618688872E-002
   3.6715600108829120E-002  -1.0842412142056890E-002   3.8660686048215528E-002
   3.4719437516010157E-002  -1.0181717649609630E-002   3.8442687043845215E-002
   3.2723274923191166E-002  -9.5072134336439424E-003   3.8380382605577607E-002
   3.0727112330372189E-002  -8.8188994941595933E-003   3.8473772733413042E-002
   3.4707470094325628E-002  -1.0250547521250916E-002   4.4198925511980847E-002
   3.2886769156403095E-002  -9.6323911049074618E-003   4.3797749334436406E-002
   3.1066068218480531E-002  -9.0083345237204938E-003   4.3591801900582199E-002
   2.9245367280558016E-002  -8.3783777776895302E-003   4.3581083210417669E-002
   2.7424666342635434E-002  -7.7425208668148171E-003   4.3765593263943046E-002
   3.0646072846957584E-002  -9.0117981315163131E-003   4.9338697832024381E-002
   2.9040367741518497E-002  -8.4223700677582558E-003   4.8902129488734458E-002
   2.7434662636079382E-002  -7.8349513978310803E-003   4.8700324066721423E-002
   2.5828957530640281E-002  -7.2495421217352030E-003   4.8733281565985276E-002
   2.4223252425201153E-002  -6.6661422394701519E-003   4.9001001986526238E-002
   3.7635100516753339E-002  -1.0971656748849146E-002   2.7720896248511706E-002
   3.5231807663637371E-002  -1.0180609761851589E-002   2.7124733143575552E-002
   3.2828514810521403E-002  -9.4235536351349458E-003   2.6681440936660583E-002
   3.0425221957405463E-002  -8.7004883686982795E-003   2.6391019627766604E-002
   2.8021929104289522E-002  -8.0114139625423464E-003   2.6253469216894643E-002
   3.4130590388411541E-002  -9.8952781215043695E-003   3.3125540394935871E-002
   3.1878870766227835E-002  -9.1547180704367737E-003   3.2601045704949871E-002
   2.9627151144044128E-002  -8.4362991356153327E-003   3.2226826578807072E-002
   2.7375431521860422E-002  -7.7400213170398108E-003   3.2002883016507444E-002
   2.5123711899676715E-002  -7.0658846147102494E-003   3.1929215018051182E-002
   3.0727112330372189E-002  -8.8188994941595933E-003   3.8473772733413042E-002
   2.8624370604942731E-002  -8.1288263790219306E-003   3.8032796202411623E-002
   2.6521628879513190E-002  -7.4490446360957058E-003   3.7739499901075349E-002
   2.4418887154083670E-002  -6.7795542653813386E-003   3.7593883829404227E-002
   2.2316145428654191E-002  -6.1203552668784300E-003   3.7595947987398404E-002
   2.7424666342635434E-002  -7.7425208668148171E-003   4.3765593263943046E-002
   2.5468307179782049E-002  -7.1029346876070459E-003   4.3419984635960959E-002
   2.3511948016928609E-002  -6.4617901365763078E-003   4.3219460903465651E-002
   2.1555588854075176E-002  -5.8190872137226460E-003   4.3164022066457454E-002
   1.9599229691221774E-002  -5.1748259190462498E-003   4.3253668124936272E-002
   2.4223252425201153E-002  -6.6661422394701519E-003   4.9001001986526238E-002
   2.2410680490745793E-002  -6.0770429961922723E-003   4.8762611005597256E-002
   2.0598108556290393E-002  -5.4745356370565212E-003   4.8666709585977630E-002
   1.8785536621835013E-002  -4.8586201620643005E-003   4.8713297727666777E-002
   1.6972964687379577E-002  -4.2292965712144026E-003   4.8902375430664891E-002
   2.8021929104289522E-002  -8.0114139625423464E-003   2.6253469216894643E-002
   2.5682043089505446E-002  -7.3071869478359974E-003   2.5681745370849329E-002
   2.3342157074721398E-002  -6.5386638557479448E-003   2.5048200424329981E-002
   2.1002271059937336E-002  -5.7058446862783482E-003   2.4352834377336374E-002
   1.8662385045153274E-002  -4.8087294394271174E-003   2.3595647229869399E-002
   2.5123711899676715E-002  -7.0658846147102494E-003   3.1929215018051182E-002
   2.2763641612233154E-002  -6.3943763172263912E-003   3.1530368925378971E-002
   2.0403571324789579E-002  -5.7059837131865909E-003   3.1152975387861742E-002
   1.8043501037346019E-002  -5.0007068025909734E-003   3.0797034405499371E-002
   1.5683430749902444E-002  -4.2785455854398302E-003   3.0462545978291899E-002
   2.2316145428654191E-002  -6.1203552668784300E-003   3.7595947987398404E-002
   2.0019164524179942E-002  -5.4815656866165907E-003   3.7322567877273422E-002
   1.7722183619705671E-002  -4.8733035706249178E-003   3.7153913977932371E-002
   1.5425202715231384E-002  -4.2955689189037131E-003   3.7089986289374814E-002
   1.3128221810757137E-002  -3.7483617314527096E-003   3.7130784811601036E-002
   1.9599229691221774E-002  -5.1748259190462498E-003   4.3253668124936272E-002
   1.7448611825345697E-002  -4.5687550560068318E-003   4.3058342226532875E-002
   1.5297993959469588E-002  -4.0406234280632378E-003   4.3051016194541769E-002
   1.3147376093593479E-002  -3.5904310352165066E-003   4.3231690028963314E-002
   1.0996758227717403E-002  -3.2181778774653946E-003   4.3600363729797351E-002
   1.6972964687379577E-002  -4.2292965712144026E-003   4.8902375430664891E-002
   1.5051983515730505E-002  -3.6559444253971840E-003   4.8737691973156583E-002
   1.3131002344081377E-002  -3.2079432855019741E-003   4.8844282037689868E-002
   1.1210021172432263E-002  -2.8852931515289323E-003   4.9222145624264330E-002
   9.2890400007831775E-003  -2.6879940234783017E-003   4.9871282732880662E-002
   1.8662385045153274E-002  -4.8087294394271174E-003   2.3595647229869399E-002
   1.5642197283754655E-002  -4.0712099578162908E-003   2.4373641828600467E-002
   1.2622009522356009E-002  -3.7171780840678514E-003   2.5629639223263334E-002
   9.6018217609573631E-003  -3.7466338181812858E-003   2.7363639413858276E-002
   6.5816339995587447E-003  -4.1595771601573572E-003   2.9575642400384905E-002
   1.5683430749902444E-002  -4.2785455854398302E-003   3.0462545978291899E-002
   1.3121646877543913E-002  -3.7668413285223967E-003   3.1234044108793935E-002
   1.0559863005185452E-002  -3.6929352986280750E-003   3.2444347221444236E-002
   7.9980791328269213E-003  -4.0568274957561296E-003   3.4093455316242971E-002
   5.4362952604684600E-003  -4.8585179199077677E-003   3.6181368393189750E-002
   1.3128221810757137E-002  -3.7483617314527096E-003   3.7130784811601036E-002
   1.0985644013655121E-002  -3.4624726992287802E-003   3.7841475854713758E-002
   8.8430662165530985E-003  -3.6686925131883263E-003   3.8951774066190853E-002
   6.7004884194511449E-003  -4.3670211733316464E-003   4.0461679446032628E-002
   4.5579106223491150E-003  -5.5574586796582337E-003   4.2371191994239360E-002
   1.0996758227717403E-002  -3.2181778774653946E-003   4.3600363729797351E-002
   9.2341886920882452E-003  -3.1581040699351914E-003   4.4195937066359728E-002
   7.4716191564590841E-003  -3.6444497277486193E-003   4.5151919757502830E-002
   5.7090496208299785E-003  -4.6772148509068266E-003   4.6468311803227566E-002
   3.9464800852008208E-003  -6.2563994394090050E-003   4.8145113203532784E-002
   9.2890400007831775E-003  -2.6879940234783017E-003   4.9871282732880662E-002
   7.8672809128432220E-003  -2.8537354406413806E-003   5.0297427743732026E-002
   6.4455218249032942E-003  -3.6202069423089123E-003   5.1044784295380785E-002
   5.0237627369633525E-003  -4.9874085284819236E-003   5.2113352387826883E-002
   3.6020036490234664E-003  -6.9553401991591102E-003   5.3503132021070599E-002
   6.5816339995587447E-003  -4.1595771601573572E-003   2.9575642400384905E-002
   6.0545730618626892E-003  -6.1471650482152196E-003   3.4061058070368189E-002
   5.5275121241666336E-003  -1.0900554420575109E-002   3.9229761384409090E-002
   5.0004511864704809E-003  -1.8419745277236603E-002   4.5081752342507914E-002
   4.4733902487744670E-003  -2.8704737618199694E-002   5.1617030944663966E-002
   5.4362952604684600E-003  -4.8585179199077677E-003   3.6181368393189750E-002
   5.4892405495232943E-003  -6.9962336660511215E-003   3.8330429796206267E-002
   5.5421858385781841E-003  -1.1368201829155794E-002   4.0956216008666613E-002
   5.5951311276331364E-003  -1.7974422409221626E-002   4.4058727030571426E-002
   5.6480764166879638E-003  -2.6814895406248374E-002   4.7637962861919902E-002
   4.5579106223491150E-003  -5.5574586796582337E-003   4.2371191994239360E-002
   4.9842993035414951E-003  -7.8453022838872455E-003   4.2715448197628930E-002
   5.4106879847338196E-003  -1.1835849237736604E-002   4.3329866375848805E-002
   5.8370766659261338E-003  -1.7529099541206541E-002   4.4214446528900116E-002
   6.2634653471185242E-003  -2.4925053194296831E-002   4.5369188656781079E-002
   3.9464800852008208E-003  -6.2563994394090050E-003   4.8145113203532784E-002
   4.5397493239170729E-003  -8.6943709017232584E-003   4.7216113274636477E-002
   5.1330185626333753E-003  -1.2303496646317240E-002   4.6350712485957235E-002
   5.7262878013496750E-003  -1.7083776673191511E-002   4.5548910837494822E-002
   6.3195570400659262E-003  -2.3035210982345400E-002   4.4810708329250548E-002
   3.6020036490234664E-003  -6.9553401991591102E-003   5.3503132021070599E-002
   4.1555906106501839E-003  -9.5434395195591604E-003   5.1832425027228846E-002
   4.7091775722768736E-003  -1.2771144054898265E-002   5.0018754338990723E-002
   5.2627645339036189E-003  -1.6638453805176576E-002   4.8062119956356064E-002
   5.8163514955303919E-003  -2.1145368770393969E-002   4.5962521879325369E-002
   5.1730096089247224E-002  -1.3528966927621122E-002   4.7278633357730304E-002
   4.9514968361137612E-002  -1.3855386179130291E-002   4.8085894864423162E-002
   4.7299840633027918E-002  -1.3926406374433792E-002   4.8633300499118126E-002
   4.5084712904918264E-002  -1.3742027513531603E-002   4.8920850261815169E-002
   4.2869585176808611E-002  -1.3302249596423565E-002   4.8948544152514262E-002
   4.6363358457200854E-002  -1.3350839933829572E-002   5.3130397660156481E-002
   4.4040789205335371E-002  -1.2894642477996127E-002   5.3040993733334041E-002
   4.1718219953469859E-002  -1.2433858645603563E-002   5.2996562630997807E-002
   3.9395650701604369E-002  -1.1968488436651777E-002   5.2997104353147778E-002
   3.7073081449738865E-002  -1.1498531851140747E-002   5.3042618899784039E-002
   3.9817548327014687E-002  -1.3172712940037995E-002   5.9890185009748409E-002
   3.7692366247877487E-002  -1.1933898776861962E-002   5.8653302969764204E-002
   3.5567184168740267E-002  -1.0941310916773320E-002   5.7766222450750290E-002
   3.3442002089603073E-002  -1.0194949359771947E-002   5.7228943452706689E-002
   3.1316820010465846E-002  -9.6948141058579851E-003   5.7041465975633560E-002
   3.2092665698688724E-002  -1.2994585946246417E-002   6.7557995406506310E-002
   3.0469699488763918E-002  -1.0973155075727770E-002   6.4922822573713845E-002
   2.8846733278839173E-002  -9.4487631879430559E-003   6.2942279958375535E-002
   2.7223767068914377E-002  -8.4214102828922017E-003   6.1616367560491977E-002
   2.5600800858989574E-002  -7.8910963605751949E-003   6.0945085380062824E-002
   2.3188710572222881E-002  -1.2816458952454868E-002   7.6133828850429908E-002
   2.2372788927994713E-002  -1.0012411374593605E-002   7.1849552545182493E-002
   2.1556867283766476E-002  -7.9562154591128059E-003   6.8524735153873612E-002
   2.0740945639538273E-002  -6.6478712060123214E-003   6.6159376676503498E-002
   1.9925023995310084E-002  -6.0873786152924048E-003   6.4753477113071889E-002
   4.2869585176808611E-002  -1.3302249596423565E-002   4.8948544152514262E-002
   4.1636735892214144E-002  -1.2743999611453560E-002   4.8426915505696666E-002
   4.0403886607619705E-002  -1.2204204546964914E-002   4.8265996263932992E-002
   3.9171037323025237E-002  -1.1682864402958071E-002   4.8465786427223378E-002
   3.7938188038430798E-002  -1.1179979179432586E-002   4.9026285995567687E-002
   3.7073081449738865E-002  -1.1498531851140747E-002   5.3042618899784039E-002
   3.6167692523772110E-002  -1.1032357650777175E-002   5.2512680460669287E-002
   3.5262303597805369E-002  -1.0578334597267480E-002   5.2276953333755843E-002
   3.4356914671838615E-002  -1.0136462690611886E-002   5.2335437519044056E-002
   3.3451525745871874E-002  -9.7067419308102254E-003   5.2688133016533606E-002
   3.1316820010465846E-002  -9.6948141058579851E-003   5.7041465975633560E-002
   3.0672393350274371E-002  -9.3207156901008448E-003   5.6509521517849132E-002
   3.0027966690082897E-002  -8.9524646475701020E-003   5.6205290279413608E-002
   2.9383540029891402E-002  -8.5900609782657011E-003   5.6128772260327212E-002
   2.8739113369699948E-002  -8.2335046821878088E-003   5.6279967460589803E-002
   2.5600800858989574E-002  -7.8910963605751949E-003   6.0945085380062824E-002
   2.5150838371720920E-002  -7.6090737294245425E-003   6.0417438677236340E-002
   2.4700875884452245E-002  -7.3265946978726404E-003   6.0051007100906328E-002
   2.4250913397183577E-002  -7.0436592659195996E-003   5.9845790651072914E-002
   2.3800950909914888E-002  -6.7602674335653645E-003   5.9801789327736145E-002
   1.9925023995310084E-002  -6.0873786152924048E-003   6.4753477113071889E-002
   1.9603027588111777E-002  -5.8974317687481570E-003   6.4236431938830829E-002
   1.9281031180913441E-002  -5.7007247481752898E-003   6.3814103798233934E-002
   1.8959034773715126E-002  -5.4972575535733592E-003   6.3486492691281093E-002
   1.8637038366516812E-002  -5.2870301849429757E-003   6.3253598617972417E-002
   3.7938188038430798E-002  -1.1179979179432586E-002   4.9026285995567687E-002
   3.6115159240562494E-002  -1.0674224541474403E-002   4.8997949823421372E-002
   3.4292130442694191E-002  -1.0144276154168880E-002   4.9040573072115290E-002
   3.2469101644825915E-002  -9.5901340175162594E-003   4.9154155741649636E-002
   3.0646072846957584E-002  -9.0117981315163131E-003   4.9338697832024381E-002
   3.3451525745871874E-002  -9.7067419308102254E-003   5.2688133016533606E-002
   3.1735786624466480E-002  -9.2717785618901538E-003   5.2493792073615653E-002
   3.0020047503061115E-002  -8.8141788278796041E-003   5.2443071062783217E-002
   2.8304308381655721E-002  -8.3339427287784373E-003   5.2535969984036236E-002
   2.6588569260250355E-002  -7.8310702645864594E-003   5.2772488837374509E-002
   2.8739113369699948E-002  -8.2335046821878088E-003   5.6279967460589803E-002
   2.7203324436002513E-002  -7.8693325823060017E-003   5.5918064362643738E-002
   2.5667535502305105E-002  -7.4840815015902312E-003   5.5772441708027962E-002
   2.4131746568607712E-002  -7.0777514400404522E-003   5.5843099496742800E-002
   2.2595957634910263E-002  -6.6503423976567166E-003   5.6130037728788273E-002
   2.3800950909914888E-002  -6.7602674335653645E-003   5.9801789327736145E-002
   2.2517772675170508E-002  -6.4668866027217456E-003   5.9270766690505114E-002
   2.1234594440426146E-002  -6.1539841753009070E-003   5.9028685007849580E-002
   1.9951416205681770E-002  -5.8215601513024375E-003   5.9075544279769736E-002
   1.8668237970937404E-002  -5.4696145307268629E-003   5.9411344506265340E-002
   1.8637038366516812E-002  -5.2870301849429757E-003   6.3253598617972417E-002
   1.7679131341970522E-002  -5.0644406231376005E-003   6.2551899057199878E-002
   1.6721224317424246E-002  -4.8238868490115272E-003   6.2211800962248015E-002
   1.5763317292877957E-002  -4.5653688625646588E-003   6.2233304333116829E-002
   1.4805410268331667E-002  -4.2888866637971756E-003   6.2616409169806209E-002
   3.0646072846957584E-002  -9.0117981315163131E-003   4.9338697832024381E-002
   2.9040367741518497E-002  -8.4223700677582558E-003   4.8902129488734458E-002
   2.7434662636079382E-002  -7.8349513978310803E-003   4.8700324066721423E-002
   2.5828957530640281E-002  -7.2495421217352030E-003   4.8733281565985276E-002
   2.4223252425201153E-002  -6.6661422394701519E-003   4.9001001986526238E-002
   2.6588569260250355E-002  -7.8310702645864594E-003   5.2772488837374509E-002
   2.5209095378868854E-002  -7.3152763632149675E-003   5.2392879315951130E-002
   2.3829621497487366E-002  -6.7962759525748428E-003   5.2230969321366200E-002
   2.2450147616105864E-002  -6.2740690326661200E-003   5.2286758853619220E-002
   2.1070673734724377E-002  -5.7486556034888614E-003   5.2560247912710800E-002
   2.2595957634910263E-002  -6.6503423976567166E-003   5.6130037728788273E-002
   2.1425651583147722E-002  -6.2081826586717903E-003   5.5812602932331146E-002
   2.0255345531385159E-002  -5.7576005073185499E-003   5.5695804268273627E-002
   1.9085039479622583E-002  -5.2985959435972035E-003   5.5779641736615676E-002
   1.7914733427860048E-002  -4.8311689675072933E-003   5.6064115337357556E-002
   1.8668237970937404E-002  -5.4696145307268629E-003   5.9411344506265340E-002
   1.7690036354355100E-002  -5.1010889541286131E-003   5.9161300337874180E-002
   1.6711834737772786E-002  -4.7189250620621737E-003   5.9094828907444011E-002
   1.5733633121190485E-002  -4.3231228545279263E-003   5.9211930214974957E-002
   1.4755431504608162E-002  -3.9136823315257530E-003   5.9512604260466381E-002
   1.4805410268331667E-002  -4.2888866637971756E-003   6.2616409169806209E-002
   1.4002249692490934E-002  -3.9939952495854358E-003   6.2438971532580767E-002
   1.3199089116650221E-002  -3.6802496168060056E-003   6.2428043238877545E-002
   1.2395928540809505E-002  -3.3476497654591451E-003   6.2583624288696585E-002
   1.1592767964968775E-002  -2.9961956955443236E-003   6.2905714682037872E-002
   2.4223252425201153E-002  -6.6661422394701519E-003   4.9001001986526238E-002
   2.2410680490745793E-002  -6.0770429961922723E-003   4.8762611005597256E-002
   2.0598108556290393E-002  -5.4745356370565212E-003   4.8666709585977630E-002
   1.8785536621835013E-002  -4.8586201620643005E-003   4.8713297727666777E-002
   1.6972964687379577E-002  -4.2292965712144026E-003   4.8902375430664891E-002
   2.1070673734724377E-002  -5.7486556034888614E-003   5.2560247912710800E-002
   1.9421169573465041E-002  -5.2211866967498688E-003   5.2346229808137190E-002
   1.7771665412205706E-002  -4.6928133441568737E-003   5.2315857688646661E-002
   1.6122161250946350E-002  -4.1635355457094840E-003   5.2469131554239573E-002
   1.4472657089687063E-002  -3.6333533014082375E-003   5.2806051404915122E-002
   1.7914733427860048E-002  -4.8311689675072933E-003   5.6064115337357556E-002
   1.6469453463570871E-002  -4.3653303973077984E-003   5.5861966439136226E-002
   1.5024173499281691E-002  -3.9110910512570041E-003   5.5884619949772035E-002
   1.3578893534992508E-002  -3.4684509293551671E-003   5.6132075869265066E-002
   1.2133613570703333E-002  -3.0374100316021280E-003   5.6604334197615291E-002
   1.4755431504608162E-002  -3.9136823315257530E-003   5.9512604260466381E-002
   1.3555532161063279E-002  -3.5094740978652839E-003   5.9309820898594282E-002
   1.2355632817518388E-002  -3.1293687583572455E-003   5.9372996369353524E-002
   1.1155733473973490E-002  -2.7733663130007115E-003   5.9702130672744019E-002
   9.9558341304286160E-003  -2.4414667617958796E-003   6.0297223808765725E-002
   1.1592767964968775E-002  -2.9961956955443236E-003   6.2905714682037872E-002
   1.0679405665942263E-002  -2.6536177984232689E-003   6.2689793186511689E-002
   9.7660433669157776E-003  -2.3476464654575147E-003   6.2780986947390982E-002
   8.8526810678892787E-003  -2.0782816966459297E-003   6.3179295964676085E-002
   7.9393187688627798E-003  -1.8455234919898533E-003   6.3884720238366222E-002
   1.6972964687379577E-002  -4.2292965712144026E-003   4.8902375430664891E-002
   1.5051983515730505E-002  -3.6559444253971840E-003   4.8737691973156583E-002
   1.3131002344081377E-002  -3.2079432855019741E-003   4.8844282037689868E-002
   1.1210021172432263E-002  -2.8852931515289323E-003   4.9222145624264330E-002
   9.2890400007831775E-003  -2.6879940234783017E-003   4.9871282732880662E-002
   1.4472657089687063E-002  -3.6333533014082375E-003   5.2806051404915122E-002
   1.2816351035975615E-002  -3.1614186211210149E-003   5.2674658332109991E-002
   1.1160044982264208E-002  -2.8068835147152527E-003   5.2801341973139015E-002
   9.5037389285527671E-003  -2.5697479821919500E-003   5.3186102328001944E-002
   7.8474328748413813E-003  -2.4500120235503298E-003   5.3828939396699194E-002
   1.2133613570703333E-002  -3.0374100316021280E-003   5.6604334197615291E-002
   1.0728785826722272E-002  -2.6668928168446238E-003   5.6514182941553803E-002
   9.3239580827411475E-003  -2.4058237439286562E-003   5.6668911591118462E-002
   7.9191303387600685E-003  -2.2542028128547491E-003   5.7068520146309677E-002
   6.5143025947789618E-003  -2.2120300236225798E-003   5.7713008607127914E-002
   9.9558341304286160E-003  -2.4414667617958796E-003   6.0297223808765725E-002
   8.7892878879704400E-003  -2.1723670125682326E-003   6.0256265801487408E-002
   7.6227416455123074E-003  -2.0047639731418862E-003   6.0446990891628360E-002
   6.4561954030541253E-003  -1.9386576435176574E-003   6.0869399079188528E-002
   5.2896491605959987E-003  -1.9740480236947744E-003   6.1523490364168279E-002
   7.9393187688627798E-003  -1.8455234919898533E-003   6.3884720238366222E-002
   6.9978572197201827E-003  -1.6778412082920635E-003   6.3900906911911526E-002
   6.0563956705775718E-003  -1.6037042023553938E-003   6.4135579874668558E-002
   5.1149341214349678E-003  -1.6231124741804687E-003   6.4588739126637817E-002
   4.1734725722923915E-003  -1.7360660237668579E-003   6.5260384667818805E-002
   9.2890400007831775E-003  -2.6879940234783017E-003   4.9871282732880662E-002
   7.8672809128432220E-003  -2.8537354406413806E-003   5.0297427743732026E-002
   6.4455218249032942E-003  -3.6202069423089123E-003   5.1044784295380785E-002
   5.0237627369633525E-003  -4.9874085284819236E-003   5.2113352387826883E-002
   3.6020036490234664E-003  -6.9553401991591102E-003   5.3503132021070599E-002
   7.8474328748413813E-003  -2.4500120235503298E-003   5.3828939396699194E-002
   6.7222652658064097E-003  -2.6441925626011775E-003   5.3783359438533795E-002
   5.5970976567713965E-003  -3.3488065231545849E-003   5.4009750897380637E-002
   4.4719300477364318E-003  -4.5638539052103508E-003   5.4508113773240496E-002
   3.3467624387014394E-003  -6.2893347087684681E-003   5.5278448066112040E-002
   6.5143025947789618E-003  -2.2120300236225798E-003   5.7713008607127914E-002
   5.6364863408639720E-003  -2.4346496845613630E-003   5.7286000342948312E-002
   4.7586700869490101E-003  -3.0774061040000356E-003   5.7081723371996212E-002
   3.8808538330340168E-003  -4.1402992819390000E-003   5.7100177694271614E-002
   3.0030375791190306E-003  -5.6233292183776040E-003   5.7341363309774518E-002
   5.2896491605959987E-003  -1.9740480236947744E-003   6.1523490364168279E-002
   4.6099441380160477E-003  -2.2251068065216317E-003   6.0805350456976361E-002
   3.9302391154361245E-003  -2.8060056848456527E-003   6.0260701719227733E-002
   3.2505340928561796E-003  -3.7167446586675382E-003   5.9889544150921341E-002
   2.5708290702762503E-003  -4.9573237279867399E-003   5.9691877752057462E-002
   4.1734725722923915E-003  -1.7360660237668579E-003   6.5260384667818805E-002
   3.6426386572625535E-003  -2.0155639284814564E-003   6.4341409780617753E-002
   3.1118047422327294E-003  -2.5346052656912699E-003   6.3546685939074476E-002
   2.5809708272029053E-003  -3.2931900353961596E-003   6.2876213143189030E-002
   2.0501369121730950E-003  -4.2913182375958758E-003   6.2329991392961137E-002
   3.6020036490234664E-003  -6.9553401991591102E-003   5.3503132021070599E-002
   4.1555906106501839E-003  -9.5434395195591604E-003   5.1832425027228846E-002
   4.7091775722768736E-003  -1.2771144054898265E-002   5.0018754338990723E-002
   5.2627645339036189E-003  -1.6638453805176576E-002   4.8062119956356064E-002
   5.8163514955303919E-003  -2.1145368770393969E-002   4.5962521879325369E-002
   3.3467624387014394E-003  -6.2893347087684681E-003   5.5278448066112040E-002
   3.7740801320704231E-003  -8.5585531063614440E-003   5.2927628358395484E-002
   4.2013978254393791E-003  -1.1404813270522174E-002   5.0467233808559275E-002
   4.6287155188083073E-003  -1.4828115201249811E-002   4.7897264416603608E-002
   5.0560332121772911E-003  -1.8828458898545009E-002   4.5217720182529453E-002
   3.0030375791190306E-003  -5.6233292183776040E-003   5.7341363309774518E-002
   3.3374748565073858E-003  -7.5736666931642271E-003   5.4372994336554459E-002
   3.6719121338957619E-003  -1.0038482486146000E-002   5.1328439373492296E-002
   4.0063494112841241E-003  -1.3017776597323442E-002   4.8207698420587544E-002
   4.3407866886724655E-003  -1.6511549026696493E-002   4.5010771477841494E-002
   2.5708290702762503E-003  -4.9573237279867399E-003   5.9691877752057462E-002
   2.8457747839611448E-003  -6.5887802799667605E-003   5.6168522961706116E-002
   3.1207204976460377E-003  -8.6721517017703115E-003   5.2602371033789570E-002
   3.3956662113309166E-003  -1.1207437993397209E-002   4.8993421968308595E-002
   3.6706119250158251E-003  -1.4194639154847866E-002   4.5341675765262046E-002
   2.0501369121730950E-003  -4.2913182375958758E-003   6.2329991392961137E-002
   2.2989799144316758E-003  -5.6038938667690719E-003   5.8314214233850192E-002
   2.5478229166902289E-003  -7.3058209173939570E-003   5.4289028789451410E-002
   2.7966659189488166E-003  -9.3970993894704757E-003   5.0254435059764735E-002
   3.0455089212074182E-003  -1.1877729282999017E-002   4.6210433044790555E-002
   2.3188710572222881E-002  -1.2816458952454868E-002   7.6133828850429908E-002
   2.2372788927994713E-002  -1.0012411374593605E-002   7.1849552545182493E-002
   2.1556867283766476E-002  -7.9562154591128059E-003   6.8524735153873612E-002
   2.0740945639538273E-002  -6.6478712060123214E-003   6.6159376676503498E-002
   1.9925023995310084E-002  -6.0873786152924048E-003   6.4753477113071889E-002
   1.4630349114470267E-002  -5.7248407145262248E-003   6.9019040326503522E-002
   1.4638545032727740E-002  -4.9999697336357563E-003   6.5992028339086878E-002
   1.4646740950985233E-002  -4.4825554229296211E-003   6.3653792562703038E-002
   1.4654936869242720E-002  -4.1725977824076353E-003   6.2004332997351932E-002
   1.4663132787500213E-002  -4.0700968120699899E-003   6.1043649643033548E-002
   7.9422474922838590E-003   1.3667775234025015E-003   5.9554877709507889E-002
   8.5038782701211263E-003   1.2471907322203490E-005   5.8325525032118589E-002
   9.0655090479583693E-003  -1.0088953867462905E-003   5.7514265862855803E-002
   9.6271398257956279E-003  -1.6973243588028365E-003   5.7121100201719954E-002
   1.0188770603632880E-002  -2.0528150088475750E-003   5.7146028048710842E-002
   3.1244057056636684E-003   8.4583957613311861E-003   4.7741340999443771E-002
   3.9687886401747786E-003   5.0249135482800661E-003   4.8850042624277501E-002
   4.8131715746858794E-003   2.4647646494370228E-003   5.0106155054332066E-002
   5.6575545091969836E-003   7.7794906480187827E-004   5.1509678289607536E-002
   6.5019374437080904E-003  -3.5533205625132291E-005   5.3060612330103923E-002
   1.7682375460971456E-004   1.5550013999259871E-002   3.3578430196310738E-002
   1.0332761428887491E-003   1.0037355189237984E-002   3.7565581115563740E-002
   1.8897285311677767E-003   5.9384246856202666E-003   4.1429460137131696E-002
   2.7461809194468077E-003   3.2532224884067422E-003   4.5170067261014676E-002
   3.6026333077258388E-003   1.9817485975972549E-003   4.8787402487212583E-002
   1.9925023995310084E-002  -6.0873786152924048E-003   6.4753477113071889E-002
   1.9603027588111777E-002  -5.8974317687481570E-003   6.4236431938830829E-002
   1.9281031180913441E-002  -5.7007247481752898E-003   6.3814103798233934E-002
   1.8959034773715126E-002  -5.4972575535733592E-003   6.3486492691281093E-002
   1.8637038366516812E-002  -5.2870301849429757E-003   6.3253598617972417E-002
   1.4663132787500213E-002  -4.0700968120699899E-003   6.1043649643033548E-002
   1.4402034993273846E-002  -4.0527498616554358E-003   6.1302269474246190E-002
   1.4140937199047465E-002  -3.9982542809028632E-003   6.1587969497758729E-002
   1.3879839404821091E-002  -3.9066100698122927E-003   6.1900749713570881E-002
   1.3618741610594724E-002  -3.7778172283835509E-003   6.2240610121682749E-002
   1.0188770603632880E-002  -2.0528150088475750E-003   5.7146028048710842E-002
   9.9209345810340847E-003  -2.2080679545627563E-003   5.8210701341686599E-002
   9.6530985584352864E-003  -2.2957838136304920E-003   5.9234817985617694E-002
   9.3852625358364968E-003  -2.3159625860510596E-003   6.0218377980504306E-002
   9.1174265132376933E-003  -2.2686042718242649E-003   6.1161381326346131E-002
   6.5019374437080904E-003  -3.5533205625132291E-005   5.3060612330103923E-002
   6.1597263513924975E-003  -3.6338604747000042E-004   5.4961727541151910E-002
   5.8175152590769124E-003  -5.9331334635828736E-004   5.6754649261810911E-002
   5.4753041667613290E-003  -7.2531510228988211E-004   5.8439377492081009E-002
   5.1330930744457343E-003  -7.5939131526488179E-004   6.0015912231962107E-002
   3.6026333077258388E-003   1.9817485975972549E-003   4.8787402487212583E-002
   3.1184103043490896E-003   1.4812958596226167E-003   5.1555348072642226E-002
   2.6341873009723439E-003   1.1091571209141532E-003   5.4147463326338491E-002
   2.1499642975955982E-003   8.6533238147128502E-004   5.6563748248301390E-002
   1.6657412942188490E-003   7.4982164129439033E-004   5.8804202838530939E-002
   1.8637038366516812E-002  -5.2870301849429757E-003   6.3253598617972417E-002
   1.7679131341970522E-002  -5.0644406231376005E-003   6.2551899057199878E-002
   1.6721224317424246E-002  -4.8238868490115272E-003   6.2211800962248015E-002
   1.5763317292877957E-002  -4.5653688625646588E-003   6.2233304333116829E-002
   1.4805410268331667E-002  -4.2888866637971756E-003   6.2616409169806209E-002
   1.3618741610594724E-002  -3.7778172283835509E-003   6.2240610121682749E-002
   1.2976469150754372E-002  -3.6228555374328841E-003   6.2026501958874131E-002
   1.2334196690914030E-002  -3.4527047777761916E-003   6.2082061459656640E-002
   1.1691924231073686E-002  -3.2673649494136085E-003   6.2407288624030416E-002
   1.1049651771233349E-002  -3.0668360523449789E-003   6.3002183451995430E-002
   9.1174265132376933E-003  -2.2686042718242649E-003   6.1161381326346131E-002
   8.6988548158739160E-003  -2.1812704517281123E-003   6.1432089417886346E-002
   8.2802831185101317E-003  -2.0815227065409114E-003   6.1880531370788416E-002
   7.8617114211463543E-003  -1.9693610362624472E-003   6.2506707185052482E-002
   7.4431397237825735E-003  -1.8447854408927544E-003   6.3310616860678307E-002
   5.1330930744457343E-003  -7.5939131526488179E-004   6.0015912231962107E-002
   4.8462883373291583E-003  -7.3968536602350698E-004   6.0768661434236551E-002
   4.5594836002125624E-003  -7.1034063530565905E-004   6.1607210695643407E-002
   4.2726788630959699E-003  -6.7135712311123044E-004   6.2531560016183055E-002
   3.9858741259793896E-003  -6.2273482944065484E-004   6.3541709395854906E-002
   1.6657412942188490E-003   7.4982164129439033E-004   5.8804202838530939E-002
   1.4187697151200850E-003   7.0189971968134812E-004   6.0036218007924746E-002
   1.1717981360213139E-003   6.6084143592969047E-004   6.1262099434221812E-002
   9.2482655692254986E-004   6.2664679003976084E-004   6.2481847117421815E-002
   6.7785497782377885E-004   5.9931578201166680E-004   6.3695461057525105E-002
   1.4805410268331667E-002  -4.2888866637971756E-003   6.2616409169806209E-002
   1.4002249692490934E-002  -3.9939952495854358E-003   6.2438971532580767E-002
   1.3199089116650221E-002  -3.6802496168060056E-003   6.2428043238877545E-002
   1.2395928540809505E-002  -3.3476497654591451E-003   6.2583624288696585E-002
   1.1592767964968775E-002  -2.9961956955443236E-003   6.2905714682037872E-002
   1.1049651771233349E-002  -3.0668360523449789E-003   6.3002183451995430E-002
   1.0420583272599704E-002  -2.8582833028333032E-003   6.2991431425476280E-002
   9.7915147739660729E-003  -2.6488719171411795E-003   6.3162354209849308E-002
   9.1624462753324559E-003  -2.4386018952688819E-003   6.3514951805114100E-002
   8.5333777766988250E-003  -2.2274732372160599E-003   6.4049224211271016E-002
   7.4431397237825735E-003  -1.8447854408927544E-003   6.3310616860678307E-002
   7.0033287697257619E-003  -1.7225713560811706E-003   6.3448554862478343E-002
   6.5635178156689556E-003  -1.6174942174762494E-003   6.3783333142540172E-002
   6.1237068616121415E-003  -1.5295540250784539E-003   6.4314951700863501E-002
   5.6838959075553239E-003  -1.4587507788876297E-003   6.5043410537448720E-002
   3.9858741259793896E-003  -6.2273482944065484E-004   6.3541709395854906E-002
   3.7504861838691143E-003  -5.8685940932892700E-004   6.3810341843586735E-002
   3.5150982417588403E-003  -5.8611651781148230E-004   6.4290980036950052E-002
   3.2797102996485646E-003  -6.2050615488805274E-004   6.4983623975944871E-002
   3.0443223575382979E-003  -6.9002832055928276E-004   6.5888273660570817E-002
   6.7785497782377885E-004   5.9931578201166680E-004   6.3695461057525105E-002
   6.6205551502974969E-004   5.4885253742309459E-004   6.4076792368801372E-002
   6.4625605223574134E-004   4.4526118185356234E-004   6.4685294893078837E-002
   6.3045658944171565E-004   2.8854171530214023E-004   6.5520968630357529E-002
   6.1465712664770383E-004   7.8694137769064199E-005   6.6583813580637141E-002
   1.1592767964968775E-002  -2.9961956955443236E-003   6.2905714682037872E-002
   1.0679405665942263E-002  -2.6536177984232689E-003   6.2689793186511689E-002
   9.7660433669157776E-003  -2.3476464654575147E-003   6.2780986947390982E-002
   8.8526810678892787E-003  -2.0782816966459297E-003   6.3179295964676085E-002
   7.9393187688627798E-003  -1.8455234919898533E-003   6.3884720238366222E-002
   8.5333777766988250E-003  -2.2274732372160599E-003   6.4049224211271016E-002
   7.8997848025307293E-003  -2.0192082038632542E-003   6.3994268878456717E-002
   7.2661918283626267E-003  -1.8175290560909219E-003   6.4191736938953470E-002
   6.6325988541945310E-003  -1.6224357938995973E-003   6.4641628392761843E-002
   5.9990058800264423E-003  -1.4339284172882882E-003   6.5343943239881686E-002
   5.6838959075553239E-003  -1.4587507788876297E-003   6.5043410537448720E-002
   5.2753803951515257E-003  -1.3847986093031561E-003   6.5179442045920466E-002
   4.8668648827477276E-003  -1.2874116467252034E-003   6.5513205084609352E-002
   4.4583493703439225E-003  -1.1665898911527618E-003   6.6044699653515643E-002
   4.0498338579401175E-003  -1.0223333425866121E-003   6.6773925752639129E-002
   3.0443223575382979E-003  -6.9002832055928276E-004   6.5888273660570817E-002
   2.8061924438046856E-003  -7.5038901474343278E-004   6.6245312688902880E-002
   2.5680625300710750E-003  -7.5729423735904772E-004   6.6745391384358574E-002
   2.3299326163374601E-003  -7.1074398840639992E-004   6.7388509746937122E-002
   2.0918027026038521E-003  -6.1073826788488050E-004   6.8174667776638734E-002
   6.1465712664770383E-004   7.8694137769064199E-005   6.6583813580637141E-002
   4.9222094849017684E-004  -1.1597942018304330E-004   6.7191880807404569E-002
   3.6978477033266371E-004  -2.2717682799300309E-004   6.7888295838201052E-002
   2.4734859217514192E-004  -2.5489808565934413E-004   6.8673058673026449E-002
   1.2491241401762360E-004  -1.9914319318325990E-004   6.9546169311880957E-002
   7.9393187688627798E-003  -1.8455234919898533E-003   6.3884720238366222E-002
   6.9978572197201827E-003  -1.6778412082920635E-003   6.3900906911911526E-002
   6.0563956705775718E-003  -1.6037042023553938E-003   6.4135579874668558E-002
   5.1149341214349678E-003  -1.6231124741804687E-003   6.4588739126637817E-002
   4.1734725722923915E-003  -1.7360660237668579E-003   6.5260384667818805E-002
   5.9990058800264423E-003  -1.4339284172882882E-003   6.5343943239881686E-002
   5.2791499998431496E-003  -1.2872790295889724E-003   6.5269052474921818E-002
   4.5592941196598707E-003  -1.2177597341337942E-003   6.5418886758668804E-002
   3.8394382394765815E-003  -1.2253705309220736E-003   6.5793446091122670E-002
   3.1195823592932992E-003  -1.3101114199535191E-003   6.6392730472283223E-002
   4.0498338579401175E-003  -1.0223333425866121E-003   6.6773925752639129E-002
   3.5578224062110669E-003  -8.9671685088621444E-004   6.6624372734692239E-002
   3.0658109544820025E-003  -8.3181526591183386E-004   6.6705783524946854E-002
   2.5737995027529503E-003  -8.2762858766311648E-004   6.7018158123402991E-002
   2.0817880510238876E-003  -8.8415681614029129E-004   6.7561496530061382E-002
   2.0918027026038521E-003  -6.1073826788488050E-004   6.8174667776638734E-002
   1.8338744388239295E-003  -5.0615467218334542E-004   6.7966867691222566E-002
   1.5759461750440070E-003  -4.4587079768999838E-004   6.7996270173502793E-002
   1.3180179112640771E-003  -4.2988664440438487E-004   6.8262875223479583E-002
   1.0600896474841481E-003  -4.5820221232689695E-004   6.8766682841153143E-002
   1.2491241401762360E-004  -1.9914319318325990E-004   6.9546169311880957E-002
   1.0730609768173915E-004  -1.1559249348042089E-004   6.9296537344513021E-002
   8.9699781345854712E-005  -5.9926329468329431E-005   6.9290346704336647E-002
   7.2093465009970270E-005  -3.2144701145944699E-005   6.9527597391351892E-002
   5.4487148674085828E-005  -3.2247608513724657E-005   7.0008289405558477E-002
   4.1734725722923915E-003  -1.7360660237668579E-003   6.5260384667818805E-002
   3.6426386572625535E-003  -2.0155639284814564E-003   6.4341409780617753E-002
   3.1118047422327294E-003  -2.5346052656912699E-003   6.3546685939074476E-002
   2.5809708272029053E-003  -3.2931900353961596E-003   6.2876213143189030E-002
   2.0501369121730950E-003  -4.2913182375958758E-003   6.2329991392961137E-002
   3.1195823592932992E-003  -1.3101114199535191E-003   6.6392730472283223E-002
   2.7144957847276691E-003  -1.5224247733262031E-003   6.5282568650152029E-002
   2.3094092101620389E-003  -1.9127529631368934E-003   6.4299650463291558E-002
   1.9043226355964192E-003  -2.4810959893866794E-003   6.3443975911701589E-002
   1.4992360610307787E-003  -3.2274538520740137E-003   6.2715544995382788E-002
   2.0817880510238876E-003  -8.8415681614029129E-004   6.7561496530061382E-002
   1.8054414065355739E-003  -1.0292856181711163E-003   6.6321676369056476E-002
   1.5290947620472499E-003  -1.2909006605832940E-003   6.5212092432935354E-002
   1.2527481175589328E-003  -1.6690019433769770E-003   6.4232744721698154E-002
   9.7640147307061220E-004  -2.1635894665522626E-003   6.3383633235344572E-002
   1.0600896474841481E-003  -4.5820221232689695E-004   6.8766682841153143E-002
   9.1547552268625085E-004  -5.3614646301589075E-004   6.7458732937331178E-002
   7.7086139788834756E-004  -6.6904835802908402E-004   6.6284011848006377E-002
   6.2624727309044687E-004  -8.5690789736760781E-004   6.5242519573178559E-002
   4.8163314829254705E-004  -1.0997250810304560E-003   6.4334256112847599E-002
   5.4487148674085828E-005  -3.2247608513724657E-005   7.0008289405558477E-002
   4.4598133179710175E-005  -4.3007307860665200E-005   6.8693738354976386E-002
   3.4709117685341462E-005  -4.7196055475345888E-005   6.7515408708504643E-002
   2.4820102190972748E-005  -4.4813851357856926E-005   6.6473300466142887E-002
   1.4931086696597096E-005  -3.5860695508538321E-005   6.5567413627891535E-002
   2.0501369121730950E-003  -4.2913182375958758E-003   6.2329991392961137E-002
   2.2989799144316758E-003  -5.6038938667690719E-003   5.8314214233850192E-002
   2.5478229166902289E-003  -7.3058209173939570E-003   5.4289028789451410E-002
   2.7966659189488166E-003  -9.3970993894704757E-003   5.0254435059764735E-002
   3.0455089212074182E-003  -1.1877729282999017E-002   4.6210433044790555E-002
   1.4992360610307787E-003  -3.2274538520740137E-003   6.2715544995382788E-002
   1.7253887181764016E-003  -4.2097896334826745E-003   5.8372905828400767E-002
   1.9515413753220176E-003  -5.4860664158946082E-003   5.3994294256481001E-002
   2.1776940324676058E-003  -7.0562841993103004E-003   4.9579710279622463E-002
   2.4038466896132427E-003  -8.9204429837292931E-003   4.5129153897826679E-002
   9.7640147307061220E-004  -2.1635894665522626E-003   6.3383633235344572E-002
   1.1532996654528074E-003  -2.8156854001958331E-003   5.8809542480940530E-002
   1.3301978578350096E-003  -3.6663119143950373E-003   5.4172915201947502E-002
   1.5070960502172135E-003  -4.7154690091496254E-003   4.9473751398365712E-002
   1.6839942425993931E-003  -5.9631566844595696E-003   4.4712051070195380E-002
   4.8163314829254705E-004  -1.0997250810304560E-003   6.4334256112847599E-002
   5.8271275626089157E-004  -1.4215811669092138E-003   5.9624124191468925E-002
   6.8379236422924823E-004  -1.8465574128956885E-003   5.4824891625850761E-002
   7.8487197219758451E-004  -2.3746538189888672E-003   4.9936558415994314E-002
   8.8595158016594941E-004  -3.0058703851898461E-003   4.4959124561897823E-002
   1.4931086696597096E-005  -3.5860695508538321E-005   6.5567413627891535E-002
   1.3627990600652284E-005  -2.7476933622705424E-005   6.0816650959986118E-002
   1.2324894504704004E-005  -2.6802911396034412E-005   5.5950223528191512E-002
   1.1021798408759192E-005  -3.3838628828421202E-005   5.0968131332506800E-002
   9.7187023128109118E-006  -4.8584085920122533E-005   4.5870374372933398E-002
   1.7682375460971456E-004   1.5550013999259871E-002   3.3578430196310738E-002
   1.0332761428887491E-003   1.0037355189237984E-002   3.7565581115563740E-002
   1.8897285311677767E-003   5.9384246856202666E-003   4.1429460137131696E-002
   2.7461809194468077E-003   3.2532224884067422E-003   4.5170067261014676E-002
   3.6026333077258388E-003   1.9817485975972549E-003   4.8787402487212583E-002
  -2.9558485111240568E-003   8.3183766514741686E-003   4.7187775305648771E-002
  -2.1785563778594468E-003   5.6602354377028874E-003   5.0037496614780685E-002
  -1.4012642445948367E-003   3.7061643417957701E-003   5.2852169311568747E-002
  -6.2397211133023364E-004   2.4561633637527613E-003   5.5631793396013193E-002
   1.5332002193437291E-004   1.9102325035740275E-003   5.8376368868113676E-002
  -8.3289612417836376E-003   1.0867393036885498E-003   6.4006467105507267E-002
  -7.5426060781922681E-003   1.2831156861677767E-003   6.5009100615978116E-002
  -6.7562509146008639E-003   1.4739039979712251E-003   6.6064908799446542E-002
  -5.9698957510094632E-003   1.6591042390989210E-003   6.7173891655912282E-002
  -5.1835405874180764E-003   1.8387164095508002E-003   6.8336049185375405E-002
  -1.5942514437369090E-002  -6.1448980440970830E-003   8.4034505595886336E-002
  -1.5058872958109685E-002  -3.0940040653673548E-003   8.2480393119156323E-002
  -1.4175231478850282E-002  -7.5835634585326786E-004   8.1067678600764873E-002
  -1.3291589999590884E-002   8.6204511444506592E-004   7.9796362040712041E-002
  -1.2407948520331485E-002   1.7672003155275728E-003   7.8666443438997785E-002
  -2.5796508097880352E-002  -1.3376535391882771E-002  0.10727189077678601     
  -2.4727357017611730E-002  -7.4711238169024863E-003  0.10245137412431493     
  -2.3658205937343121E-002  -2.9906166896778164E-003   9.7860478715523780E-002
  -2.2589054857074492E-002   6.4985989791183085E-005   9.3499204550412468E-002
  -2.1519903776805877E-002   1.6956842215044010E-003   8.9367551628980912E-002
   3.6026333077258388E-003   1.9817485975972549E-003   4.8787402487212583E-002
   3.1184103043490896E-003   1.4812958596226167E-003   5.1555348072642226E-002
   2.6341873009723439E-003   1.1091571209141532E-003   5.4147463326338491E-002
   2.1499642975955982E-003   8.6533238147128502E-004   5.6563748248301390E-002
   1.6657412942188490E-003   7.4982164129439033E-004   5.8804202838530939E-002
   1.5332002193437291E-004   1.9102325035740275E-003   5.8376368868113676E-002
  -3.9828279476196785E-004   1.7337470093840845E-003   5.9446784955085735E-002
  -9.4988561145830687E-004   1.5920821293078646E-003   6.0558271747152018E-002
  -1.5014884281546476E-003   1.4852378633451804E-003   6.1710829244312461E-002
  -2.0530912448509867E-003   1.4132142114959834E-003   6.2904457446567169E-002
  -5.1835405874180764E-003   1.8387164095508002E-003   6.8336049185375405E-002
  -5.5856221806064987E-003   1.9861981591454553E-003   6.7615442388737762E-002
  -5.9877037737949279E-003   2.0750071377015136E-003   6.7152807334021736E-002
  -6.3897853669833537E-003   2.1051433452188521E-003   6.6948144021227438E-002
  -6.7918669601717656E-003   2.0766067816976597E-003   6.7001452450354756E-002
  -1.2407948520331485E-002   1.7672003155275728E-003   7.8666443438997785E-002
  -1.2443607853184496E-002   2.2386493089068468E-003   7.6061320373598140E-002
  -1.2479267186037509E-002   2.5579321460951938E-003   7.3931070086947756E-002
  -1.2514926518890529E-002   2.7250488270926633E-003   7.2275692579046466E-002
  -1.2550585851743547E-002   2.7399993518991833E-003   7.1095187849894367E-002
  -2.1519903776805877E-002   1.6956842215044010E-003   8.9367551628980912E-002
  -2.0972239812495984E-002   2.4911004586682384E-003   8.4784418909667009E-002
  -2.0424575848186067E-002   3.0408571544887908E-003   8.0893060005929912E-002
  -1.9876911883876150E-002   3.3449543089664260E-003   7.7693474917769373E-002
  -1.9329247919566257E-002   3.4033919221008735E-003   7.5185663645185585E-002
   1.6657412942188490E-003   7.4982164129439033E-004   5.8804202838530939E-002
   1.4187697151200850E-003   7.0189971968134812E-004   6.0036218007924746E-002
   1.1717981360213139E-003   6.6084143592969047E-004   6.1262099434221812E-002
   9.2482655692254986E-004   6.2664679003976084E-004   6.2481847117421815E-002
   6.7785497782377885E-004   5.9931578201166680E-004   6.3695461057525105E-002
  -2.0530912448509867E-003   1.4132142114959834E-003   6.2904457446567169E-002
  -2.2269621057134162E-003   1.3563424749713504E-003   6.3196937328241443E-002
  -2.4008329665758527E-003   1.2949539549816785E-003   6.3641752389485398E-002
  -2.5747038274382761E-003   1.2290486515270337E-003   6.4238902630298994E-002
  -2.7485746883007117E-003   1.1586265646075788E-003   6.4988388050681911E-002
  -6.7918669601717656E-003   2.0766067816976597E-003   6.7001452450354756E-002
  -6.7341681801314736E-003   2.0107852302613111E-003   6.6343016622983350E-002
  -6.6764694000911598E-003   1.9290664740335625E-003   6.5995384897847731E-002
  -6.6187706200508565E-003   1.8314505130143637E-003   6.5958557274947982E-002
  -6.5610718400105402E-003   1.7179373472036019E-003   6.6232533754284423E-002
  -1.2550585851743547E-002   2.7399993518991833E-003   7.1095187849894367E-002
  -1.2102848508134085E-002   2.6652279855514036E-003   6.9474455892150275E-002
  -1.1655111164524631E-002   2.5631789930854430E-003   6.8322996959308616E-002
  -1.1207373820915171E-002   2.4338523745014431E-003   6.7640811051369223E-002
  -1.0759636477305717E-002   2.2772481297997360E-003   6.7427898168332195E-002
  -1.9329247919566257E-002   3.4033919221008735E-003   7.5185663645185585E-002
  -1.8333003089721252E-002   3.3196707408412740E-003   7.2591255135742383E-002
  -1.7336758259876243E-002   3.1972915121374207E-003   7.0624588573868136E-002
  -1.6340513430031241E-002   3.0362542359888799E-003   6.9285663959562524E-002
  -1.5344268600186228E-002   2.8365589123956481E-003   6.8574481292825618E-002
   6.7785497782377885E-004   5.9931578201166680E-004   6.3695461057525105E-002
   6.6205551502974969E-004   5.4885253742309459E-004   6.4076792368801372E-002
   6.4625605223574134E-004   4.4526118185356234E-004   6.4685294893078837E-002
   6.3045658944171565E-004   2.8854171530214023E-004   6.5520968630357529E-002
   6.1465712664770383E-004   7.8694137769064199E-005   6.6583813580637141E-002
  -2.7485746883007117E-003   1.1586265646075788E-003   6.4988388050681911E-002
  -2.5400569748957758E-003   1.0757555586878853E-003   6.4944043256812412E-002
  -2.3315392614908347E-003   9.7250349823256588E-004   6.5121161602339384E-002
  -2.1230215480858997E-003   8.4887038324181138E-004   6.5519743087263382E-002
  -1.9145038346809577E-003   7.0485621371541018E-004   6.6139787711584130E-002
  -6.5610718400105402E-003   1.7179373472036019E-003   6.6232533754284423E-002
  -6.1339450240109608E-003   1.6026585799524540E-003   6.5795259911714740E-002
  -5.7068182080113952E-003   1.4997458146117915E-003   6.5573741134937441E-002
  -5.2796913920118088E-003   1.4091990511817046E-003   6.5567977423952761E-002
  -4.8525645760122364E-003   1.3310182896620892E-003   6.5777968778760409E-002
  -1.0759636477305717E-002   2.2772481297997360E-003   6.7427898168332195E-002
  -1.0119608632315810E-002   2.1295616012170782E-003   6.6630442333508649E-002
  -9.4795807873259055E-003   2.0269881309909060E-003   6.6043033490873204E-002
  -8.8395529423360014E-003   1.9695277191215978E-003   6.5665671640425943E-002
  -8.1995250973460939E-003   1.9571803656086573E-003   6.5498356782166825E-002
  -1.5344268600186228E-002   2.8365589123956481E-003   6.8574481292825618E-002
  -1.4497047799810328E-002   2.6564646224817023E-003   6.7449590522194292E-002
  -1.3649826999434400E-002   2.5542304473699651E-003   6.6529038670146534E-002
  -1.2802606199058490E-002   2.5298563870612550E-003   6.5812825736682706E-002
  -1.1955385398682572E-002   2.5833424415551143E-003   6.5300951721802836E-002
   6.1465712664770383E-004   7.8694137769064199E-005   6.6583813580637141E-002
   4.9222094849017684E-004  -1.1597942018304330E-004   6.7191880807404569E-002
   3.6978477033266371E-004  -2.2717682799300309E-004   6.7888295838201052E-002
   2.4734859217514192E-004  -2.5489808565934413E-004   6.8673058673026449E-002
   1.2491241401762360E-004  -1.9914319318325990E-004   6.9546169311880957E-002
  -1.9145038346809577E-003   7.0485621371541018E-004   6.6139787711584130E-002
  -1.9006680196807894E-003   5.6766978687761149E-004   6.6445635692505167E-002
  -1.8868322046806090E-003   4.6451989995241472E-004   6.6935679855712554E-002
  -1.8729963896804347E-003   3.9540655293953536E-004   6.7609920201206375E-002
  -1.8591605746802603E-003   3.6032974583910526E-004   6.8468356728986546E-002
  -4.8525645760122364E-003   1.3310182896620892E-003   6.5777968778760409E-002
  -4.6066083895970489E-003   1.2513189939388214E-003   6.5732157903604899E-002
  -4.3606522031818607E-003   1.1562166278976105E-003   6.5966391588993006E-002
  -4.1146960167666793E-003   1.0457111915384149E-003   6.6480669834924802E-002
  -3.8687398303514850E-003   9.1980268486152594E-004   6.7274992641400300E-002
  -8.1995250973460939E-003   1.9571803656086573E-003   6.5498356782166825E-002
  -7.6256001612585939E-003   1.9349682009998093E-003   6.5051447440704180E-002
  -7.0516752251710852E-003   1.8479133558428618E-003   6.4980431038042658E-002
  -6.4777502890835843E-003   1.6960158301372943E-003   6.5285307574181994E-002
  -5.9038253529960765E-003   1.4792756238839189E-003   6.5966077049122315E-002
  -1.1955385398682572E-002   2.5833424415551143E-003   6.5300951721802836E-002
  -1.0957643334665430E-002   2.6186174080607971E-003   6.4403504303802706E-002
  -9.9599012706482956E-003   2.5396100837881963E-003   6.3977798202860925E-002
  -8.9621592066311505E-003   2.3463204687363334E-003   6.4023833418977466E-002
  -7.9644171426140123E-003   2.0387485629063118E-003   6.4541609952152412E-002
   1.2491241401762360E-004  -1.9914319318325990E-004   6.9546169311880957E-002
   1.0730609768173915E-004  -1.1559249348042089E-004   6.9296537344513021E-002
   8.9699781345854712E-005  -5.9926329468329431E-005   6.9290346704336647E-002
   7.2093465009970270E-005  -3.2144701145944699E-005   6.9527597391351892E-002
   5.4487148674085828E-005  -3.2247608513724657E-005   7.0008289405558477E-002
  -1.8591605746802603E-003   3.6032974583910526E-004   6.8468356728986546E-002
  -1.6335570775041774E-003   3.4927807431817115E-004   6.8186051578743578E-002
  -1.4079535803280963E-003   3.5224013404244747E-004   6.8146724728333025E-002
  -1.1823500831520152E-003   3.6921592501268363E-004   6.8350376177754871E-002
  -9.5674658597593235E-004   4.0020544722840778E-004   6.8797005927009103E-002
  -3.8687398303514850E-003   9.1980268486152594E-004   6.7274992641400300E-002
  -3.4003895470225013E-003   8.1414864211645788E-004   6.7001912575218009E-002
  -2.9320392636935106E-003   7.6440659755280804E-004   6.6971347781509399E-002
  -2.4636889803645347E-003   7.7057655117109686E-004   6.7183298260273902E-002
  -1.9953386970355362E-003   8.3265850297076227E-004   6.7637764011511975E-002
  -5.9038253529960765E-003   1.4792756238839189E-003   6.5966077049122315E-002
  -5.1931913108732349E-003   1.2790192099150083E-003   6.5744120333936812E-002
  -4.4825572687503933E-003   1.1765730610633213E-003   6.5764215863865605E-002
  -3.7719232266275526E-003   1.1719371773295066E-003   6.6026363638908736E-002
  -3.0612891845047110E-003   1.2651115587132278E-003   6.6530563659066261E-002
  -7.9644171426140123E-003   2.0387485629063118E-003   6.4541609952152412E-002
  -7.0119623690563723E-003   1.7438897777133366E-003   6.4412674854899543E-002
  -6.0595075954987393E-003   1.5887395245739733E-003   6.4525328975401863E-002
  -5.1070528219410993E-003   1.5732978034880898E-003   6.4879572313659623E-002
  -4.1545980483834663E-003   1.6975646144552492E-003   6.5475404869672404E-002
   5.4487148674085828E-005  -3.2247608513724657E-005   7.0008289405558477E-002
   4.4598133179710175E-005  -4.3007307860665200E-005   6.8693738354976386E-002
   3.4709117685341462E-005  -4.7196055475345888E-005   6.7515408708504643E-002
   2.4820102190972748E-005  -4.4813851357856926E-005   6.6473300466142887E-002
   1.4931086696597096E-005  -3.5860695508538321E-005   6.5567413627891535E-002
  -9.5674658597593235E-004   4.0020544722840778E-004   6.8797005927009103E-002
  -8.3081212097629517E-004   4.6877554279894929E-004   6.7488557759999124E-002
  -7.0487765597665279E-004   5.9849305383211093E-004   6.6315535149867044E-002
  -5.7894319097701562E-004   7.8935798032764987E-004   6.5277938096612975E-002
  -4.5300872597737324E-004   1.0413703222862392E-003   6.4375766600236806E-002
  -1.9953386970355362E-003   8.3265850297076227E-004   6.7637764011511975E-002
  -1.7343765987740279E-003   9.8055839345806417E-004   6.6389995191804330E-002
  -1.4734145005125257E-003   1.2441821631389155E-003   6.5276856081742621E-002
  -1.2124524022510200E-003   1.6235298120132712E-003   6.4298346681326557E-002
  -9.5149030398951513E-004   2.1186013400811832E-003   6.3454466990556374E-002
  -3.0612891845047110E-003   1.2651115587132278E-003   6.6530563659066261E-002
  -2.6660953002134832E-003   1.4923412441172623E-003   6.5398050650392031E-002
  -2.2709014159222624E-003   1.8898712724462127E-003   6.4399371504131345E-002
  -1.8757075316310377E-003   2.4577016436989462E-003   6.3534526220284437E-002
  -1.4805136473398134E-003   3.1958323578761549E-003   6.2803514798850879E-002
  -4.1545980483834663E-003   1.6975646144552492E-003   6.5475404869672404E-002
  -3.6259682252946721E-003   2.0041240947768491E-003   6.4512724135762034E-002
  -3.0973384022058743E-003   2.5355603817531491E-003   6.3683081417033049E-002
  -2.5687085791170784E-003   3.2918734753845033E-003   6.2986476713485756E-002
  -2.0400787560282824E-003   4.2730633756707936E-003   6.2422910025119793E-002
   1.4931086696597096E-005  -3.5860695508538321E-005   6.5567413627891535E-002
   1.3627990600652284E-005  -2.7476933622705424E-005   6.0816650959986118E-002
   1.2324894504704004E-005  -2.6802911396034412E-005   5.5950223528191512E-002
   1.1021798408759192E-005  -3.3838628828421202E-005   5.0968131332506800E-002
   9.7187023128109118E-006  -4.8584085920122533E-005   4.5870374372933398E-002
  -4.5300872597737324E-004   1.0413703222862392E-003   6.4375766600236806E-002
  -5.5638544076909435E-004   1.3706848660227644E-003   5.9650926936403836E-002
  -6.5976215556082587E-004   1.7934563978516116E-003   5.4837604799068795E-002
  -7.6313887035253224E-004   2.3096849177727113E-003   4.9935800188231960E-002
  -8.6651558514426463E-004   2.9193704257863828E-003   4.4945513103892498E-002
  -9.5149030398951513E-004   2.1186013400811832E-003   6.3454466990556374E-002
  -1.1297583470895167E-003   2.7688466656678457E-003   5.8856717058547309E-002
  -1.3080263901895555E-003   3.6137157070983833E-003   5.4197666943423636E-002
  -1.4862944332895587E-003   4.6532084643737363E-003   4.9477316645184836E-002
  -1.6645624763895819E-003   5.8873249374924441E-003   4.4695666163832692E-002
  -1.4805136473398134E-003   3.1958323578761549E-003   6.2803514798850879E-002
  -1.7064907283606419E-003   4.1670084653130102E-003   5.8434021326417340E-002
  -1.9324678093814642E-003   5.4339750163458142E-003   5.4030409961256520E-002
  -2.1584448904022864E-003   6.9967320109744820E-003   4.9592680703368745E-002
  -2.3844219714231289E-003   8.8552794491986164E-003   4.5120833552753620E-002
  -2.0400787560282824E-003   4.2730633756707936E-003   6.2422910025119793E-002
  -2.2865825845824334E-003   5.5651702649583967E-003   5.8382839740013237E-002
  -2.5330864131365774E-003   7.2542343255927733E-003   5.4335833852567295E-002
  -2.7795902416907388E-003   9.3402555575759424E-003   5.0281892362781661E-002
  -3.0260940702448724E-003   1.1823233960905011E-002   4.6221015270656363E-002
  -2.5796508097880352E-002  -1.3376535391882771E-002  0.10727189077678601     
  -2.4727357017611730E-002  -7.4711238169024863E-003  0.10245137412431493     
  -2.3658205937343121E-002  -2.9906166896778164E-003   9.7860478715523780E-002
  -2.2589054857074492E-002   6.4985989791183085E-005   9.3499204550412468E-002
  -2.1519903776805877E-002   1.6956842215044010E-003   8.9367551628980912E-002
  -3.5541938873086529E-002  -8.6302772372492953E-004   8.7030756119174268E-002
  -3.4275098052141739E-002   1.5416842259819430E-003   8.3648058791119084E-002
  -3.3008257231196936E-002   3.3956698072113156E-003   8.0431119700736325E-002
  -3.1741416410252132E-002   4.6989290199632092E-003   7.7379938848026186E-002
  -3.0474575589307329E-002   5.4514618642374224E-003   7.4494516232988472E-002
  -4.2829803412756710E-002   1.1650479944432857E-002   6.2851832796650242E-002
  -4.1429135857143022E-002   1.0554492268866345E-002   6.1781132872288785E-002
  -4.0028468301529327E-002   9.7819563041004476E-003   6.0812328179592687E-002
  -3.8627800745915639E-002   9.3328720501352630E-003   5.9945418718561766E-002
  -3.7227133190301964E-002   9.2072395069705826E-003   5.9180404489196120E-002
  -4.7660101716890897E-002   2.4163987612590698E-002   3.4735120809213454E-002
  -4.6189470432615634E-002   1.9567300311750718E-002   3.6850596367824180E-002
  -4.4718839148340329E-002   1.6168242800989635E-002   3.9004104152092878E-002
  -4.3248207864065032E-002   1.3966815080307220E-002   4.1195644162019547E-002
  -4.1777576579789727E-002   1.2963017149703701E-002   4.3425216397604084E-002
  -5.0032833785489089E-002   3.6677495280748484E-002   2.6806201568643773E-003
  -4.8556101778559471E-002   2.8580108354635175E-002   8.8564492777252202E-003
  -4.7079369771629909E-002   2.2554529297878684E-002   1.5006447618236884E-002
  -4.5602637764700277E-002   1.8600758110479364E-002   2.1130615178399231E-002
  -4.4125905757770686E-002   1.6718794792436764E-002   2.7228951958212122E-002
  -2.1519903776805877E-002   1.6956842215044010E-003   8.9367551628980912E-002
  -2.0972239812495984E-002   2.4911004586682384E-003   8.4784418909667009E-002
  -2.0424575848186067E-002   3.0408571544887908E-003   8.0893060005929912E-002
  -1.9876911883876150E-002   3.3449543089664260E-003   7.7693474917769373E-002
  -1.9329247919566257E-002   3.4033919221008735E-003   7.5185663645185585E-002
  -3.0474575589307329E-002   5.4514618642374224E-003   7.4494516232988472E-002
  -2.9365416967200905E-002   5.8369976908870663E-003   7.1768754963343825E-002
  -2.8256258345094449E-002   6.0392658507649397E-003   6.9474209193715580E-002
  -2.7147099722987983E-002   6.0582663438707492E-003   6.7610878924103793E-002
  -2.6037941100881569E-002   5.8939991702047223E-003   6.6178764154508407E-002
  -3.7227133190301964E-002   9.2072395069705826E-003   5.9180404489196120E-002
  -3.5817038225959240E-002   9.1828949231060053E-003   5.8374406543791967E-002
  -3.4406943261616502E-002   9.0376745470408110E-003   5.7739065782843935E-002
  -3.2996848297273798E-002   8.7715783787749059E-003   5.7274382206352024E-002
  -3.1586753332931039E-002   8.3846064183084879E-003   5.6980355814316361E-002
  -4.1777576579789727E-002   1.2963017149703701E-002   4.3425216397604084E-002
  -4.0327103588770993E-002   1.2528792155324944E-002   4.4601373651011599E-002
  -3.8876630597752246E-002   1.2036083243316710E-002   4.5687629773315003E-002
  -3.7426157606733478E-002   1.1484890413679201E-002   4.6683984764514318E-002
  -3.5975684615714744E-002   1.0875213666412267E-002   4.7590438624609557E-002
  -4.4125905757770686E-002   1.6718794792436764E-002   2.7228951958212122E-002
  -4.2895613055636203E-002   1.5874689387543828E-002   3.0449656285002569E-002
  -4.1665320353501671E-002   1.5034491939592706E-002   3.3319901165128757E-002
  -4.0435027651367153E-002   1.4198202448583355E-002   3.5839686598590478E-002
  -3.9204734949232656E-002   1.3365820914516102E-002   3.8009012585387913E-002
  -1.9329247919566257E-002   3.4033919221008735E-003   7.5185663645185585E-002
  -1.8333003089721252E-002   3.3196707408412740E-003   7.2591255135742383E-002
  -1.7336758259876243E-002   3.1972915121374207E-003   7.0624588573868136E-002
  -1.6340513430031241E-002   3.0362542359888799E-003   6.9285663959562524E-002
  -1.5344268600186228E-002   2.8365589123956481E-003   6.8574481292825618E-002
  -2.6037941100881569E-002   5.8939991702047223E-003   6.6178764154508407E-002
  -2.4507455862564160E-002   5.6288769167651409E-003   6.4622184785124714E-002
  -2.2976970624246761E-002   5.3453121705503009E-003   6.3506344285117311E-002
  -2.1446485385929352E-002   5.0433049315601781E-003   6.2831242654485780E-002
  -1.9916000147611957E-002   4.7228551997949286E-003   6.2596879893230262E-002
  -3.1586753332931039E-002   8.3846064183084879E-003   5.6980355814316361E-002
  -2.9709030764334010E-002   7.9380830926887302E-003   5.6481821139661617E-002
  -2.7831308195736947E-002   7.4933328289631326E-003   5.6237022256190268E-002
  -2.5953585627139886E-002   7.0503556271315892E-003   5.6245959163902209E-002
  -2.4075863058542857E-002   6.6091514871941537E-003   5.6508631862797365E-002
  -3.5975684615714744E-002   1.0875213666412267E-002   4.7590438624609557E-002
  -3.3937727795030757E-002   1.0247289268612431E-002   4.8170164199353022E-002
  -3.1899770974346764E-002   9.6413534873759608E-003   4.8816622487087173E-002
  -2.9861814153662802E-002   9.0574063227028892E-003   4.9529813487811755E-002
  -2.7823857332978780E-002   8.4954477745934620E-003   5.0309737201527011E-002
  -3.9204734949232656E-002   1.3365820914516102E-002   3.8009012585387913E-002
  -3.7193546954654474E-002   1.2556495444536159E-002   3.9687213964199053E-002
  -3.5182358960076265E-002   1.1789374145788803E-002   4.1245144977807818E-002
  -3.3171170965498070E-002   1.1064457018274344E-002   4.2682805626214640E-002
  -3.1159982970919875E-002   1.0381744061992604E-002   4.4000195909419226E-002
  -1.5344268600186228E-002   2.8365589123956481E-003   6.8574481292825618E-002
  -1.4497047799810328E-002   2.6564646224817023E-003   6.7449590522194292E-002
  -1.3649826999434400E-002   2.5542304473699651E-003   6.6529038670146534E-002
  -1.2802606199058490E-002   2.5298563870612550E-003   6.5812825736682706E-002
  -1.1955385398682572E-002   2.5833424415551143E-003   6.5300951721802836E-002
  -1.9916000147611957E-002   4.7228551997949286E-003   6.2596879893230262E-002
  -1.8866070567732127E-002   4.4158923285345375E-003   6.1943865784307522E-002
  -1.7816140987852308E-002   4.1543456710589483E-003   6.1491930315808685E-002
  -1.6766211407972485E-002   3.9382152273681921E-003   6.1241073487733860E-002
  -1.5716281828092662E-002   3.7675009974624807E-003   6.1191295300082937E-002
  -2.4075863058542857E-002   6.6091514871941537E-003   5.6508631862797365E-002
  -2.2826484977318956E-002   6.1753200345874837E-003   5.6295050514565528E-002
  -2.1577106896095086E-002   5.7544608947477094E-003   5.6279287528597871E-002
  -2.0327728814871205E-002   5.3465740676751292E-003   5.6461342904894143E-002
  -1.9078350733647324E-002   4.9516595533696250E-003   5.6841216643454734E-002
  -2.7823857332978780E-002   8.4954477745934620E-003   5.0309737201527011E-002
  -2.6378291028570755E-002   7.9347477406402633E-003   5.0503144712968379E-002
  -2.4932724724162705E-002   7.3545761184364705E-003   5.0891110308513891E-002
  -2.3487158419754666E-002   6.7549329079820107E-003   5.1473633988163722E-002
  -2.2041592115346651E-002   6.1358181092768249E-003   5.2250715751917691E-002
  -3.1159982970919875E-002   1.0381744061992604E-002   4.4000195909419226E-002
  -2.9521488721487549E-002   9.6941754466932650E-003   4.4568148379515893E-002
  -2.7882994472055195E-002   8.9546913421254676E-003   4.5327398655557100E-002
  -2.6244500222622848E-002   8.1632917482889512E-003   4.6277946737542500E-002
  -2.4606005973190515E-002   7.3199766651841358E-003   4.7419792625472357E-002
  -1.1955385398682572E-002   2.5833424415551143E-003   6.5300951721802836E-002
  -1.0957643334665430E-002   2.6186174080607971E-003   6.4403504303802706E-002
  -9.9599012706482956E-003   2.5396100837881963E-003   6.3977798202860925E-002
  -8.9621592066311505E-003   2.3463204687363334E-003   6.4023833418977466E-002
  -7.9644171426140123E-003   2.0387485629063118E-003   6.4541609952152412E-002
  -1.5716281828092662E-002   3.7675009974624807E-003   6.1191295300082937E-002
  -1.4310068600471331E-002   3.5842223211952629E-003   6.0536991553841124E-002
  -1.2903855372850007E-002   3.3303985384204593E-003   6.0227888817749264E-002
  -1.1497642145228682E-002   3.0060296491382713E-003   6.0263987091807580E-002
  -1.0091428917607347E-002   2.6111156533481505E-003   6.0645286376015961E-002
  -1.9078350733647324E-002   4.9516595533696250E-003   5.6841216643454734E-002
  -1.7390206649330036E-002   4.5498272343294510E-003   5.6473793753242185E-002
  -1.5702062565012727E-002   4.1211869930529582E-003   5.6325031566271319E-002
  -1.4013918480695421E-002   3.6657388295397685E-003   5.6394930082542490E-002
  -1.2325774396378133E-002   3.1834827437902113E-003   5.6683489302055523E-002
  -2.2041592115346651E-002   6.1358181092768249E-003   5.2250715751917691E-002
  -2.0198057481241562E-002   5.5154321474636669E-003   5.2213910902005521E-002
  -1.8354522847136508E-002   4.9119754476852281E-003   5.2269226448426978E-002
  -1.6510988213031461E-002   4.3254480099414305E-003   5.2416662391182089E-002
  -1.4667453578926369E-002   3.7558498342322166E-003   5.2656218730270730E-002
  -2.4606005973190515E-002   7.3199766651841358E-003   4.7419792625472357E-002
  -2.2733621096205914E-002   6.4810370605981604E-003   4.7757343000131625E-002
  -2.0861236219221299E-002   5.7027639023176369E-003   4.8060473464216269E-002
  -1.8988851342236678E-002   4.9851571903431827E-003   4.8329184017726540E-002
  -1.7116466465252084E-002   4.3282169246741109E-003   4.8563474660661909E-002
  -7.9644171426140123E-003   2.0387485629063118E-003   6.4541609952152412E-002
  -7.0119623690563723E-003   1.7438897777133366E-003   6.4412674854899543E-002
  -6.0595075954987393E-003   1.5887395245739733E-003   6.4525328975401863E-002
  -5.1070528219410993E-003   1.5732978034880898E-003   6.4879572313659623E-002
  -4.1545980483834663E-003   1.6975646144552492E-003   6.5475404869672404E-002
  -1.0091428917607347E-002   2.6111156533481505E-003   6.0645286376015961E-002
  -8.8955753996132828E-003   2.2476837147378803E-003   6.0547435978127007E-002
  -7.6997218816191922E-003   2.0177609969955490E-003   6.0694793851355844E-002
  -6.5038683636251043E-003   1.9213475001194288E-003   6.1087359995702140E-002
  -5.3080148456310372E-003   1.9584432241108729E-003   6.1725134411166283E-002
  -1.2325774396378133E-002   3.1834827437902113E-003   5.6683489302055523E-002
  -1.0882903080585263E-002   2.7514776517628681E-003   5.6610524292344366E-002
  -9.4400317647923941E-003   2.4467824694166668E-003   5.6786386607113257E-002
  -7.9971604489995039E-003   2.2693971967510974E-003   5.7211076246362118E-002
  -6.5542891332066571E-003   2.2193218337668297E-003   5.7884593210090901E-002
  -1.4667453578926369E-002   3.7558498342322166E-003   5.2656218730270730E-002
  -1.2973945411972360E-002   3.2552715887875228E-003   5.2601939797551213E-002
  -1.1280437245018340E-002   2.8758039418380135E-003   5.2800107242674157E-002
  -9.5869290780643233E-003   2.6174468933828788E-003   5.3250721065639231E-002
  -7.8934209111103104E-003   2.4802004434228975E-003   5.3953781266446767E-002
  -1.7116466465252084E-002   4.3282169246741109E-003   4.8563474660661909E-002
  -1.5168702393774589E-002   3.7590655258123995E-003   4.8521682493747886E-002
  -1.3220938322297052E-002   3.3048254142593325E-003   4.8735955758038407E-002
  -1.1273174250819515E-002   2.9654965900143757E-003   4.9206294453533611E-002
  -9.3254101793420197E-003   2.7410790530784102E-003   4.9932698580233414E-002
  -4.1545980483834663E-003   1.6975646144552492E-003   6.5475404869672404E-002
  -3.6259682252946721E-003   2.0041240947768491E-003   6.4512724135762034E-002
  -3.0973384022058743E-003   2.5355603817531491E-003   6.3683081417033049E-002
  -2.5687085791170784E-003   3.2918734753845033E-003   6.2986476713485756E-002
  -2.0400787560282824E-003   4.2730633756707936E-003   6.2422910025119793E-002
  -5.3080148456310372E-003   1.9584432241108729E-003   6.1725134411166283E-002
  -4.6232983454520087E-003   2.2227616818539242E-003   6.0965551375481541E-002
  -3.9385818452729870E-003   2.8080163862319318E-003   6.0385103678795876E-002
  -3.2538653450939359E-003   3.7142073372453330E-003   5.9983791321109134E-002
  -2.5691488449149404E-003   4.9413345348939819E-003   5.9761614302421329E-002
  -6.5542891332066571E-003   2.2193218337668297E-003   5.7884593210090901E-002
  -5.6673886321199438E-003   2.4413992689309716E-003   5.7424167312612601E-002
  -4.7804881310332158E-003   3.0804723907106174E-003   5.7188974077950636E-002
  -3.8935876299465021E-003   4.1365411991063882E-003   5.7179013506105179E-002
  -3.0066871288598022E-003   5.6096056941176697E-003   5.7394285597076239E-002
  -7.8934209111103104E-003   2.4802004434228975E-003   5.3953781266446767E-002
  -6.7582390852984307E-003   2.6600368560081439E-003   5.3888571947155080E-002
  -5.6230572594865762E-003   3.3529283951894626E-003   5.4094692614497369E-002
  -4.4878754336746948E-003   4.5588750609673306E-003   5.4572143268473525E-002
  -3.3526936078628429E-003   6.2778768533413298E-003   5.5320923909083448E-002
  -9.3254101793420197E-003   2.7410790530784102E-003   4.9932698580233414E-002
  -7.8958497049875370E-003   2.8786744430850386E-003   5.0358765279108875E-002
  -6.4662892306330544E-003   3.6253843996681689E-003   5.1102259288435870E-002
  -5.0367287562785718E-003   4.9812089228282938E-003   5.2163180608214371E-002
  -3.6071682819240891E-003   6.9461480125646569E-003   5.3541529238443686E-002
  -2.0400787560282824E-003   4.2730633756707936E-003   6.2422910025119793E-002
  -2.2865825845824334E-003   5.5651702649583967E-003   5.8382839740013237E-002
  -2.5330864131365774E-003   7.2542343255927733E-003   5.4335833852567295E-002
  -2.7795902416907388E-003   9.3402555575759424E-003   5.0281892362781661E-002
  -3.0260940702448724E-003   1.1823233960905011E-002   4.6221015270656363E-002
  -2.5691488449149404E-003   4.9413345348939819E-003   5.9761614302421329E-002
  -2.8398337861572816E-003   6.5574621732574778E-003   5.6222841214978891E-002
  -3.1105187273995655E-003   8.6306544464148927E-003   5.2642641504499876E-002
  -3.3812036686418747E-003   1.1160911354366955E-002   4.9021015170983673E-002
  -3.6518886098841977E-003   1.4148232897112534E-002   4.5357962214430891E-002
  -3.0066871288598022E-003   5.6096056941176697E-003   5.7394285597076239E-002
  -3.3360442034874871E-003   7.5497540815572250E-003   5.4416917170744039E-002
  -3.6654012781151563E-003   1.0007074567237581E-002   5.1363631100677945E-002
  -3.9947583527428958E-003   1.2981567151158637E-002   4.8234427386878172E-002
  -4.3241154273705382E-003   1.6473231833320057E-002   4.5029306029344296E-002
  -3.3526936078628429E-003   6.2778768533413298E-003   5.5320923909083448E-002
  -3.7752138365730811E-003   8.5420459898569723E-003   5.2965067607308659E-002
  -4.1977340652832908E-003   1.1383494688059763E-002   5.0498802641102722E-002
  -4.6202542939935429E-003   1.4802222947949984E-002   4.7922129010464914E-002
  -5.0427745227037673E-003   1.8798230769527580E-002   4.5235046715397548E-002
  -3.6071682819240891E-003   6.9461480125646569E-003   5.3541529238443686E-002
  -4.1573426854140810E-003   9.5343378981563864E-003   5.1867292524672703E-002
  -4.7075170889040452E-003   1.2759914808882139E-002   5.0048156125773124E-002
  -5.2576914923940510E-003   1.6622878744741769E-002   4.8084120041745310E-002
  -5.8078658958840013E-003   2.1123229705735103E-002   4.5975184272589509E-002
  -5.0032833785489089E-002   3.6677495280748484E-002   2.6806201568643773E-003
  -4.8556101778559471E-002   2.8580108354635175E-002   8.8564492777252202E-003
  -4.7079369771629909E-002   2.2554529297878684E-002   1.5006447618236884E-002
  -4.5602637764700277E-002   1.8600758110479364E-002   2.1130615178399231E-002
  -4.4125905757770686E-002   1.6718794792436764E-002   2.7228951958212122E-002
  -5.2316542018465667E-002   2.9498569369949823E-002   7.8796476972614882E-003
  -5.0784737899850906E-002   2.4770807896279390E-002   1.3439781714793209E-002
  -4.9252933781236102E-002   2.1137079691110061E-002   1.9135890736044811E-002
  -4.7721129662621299E-002   1.8597384754442073E-002   2.4967974761016122E-002
  -4.6189325544006503E-002   1.7151723086275161E-002   3.0936033789706940E-002
  -5.6879768815734852E-002   2.2319643459151245E-002   1.6937187990529151E-002
  -5.5131086801365831E-002   2.0961507437923563E-002   2.0903852303876286E-002
  -5.3382404786996872E-002   1.9719630084341452E-002   2.5168297405011961E-002
  -5.1633722772627844E-002   1.8594011398404785E-002   2.9730523293936405E-002
  -4.9885040758258850E-002   1.7584651380113447E-002   3.4590529970649694E-002
  -6.3722514177296741E-002   1.5140717548352639E-002   2.9853241036667852E-002
  -6.1595148483104559E-002   1.7152206979567812E-002   3.1248661044974202E-002
  -5.9467782788912307E-002   1.8302180477572906E-002   3.3103667625138444E-002
  -5.7340417094720049E-002   1.8590638042367470E-002   3.5418260777160322E-002
  -5.5213051400527804E-002   1.8017579673951817E-002   3.8192440501039926E-002
  -7.2844778103151264E-002   7.9617916375540054E-003   4.6627806835677132E-002
  -7.0176922945066778E-002   1.3342906521212061E-002   4.4474207938087207E-002
  -6.7509067786982291E-002   1.6884730870804193E-002   4.2942001396423957E-002
  -6.4841212628897804E-002   1.8587264686330256E-002   4.2031187210687576E-002
  -6.2173357470813317E-002   1.8450507967790075E-002   4.1741765380877982E-002
  -4.4125905757770686E-002   1.6718794792436764E-002   2.7228951958212122E-002
  -4.2895613055636203E-002   1.5874689387543828E-002   3.0449656285002569E-002
  -4.1665320353501671E-002   1.5034491939592706E-002   3.3319901165128757E-002
  -4.0435027651367153E-002   1.4198202448583355E-002   3.5839686598590478E-002
  -3.9204734949232656E-002   1.3365820914516102E-002   3.8009012585387913E-002
  -4.6189325544006503E-002   1.7151723086275161E-002   3.0936033789706940E-002
  -4.5202787122914423E-002   1.6274296878423813E-002   3.2654320658638811E-002
  -4.4216248701822336E-002   1.5439308322702586E-002   3.4235558412150174E-002
  -4.3229710280730263E-002   1.4646757419111287E-002   3.5679747050241101E-002
  -4.2243171859638121E-002   1.3896644167650185E-002   3.6986886572911409E-002
  -4.9885040758258850E-002   1.7584651380113447E-002   3.4590529970649694E-002
  -4.8928846286965338E-002   1.6673904369303966E-002   3.4844929076910960E-002
  -4.7972651815671813E-002   1.5844124705812583E-002   3.5175689398995617E-002
  -4.7016457344378308E-002   1.5095312389639333E-002   3.5582810936903575E-002
  -4.6060262873084776E-002   1.4427467420784212E-002   3.6066293690635090E-002
  -5.5213051400527804E-002   1.8017579673951817E-002   3.8192440501039926E-002
  -5.4073790547788964E-002   1.7073511860183979E-002   3.7021481539818796E-002
  -5.2934529695050060E-002   1.6248941088922438E-002   3.6140294125664899E-002
  -5.1795268842311212E-002   1.5543867360167350E-002   3.5548878258578255E-002
  -5.0656007989572316E-002   1.4958290673918323E-002   3.5247233938559039E-002
  -6.2173357470813317E-002   1.8450507967790075E-002   4.1741765380877982E-002
  -6.0637619905385243E-002   1.7473119351064131E-002   3.9183978047362511E-002
  -5.9101882339957168E-002   1.6653757472032418E-002   3.7129372592158261E-002
  -5.7566144774529107E-002   1.5992422330695300E-002   3.5577949015265148E-002
  -5.6030407209101046E-002   1.5489113927052378E-002   3.4529707316683034E-002
  -3.9204734949232656E-002   1.3365820914516102E-002   3.8009012585387913E-002
  -3.7193546954654474E-002   1.2556495444536159E-002   3.9687213964199053E-002
  -3.5182358960076265E-002   1.1789374145788803E-002   4.1245144977807818E-002
  -3.3171170965498070E-002   1.1064457018274344E-002   4.2682805626214640E-002
  -3.1159982970919875E-002   1.0381744061992604E-002   4.4000195909419226E-002
  -4.2243171859638121E-002   1.3896644167650185E-002   3.6986886572911409E-002
  -4.0295704182640370E-002   1.3175826816187203E-002   3.7972163055852826E-002
  -3.8348236505642570E-002   1.2471163612590846E-002   3.8950269268835699E-002
  -3.6400768828644806E-002   1.1782654556861040E-002   3.9921205211859927E-002
  -3.4453301151647020E-002   1.1110299648997846E-002   4.0884970884925320E-002
  -4.6060262873084776E-002   1.4427467420784212E-002   3.6066293690635090E-002
  -4.4063415418423804E-002   1.3795158187838372E-002   3.6332595254340766E-002
  -4.2066567963762895E-002   1.3152953079392939E-002   3.6704826643331197E-002
  -4.0069720509102000E-002   1.2500852095447735E-002   3.7182987857606598E-002
  -3.8072873054441077E-002   1.1838855236003004E-002   3.7767078897166892E-002
  -5.0656007989572316E-002   1.4958290673918323E-002   3.5247233938559039E-002
  -4.8496680662004805E-002   1.4414489559489534E-002   3.4768510559662617E-002
  -4.6337353334437212E-002   1.3834742546194923E-002   3.4508817101294574E-002
  -4.4178026006869660E-002   1.3219049634034374E-002   3.4468153563454958E-002
  -4.2018698679302163E-002   1.2567410823008204E-002   3.4646519946143733E-002
  -5.6030407209101046E-002   1.5489113927052378E-002   3.4529707316683034E-002
  -5.3595499913383304E-002   1.5033820931140585E-002   3.3279908971818317E-002
  -5.1160592617665548E-002   1.4516532012997047E-002   3.2362240642725665E-002
  -4.8725685321947799E-002   1.3937247172621063E-002   3.1776702329404882E-002
  -4.6290778026230051E-002   1.3295966410013349E-002   3.1523294031856108E-002
  -3.1159982970919875E-002   1.0381744061992604E-002   4.4000195909419226E-002
  -2.9521488721487549E-002   9.6941754466932650E-003   4.4568148379515893E-002
  -2.7882994472055195E-002   8.9546913421254676E-003   4.5327398655557100E-002
  -2.6244500222622848E-002   8.1632917482889512E-003   4.6277946737542500E-002
  -2.4606005973190515E-002   7.3199766651841358E-003   4.7419792625472357E-002
  -3.4453301151647020E-002   1.1110299648997846E-002   4.0884970884925320E-002
  -3.2633411376364441E-002   1.0426032008104130E-002   4.1070819801262953E-002
  -3.0813521601081931E-002   9.7017847532827189E-003   4.1428161963356663E-002
  -2.8993631825799393E-002   8.9375578845336708E-003   4.1956997371206298E-002
  -2.7173742050516841E-002   8.1333514018571140E-003   4.2657326024812037E-002
  -3.8072873054441077E-002   1.1838855236003004E-002   3.7767078897166892E-002
  -3.6091392313496638E-002   1.1157888569514940E-002   3.7582760135086227E-002
  -3.4109911572552234E-002   1.0448878164440185E-002   3.7550130058573238E-002
  -3.2128430831607852E-002   9.7118240207786106E-003   3.7669188667627931E-002
  -3.0146950090663378E-002   8.9467261385300922E-003   3.7939935962250398E-002
  -4.2018698679302163E-002   1.2567410823008204E-002   3.4646519946143733E-002
  -3.9895431532884107E-002   1.1889745130925999E-002   3.4103969380985491E-002
  -3.7772164386466155E-002   1.1195971575597711E-002   3.3693302941206704E-002
  -3.5648897240048182E-002   1.0486090157023439E-002   3.3414520626807276E-002
  -3.3525630093630202E-002   9.7601008752031815E-003   3.3267622437787032E-002
  -4.6290778026230051E-002   1.3295966410013349E-002   3.1523294031856108E-002
  -4.4045529034526854E-002   1.2621601692336837E-002   3.0634447538961107E-002
  -4.1800280042823657E-002   1.1943064986755167E-002   2.9857680611257237E-002
  -3.9555031051120487E-002   1.1260356293268280E-002   2.9192993248744456E-002
  -3.7309782059417262E-002   1.0573475611876049E-002   2.8640385451422556E-002
  -2.4606005973190515E-002   7.3199766651841358E-003   4.7419792625472357E-002
  -2.2733621096205914E-002   6.4810370605981604E-003   4.7757343000131625E-002
  -2.0861236219221299E-002   5.7027639023176369E-003   4.8060473464216269E-002
  -1.8988851342236678E-002   4.9851571903431827E-003   4.8329184017726540E-002
  -1.7116466465252084E-002   4.3282169246741109E-003   4.8563474660661909E-002
  -2.7173742050516841E-002   8.1333514018571140E-003   4.2657326024812037E-002
  -2.5298853509755942E-002   7.3336429340831177E-003   4.2681149056021050E-002
  -2.3423964968995056E-002   6.5829101100422505E-003   4.2744399325357535E-002
  -2.1549076428234157E-002   5.8811529297340542E-003   4.2847076832821088E-002
  -1.9674187887473271E-002   5.2283713931585707E-003   4.2989181578411528E-002
  -3.0146950090663378E-002   8.9467261385300922E-003   3.7939935962250398E-002
  -2.8195710737424516E-002   8.1862488075682693E-003   3.7638340847436641E-002
  -2.6244471384185657E-002   7.4630563177665171E-003   3.7450020119451699E-002
  -2.4293232030946757E-002   6.7771486691249223E-003   3.7374973778295593E-002
  -2.2341992677707936E-002   6.1285258616431415E-003   3.7413201823968317E-002
  -3.3525630093630202E-002   9.7601008752031815E-003   3.3267622437787032E-002
  -3.1424192779211685E-002   9.0388546810533793E-003   3.2628918374377563E-002
  -2.9322755464793120E-002   8.3432025254909573E-003   3.2177335846498525E-002
  -2.7221318150374586E-002   7.6731444085156256E-003   3.1912874854150265E-002
  -2.5119880835956041E-002   7.0286803301276568E-003   3.1835535397332047E-002
  -3.7309782059417262E-002   1.0573475611876049E-002   2.8640385451422556E-002
  -3.4984299635117372E-002   9.8914605545384338E-003   2.7652881636844429E-002
  -3.2658817210817481E-002   9.2233487332153974E-003   2.6926346506498500E-002
  -3.0333334786517577E-002   8.5691401479067175E-003   2.6460780060384742E-002
  -2.8007852362217672E-002   7.9288347986120611E-003   2.6256182298503239E-002
  -1.7116466465252084E-002   4.3282169246741109E-003   4.8563474660661909E-002
  -1.5168702393774589E-002   3.7590655258123995E-003   4.8521682493747886E-002
  -1.3220938322297052E-002   3.3048254142593325E-003   4.8735955758038407E-002
  -1.1273174250819515E-002   2.9654965900143757E-003   4.9206294453533611E-002
  -9.3254101793420197E-003   2.7410790530784102E-003   4.9932698580233414E-002
  -1.9674187887473271E-002   5.2283713931585707E-003   4.2989181578411528E-002
  -1.7510330273784451E-002   4.6339725708957613E-003   4.2888684690590761E-002
  -1.5346472660095631E-002   4.1073635335249492E-003   4.2964309455987976E-002
  -1.3182615046406797E-002   3.6485442810458638E-003   4.3216055874603060E-002
  -1.1018757432717990E-002   3.2575148134587062E-003   4.3643923946436181E-002
  -2.2341992677707936E-002   6.1285258616431415E-003   3.7413201823968317E-002
  -2.0041985299794517E-002   5.5088796159792341E-003   3.7206878712824104E-002
  -1.7741977921881182E-002   4.9099016527904688E-003   3.7096733476911323E-002
  -1.5441970543967818E-002   4.3315919720769112E-003   3.7082766116229578E-002
  -1.3141963166054427E-002   3.7739505738388912E-003   3.7164976630779084E-002
  -2.5119880835956041E-002   7.0286803301276568E-003   3.1835535397332047E-002
  -2.2763667471804888E-002   6.3837866610625960E-003   3.1476264560448115E-002
  -2.0407454107653711E-002   5.7124397720560369E-003   3.1133227820808764E-002
  -1.8051240743502523E-002   5.0146396631086231E-003   3.0806425178413824E-002
  -1.5695027379351384E-002   4.2903863342189652E-003   3.0495856633263117E-002
  -2.8007852362217672E-002   7.9288347986120611E-003   2.6256182298503239E-002
  -2.5675376789815463E-002   7.2586937061459578E-003   2.5696842233462691E-002
  -2.3342901217413239E-002   6.5149778913214940E-003   2.5073792487680047E-002
  -2.1010425645011023E-002   5.6976873541395856E-003   2.4387033061154834E-002
  -1.8677950072608807E-002   4.8068220945992612E-003   2.3636563953887468E-002
  -9.3254101793420197E-003   2.7410790530784102E-003   4.9932698580233414E-002
  -7.8958497049875370E-003   2.8786744430850386E-003   5.0358765279108875E-002
  -6.4662892306330544E-003   3.6253843996681689E-003   5.1102259288435870E-002
  -5.0367287562785718E-003   4.9812089228282938E-003   5.2163180608214371E-002
  -3.6071682819240891E-003   6.9461480125646569E-003   5.3541529238443686E-002
  -1.1018757432717990E-002   3.2575148134587062E-003   4.3643923946436181E-002
  -9.2514984730026339E-003   3.1766116537256250E-003   4.4241192038957156E-002
  -7.4842395132872011E-003   3.6481713248093794E-003   4.5196429791748843E-002
  -5.7169805535718446E-003   4.6721938267093172E-003   4.6509637204810786E-002
  -3.9497215938564673E-003   6.2486791594259516E-003   4.8180814278143358E-002
  -1.3141963166054427E-002   3.7739505738388912E-003   3.7164976630779084E-002
  -1.0996463371159039E-002   3.4745488643665723E-003   3.7876794381185797E-002
  -8.8509635762636582E-003   3.6709582499504928E-003   3.8987124141682025E-002
  -6.7054637813682497E-003   4.3631787305906770E-003   4.0495965912267971E-002
  -4.5599639864728897E-003   5.5512103062874130E-003   4.2403319692943392E-002
  -1.5695027379351384E-002   4.2903863342189652E-003   3.0495856633263117E-002
  -1.3130744399456837E-002   3.7724860750076167E-003   3.1265572305794923E-002
  -1.0566461419562320E-002   3.6937451750918213E-003   3.2474342338235540E-002
  -8.0021784396678303E-003   4.0541636344722017E-003   3.4122166730584796E-002
  -5.4378954597733113E-003   4.8537414531485690E-003   3.6209045482842643E-002
  -1.8677950072608807E-002   4.8068220945992612E-003   2.3636563953887468E-002
  -1.5654341557896051E-002   4.0704232856481060E-003   2.4407525812784492E-002
  -1.2630733043183268E-002   3.7165321002326779E-003   2.5658084381409374E-002
  -9.6071245284704843E-003   3.7451485383531366E-003   2.7388239659761865E-002
  -6.5835160137577287E-003   4.1562726000101691E-003   2.9597991647842381E-002
  -3.6071682819240891E-003   6.9461480125646569E-003   5.3541529238443686E-002
  -4.1573426854140810E-003   9.5343378981563864E-003   5.1867292524672703E-002
  -4.7075170889040452E-003   1.2759914808882139E-002   5.0048156125773124E-002
  -5.2576914923940510E-003   1.6622878744741769E-002   4.8084120041745310E-002
  -5.8078658958840013E-003   2.1123229705735103E-002   4.5975184272589509E-002
  -3.9497215938564673E-003   6.2486791594259516E-003   4.8180814278143358E-002
  -4.5412100374460501E-003   8.6863577170135375E-003   4.7246129450746854E-002
  -5.1326984810356815E-003   1.2293959893526968E-002   4.6373716228279460E-002
  -5.7241869246253130E-003   1.7071485688966485E-002   4.5563574610741064E-002
  -6.3156753682148958E-003   2.3018935103331417E-002   4.4815704598132111E-002
  -4.5599639864728897E-003   5.5512103062874130E-003   4.2403319692943392E-002
  -4.9855951801047113E-003   7.8383775358709662E-003   4.2740723345713161E-002
  -5.4112263737365815E-003   1.1828004978171922E-002   4.3347569893469204E-002
  -5.8368575673684517E-003   1.7520092633190872E-002   4.4223859336211750E-002
  -6.2624887610003843E-003   2.4914640500927510E-002   4.5369591673941057E-002
  -5.4378954597733113E-003   4.8537414531485690E-003   3.6209045482842643E-002
  -5.4904981133900282E-003   6.9903973547280340E-003   3.8351074209570880E-002
  -5.5431007670067433E-003   1.1362050062816813E-002   4.0969717121342952E-002
  -5.5957034206234584E-003   1.7968699577415537E-002   4.4064974218158540E-002
  -5.6483060742402863E-003   2.6810345898523713E-002   4.7636845500018593E-002
  -6.5835160137577287E-003   4.1562726000101691E-003   2.9597991647842381E-002
  -6.0559188373019435E-003   6.1424171735854349E-003   3.4077182042320908E-002
  -5.5283216608461860E-003   1.0896095147461593E-002   3.9240157911899942E-002
  -5.0007244843903870E-003   1.8417306521640170E-002   4.5086919256581148E-002
  -4.4731273079345879E-003   2.8706051296119917E-002   5.1617466076363083E-002
  -7.2844778103151264E-002   7.9617916375540054E-003   4.6627806835677132E-002
  -7.0176922945066778E-002   1.3342906521212061E-002   4.4474207938087207E-002
  -6.7509067786982291E-002   1.6884730870804193E-002   4.2942001396423957E-002
  -6.4841212628897804E-002   1.8587264686330256E-002   4.2031187210687576E-002
  -6.2173357470813317E-002   1.8450507967790075E-002   4.1741765380877982E-002
  -8.2292214001350839E-002   1.5863432464034821E-002   3.4536835155243861E-002
  -7.9070744800843223E-002   1.8678443212054141E-002   3.2483430187912415E-002
  -7.5849275600335470E-002   2.0410339742458733E-002   3.0915860949500856E-002
  -7.2627806399827702E-002   2.1059122055248659E-002   2.9834127440008795E-002
  -6.9406337199320003E-002   2.0624790150423955E-002   2.9238229659436538E-002
  -9.0110475279948032E-002   2.3765073290515748E-002   1.9501671180945757E-002
  -8.6470948664024092E-002   2.4013979902896054E-002   1.8304636460324597E-002
  -8.2831422048100276E-002   2.3935948614113287E-002   1.7457880841615717E-002
  -7.9191895432176390E-002   2.3530979424166956E-002   1.6961404324819740E-002
  -7.5552368816252519E-002   2.2799072333057752E-002   1.6815206909936292E-002
  -9.6299561938942610E-002   3.1666714116996592E-002   1.5223149127832208E-003
  -9.2377534534609618E-002   2.9349516593738079E-002   1.9378267553234949E-003
  -8.8455507130276667E-002   2.7461557485767778E-002   2.5680610727688742E-003
  -8.4533479725943730E-002   2.6002836793085612E-002   3.4130178651202974E-003
  -8.0611452321610794E-002   2.4973354515691423E-002   4.4726971323770411E-003
 -0.10085947397833461        3.9568354943477435E-002  -1.9401233649243843E-002
  -9.6790502412599677E-002   3.4685053284580158E-002  -1.6616998927090898E-002
  -9.2721530846864741E-002   3.0987166357422352E-002  -1.3753598357039459E-002
  -8.8652559281129806E-002   2.8474694162003926E-002  -1.0811031939089576E-002
  -8.4583587715394870E-002   2.7147636698325428E-002  -7.7892996732412123E-003
  -6.2173357470813317E-002   1.8450507967790075E-002   4.1741765380877982E-002
  -6.0637619905385243E-002   1.7473119351064131E-002   3.9183978047362511E-002
  -5.9101882339957168E-002   1.6653757472032418E-002   3.7129372592158261E-002
  -5.7566144774529107E-002   1.5992422330695300E-002   3.5577949015265148E-002
  -5.6030407209101046E-002   1.5489113927052378E-002   3.4529707316683034E-002
  -6.9406337199320003E-002   2.0624790150423955E-002   2.9238229659436538E-002
  -6.7456886165387045E-002   1.9696663366918207E-002   2.7804697626662753E-002
  -6.5507435131454100E-002   1.8864061043665753E-002   2.6695410652587570E-002
  -6.3557984097521156E-002   1.8126983180666460E-002   2.5910368737211080E-002
  -6.1608533063588183E-002   1.7485429777920003E-002   2.5449571880533151E-002
  -7.5552368816252519E-002   2.2799072333057752E-002   1.6815206909936292E-002
  -7.3368141133427114E-002   2.1920207382772519E-002   1.6443427900462798E-002
  -7.1183913450601766E-002   2.1074364615299081E-002   1.6216957130075517E-002
  -6.8999685767776417E-002   2.0261544030637672E-002   1.6135794598774438E-002
  -6.6815458084951013E-002   1.9481745628787711E-002   1.6199940306559163E-002
  -8.0611452321610794E-002   2.4973354515691423E-002   4.4726971323770411E-003
  -7.8371384809505590E-002   2.4143751398626852E-002   5.1001688687624669E-003
  -7.6131317297400358E-002   2.3284668186932717E-002   5.6940120246217977E-003
  -7.3891249785295099E-002   2.2396104880608666E-002   6.2542265999547724E-003
  -7.1651182273189895E-002   2.1478061479655433E-002   6.7808125947611576E-003
  -8.4583587715394870E-002   2.7147636698325428E-002  -7.7892996732412123E-003
  -8.2466617193622249E-002   2.6367295414480796E-002  -6.2250794684377553E-003
  -8.0349646671849684E-002   2.5494971758565826E-002  -4.8734246637734541E-003
  -7.8232676150077118E-002   2.4530665730579902E-002  -3.7343352592477015E-003
  -7.6115705628304497E-002   2.3474377330522933E-002  -2.8078112548610701E-003
  -5.6030407209101046E-002   1.5489113927052378E-002   3.4529707316683034E-002
  -5.3595499913383304E-002   1.5033820931140585E-002   3.3279908971818317E-002
  -5.1160592617665548E-002   1.4516532012997047E-002   3.2362240642725665E-002
  -4.8725685321947799E-002   1.3937247172621063E-002   3.1776702329404882E-002
  -4.6290778026230051E-002   1.3295966410013349E-002   3.1523294031856108E-002
  -6.1608533063588183E-002   1.7485429777920003E-002   2.5449571880533151E-002
  -5.8858239441916135E-002   1.6872763451380418E-002   2.4504357563939400E-002
  -5.6107945820244143E-002   1.6222346817001548E-002   2.3857785883481947E-002
  -5.3357652198572143E-002   1.5534179874783123E-002   2.3509856839161292E-002
  -5.0607358576900172E-002   1.4808262624725232E-002   2.3460570430977157E-002
  -6.6815458084951013E-002   1.9481745628787711E-002   1.6199940306559163E-002
  -6.3783265516960147E-002   1.8711705971620363E-002   1.5583555632628698E-002
  -6.0751072948969281E-002   1.7928161621006064E-002   1.5232326215199349E-002
  -5.7718880380978423E-002   1.7131112576944964E-002   1.5146252054271205E-002
  -5.4686687812987550E-002   1.6320558839437144E-002   1.5325333149844342E-002
  -7.1651182273189895E-002   2.1478061479655433E-002   6.7808125947611576E-003
  -6.8370578138515464E-002   2.0550648491860363E-002   6.5175031778863871E-003
  -6.5089974003840992E-002   1.9633976425010406E-002   6.4858616378776109E-003
  -6.1809369869166561E-002   1.8728045279106917E-002   6.6858879747346712E-003
  -5.8528765734492103E-002   1.7832855054148819E-002   7.1175821884577432E-003
  -7.6115705628304497E-002   2.3474377330522933E-002  -2.8078112548610701E-003
  -7.2620177306581879E-002   2.2389591012100085E-002  -2.6937998002870001E-003
  -6.9124648984859260E-002   2.1339791229014998E-002  -2.3816078484827918E-003
  -6.5629120663136697E-002   2.0324977981268984E-002  -1.8712353994478487E-003
  -6.2133592341414023E-002   1.9345151268860938E-002  -1.1626824531825175E-003
  -4.6290778026230051E-002   1.3295966410013349E-002   3.1523294031856108E-002
  -4.4045529034526854E-002   1.2621601692336837E-002   3.0634447538961107E-002
  -4.1800280042823657E-002   1.1943064986755167E-002   2.9857680611257237E-002
  -3.9555031051120487E-002   1.1260356293268280E-002   2.9192993248744456E-002
  -3.7309782059417262E-002   1.0573475611876049E-002   2.8640385451422556E-002
  -5.0607358576900172E-002   1.4808262624725232E-002   2.3460570430977157E-002
  -4.8243699452882843E-002   1.4064947021202284E-002   2.2814696626290126E-002
  -4.5880040328865550E-002   1.3324585018589047E-002   2.2293563521040227E-002
  -4.3516381204848215E-002   1.2587176616885361E-002   2.1897171115227543E-002
  -4.1152722080830928E-002   1.1852721816091205E-002   2.1625519408851990E-002
  -5.4686687812987550E-002   1.6320558839437144E-002   1.5325333149844342E-002
  -5.2191957422409979E-002   1.5508292350067898E-002   1.4929557622180012E-002
  -4.9697227031832478E-002   1.4706105050422934E-002   1.4671183928198793E-002
  -4.7202496641254990E-002   1.3913996940502554E-002   1.4550212067901361E-002
  -4.4707766250677461E-002   1.3131968020306584E-002   1.4566642041286659E-002
  -5.8528765734492103E-002   1.7832855054148819E-002   7.1175821884577432E-003
  -5.5890302943108316E-002   1.6951637678933318E-002   6.9790305266312531E-003
  -5.3251840151724482E-002   1.6087625082256928E-002   6.9905418327335291E-003
  -5.0613377360340675E-002   1.5240817264119581E-002   7.1521161067656025E-003
  -4.7974914568956854E-002   1.4411214224521296E-002   7.4637533487268079E-003
  -6.2133592341414023E-002   1.9345151268860938E-002  -1.1626824531825175E-003
  -5.9338736014977744E-002   1.8394983007798738E-002  -1.0368846603567294E-003
  -5.6543879688541576E-002   1.7469145114090645E-002  -7.4836276535589219E-004
  -5.3749023362105380E-002   1.6567637587736703E-002  -2.9711676817938126E-004
  -5.0954167035669129E-002   1.5690460428736897E-002   3.1685333117270620E-004
  -3.7309782059417262E-002   1.0573475611876049E-002   2.8640385451422556E-002
  -3.4984299635117372E-002   9.8914605545384338E-003   2.7652881636844429E-002
  -3.2658817210817481E-002   9.2233487332153974E-003   2.6926346506498500E-002
  -3.0333334786517577E-002   8.5691401479067175E-003   2.6460780060384742E-002
  -2.8007852362217672E-002   7.9288347986120611E-003   2.6256182298503239E-002
  -4.1152722080830928E-002   1.1852721816091205E-002   2.1625519408851990E-002
  -3.8604166632261294E-002   1.1121757830427292E-002   2.0896981418561000E-002
  -3.6055611183691619E-002   1.0394821874113835E-002   2.0353620792577215E-002
  -3.3507055735122006E-002   9.6719139471509868E-003   1.9995437530900800E-002
  -3.0958500286552254E-002   8.9530340495386218E-003   1.9822431633531257E-002
  -4.4707766250677461E-002   1.3131968020306584E-002   1.4566642041286659E-002
  -4.2011929097763002E-002   1.2352055106316345E-002   1.4087194668619074E-002
  -3.9316091944848600E-002   1.1566295015012273E-002   1.3717133340333656E-002
  -3.6620254791934211E-002   1.0774687746395589E-002   1.3456458056430490E-002
  -3.3924417639019801E-002   9.9772333004651270E-003   1.3305168816909851E-002
  -4.7974914568956854E-002   1.4411214224521296E-002   7.4637533487268079E-003
  -4.5207587031622559E-002   1.3582352382204468E-002   7.2235213870188233E-003
  -4.2440259494288299E-002   1.2737768155910489E-002   7.0168841497682058E-003
  -3.9672931956954087E-002   1.1877461545639637E-002   6.8438416369745805E-003
  -3.6905604419619743E-002   1.1001432551391827E-002   6.7043938486385513E-003
  -5.0954167035669129E-002   1.5690460428736897E-002   3.1685333117270620E-004
  -4.8191140433839985E-002   1.4812649658093924E-002   3.0596157376028277E-004
  -4.5428113832010841E-002   1.3909241296808983E-002   2.5287322088030084E-004
  -4.2665087230181697E-002   1.2980235344884419E-002   1.5758827253273266E-004
  -3.9902060628352554E-002   1.2025631802318193E-002   2.0106728717661504E-005
  -2.8007852362217672E-002   7.9288347986120611E-003   2.6256182298503239E-002
  -2.5675376789815463E-002   7.2586937061459578E-003   2.5696842233462691E-002
  -2.3342901217413239E-002   6.5149778913214940E-003   2.5073792487680047E-002
  -2.1010425645011023E-002   5.6976873541395856E-003   2.4387033061154834E-002
  -1.8677950072608807E-002   4.8068220945992612E-003   2.3636563953887468E-002
  -3.0958500286552254E-002   8.9530340495386218E-003   1.9822431633531257E-002
  -2.8668106603493532E-002   8.2310909209753480E-003   1.9227585324951835E-002
  -2.6377712920434726E-002   7.4989933011590792E-003   1.8612284918427813E-002
  -2.4087319237375872E-002   6.7567411900903915E-003   1.7976530413959191E-002
  -2.1796925554317087E-002   6.0043345877688337E-003   1.7320321811546469E-002
  -3.3924417639019801E-002   9.9772333004651270E-003   1.3305168816909851E-002
  -3.1632850262506451E-002   9.2034881358051268E-003   1.2738236495896449E-002
  -2.9341282885993202E-002   8.4830087109966645E-003   1.2194105659736262E-002
  -2.7049715509479925E-002   7.8157950260411974E-003   1.1672776308429722E-002
  -2.4758148132966604E-002   7.2018470809380175E-003   1.1174248441976398E-002
  -3.6905604419619743E-002   1.1001432551391827E-002   6.7043938486385513E-003
  -3.4569607766854180E-002   1.0175885350634156E-002   6.2287957462965129E-003
  -3.2233611114088616E-002   9.4670241208344719E-003   5.8192547116056800E-003
  -2.9897614461323031E-002   8.8748488619916702E-003   5.4757707445656119E-003
  -2.7561617808557481E-002   8.3993595741073956E-003   5.1983438451771238E-003
  -3.9902060628352554E-002   1.2025631802318193E-002   2.0106728717661504E-005
  -3.7478379116536731E-002   1.1148282565464074E-002  -3.0073692384791073E-004
  -3.5054697604721019E-002   1.0451039530671724E-002  -5.1226792596445470E-004
  -3.2631016092905279E-002   9.9339026979427814E-003  -6.1448627763212998E-004
  -3.0207334581089484E-002   9.5968720672769958E-003  -6.0739197885073537E-004
  -1.8677950072608807E-002   4.8068220945992612E-003   2.3636563953887468E-002
  -1.5654341557896051E-002   4.0704232856481060E-003   2.4407525812784492E-002
  -1.2630733043183268E-002   3.7165321002326779E-003   2.5658084381409374E-002
  -9.6071245284704843E-003   3.7451485383531366E-003   2.7388239659761865E-002
  -6.5835160137577287E-003   4.1562726000101691E-003   2.9597991647842381E-002
  -2.1796925554317087E-002   6.0043345877688337E-003   1.7320321811546469E-002
  -1.8564736730719997E-002   5.3384635314400186E-003   1.8260886776045926E-002
  -1.5332547907122934E-002   4.8558180583500032E-003   1.9139015648586277E-002
  -1.2100359083525941E-002   4.5563981684984545E-003   1.9954708429167356E-002
  -8.8681702599287815E-003   4.4402038618858164E-003   2.0707965117789495E-002
  -2.4758148132966604E-002   7.2018470809380175E-003   1.1174248441976398E-002
  -2.1859411802172199E-002   6.6065037772317092E-003   1.2085134471781028E-002
  -1.8960675471377836E-002   5.9951040164670094E-003   1.2391551607939658E-002
  -1.6061939140583452E-002   5.3676477986433317E-003   1.2093499850452015E-002
  -1.3163202809789068E-002   4.7241351237614637E-003   1.1190979199318440E-002
  -2.7561617808557481E-002   8.3993595741073956E-003   5.1983438451771238E-003
  -2.5538366772252668E-002   7.8745440230233443E-003   5.8802688999899239E-003
  -2.3515115735947993E-002   7.1343899745840642E-003   5.4156922594699279E-003
  -2.1491864699643346E-002   6.1788974287884293E-003   3.8046139236161697E-003
  -1.9468613663338508E-002   5.0080663856373331E-003   1.0470338924297579E-003
  -3.0207334581089484E-002   9.5968720672769958E-003  -6.0739197885073537E-004
  -2.9601601640961372E-002   9.1425842688154235E-003  -3.5370993932687389E-004
  -2.8995868700833372E-002   8.2736759327013965E-003  -1.7885623968234565E-003
  -2.8390135760705315E-002   6.9901470589330966E-003  -4.9119493513402612E-003
  -2.7784402820577259E-002   5.2919976475132025E-003  -9.7238708028771770E-003
  -6.5835160137577287E-003   4.1562726000101691E-003   2.9597991647842381E-002
  -6.0559188373019435E-003   6.1424171735854349E-003   3.4077182042320908E-002
  -5.5283216608461860E-003   1.0896095147461593E-002   3.9240157911899942E-002
  -5.0007244843903870E-003   1.8417306521640170E-002   4.5086919256581148E-002
  -4.4731273079345879E-003   2.8706051296119917E-002   5.1617466076363083E-002
  -8.8681702599287815E-003   4.4402038618858164E-003   2.0707965117789495E-002
  -7.5839506133733858E-003   5.6575222486706656E-003   2.5875280805505829E-002
  -6.2997309668180596E-003   9.3586404390118283E-003   3.1872055958320267E-002
  -5.0155113202626847E-003   1.5543558432909062E-002   3.8698290576232613E-002
  -3.7312916737072266E-003   2.4212276230363372E-002   4.6353984659242897E-002
  -1.3163202809789068E-002   4.7241351237614637E-003   1.1190979199318440E-002
  -1.0976686703137256E-002   5.1726273237555076E-003   1.6762686583528114E-002
  -8.7901705964854374E-003   7.8211857305613974E-003   2.3309527422832682E-002
  -6.6036544898337331E-003   1.2669810344178120E-002   3.0831501717231452E-002
  -4.4171383831818067E-003   1.9718501164606828E-002   3.9328609466725561E-002
  -1.9468613663338508E-002   5.0080663856373331E-003   1.0470338924297579E-003
  -1.6234127106593561E-002   4.6877323988414321E-003   6.7393993763871576E-003
  -1.2999640549848640E-002   6.2837310221109666E-003   1.3552572305436175E-002
  -9.7651539931036639E-003   9.7960622554474283E-003   2.1486552679577421E-002
  -6.5306674363587724E-003   1.5224726098849839E-002   3.0541340498809022E-002
  -2.7784402820577259E-002   5.2919976475132025E-003  -9.7238708028771770E-003
  -2.3356271823742225E-002   4.2028374739262464E-003  -4.1945808159169484E-003
  -1.8928140826907358E-002   4.7462763136613129E-003   2.6011906061321755E-003
  -1.4500009830072463E-002   6.9223141667158761E-003   1.0663443463269195E-002
  -1.0071878833237458E-002   1.0730951033093739E-002   1.9992177755495222E-002
 </DataArray>
 </PointData>
 </Piece>
 </UnstructuredGrid>
 </VTKFile>
