 <VTKFile type="UnstructuredGrid"  version="0.1"   >
 <UnstructuredGrid>
 <Piece  NumberOfPoints="          1600 "  NumberOfCells="         1024 ">
 <Points>
 <DataArray  type="Float64" NumberOfComponents="3"  format="ascii" >
   0.0000000000000000        0.0000000000000000        0.0000000000000000     
   3.1250000000000000E-002   0.0000000000000000        0.0000000000000000     
   6.2500000000000000E-002   0.0000000000000000        0.0000000000000000     
   9.3750000000000000E-002   0.0000000000000000        0.0000000000000000     
  0.12500000000000000        0.0000000000000000        0.0000000000000000     
   0.0000000000000000        3.1250000000000000E-002   0.0000000000000000     
   3.1250000000000000E-002   3.1250000000000000E-002   0.0000000000000000     
   6.2500000000000000E-002   3.1250000000000000E-002   0.0000000000000000     
   9.3750000000000000E-002   3.1250000000000000E-002   0.0000000000000000     
  0.12500000000000000        3.1250000000000000E-002   0.0000000000000000     
   0.0000000000000000        6.2500000000000000E-002   0.0000000000000000     
   3.1250000000000000E-002   6.2500000000000000E-002   0.0000000000000000     
   6.2500000000000000E-002   6.2500000000000000E-002   0.0000000000000000     
   9.3750000000000000E-002   6.2500000000000000E-002   0.0000000000000000     
  0.12500000000000000        6.2500000000000000E-002   0.0000000000000000     
   0.0000000000000000        9.3750000000000000E-002   0.0000000000000000     
   3.1250000000000000E-002   9.3750000000000000E-002   0.0000000000000000     
   6.2500000000000000E-002   9.3750000000000000E-002   0.0000000000000000     
   9.3750000000000000E-002   9.3750000000000000E-002   0.0000000000000000     
  0.12500000000000000        9.3750000000000000E-002   0.0000000000000000     
   0.0000000000000000       0.12500000000000000        0.0000000000000000     
   3.1250000000000000E-002  0.12500000000000000        0.0000000000000000     
   6.2500000000000000E-002  0.12500000000000000        0.0000000000000000     
   9.3750000000000000E-002  0.12500000000000000        0.0000000000000000     
  0.12500000000000000       0.12500000000000000        0.0000000000000000     
  0.12500000000000000        0.0000000000000000        0.0000000000000000     
  0.15625000000000000        0.0000000000000000        0.0000000000000000     
  0.18750000000000000        0.0000000000000000        0.0000000000000000     
  0.21875000000000000        0.0000000000000000        0.0000000000000000     
  0.25000000000000000        0.0000000000000000        0.0000000000000000     
  0.12500000000000000        3.1250000000000000E-002   0.0000000000000000     
  0.15625000000000000        3.1250000000000000E-002   0.0000000000000000     
  0.18750000000000000        3.1250000000000000E-002   0.0000000000000000     
  0.21875000000000000        3.1250000000000000E-002   0.0000000000000000     
  0.25000000000000000        3.1250000000000000E-002   0.0000000000000000     
  0.12500000000000000        6.2500000000000000E-002   0.0000000000000000     
  0.15625000000000000        6.2500000000000000E-002   0.0000000000000000     
  0.18750000000000000        6.2500000000000000E-002   0.0000000000000000     
  0.21875000000000000        6.2500000000000000E-002   0.0000000000000000     
  0.25000000000000000        6.2500000000000000E-002   0.0000000000000000     
  0.12500000000000000        9.3750000000000000E-002   0.0000000000000000     
  0.15625000000000000        9.3750000000000000E-002   0.0000000000000000     
  0.18750000000000000        9.3750000000000000E-002   0.0000000000000000     
  0.21875000000000000        9.3750000000000000E-002   0.0000000000000000     
  0.25000000000000000        9.3750000000000000E-002   0.0000000000000000     
  0.12500000000000000       0.12500000000000000        0.0000000000000000     
  0.15625000000000000       0.12500000000000000        0.0000000000000000     
  0.18750000000000000       0.12500000000000000        0.0000000000000000     
  0.21875000000000000       0.12500000000000000        0.0000000000000000     
  0.25000000000000000       0.12500000000000000        0.0000000000000000     
  0.25000000000000000        0.0000000000000000        0.0000000000000000     
  0.28125000000000000        0.0000000000000000        0.0000000000000000     
  0.31250000000000000        0.0000000000000000        0.0000000000000000     
  0.34375000000000000        0.0000000000000000        0.0000000000000000     
  0.37500000000000000        0.0000000000000000        0.0000000000000000     
  0.25000000000000000        3.1250000000000000E-002   0.0000000000000000     
  0.28125000000000000        3.1250000000000000E-002   0.0000000000000000     
  0.31250000000000000        3.1250000000000000E-002   0.0000000000000000     
  0.34375000000000000        3.1250000000000000E-002   0.0000000000000000     
  0.37500000000000000        3.1250000000000000E-002   0.0000000000000000     
  0.25000000000000000        6.2500000000000000E-002   0.0000000000000000     
  0.28125000000000000        6.2500000000000000E-002   0.0000000000000000     
  0.31250000000000000        6.2500000000000000E-002   0.0000000000000000     
  0.34375000000000000        6.2500000000000000E-002   0.0000000000000000     
  0.37500000000000000        6.2500000000000000E-002   0.0000000000000000     
  0.25000000000000000        9.3750000000000000E-002   0.0000000000000000     
  0.28125000000000000        9.3750000000000000E-002   0.0000000000000000     
  0.31250000000000000        9.3750000000000000E-002   0.0000000000000000     
  0.34375000000000000        9.3750000000000000E-002   0.0000000000000000     
  0.37500000000000000        9.3750000000000000E-002   0.0000000000000000     
  0.25000000000000000       0.12500000000000000        0.0000000000000000     
  0.28125000000000000       0.12500000000000000        0.0000000000000000     
  0.31250000000000000       0.12500000000000000        0.0000000000000000     
  0.34375000000000000       0.12500000000000000        0.0000000000000000     
  0.37500000000000000       0.12500000000000000        0.0000000000000000     
  0.37500000000000000        0.0000000000000000        0.0000000000000000     
  0.40625000000000000        0.0000000000000000        0.0000000000000000     
  0.43750000000000000        0.0000000000000000        0.0000000000000000     
  0.46875000000000000        0.0000000000000000        0.0000000000000000     
  0.50000000000000000        0.0000000000000000        0.0000000000000000     
  0.37500000000000000        3.1250000000000000E-002   0.0000000000000000     
  0.40625000000000000        3.1250000000000000E-002   0.0000000000000000     
  0.43750000000000000        3.1250000000000000E-002   0.0000000000000000     
  0.46875000000000000        3.1250000000000000E-002   0.0000000000000000     
  0.50000000000000000        3.1250000000000000E-002   0.0000000000000000     
  0.37500000000000000        6.2500000000000000E-002   0.0000000000000000     
  0.40625000000000000        6.2500000000000000E-002   0.0000000000000000     
  0.43750000000000000        6.2500000000000000E-002   0.0000000000000000     
  0.46875000000000000        6.2500000000000000E-002   0.0000000000000000     
  0.50000000000000000        6.2500000000000000E-002   0.0000000000000000     
  0.37500000000000000        9.3750000000000000E-002   0.0000000000000000     
  0.40625000000000000        9.3750000000000000E-002   0.0000000000000000     
  0.43750000000000000        9.3750000000000000E-002   0.0000000000000000     
  0.46875000000000000        9.3750000000000000E-002   0.0000000000000000     
  0.50000000000000000        9.3750000000000000E-002   0.0000000000000000     
  0.37500000000000000       0.12500000000000000        0.0000000000000000     
  0.40625000000000000       0.12500000000000000        0.0000000000000000     
  0.43750000000000000       0.12500000000000000        0.0000000000000000     
  0.46875000000000000       0.12500000000000000        0.0000000000000000     
  0.50000000000000000       0.12500000000000000        0.0000000000000000     
  0.50000000000000000        0.0000000000000000        0.0000000000000000     
  0.53125000000000000        0.0000000000000000        0.0000000000000000     
  0.56250000000000000        0.0000000000000000        0.0000000000000000     
  0.59375000000000000        0.0000000000000000        0.0000000000000000     
  0.62500000000000000        0.0000000000000000        0.0000000000000000     
  0.50000000000000000        3.1250000000000000E-002   0.0000000000000000     
  0.53125000000000000        3.1250000000000000E-002   0.0000000000000000     
  0.56250000000000000        3.1250000000000000E-002   0.0000000000000000     
  0.59375000000000000        3.1250000000000000E-002   0.0000000000000000     
  0.62500000000000000        3.1250000000000000E-002   0.0000000000000000     
  0.50000000000000000        6.2500000000000000E-002   0.0000000000000000     
  0.53125000000000000        6.2500000000000000E-002   0.0000000000000000     
  0.56250000000000000        6.2500000000000000E-002   0.0000000000000000     
  0.59375000000000000        6.2500000000000000E-002   0.0000000000000000     
  0.62500000000000000        6.2500000000000000E-002   0.0000000000000000     
  0.50000000000000000        9.3750000000000000E-002   0.0000000000000000     
  0.53125000000000000        9.3750000000000000E-002   0.0000000000000000     
  0.56250000000000000        9.3750000000000000E-002   0.0000000000000000     
  0.59375000000000000        9.3750000000000000E-002   0.0000000000000000     
  0.62500000000000000        9.3750000000000000E-002   0.0000000000000000     
  0.50000000000000000       0.12500000000000000        0.0000000000000000     
  0.53125000000000000       0.12500000000000000        0.0000000000000000     
  0.56250000000000000       0.12500000000000000        0.0000000000000000     
  0.59375000000000000       0.12500000000000000        0.0000000000000000     
  0.62500000000000000       0.12500000000000000        0.0000000000000000     
  0.62500000000000000        0.0000000000000000        0.0000000000000000     
  0.65625000000000000        0.0000000000000000        0.0000000000000000     
  0.68750000000000000        0.0000000000000000        0.0000000000000000     
  0.71875000000000000        0.0000000000000000        0.0000000000000000     
  0.75000000000000000        0.0000000000000000        0.0000000000000000     
  0.62500000000000000        3.1250000000000000E-002   0.0000000000000000     
  0.65625000000000000        3.1250000000000000E-002   0.0000000000000000     
  0.68750000000000000        3.1250000000000000E-002   0.0000000000000000     
  0.71875000000000000        3.1250000000000000E-002   0.0000000000000000     
  0.75000000000000000        3.1250000000000000E-002   0.0000000000000000     
  0.62500000000000000        6.2500000000000000E-002   0.0000000000000000     
  0.65625000000000000        6.2500000000000000E-002   0.0000000000000000     
  0.68750000000000000        6.2500000000000000E-002   0.0000000000000000     
  0.71875000000000000        6.2500000000000000E-002   0.0000000000000000     
  0.75000000000000000        6.2500000000000000E-002   0.0000000000000000     
  0.62500000000000000        9.3750000000000000E-002   0.0000000000000000     
  0.65625000000000000        9.3750000000000000E-002   0.0000000000000000     
  0.68750000000000000        9.3750000000000000E-002   0.0000000000000000     
  0.71875000000000000        9.3750000000000000E-002   0.0000000000000000     
  0.75000000000000000        9.3750000000000000E-002   0.0000000000000000     
  0.62500000000000000       0.12500000000000000        0.0000000000000000     
  0.65625000000000000       0.12500000000000000        0.0000000000000000     
  0.68750000000000000       0.12500000000000000        0.0000000000000000     
  0.71875000000000000       0.12500000000000000        0.0000000000000000     
  0.75000000000000000       0.12500000000000000        0.0000000000000000     
  0.75000000000000000        0.0000000000000000        0.0000000000000000     
  0.78125000000000000        0.0000000000000000        0.0000000000000000     
  0.81250000000000000        0.0000000000000000        0.0000000000000000     
  0.84375000000000000        0.0000000000000000        0.0000000000000000     
  0.87500000000000000        0.0000000000000000        0.0000000000000000     
  0.75000000000000000        3.1250000000000000E-002   0.0000000000000000     
  0.78125000000000000        3.1250000000000000E-002   0.0000000000000000     
  0.81250000000000000        3.1250000000000000E-002   0.0000000000000000     
  0.84375000000000000        3.1250000000000000E-002   0.0000000000000000     
  0.87500000000000000        3.1250000000000000E-002   0.0000000000000000     
  0.75000000000000000        6.2500000000000000E-002   0.0000000000000000     
  0.78125000000000000        6.2500000000000000E-002   0.0000000000000000     
  0.81250000000000000        6.2500000000000000E-002   0.0000000000000000     
  0.84375000000000000        6.2500000000000000E-002   0.0000000000000000     
  0.87500000000000000        6.2500000000000000E-002   0.0000000000000000     
  0.75000000000000000        9.3750000000000000E-002   0.0000000000000000     
  0.78125000000000000        9.3750000000000000E-002   0.0000000000000000     
  0.81250000000000000        9.3750000000000000E-002   0.0000000000000000     
  0.84375000000000000        9.3750000000000000E-002   0.0000000000000000     
  0.87500000000000000        9.3750000000000000E-002   0.0000000000000000     
  0.75000000000000000       0.12500000000000000        0.0000000000000000     
  0.78125000000000000       0.12500000000000000        0.0000000000000000     
  0.81250000000000000       0.12500000000000000        0.0000000000000000     
  0.84375000000000000       0.12500000000000000        0.0000000000000000     
  0.87500000000000000       0.12500000000000000        0.0000000000000000     
  0.87500000000000000        0.0000000000000000        0.0000000000000000     
  0.90625000000000000        0.0000000000000000        0.0000000000000000     
  0.93750000000000000        0.0000000000000000        0.0000000000000000     
  0.96875000000000000        0.0000000000000000        0.0000000000000000     
   1.0000000000000000        0.0000000000000000        0.0000000000000000     
  0.87500000000000000        3.1250000000000000E-002   0.0000000000000000     
  0.90625000000000000        3.1250000000000000E-002   0.0000000000000000     
  0.93750000000000000        3.1250000000000000E-002   0.0000000000000000     
  0.96875000000000000        3.1250000000000000E-002   0.0000000000000000     
   1.0000000000000000        3.1250000000000000E-002   0.0000000000000000     
  0.87500000000000000        6.2500000000000000E-002   0.0000000000000000     
  0.90625000000000000        6.2500000000000000E-002   0.0000000000000000     
  0.93750000000000000        6.2500000000000000E-002   0.0000000000000000     
  0.96875000000000000        6.2500000000000000E-002   0.0000000000000000     
   1.0000000000000000        6.2500000000000000E-002   0.0000000000000000     
  0.87500000000000000        9.3750000000000000E-002   0.0000000000000000     
  0.90625000000000000        9.3750000000000000E-002   0.0000000000000000     
  0.93750000000000000        9.3750000000000000E-002   0.0000000000000000     
  0.96875000000000000        9.3750000000000000E-002   0.0000000000000000     
   1.0000000000000000        9.3750000000000000E-002   0.0000000000000000     
  0.87500000000000000       0.12500000000000000        0.0000000000000000     
  0.90625000000000000       0.12500000000000000        0.0000000000000000     
  0.93750000000000000       0.12500000000000000        0.0000000000000000     
  0.96875000000000000       0.12500000000000000        0.0000000000000000     
   1.0000000000000000       0.12500000000000000        0.0000000000000000     
   0.0000000000000000       0.12500000000000000        0.0000000000000000     
   3.1250000000000000E-002  0.12500000000000000        0.0000000000000000     
   6.2500000000000000E-002  0.12500000000000000        0.0000000000000000     
   9.3750000000000000E-002  0.12500000000000000        0.0000000000000000     
  0.12500000000000000       0.12500000000000000        0.0000000000000000     
   0.0000000000000000       0.15625000000000000        0.0000000000000000     
   3.1250000000000000E-002  0.15625000000000000        0.0000000000000000     
   6.2500000000000000E-002  0.15625000000000000        0.0000000000000000     
   9.3750000000000000E-002  0.15625000000000000        0.0000000000000000     
  0.12500000000000000       0.15625000000000000        0.0000000000000000     
   0.0000000000000000       0.18750000000000000        0.0000000000000000     
   3.1250000000000000E-002  0.18750000000000000        0.0000000000000000     
   6.2500000000000000E-002  0.18750000000000000        0.0000000000000000     
   9.3750000000000000E-002  0.18750000000000000        0.0000000000000000     
  0.12500000000000000       0.18750000000000000        0.0000000000000000     
   0.0000000000000000       0.21875000000000000        0.0000000000000000     
   3.1250000000000000E-002  0.21875000000000000        0.0000000000000000     
   6.2500000000000000E-002  0.21875000000000000        0.0000000000000000     
   9.3750000000000000E-002  0.21875000000000000        0.0000000000000000     
  0.12500000000000000       0.21875000000000000        0.0000000000000000     
   0.0000000000000000       0.25000000000000000        0.0000000000000000     
   3.1250000000000000E-002  0.25000000000000000        0.0000000000000000     
   6.2500000000000000E-002  0.25000000000000000        0.0000000000000000     
   9.3750000000000000E-002  0.25000000000000000        0.0000000000000000     
  0.12500000000000000       0.25000000000000000        0.0000000000000000     
  0.12500000000000000       0.12500000000000000        0.0000000000000000     
  0.15625000000000000       0.12500000000000000        0.0000000000000000     
  0.18750000000000000       0.12500000000000000        0.0000000000000000     
  0.21875000000000000       0.12500000000000000        0.0000000000000000     
  0.25000000000000000       0.12500000000000000        0.0000000000000000     
  0.12500000000000000       0.15625000000000000        0.0000000000000000     
  0.15625000000000000       0.15625000000000000        0.0000000000000000     
  0.18750000000000000       0.15625000000000000        0.0000000000000000     
  0.21875000000000000       0.15625000000000000        0.0000000000000000     
  0.25000000000000000       0.15625000000000000        0.0000000000000000     
  0.12500000000000000       0.18750000000000000        0.0000000000000000     
  0.15625000000000000       0.18750000000000000        0.0000000000000000     
  0.18750000000000000       0.18750000000000000        0.0000000000000000     
  0.21875000000000000       0.18750000000000000        0.0000000000000000     
  0.25000000000000000       0.18750000000000000        0.0000000000000000     
  0.12500000000000000       0.21875000000000000        0.0000000000000000     
  0.15625000000000000       0.21875000000000000        0.0000000000000000     
  0.18750000000000000       0.21875000000000000        0.0000000000000000     
  0.21875000000000000       0.21875000000000000        0.0000000000000000     
  0.25000000000000000       0.21875000000000000        0.0000000000000000     
  0.12500000000000000       0.25000000000000000        0.0000000000000000     
  0.15625000000000000       0.25000000000000000        0.0000000000000000     
  0.18750000000000000       0.25000000000000000        0.0000000000000000     
  0.21875000000000000       0.25000000000000000        0.0000000000000000     
  0.25000000000000000       0.25000000000000000        0.0000000000000000     
  0.25000000000000000       0.12500000000000000        0.0000000000000000     
  0.28125000000000000       0.12500000000000000        0.0000000000000000     
  0.31250000000000000       0.12500000000000000        0.0000000000000000     
  0.34375000000000000       0.12500000000000000        0.0000000000000000     
  0.37500000000000000       0.12500000000000000        0.0000000000000000     
  0.25000000000000000       0.15625000000000000        0.0000000000000000     
  0.28125000000000000       0.15625000000000000        0.0000000000000000     
  0.31250000000000000       0.15625000000000000        0.0000000000000000     
  0.34375000000000000       0.15625000000000000        0.0000000000000000     
  0.37500000000000000       0.15625000000000000        0.0000000000000000     
  0.25000000000000000       0.18750000000000000        0.0000000000000000     
  0.28125000000000000       0.18750000000000000        0.0000000000000000     
  0.31250000000000000       0.18750000000000000        0.0000000000000000     
  0.34375000000000000       0.18750000000000000        0.0000000000000000     
  0.37500000000000000       0.18750000000000000        0.0000000000000000     
  0.25000000000000000       0.21875000000000000        0.0000000000000000     
  0.28125000000000000       0.21875000000000000        0.0000000000000000     
  0.31250000000000000       0.21875000000000000        0.0000000000000000     
  0.34375000000000000       0.21875000000000000        0.0000000000000000     
  0.37500000000000000       0.21875000000000000        0.0000000000000000     
  0.25000000000000000       0.25000000000000000        0.0000000000000000     
  0.28125000000000000       0.25000000000000000        0.0000000000000000     
  0.31250000000000000       0.25000000000000000        0.0000000000000000     
  0.34375000000000000       0.25000000000000000        0.0000000000000000     
  0.37500000000000000       0.25000000000000000        0.0000000000000000     
  0.37500000000000000       0.12500000000000000        0.0000000000000000     
  0.40625000000000000       0.12500000000000000        0.0000000000000000     
  0.43750000000000000       0.12500000000000000        0.0000000000000000     
  0.46875000000000000       0.12500000000000000        0.0000000000000000     
  0.50000000000000000       0.12500000000000000        0.0000000000000000     
  0.37500000000000000       0.15625000000000000        0.0000000000000000     
  0.40625000000000000       0.15625000000000000        0.0000000000000000     
  0.43750000000000000       0.15625000000000000        0.0000000000000000     
  0.46875000000000000       0.15625000000000000        0.0000000000000000     
  0.50000000000000000       0.15625000000000000        0.0000000000000000     
  0.37500000000000000       0.18750000000000000        0.0000000000000000     
  0.40625000000000000       0.18750000000000000        0.0000000000000000     
  0.43750000000000000       0.18750000000000000        0.0000000000000000     
  0.46875000000000000       0.18750000000000000        0.0000000000000000     
  0.50000000000000000       0.18750000000000000        0.0000000000000000     
  0.37500000000000000       0.21875000000000000        0.0000000000000000     
  0.40625000000000000       0.21875000000000000        0.0000000000000000     
  0.43750000000000000       0.21875000000000000        0.0000000000000000     
  0.46875000000000000       0.21875000000000000        0.0000000000000000     
  0.50000000000000000       0.21875000000000000        0.0000000000000000     
  0.37500000000000000       0.25000000000000000        0.0000000000000000     
  0.40625000000000000       0.25000000000000000        0.0000000000000000     
  0.43750000000000000       0.25000000000000000        0.0000000000000000     
  0.46875000000000000       0.25000000000000000        0.0000000000000000     
  0.50000000000000000       0.25000000000000000        0.0000000000000000     
  0.50000000000000000       0.12500000000000000        0.0000000000000000     
  0.53125000000000000       0.12500000000000000        0.0000000000000000     
  0.56250000000000000       0.12500000000000000        0.0000000000000000     
  0.59375000000000000       0.12500000000000000        0.0000000000000000     
  0.62500000000000000       0.12500000000000000        0.0000000000000000     
  0.50000000000000000       0.15625000000000000        0.0000000000000000     
  0.53125000000000000       0.15625000000000000        0.0000000000000000     
  0.56250000000000000       0.15625000000000000        0.0000000000000000     
  0.59375000000000000       0.15625000000000000        0.0000000000000000     
  0.62500000000000000       0.15625000000000000        0.0000000000000000     
  0.50000000000000000       0.18750000000000000        0.0000000000000000     
  0.53125000000000000       0.18750000000000000        0.0000000000000000     
  0.56250000000000000       0.18750000000000000        0.0000000000000000     
  0.59375000000000000       0.18750000000000000        0.0000000000000000     
  0.62500000000000000       0.18750000000000000        0.0000000000000000     
  0.50000000000000000       0.21875000000000000        0.0000000000000000     
  0.53125000000000000       0.21875000000000000        0.0000000000000000     
  0.56250000000000000       0.21875000000000000        0.0000000000000000     
  0.59375000000000000       0.21875000000000000        0.0000000000000000     
  0.62500000000000000       0.21875000000000000        0.0000000000000000     
  0.50000000000000000       0.25000000000000000        0.0000000000000000     
  0.53125000000000000       0.25000000000000000        0.0000000000000000     
  0.56250000000000000       0.25000000000000000        0.0000000000000000     
  0.59375000000000000       0.25000000000000000        0.0000000000000000     
  0.62500000000000000       0.25000000000000000        0.0000000000000000     
  0.62500000000000000       0.12500000000000000        0.0000000000000000     
  0.65625000000000000       0.12500000000000000        0.0000000000000000     
  0.68750000000000000       0.12500000000000000        0.0000000000000000     
  0.71875000000000000       0.12500000000000000        0.0000000000000000     
  0.75000000000000000       0.12500000000000000        0.0000000000000000     
  0.62500000000000000       0.15625000000000000        0.0000000000000000     
  0.65625000000000000       0.15625000000000000        0.0000000000000000     
  0.68750000000000000       0.15625000000000000        0.0000000000000000     
  0.71875000000000000       0.15625000000000000        0.0000000000000000     
  0.75000000000000000       0.15625000000000000        0.0000000000000000     
  0.62500000000000000       0.18750000000000000        0.0000000000000000     
  0.65625000000000000       0.18750000000000000        0.0000000000000000     
  0.68750000000000000       0.18750000000000000        0.0000000000000000     
  0.71875000000000000       0.18750000000000000        0.0000000000000000     
  0.75000000000000000       0.18750000000000000        0.0000000000000000     
  0.62500000000000000       0.21875000000000000        0.0000000000000000     
  0.65625000000000000       0.21875000000000000        0.0000000000000000     
  0.68750000000000000       0.21875000000000000        0.0000000000000000     
  0.71875000000000000       0.21875000000000000        0.0000000000000000     
  0.75000000000000000       0.21875000000000000        0.0000000000000000     
  0.62500000000000000       0.25000000000000000        0.0000000000000000     
  0.65625000000000000       0.25000000000000000        0.0000000000000000     
  0.68750000000000000       0.25000000000000000        0.0000000000000000     
  0.71875000000000000       0.25000000000000000        0.0000000000000000     
  0.75000000000000000       0.25000000000000000        0.0000000000000000     
  0.75000000000000000       0.12500000000000000        0.0000000000000000     
  0.78125000000000000       0.12500000000000000        0.0000000000000000     
  0.81250000000000000       0.12500000000000000        0.0000000000000000     
  0.84375000000000000       0.12500000000000000        0.0000000000000000     
  0.87500000000000000       0.12500000000000000        0.0000000000000000     
  0.75000000000000000       0.15625000000000000        0.0000000000000000     
  0.78125000000000000       0.15625000000000000        0.0000000000000000     
  0.81250000000000000       0.15625000000000000        0.0000000000000000     
  0.84375000000000000       0.15625000000000000        0.0000000000000000     
  0.87500000000000000       0.15625000000000000        0.0000000000000000     
  0.75000000000000000       0.18750000000000000        0.0000000000000000     
  0.78125000000000000       0.18750000000000000        0.0000000000000000     
  0.81250000000000000       0.18750000000000000        0.0000000000000000     
  0.84375000000000000       0.18750000000000000        0.0000000000000000     
  0.87500000000000000       0.18750000000000000        0.0000000000000000     
  0.75000000000000000       0.21875000000000000        0.0000000000000000     
  0.78125000000000000       0.21875000000000000        0.0000000000000000     
  0.81250000000000000       0.21875000000000000        0.0000000000000000     
  0.84375000000000000       0.21875000000000000        0.0000000000000000     
  0.87500000000000000       0.21875000000000000        0.0000000000000000     
  0.75000000000000000       0.25000000000000000        0.0000000000000000     
  0.78125000000000000       0.25000000000000000        0.0000000000000000     
  0.81250000000000000       0.25000000000000000        0.0000000000000000     
  0.84375000000000000       0.25000000000000000        0.0000000000000000     
  0.87500000000000000       0.25000000000000000        0.0000000000000000     
  0.87500000000000000       0.12500000000000000        0.0000000000000000     
  0.90625000000000000       0.12500000000000000        0.0000000000000000     
  0.93750000000000000       0.12500000000000000        0.0000000000000000     
  0.96875000000000000       0.12500000000000000        0.0000000000000000     
   1.0000000000000000       0.12500000000000000        0.0000000000000000     
  0.87500000000000000       0.15625000000000000        0.0000000000000000     
  0.90625000000000000       0.15625000000000000        0.0000000000000000     
  0.93750000000000000       0.15625000000000000        0.0000000000000000     
  0.96875000000000000       0.15625000000000000        0.0000000000000000     
   1.0000000000000000       0.15625000000000000        0.0000000000000000     
  0.87500000000000000       0.18750000000000000        0.0000000000000000     
  0.90625000000000000       0.18750000000000000        0.0000000000000000     
  0.93750000000000000       0.18750000000000000        0.0000000000000000     
  0.96875000000000000       0.18750000000000000        0.0000000000000000     
   1.0000000000000000       0.18750000000000000        0.0000000000000000     
  0.87500000000000000       0.21875000000000000        0.0000000000000000     
  0.90625000000000000       0.21875000000000000        0.0000000000000000     
  0.93750000000000000       0.21875000000000000        0.0000000000000000     
  0.96875000000000000       0.21875000000000000        0.0000000000000000     
   1.0000000000000000       0.21875000000000000        0.0000000000000000     
  0.87500000000000000       0.25000000000000000        0.0000000000000000     
  0.90625000000000000       0.25000000000000000        0.0000000000000000     
  0.93750000000000000       0.25000000000000000        0.0000000000000000     
  0.96875000000000000       0.25000000000000000        0.0000000000000000     
   1.0000000000000000       0.25000000000000000        0.0000000000000000     
   0.0000000000000000       0.25000000000000000        0.0000000000000000     
   3.1250000000000000E-002  0.25000000000000000        0.0000000000000000     
   6.2500000000000000E-002  0.25000000000000000        0.0000000000000000     
   9.3750000000000000E-002  0.25000000000000000        0.0000000000000000     
  0.12500000000000000       0.25000000000000000        0.0000000000000000     
   0.0000000000000000       0.28125000000000000        0.0000000000000000     
   3.1250000000000000E-002  0.28125000000000000        0.0000000000000000     
   6.2500000000000000E-002  0.28125000000000000        0.0000000000000000     
   9.3750000000000000E-002  0.28125000000000000        0.0000000000000000     
  0.12500000000000000       0.28125000000000000        0.0000000000000000     
   0.0000000000000000       0.31250000000000000        0.0000000000000000     
   3.1250000000000000E-002  0.31250000000000000        0.0000000000000000     
   6.2500000000000000E-002  0.31250000000000000        0.0000000000000000     
   9.3750000000000000E-002  0.31250000000000000        0.0000000000000000     
  0.12500000000000000       0.31250000000000000        0.0000000000000000     
   0.0000000000000000       0.34375000000000000        0.0000000000000000     
   3.1250000000000000E-002  0.34375000000000000        0.0000000000000000     
   6.2500000000000000E-002  0.34375000000000000        0.0000000000000000     
   9.3750000000000000E-002  0.34375000000000000        0.0000000000000000     
  0.12500000000000000       0.34375000000000000        0.0000000000000000     
   0.0000000000000000       0.37500000000000000        0.0000000000000000     
   3.1250000000000000E-002  0.37500000000000000        0.0000000000000000     
   6.2500000000000000E-002  0.37500000000000000        0.0000000000000000     
   9.3750000000000000E-002  0.37500000000000000        0.0000000000000000     
  0.12500000000000000       0.37500000000000000        0.0000000000000000     
  0.12500000000000000       0.25000000000000000        0.0000000000000000     
  0.15625000000000000       0.25000000000000000        0.0000000000000000     
  0.18750000000000000       0.25000000000000000        0.0000000000000000     
  0.21875000000000000       0.25000000000000000        0.0000000000000000     
  0.25000000000000000       0.25000000000000000        0.0000000000000000     
  0.12500000000000000       0.28125000000000000        0.0000000000000000     
  0.15625000000000000       0.28125000000000000        0.0000000000000000     
  0.18750000000000000       0.28125000000000000        0.0000000000000000     
  0.21875000000000000       0.28125000000000000        0.0000000000000000     
  0.25000000000000000       0.28125000000000000        0.0000000000000000     
  0.12500000000000000       0.31250000000000000        0.0000000000000000     
  0.15625000000000000       0.31250000000000000        0.0000000000000000     
  0.18750000000000000       0.31250000000000000        0.0000000000000000     
  0.21875000000000000       0.31250000000000000        0.0000000000000000     
  0.25000000000000000       0.31250000000000000        0.0000000000000000     
  0.12500000000000000       0.34375000000000000        0.0000000000000000     
  0.15625000000000000       0.34375000000000000        0.0000000000000000     
  0.18750000000000000       0.34375000000000000        0.0000000000000000     
  0.21875000000000000       0.34375000000000000        0.0000000000000000     
  0.25000000000000000       0.34375000000000000        0.0000000000000000     
  0.12500000000000000       0.37500000000000000        0.0000000000000000     
  0.15625000000000000       0.37500000000000000        0.0000000000000000     
  0.18750000000000000       0.37500000000000000        0.0000000000000000     
  0.21875000000000000       0.37500000000000000        0.0000000000000000     
  0.25000000000000000       0.37500000000000000        0.0000000000000000     
  0.25000000000000000       0.25000000000000000        0.0000000000000000     
  0.28125000000000000       0.25000000000000000        0.0000000000000000     
  0.31250000000000000       0.25000000000000000        0.0000000000000000     
  0.34375000000000000       0.25000000000000000        0.0000000000000000     
  0.37500000000000000       0.25000000000000000        0.0000000000000000     
  0.25000000000000000       0.28125000000000000        0.0000000000000000     
  0.28125000000000000       0.28125000000000000        0.0000000000000000     
  0.31250000000000000       0.28125000000000000        0.0000000000000000     
  0.34375000000000000       0.28125000000000000        0.0000000000000000     
  0.37500000000000000       0.28125000000000000        0.0000000000000000     
  0.25000000000000000       0.31250000000000000        0.0000000000000000     
  0.28125000000000000       0.31250000000000000        0.0000000000000000     
  0.31250000000000000       0.31250000000000000        0.0000000000000000     
  0.34375000000000000       0.31250000000000000        0.0000000000000000     
  0.37500000000000000       0.31250000000000000        0.0000000000000000     
  0.25000000000000000       0.34375000000000000        0.0000000000000000     
  0.28125000000000000       0.34375000000000000        0.0000000000000000     
  0.31250000000000000       0.34375000000000000        0.0000000000000000     
  0.34375000000000000       0.34375000000000000        0.0000000000000000     
  0.37500000000000000       0.34375000000000000        0.0000000000000000     
  0.25000000000000000       0.37500000000000000        0.0000000000000000     
  0.28125000000000000       0.37500000000000000        0.0000000000000000     
  0.31250000000000000       0.37500000000000000        0.0000000000000000     
  0.34375000000000000       0.37500000000000000        0.0000000000000000     
  0.37500000000000000       0.37500000000000000        0.0000000000000000     
  0.37500000000000000       0.25000000000000000        0.0000000000000000     
  0.40625000000000000       0.25000000000000000        0.0000000000000000     
  0.43750000000000000       0.25000000000000000        0.0000000000000000     
  0.46875000000000000       0.25000000000000000        0.0000000000000000     
  0.50000000000000000       0.25000000000000000        0.0000000000000000     
  0.37500000000000000       0.28125000000000000        0.0000000000000000     
  0.40625000000000000       0.28125000000000000        0.0000000000000000     
  0.43750000000000000       0.28125000000000000        0.0000000000000000     
  0.46875000000000000       0.28125000000000000        0.0000000000000000     
  0.50000000000000000       0.28125000000000000        0.0000000000000000     
  0.37500000000000000       0.31250000000000000        0.0000000000000000     
  0.40625000000000000       0.31250000000000000        0.0000000000000000     
  0.43750000000000000       0.31250000000000000        0.0000000000000000     
  0.46875000000000000       0.31250000000000000        0.0000000000000000     
  0.50000000000000000       0.31250000000000000        0.0000000000000000     
  0.37500000000000000       0.34375000000000000        0.0000000000000000     
  0.40625000000000000       0.34375000000000000        0.0000000000000000     
  0.43750000000000000       0.34375000000000000        0.0000000000000000     
  0.46875000000000000       0.34375000000000000        0.0000000000000000     
  0.50000000000000000       0.34375000000000000        0.0000000000000000     
  0.37500000000000000       0.37500000000000000        0.0000000000000000     
  0.40625000000000000       0.37500000000000000        0.0000000000000000     
  0.43750000000000000       0.37500000000000000        0.0000000000000000     
  0.46875000000000000       0.37500000000000000        0.0000000000000000     
  0.50000000000000000       0.37500000000000000        0.0000000000000000     
  0.50000000000000000       0.25000000000000000        0.0000000000000000     
  0.53125000000000000       0.25000000000000000        0.0000000000000000     
  0.56250000000000000       0.25000000000000000        0.0000000000000000     
  0.59375000000000000       0.25000000000000000        0.0000000000000000     
  0.62500000000000000       0.25000000000000000        0.0000000000000000     
  0.50000000000000000       0.28125000000000000        0.0000000000000000     
  0.53125000000000000       0.28125000000000000        0.0000000000000000     
  0.56250000000000000       0.28125000000000000        0.0000000000000000     
  0.59375000000000000       0.28125000000000000        0.0000000000000000     
  0.62500000000000000       0.28125000000000000        0.0000000000000000     
  0.50000000000000000       0.31250000000000000        0.0000000000000000     
  0.53125000000000000       0.31250000000000000        0.0000000000000000     
  0.56250000000000000       0.31250000000000000        0.0000000000000000     
  0.59375000000000000       0.31250000000000000        0.0000000000000000     
  0.62500000000000000       0.31250000000000000        0.0000000000000000     
  0.50000000000000000       0.34375000000000000        0.0000000000000000     
  0.53125000000000000       0.34375000000000000        0.0000000000000000     
  0.56250000000000000       0.34375000000000000        0.0000000000000000     
  0.59375000000000000       0.34375000000000000        0.0000000000000000     
  0.62500000000000000       0.34375000000000000        0.0000000000000000     
  0.50000000000000000       0.37500000000000000        0.0000000000000000     
  0.53125000000000000       0.37500000000000000        0.0000000000000000     
  0.56250000000000000       0.37500000000000000        0.0000000000000000     
  0.59375000000000000       0.37500000000000000        0.0000000000000000     
  0.62500000000000000       0.37500000000000000        0.0000000000000000     
  0.62500000000000000       0.25000000000000000        0.0000000000000000     
  0.65625000000000000       0.25000000000000000        0.0000000000000000     
  0.68750000000000000       0.25000000000000000        0.0000000000000000     
  0.71875000000000000       0.25000000000000000        0.0000000000000000     
  0.75000000000000000       0.25000000000000000        0.0000000000000000     
  0.62500000000000000       0.28125000000000000        0.0000000000000000     
  0.65625000000000000       0.28125000000000000        0.0000000000000000     
  0.68750000000000000       0.28125000000000000        0.0000000000000000     
  0.71875000000000000       0.28125000000000000        0.0000000000000000     
  0.75000000000000000       0.28125000000000000        0.0000000000000000     
  0.62500000000000000       0.31250000000000000        0.0000000000000000     
  0.65625000000000000       0.31250000000000000        0.0000000000000000     
  0.68750000000000000       0.31250000000000000        0.0000000000000000     
  0.71875000000000000       0.31250000000000000        0.0000000000000000     
  0.75000000000000000       0.31250000000000000        0.0000000000000000     
  0.62500000000000000       0.34375000000000000        0.0000000000000000     
  0.65625000000000000       0.34375000000000000        0.0000000000000000     
  0.68750000000000000       0.34375000000000000        0.0000000000000000     
  0.71875000000000000       0.34375000000000000        0.0000000000000000     
  0.75000000000000000       0.34375000000000000        0.0000000000000000     
  0.62500000000000000       0.37500000000000000        0.0000000000000000     
  0.65625000000000000       0.37500000000000000        0.0000000000000000     
  0.68750000000000000       0.37500000000000000        0.0000000000000000     
  0.71875000000000000       0.37500000000000000        0.0000000000000000     
  0.75000000000000000       0.37500000000000000        0.0000000000000000     
  0.75000000000000000       0.25000000000000000        0.0000000000000000     
  0.78125000000000000       0.25000000000000000        0.0000000000000000     
  0.81250000000000000       0.25000000000000000        0.0000000000000000     
  0.84375000000000000       0.25000000000000000        0.0000000000000000     
  0.87500000000000000       0.25000000000000000        0.0000000000000000     
  0.75000000000000000       0.28125000000000000        0.0000000000000000     
  0.78125000000000000       0.28125000000000000        0.0000000000000000     
  0.81250000000000000       0.28125000000000000        0.0000000000000000     
  0.84375000000000000       0.28125000000000000        0.0000000000000000     
  0.87500000000000000       0.28125000000000000        0.0000000000000000     
  0.75000000000000000       0.31250000000000000        0.0000000000000000     
  0.78125000000000000       0.31250000000000000        0.0000000000000000     
  0.81250000000000000       0.31250000000000000        0.0000000000000000     
  0.84375000000000000       0.31250000000000000        0.0000000000000000     
  0.87500000000000000       0.31250000000000000        0.0000000000000000     
  0.75000000000000000       0.34375000000000000        0.0000000000000000     
  0.78125000000000000       0.34375000000000000        0.0000000000000000     
  0.81250000000000000       0.34375000000000000        0.0000000000000000     
  0.84375000000000000       0.34375000000000000        0.0000000000000000     
  0.87500000000000000       0.34375000000000000        0.0000000000000000     
  0.75000000000000000       0.37500000000000000        0.0000000000000000     
  0.78125000000000000       0.37500000000000000        0.0000000000000000     
  0.81250000000000000       0.37500000000000000        0.0000000000000000     
  0.84375000000000000       0.37500000000000000        0.0000000000000000     
  0.87500000000000000       0.37500000000000000        0.0000000000000000     
  0.87500000000000000       0.25000000000000000        0.0000000000000000     
  0.90625000000000000       0.25000000000000000        0.0000000000000000     
  0.93750000000000000       0.25000000000000000        0.0000000000000000     
  0.96875000000000000       0.25000000000000000        0.0000000000000000     
   1.0000000000000000       0.25000000000000000        0.0000000000000000     
  0.87500000000000000       0.28125000000000000        0.0000000000000000     
  0.90625000000000000       0.28125000000000000        0.0000000000000000     
  0.93750000000000000       0.28125000000000000        0.0000000000000000     
  0.96875000000000000       0.28125000000000000        0.0000000000000000     
   1.0000000000000000       0.28125000000000000        0.0000000000000000     
  0.87500000000000000       0.31250000000000000        0.0000000000000000     
  0.90625000000000000       0.31250000000000000        0.0000000000000000     
  0.93750000000000000       0.31250000000000000        0.0000000000000000     
  0.96875000000000000       0.31250000000000000        0.0000000000000000     
   1.0000000000000000       0.31250000000000000        0.0000000000000000     
  0.87500000000000000       0.34375000000000000        0.0000000000000000     
  0.90625000000000000       0.34375000000000000        0.0000000000000000     
  0.93750000000000000       0.34375000000000000        0.0000000000000000     
  0.96875000000000000       0.34375000000000000        0.0000000000000000     
   1.0000000000000000       0.34375000000000000        0.0000000000000000     
  0.87500000000000000       0.37500000000000000        0.0000000000000000     
  0.90625000000000000       0.37500000000000000        0.0000000000000000     
  0.93750000000000000       0.37500000000000000        0.0000000000000000     
  0.96875000000000000       0.37500000000000000        0.0000000000000000     
   1.0000000000000000       0.37500000000000000        0.0000000000000000     
   0.0000000000000000       0.37500000000000000        0.0000000000000000     
   3.1250000000000000E-002  0.37500000000000000        0.0000000000000000     
   6.2500000000000000E-002  0.37500000000000000        0.0000000000000000     
   9.3750000000000000E-002  0.37500000000000000        0.0000000000000000     
  0.12500000000000000       0.37500000000000000        0.0000000000000000     
   0.0000000000000000       0.40625000000000000        0.0000000000000000     
   3.1250000000000000E-002  0.40625000000000000        0.0000000000000000     
   6.2500000000000000E-002  0.40625000000000000        0.0000000000000000     
   9.3750000000000000E-002  0.40625000000000000        0.0000000000000000     
  0.12500000000000000       0.40625000000000000        0.0000000000000000     
   0.0000000000000000       0.43750000000000000        0.0000000000000000     
   3.1250000000000000E-002  0.43750000000000000        0.0000000000000000     
   6.2500000000000000E-002  0.43750000000000000        0.0000000000000000     
   9.3750000000000000E-002  0.43750000000000000        0.0000000000000000     
  0.12500000000000000       0.43750000000000000        0.0000000000000000     
   0.0000000000000000       0.46875000000000000        0.0000000000000000     
   3.1250000000000000E-002  0.46875000000000000        0.0000000000000000     
   6.2500000000000000E-002  0.46875000000000000        0.0000000000000000     
   9.3750000000000000E-002  0.46875000000000000        0.0000000000000000     
  0.12500000000000000       0.46875000000000000        0.0000000000000000     
   0.0000000000000000       0.50000000000000000        0.0000000000000000     
   3.1250000000000000E-002  0.50000000000000000        0.0000000000000000     
   6.2500000000000000E-002  0.50000000000000000        0.0000000000000000     
   9.3750000000000000E-002  0.50000000000000000        0.0000000000000000     
  0.12500000000000000       0.50000000000000000        0.0000000000000000     
  0.12500000000000000       0.37500000000000000        0.0000000000000000     
  0.15625000000000000       0.37500000000000000        0.0000000000000000     
  0.18750000000000000       0.37500000000000000        0.0000000000000000     
  0.21875000000000000       0.37500000000000000        0.0000000000000000     
  0.25000000000000000       0.37500000000000000        0.0000000000000000     
  0.12500000000000000       0.40625000000000000        0.0000000000000000     
  0.15625000000000000       0.40625000000000000        0.0000000000000000     
  0.18750000000000000       0.40625000000000000        0.0000000000000000     
  0.21875000000000000       0.40625000000000000        0.0000000000000000     
  0.25000000000000000       0.40625000000000000        0.0000000000000000     
  0.12500000000000000       0.43750000000000000        0.0000000000000000     
  0.15625000000000000       0.43750000000000000        0.0000000000000000     
  0.18750000000000000       0.43750000000000000        0.0000000000000000     
  0.21875000000000000       0.43750000000000000        0.0000000000000000     
  0.25000000000000000       0.43750000000000000        0.0000000000000000     
  0.12500000000000000       0.46875000000000000        0.0000000000000000     
  0.15625000000000000       0.46875000000000000        0.0000000000000000     
  0.18750000000000000       0.46875000000000000        0.0000000000000000     
  0.21875000000000000       0.46875000000000000        0.0000000000000000     
  0.25000000000000000       0.46875000000000000        0.0000000000000000     
  0.12500000000000000       0.50000000000000000        0.0000000000000000     
  0.15625000000000000       0.50000000000000000        0.0000000000000000     
  0.18750000000000000       0.50000000000000000        0.0000000000000000     
  0.21875000000000000       0.50000000000000000        0.0000000000000000     
  0.25000000000000000       0.50000000000000000        0.0000000000000000     
  0.25000000000000000       0.37500000000000000        0.0000000000000000     
  0.28125000000000000       0.37500000000000000        0.0000000000000000     
  0.31250000000000000       0.37500000000000000        0.0000000000000000     
  0.34375000000000000       0.37500000000000000        0.0000000000000000     
  0.37500000000000000       0.37500000000000000        0.0000000000000000     
  0.25000000000000000       0.40625000000000000        0.0000000000000000     
  0.28125000000000000       0.40625000000000000        0.0000000000000000     
  0.31250000000000000       0.40625000000000000        0.0000000000000000     
  0.34375000000000000       0.40625000000000000        0.0000000000000000     
  0.37500000000000000       0.40625000000000000        0.0000000000000000     
  0.25000000000000000       0.43750000000000000        0.0000000000000000     
  0.28125000000000000       0.43750000000000000        0.0000000000000000     
  0.31250000000000000       0.43750000000000000        0.0000000000000000     
  0.34375000000000000       0.43750000000000000        0.0000000000000000     
  0.37500000000000000       0.43750000000000000        0.0000000000000000     
  0.25000000000000000       0.46875000000000000        0.0000000000000000     
  0.28125000000000000       0.46875000000000000        0.0000000000000000     
  0.31250000000000000       0.46875000000000000        0.0000000000000000     
  0.34375000000000000       0.46875000000000000        0.0000000000000000     
  0.37500000000000000       0.46875000000000000        0.0000000000000000     
  0.25000000000000000       0.50000000000000000        0.0000000000000000     
  0.28125000000000000       0.50000000000000000        0.0000000000000000     
  0.31250000000000000       0.50000000000000000        0.0000000000000000     
  0.34375000000000000       0.50000000000000000        0.0000000000000000     
  0.37500000000000000       0.50000000000000000        0.0000000000000000     
  0.37500000000000000       0.37500000000000000        0.0000000000000000     
  0.40625000000000000       0.37500000000000000        0.0000000000000000     
  0.43750000000000000       0.37500000000000000        0.0000000000000000     
  0.46875000000000000       0.37500000000000000        0.0000000000000000     
  0.50000000000000000       0.37500000000000000        0.0000000000000000     
  0.37500000000000000       0.40625000000000000        0.0000000000000000     
  0.40625000000000000       0.40625000000000000        0.0000000000000000     
  0.43750000000000000       0.40625000000000000        0.0000000000000000     
  0.46875000000000000       0.40625000000000000        0.0000000000000000     
  0.50000000000000000       0.40625000000000000        0.0000000000000000     
  0.37500000000000000       0.43750000000000000        0.0000000000000000     
  0.40625000000000000       0.43750000000000000        0.0000000000000000     
  0.43750000000000000       0.43750000000000000        0.0000000000000000     
  0.46875000000000000       0.43750000000000000        0.0000000000000000     
  0.50000000000000000       0.43750000000000000        0.0000000000000000     
  0.37500000000000000       0.46875000000000000        0.0000000000000000     
  0.40625000000000000       0.46875000000000000        0.0000000000000000     
  0.43750000000000000       0.46875000000000000        0.0000000000000000     
  0.46875000000000000       0.46875000000000000        0.0000000000000000     
  0.50000000000000000       0.46875000000000000        0.0000000000000000     
  0.37500000000000000       0.50000000000000000        0.0000000000000000     
  0.40625000000000000       0.50000000000000000        0.0000000000000000     
  0.43750000000000000       0.50000000000000000        0.0000000000000000     
  0.46875000000000000       0.50000000000000000        0.0000000000000000     
  0.50000000000000000       0.50000000000000000        0.0000000000000000     
  0.50000000000000000       0.37500000000000000        0.0000000000000000     
  0.53125000000000000       0.37500000000000000        0.0000000000000000     
  0.56250000000000000       0.37500000000000000        0.0000000000000000     
  0.59375000000000000       0.37500000000000000        0.0000000000000000     
  0.62500000000000000       0.37500000000000000        0.0000000000000000     
  0.50000000000000000       0.40625000000000000        0.0000000000000000     
  0.53125000000000000       0.40625000000000000        0.0000000000000000     
  0.56250000000000000       0.40625000000000000        0.0000000000000000     
  0.59375000000000000       0.40625000000000000        0.0000000000000000     
  0.62500000000000000       0.40625000000000000        0.0000000000000000     
  0.50000000000000000       0.43750000000000000        0.0000000000000000     
  0.53125000000000000       0.43750000000000000        0.0000000000000000     
  0.56250000000000000       0.43750000000000000        0.0000000000000000     
  0.59375000000000000       0.43750000000000000        0.0000000000000000     
  0.62500000000000000       0.43750000000000000        0.0000000000000000     
  0.50000000000000000       0.46875000000000000        0.0000000000000000     
  0.53125000000000000       0.46875000000000000        0.0000000000000000     
  0.56250000000000000       0.46875000000000000        0.0000000000000000     
  0.59375000000000000       0.46875000000000000        0.0000000000000000     
  0.62500000000000000       0.46875000000000000        0.0000000000000000     
  0.50000000000000000       0.50000000000000000        0.0000000000000000     
  0.53125000000000000       0.50000000000000000        0.0000000000000000     
  0.56250000000000000       0.50000000000000000        0.0000000000000000     
  0.59375000000000000       0.50000000000000000        0.0000000000000000     
  0.62500000000000000       0.50000000000000000        0.0000000000000000     
  0.62500000000000000       0.37500000000000000        0.0000000000000000     
  0.65625000000000000       0.37500000000000000        0.0000000000000000     
  0.68750000000000000       0.37500000000000000        0.0000000000000000     
  0.71875000000000000       0.37500000000000000        0.0000000000000000     
  0.75000000000000000       0.37500000000000000        0.0000000000000000     
  0.62500000000000000       0.40625000000000000        0.0000000000000000     
  0.65625000000000000       0.40625000000000000        0.0000000000000000     
  0.68750000000000000       0.40625000000000000        0.0000000000000000     
  0.71875000000000000       0.40625000000000000        0.0000000000000000     
  0.75000000000000000       0.40625000000000000        0.0000000000000000     
  0.62500000000000000       0.43750000000000000        0.0000000000000000     
  0.65625000000000000       0.43750000000000000        0.0000000000000000     
  0.68750000000000000       0.43750000000000000        0.0000000000000000     
  0.71875000000000000       0.43750000000000000        0.0000000000000000     
  0.75000000000000000       0.43750000000000000        0.0000000000000000     
  0.62500000000000000       0.46875000000000000        0.0000000000000000     
  0.65625000000000000       0.46875000000000000        0.0000000000000000     
  0.68750000000000000       0.46875000000000000        0.0000000000000000     
  0.71875000000000000       0.46875000000000000        0.0000000000000000     
  0.75000000000000000       0.46875000000000000        0.0000000000000000     
  0.62500000000000000       0.50000000000000000        0.0000000000000000     
  0.65625000000000000       0.50000000000000000        0.0000000000000000     
  0.68750000000000000       0.50000000000000000        0.0000000000000000     
  0.71875000000000000       0.50000000000000000        0.0000000000000000     
  0.75000000000000000       0.50000000000000000        0.0000000000000000     
  0.75000000000000000       0.37500000000000000        0.0000000000000000     
  0.78125000000000000       0.37500000000000000        0.0000000000000000     
  0.81250000000000000       0.37500000000000000        0.0000000000000000     
  0.84375000000000000       0.37500000000000000        0.0000000000000000     
  0.87500000000000000       0.37500000000000000        0.0000000000000000     
  0.75000000000000000       0.40625000000000000        0.0000000000000000     
  0.78125000000000000       0.40625000000000000        0.0000000000000000     
  0.81250000000000000       0.40625000000000000        0.0000000000000000     
  0.84375000000000000       0.40625000000000000        0.0000000000000000     
  0.87500000000000000       0.40625000000000000        0.0000000000000000     
  0.75000000000000000       0.43750000000000000        0.0000000000000000     
  0.78125000000000000       0.43750000000000000        0.0000000000000000     
  0.81250000000000000       0.43750000000000000        0.0000000000000000     
  0.84375000000000000       0.43750000000000000        0.0000000000000000     
  0.87500000000000000       0.43750000000000000        0.0000000000000000     
  0.75000000000000000       0.46875000000000000        0.0000000000000000     
  0.78125000000000000       0.46875000000000000        0.0000000000000000     
  0.81250000000000000       0.46875000000000000        0.0000000000000000     
  0.84375000000000000       0.46875000000000000        0.0000000000000000     
  0.87500000000000000       0.46875000000000000        0.0000000000000000     
  0.75000000000000000       0.50000000000000000        0.0000000000000000     
  0.78125000000000000       0.50000000000000000        0.0000000000000000     
  0.81250000000000000       0.50000000000000000        0.0000000000000000     
  0.84375000000000000       0.50000000000000000        0.0000000000000000     
  0.87500000000000000       0.50000000000000000        0.0000000000000000     
  0.87500000000000000       0.37500000000000000        0.0000000000000000     
  0.90625000000000000       0.37500000000000000        0.0000000000000000     
  0.93750000000000000       0.37500000000000000        0.0000000000000000     
  0.96875000000000000       0.37500000000000000        0.0000000000000000     
   1.0000000000000000       0.37500000000000000        0.0000000000000000     
  0.87500000000000000       0.40625000000000000        0.0000000000000000     
  0.90625000000000000       0.40625000000000000        0.0000000000000000     
  0.93750000000000000       0.40625000000000000        0.0000000000000000     
  0.96875000000000000       0.40625000000000000        0.0000000000000000     
   1.0000000000000000       0.40625000000000000        0.0000000000000000     
  0.87500000000000000       0.43750000000000000        0.0000000000000000     
  0.90625000000000000       0.43750000000000000        0.0000000000000000     
  0.93750000000000000       0.43750000000000000        0.0000000000000000     
  0.96875000000000000       0.43750000000000000        0.0000000000000000     
   1.0000000000000000       0.43750000000000000        0.0000000000000000     
  0.87500000000000000       0.46875000000000000        0.0000000000000000     
  0.90625000000000000       0.46875000000000000        0.0000000000000000     
  0.93750000000000000       0.46875000000000000        0.0000000000000000     
  0.96875000000000000       0.46875000000000000        0.0000000000000000     
   1.0000000000000000       0.46875000000000000        0.0000000000000000     
  0.87500000000000000       0.50000000000000000        0.0000000000000000     
  0.90625000000000000       0.50000000000000000        0.0000000000000000     
  0.93750000000000000       0.50000000000000000        0.0000000000000000     
  0.96875000000000000       0.50000000000000000        0.0000000000000000     
   1.0000000000000000       0.50000000000000000        0.0000000000000000     
   0.0000000000000000       0.50000000000000000        0.0000000000000000     
   3.1250000000000000E-002  0.50000000000000000        0.0000000000000000     
   6.2500000000000000E-002  0.50000000000000000        0.0000000000000000     
   9.3750000000000000E-002  0.50000000000000000        0.0000000000000000     
  0.12500000000000000       0.50000000000000000        0.0000000000000000     
   0.0000000000000000       0.53125000000000000        0.0000000000000000     
   3.1250000000000000E-002  0.53125000000000000        0.0000000000000000     
   6.2500000000000000E-002  0.53125000000000000        0.0000000000000000     
   9.3750000000000000E-002  0.53125000000000000        0.0000000000000000     
  0.12500000000000000       0.53125000000000000        0.0000000000000000     
   0.0000000000000000       0.56250000000000000        0.0000000000000000     
   3.1250000000000000E-002  0.56250000000000000        0.0000000000000000     
   6.2500000000000000E-002  0.56250000000000000        0.0000000000000000     
   9.3750000000000000E-002  0.56250000000000000        0.0000000000000000     
  0.12500000000000000       0.56250000000000000        0.0000000000000000     
   0.0000000000000000       0.59375000000000000        0.0000000000000000     
   3.1250000000000000E-002  0.59375000000000000        0.0000000000000000     
   6.2500000000000000E-002  0.59375000000000000        0.0000000000000000     
   9.3750000000000000E-002  0.59375000000000000        0.0000000000000000     
  0.12500000000000000       0.59375000000000000        0.0000000000000000     
   0.0000000000000000       0.62500000000000000        0.0000000000000000     
   3.1250000000000000E-002  0.62500000000000000        0.0000000000000000     
   6.2500000000000000E-002  0.62500000000000000        0.0000000000000000     
   9.3750000000000000E-002  0.62500000000000000        0.0000000000000000     
  0.12500000000000000       0.62500000000000000        0.0000000000000000     
  0.12500000000000000       0.50000000000000000        0.0000000000000000     
  0.15625000000000000       0.50000000000000000        0.0000000000000000     
  0.18750000000000000       0.50000000000000000        0.0000000000000000     
  0.21875000000000000       0.50000000000000000        0.0000000000000000     
  0.25000000000000000       0.50000000000000000        0.0000000000000000     
  0.12500000000000000       0.53125000000000000        0.0000000000000000     
  0.15625000000000000       0.53125000000000000        0.0000000000000000     
  0.18750000000000000       0.53125000000000000        0.0000000000000000     
  0.21875000000000000       0.53125000000000000        0.0000000000000000     
  0.25000000000000000       0.53125000000000000        0.0000000000000000     
  0.12500000000000000       0.56250000000000000        0.0000000000000000     
  0.15625000000000000       0.56250000000000000        0.0000000000000000     
  0.18750000000000000       0.56250000000000000        0.0000000000000000     
  0.21875000000000000       0.56250000000000000        0.0000000000000000     
  0.25000000000000000       0.56250000000000000        0.0000000000000000     
  0.12500000000000000       0.59375000000000000        0.0000000000000000     
  0.15625000000000000       0.59375000000000000        0.0000000000000000     
  0.18750000000000000       0.59375000000000000        0.0000000000000000     
  0.21875000000000000       0.59375000000000000        0.0000000000000000     
  0.25000000000000000       0.59375000000000000        0.0000000000000000     
  0.12500000000000000       0.62500000000000000        0.0000000000000000     
  0.15625000000000000       0.62500000000000000        0.0000000000000000     
  0.18750000000000000       0.62500000000000000        0.0000000000000000     
  0.21875000000000000       0.62500000000000000        0.0000000000000000     
  0.25000000000000000       0.62500000000000000        0.0000000000000000     
  0.25000000000000000       0.50000000000000000        0.0000000000000000     
  0.28125000000000000       0.50000000000000000        0.0000000000000000     
  0.31250000000000000       0.50000000000000000        0.0000000000000000     
  0.34375000000000000       0.50000000000000000        0.0000000000000000     
  0.37500000000000000       0.50000000000000000        0.0000000000000000     
  0.25000000000000000       0.53125000000000000        0.0000000000000000     
  0.28125000000000000       0.53125000000000000        0.0000000000000000     
  0.31250000000000000       0.53125000000000000        0.0000000000000000     
  0.34375000000000000       0.53125000000000000        0.0000000000000000     
  0.37500000000000000       0.53125000000000000        0.0000000000000000     
  0.25000000000000000       0.56250000000000000        0.0000000000000000     
  0.28125000000000000       0.56250000000000000        0.0000000000000000     
  0.31250000000000000       0.56250000000000000        0.0000000000000000     
  0.34375000000000000       0.56250000000000000        0.0000000000000000     
  0.37500000000000000       0.56250000000000000        0.0000000000000000     
  0.25000000000000000       0.59375000000000000        0.0000000000000000     
  0.28125000000000000       0.59375000000000000        0.0000000000000000     
  0.31250000000000000       0.59375000000000000        0.0000000000000000     
  0.34375000000000000       0.59375000000000000        0.0000000000000000     
  0.37500000000000000       0.59375000000000000        0.0000000000000000     
  0.25000000000000000       0.62500000000000000        0.0000000000000000     
  0.28125000000000000       0.62500000000000000        0.0000000000000000     
  0.31250000000000000       0.62500000000000000        0.0000000000000000     
  0.34375000000000000       0.62500000000000000        0.0000000000000000     
  0.37500000000000000       0.62500000000000000        0.0000000000000000     
  0.37500000000000000       0.50000000000000000        0.0000000000000000     
  0.40625000000000000       0.50000000000000000        0.0000000000000000     
  0.43750000000000000       0.50000000000000000        0.0000000000000000     
  0.46875000000000000       0.50000000000000000        0.0000000000000000     
  0.50000000000000000       0.50000000000000000        0.0000000000000000     
  0.37500000000000000       0.53125000000000000        0.0000000000000000     
  0.40625000000000000       0.53125000000000000        0.0000000000000000     
  0.43750000000000000       0.53125000000000000        0.0000000000000000     
  0.46875000000000000       0.53125000000000000        0.0000000000000000     
  0.50000000000000000       0.53125000000000000        0.0000000000000000     
  0.37500000000000000       0.56250000000000000        0.0000000000000000     
  0.40625000000000000       0.56250000000000000        0.0000000000000000     
  0.43750000000000000       0.56250000000000000        0.0000000000000000     
  0.46875000000000000       0.56250000000000000        0.0000000000000000     
  0.50000000000000000       0.56250000000000000        0.0000000000000000     
  0.37500000000000000       0.59375000000000000        0.0000000000000000     
  0.40625000000000000       0.59375000000000000        0.0000000000000000     
  0.43750000000000000       0.59375000000000000        0.0000000000000000     
  0.46875000000000000       0.59375000000000000        0.0000000000000000     
  0.50000000000000000       0.59375000000000000        0.0000000000000000     
  0.37500000000000000       0.62500000000000000        0.0000000000000000     
  0.40625000000000000       0.62500000000000000        0.0000000000000000     
  0.43750000000000000       0.62500000000000000        0.0000000000000000     
  0.46875000000000000       0.62500000000000000        0.0000000000000000     
  0.50000000000000000       0.62500000000000000        0.0000000000000000     
  0.50000000000000000       0.50000000000000000        0.0000000000000000     
  0.53125000000000000       0.50000000000000000        0.0000000000000000     
  0.56250000000000000       0.50000000000000000        0.0000000000000000     
  0.59375000000000000       0.50000000000000000        0.0000000000000000     
  0.62500000000000000       0.50000000000000000        0.0000000000000000     
  0.50000000000000000       0.53125000000000000        0.0000000000000000     
  0.53125000000000000       0.53125000000000000        0.0000000000000000     
  0.56250000000000000       0.53125000000000000        0.0000000000000000     
  0.59375000000000000       0.53125000000000000        0.0000000000000000     
  0.62500000000000000       0.53125000000000000        0.0000000000000000     
  0.50000000000000000       0.56250000000000000        0.0000000000000000     
  0.53125000000000000       0.56250000000000000        0.0000000000000000     
  0.56250000000000000       0.56250000000000000        0.0000000000000000     
  0.59375000000000000       0.56250000000000000        0.0000000000000000     
  0.62500000000000000       0.56250000000000000        0.0000000000000000     
  0.50000000000000000       0.59375000000000000        0.0000000000000000     
  0.53125000000000000       0.59375000000000000        0.0000000000000000     
  0.56250000000000000       0.59375000000000000        0.0000000000000000     
  0.59375000000000000       0.59375000000000000        0.0000000000000000     
  0.62500000000000000       0.59375000000000000        0.0000000000000000     
  0.50000000000000000       0.62500000000000000        0.0000000000000000     
  0.53125000000000000       0.62500000000000000        0.0000000000000000     
  0.56250000000000000       0.62500000000000000        0.0000000000000000     
  0.59375000000000000       0.62500000000000000        0.0000000000000000     
  0.62500000000000000       0.62500000000000000        0.0000000000000000     
  0.62500000000000000       0.50000000000000000        0.0000000000000000     
  0.65625000000000000       0.50000000000000000        0.0000000000000000     
  0.68750000000000000       0.50000000000000000        0.0000000000000000     
  0.71875000000000000       0.50000000000000000        0.0000000000000000     
  0.75000000000000000       0.50000000000000000        0.0000000000000000     
  0.62500000000000000       0.53125000000000000        0.0000000000000000     
  0.65625000000000000       0.53125000000000000        0.0000000000000000     
  0.68750000000000000       0.53125000000000000        0.0000000000000000     
  0.71875000000000000       0.53125000000000000        0.0000000000000000     
  0.75000000000000000       0.53125000000000000        0.0000000000000000     
  0.62500000000000000       0.56250000000000000        0.0000000000000000     
  0.65625000000000000       0.56250000000000000        0.0000000000000000     
  0.68750000000000000       0.56250000000000000        0.0000000000000000     
  0.71875000000000000       0.56250000000000000        0.0000000000000000     
  0.75000000000000000       0.56250000000000000        0.0000000000000000     
  0.62500000000000000       0.59375000000000000        0.0000000000000000     
  0.65625000000000000       0.59375000000000000        0.0000000000000000     
  0.68750000000000000       0.59375000000000000        0.0000000000000000     
  0.71875000000000000       0.59375000000000000        0.0000000000000000     
  0.75000000000000000       0.59375000000000000        0.0000000000000000     
  0.62500000000000000       0.62500000000000000        0.0000000000000000     
  0.65625000000000000       0.62500000000000000        0.0000000000000000     
  0.68750000000000000       0.62500000000000000        0.0000000000000000     
  0.71875000000000000       0.62500000000000000        0.0000000000000000     
  0.75000000000000000       0.62500000000000000        0.0000000000000000     
  0.75000000000000000       0.50000000000000000        0.0000000000000000     
  0.78125000000000000       0.50000000000000000        0.0000000000000000     
  0.81250000000000000       0.50000000000000000        0.0000000000000000     
  0.84375000000000000       0.50000000000000000        0.0000000000000000     
  0.87500000000000000       0.50000000000000000        0.0000000000000000     
  0.75000000000000000       0.53125000000000000        0.0000000000000000     
  0.78125000000000000       0.53125000000000000        0.0000000000000000     
  0.81250000000000000       0.53125000000000000        0.0000000000000000     
  0.84375000000000000       0.53125000000000000        0.0000000000000000     
  0.87500000000000000       0.53125000000000000        0.0000000000000000     
  0.75000000000000000       0.56250000000000000        0.0000000000000000     
  0.78125000000000000       0.56250000000000000        0.0000000000000000     
  0.81250000000000000       0.56250000000000000        0.0000000000000000     
  0.84375000000000000       0.56250000000000000        0.0000000000000000     
  0.87500000000000000       0.56250000000000000        0.0000000000000000     
  0.75000000000000000       0.59375000000000000        0.0000000000000000     
  0.78125000000000000       0.59375000000000000        0.0000000000000000     
  0.81250000000000000       0.59375000000000000        0.0000000000000000     
  0.84375000000000000       0.59375000000000000        0.0000000000000000     
  0.87500000000000000       0.59375000000000000        0.0000000000000000     
  0.75000000000000000       0.62500000000000000        0.0000000000000000     
  0.78125000000000000       0.62500000000000000        0.0000000000000000     
  0.81250000000000000       0.62500000000000000        0.0000000000000000     
  0.84375000000000000       0.62500000000000000        0.0000000000000000     
  0.87500000000000000       0.62500000000000000        0.0000000000000000     
  0.87500000000000000       0.50000000000000000        0.0000000000000000     
  0.90625000000000000       0.50000000000000000        0.0000000000000000     
  0.93750000000000000       0.50000000000000000        0.0000000000000000     
  0.96875000000000000       0.50000000000000000        0.0000000000000000     
   1.0000000000000000       0.50000000000000000        0.0000000000000000     
  0.87500000000000000       0.53125000000000000        0.0000000000000000     
  0.90625000000000000       0.53125000000000000        0.0000000000000000     
  0.93750000000000000       0.53125000000000000        0.0000000000000000     
  0.96875000000000000       0.53125000000000000        0.0000000000000000     
   1.0000000000000000       0.53125000000000000        0.0000000000000000     
  0.87500000000000000       0.56250000000000000        0.0000000000000000     
  0.90625000000000000       0.56250000000000000        0.0000000000000000     
  0.93750000000000000       0.56250000000000000        0.0000000000000000     
  0.96875000000000000       0.56250000000000000        0.0000000000000000     
   1.0000000000000000       0.56250000000000000        0.0000000000000000     
  0.87500000000000000       0.59375000000000000        0.0000000000000000     
  0.90625000000000000       0.59375000000000000        0.0000000000000000     
  0.93750000000000000       0.59375000000000000        0.0000000000000000     
  0.96875000000000000       0.59375000000000000        0.0000000000000000     
   1.0000000000000000       0.59375000000000000        0.0000000000000000     
  0.87500000000000000       0.62500000000000000        0.0000000000000000     
  0.90625000000000000       0.62500000000000000        0.0000000000000000     
  0.93750000000000000       0.62500000000000000        0.0000000000000000     
  0.96875000000000000       0.62500000000000000        0.0000000000000000     
   1.0000000000000000       0.62500000000000000        0.0000000000000000     
   0.0000000000000000       0.62500000000000000        0.0000000000000000     
   3.1250000000000000E-002  0.62500000000000000        0.0000000000000000     
   6.2500000000000000E-002  0.62500000000000000        0.0000000000000000     
   9.3750000000000000E-002  0.62500000000000000        0.0000000000000000     
  0.12500000000000000       0.62500000000000000        0.0000000000000000     
   0.0000000000000000       0.65625000000000000        0.0000000000000000     
   3.1250000000000000E-002  0.65625000000000000        0.0000000000000000     
   6.2500000000000000E-002  0.65625000000000000        0.0000000000000000     
   9.3750000000000000E-002  0.65625000000000000        0.0000000000000000     
  0.12500000000000000       0.65625000000000000        0.0000000000000000     
   0.0000000000000000       0.68750000000000000        0.0000000000000000     
   3.1250000000000000E-002  0.68750000000000000        0.0000000000000000     
   6.2500000000000000E-002  0.68750000000000000        0.0000000000000000     
   9.3750000000000000E-002  0.68750000000000000        0.0000000000000000     
  0.12500000000000000       0.68750000000000000        0.0000000000000000     
   0.0000000000000000       0.71875000000000000        0.0000000000000000     
   3.1250000000000000E-002  0.71875000000000000        0.0000000000000000     
   6.2500000000000000E-002  0.71875000000000000        0.0000000000000000     
   9.3750000000000000E-002  0.71875000000000000        0.0000000000000000     
  0.12500000000000000       0.71875000000000000        0.0000000000000000     
   0.0000000000000000       0.75000000000000000        0.0000000000000000     
   3.1250000000000000E-002  0.75000000000000000        0.0000000000000000     
   6.2500000000000000E-002  0.75000000000000000        0.0000000000000000     
   9.3750000000000000E-002  0.75000000000000000        0.0000000000000000     
  0.12500000000000000       0.75000000000000000        0.0000000000000000     
  0.12500000000000000       0.62500000000000000        0.0000000000000000     
  0.15625000000000000       0.62500000000000000        0.0000000000000000     
  0.18750000000000000       0.62500000000000000        0.0000000000000000     
  0.21875000000000000       0.62500000000000000        0.0000000000000000     
  0.25000000000000000       0.62500000000000000        0.0000000000000000     
  0.12500000000000000       0.65625000000000000        0.0000000000000000     
  0.15625000000000000       0.65625000000000000        0.0000000000000000     
  0.18750000000000000       0.65625000000000000        0.0000000000000000     
  0.21875000000000000       0.65625000000000000        0.0000000000000000     
  0.25000000000000000       0.65625000000000000        0.0000000000000000     
  0.12500000000000000       0.68750000000000000        0.0000000000000000     
  0.15625000000000000       0.68750000000000000        0.0000000000000000     
  0.18750000000000000       0.68750000000000000        0.0000000000000000     
  0.21875000000000000       0.68750000000000000        0.0000000000000000     
  0.25000000000000000       0.68750000000000000        0.0000000000000000     
  0.12500000000000000       0.71875000000000000        0.0000000000000000     
  0.15625000000000000       0.71875000000000000        0.0000000000000000     
  0.18750000000000000       0.71875000000000000        0.0000000000000000     
  0.21875000000000000       0.71875000000000000        0.0000000000000000     
  0.25000000000000000       0.71875000000000000        0.0000000000000000     
  0.12500000000000000       0.75000000000000000        0.0000000000000000     
  0.15625000000000000       0.75000000000000000        0.0000000000000000     
  0.18750000000000000       0.75000000000000000        0.0000000000000000     
  0.21875000000000000       0.75000000000000000        0.0000000000000000     
  0.25000000000000000       0.75000000000000000        0.0000000000000000     
  0.25000000000000000       0.62500000000000000        0.0000000000000000     
  0.28125000000000000       0.62500000000000000        0.0000000000000000     
  0.31250000000000000       0.62500000000000000        0.0000000000000000     
  0.34375000000000000       0.62500000000000000        0.0000000000000000     
  0.37500000000000000       0.62500000000000000        0.0000000000000000     
  0.25000000000000000       0.65625000000000000        0.0000000000000000     
  0.28125000000000000       0.65625000000000000        0.0000000000000000     
  0.31250000000000000       0.65625000000000000        0.0000000000000000     
  0.34375000000000000       0.65625000000000000        0.0000000000000000     
  0.37500000000000000       0.65625000000000000        0.0000000000000000     
  0.25000000000000000       0.68750000000000000        0.0000000000000000     
  0.28125000000000000       0.68750000000000000        0.0000000000000000     
  0.31250000000000000       0.68750000000000000        0.0000000000000000     
  0.34375000000000000       0.68750000000000000        0.0000000000000000     
  0.37500000000000000       0.68750000000000000        0.0000000000000000     
  0.25000000000000000       0.71875000000000000        0.0000000000000000     
  0.28125000000000000       0.71875000000000000        0.0000000000000000     
  0.31250000000000000       0.71875000000000000        0.0000000000000000     
  0.34375000000000000       0.71875000000000000        0.0000000000000000     
  0.37500000000000000       0.71875000000000000        0.0000000000000000     
  0.25000000000000000       0.75000000000000000        0.0000000000000000     
  0.28125000000000000       0.75000000000000000        0.0000000000000000     
  0.31250000000000000       0.75000000000000000        0.0000000000000000     
  0.34375000000000000       0.75000000000000000        0.0000000000000000     
  0.37500000000000000       0.75000000000000000        0.0000000000000000     
  0.37500000000000000       0.62500000000000000        0.0000000000000000     
  0.40625000000000000       0.62500000000000000        0.0000000000000000     
  0.43750000000000000       0.62500000000000000        0.0000000000000000     
  0.46875000000000000       0.62500000000000000        0.0000000000000000     
  0.50000000000000000       0.62500000000000000        0.0000000000000000     
  0.37500000000000000       0.65625000000000000        0.0000000000000000     
  0.40625000000000000       0.65625000000000000        0.0000000000000000     
  0.43750000000000000       0.65625000000000000        0.0000000000000000     
  0.46875000000000000       0.65625000000000000        0.0000000000000000     
  0.50000000000000000       0.65625000000000000        0.0000000000000000     
  0.37500000000000000       0.68750000000000000        0.0000000000000000     
  0.40625000000000000       0.68750000000000000        0.0000000000000000     
  0.43750000000000000       0.68750000000000000        0.0000000000000000     
  0.46875000000000000       0.68750000000000000        0.0000000000000000     
  0.50000000000000000       0.68750000000000000        0.0000000000000000     
  0.37500000000000000       0.71875000000000000        0.0000000000000000     
  0.40625000000000000       0.71875000000000000        0.0000000000000000     
  0.43750000000000000       0.71875000000000000        0.0000000000000000     
  0.46875000000000000       0.71875000000000000        0.0000000000000000     
  0.50000000000000000       0.71875000000000000        0.0000000000000000     
  0.37500000000000000       0.75000000000000000        0.0000000000000000     
  0.40625000000000000       0.75000000000000000        0.0000000000000000     
  0.43750000000000000       0.75000000000000000        0.0000000000000000     
  0.46875000000000000       0.75000000000000000        0.0000000000000000     
  0.50000000000000000       0.75000000000000000        0.0000000000000000     
  0.50000000000000000       0.62500000000000000        0.0000000000000000     
  0.53125000000000000       0.62500000000000000        0.0000000000000000     
  0.56250000000000000       0.62500000000000000        0.0000000000000000     
  0.59375000000000000       0.62500000000000000        0.0000000000000000     
  0.62500000000000000       0.62500000000000000        0.0000000000000000     
  0.50000000000000000       0.65625000000000000        0.0000000000000000     
  0.53125000000000000       0.65625000000000000        0.0000000000000000     
  0.56250000000000000       0.65625000000000000        0.0000000000000000     
  0.59375000000000000       0.65625000000000000        0.0000000000000000     
  0.62500000000000000       0.65625000000000000        0.0000000000000000     
  0.50000000000000000       0.68750000000000000        0.0000000000000000     
  0.53125000000000000       0.68750000000000000        0.0000000000000000     
  0.56250000000000000       0.68750000000000000        0.0000000000000000     
  0.59375000000000000       0.68750000000000000        0.0000000000000000     
  0.62500000000000000       0.68750000000000000        0.0000000000000000     
  0.50000000000000000       0.71875000000000000        0.0000000000000000     
  0.53125000000000000       0.71875000000000000        0.0000000000000000     
  0.56250000000000000       0.71875000000000000        0.0000000000000000     
  0.59375000000000000       0.71875000000000000        0.0000000000000000     
  0.62500000000000000       0.71875000000000000        0.0000000000000000     
  0.50000000000000000       0.75000000000000000        0.0000000000000000     
  0.53125000000000000       0.75000000000000000        0.0000000000000000     
  0.56250000000000000       0.75000000000000000        0.0000000000000000     
  0.59375000000000000       0.75000000000000000        0.0000000000000000     
  0.62500000000000000       0.75000000000000000        0.0000000000000000     
  0.62500000000000000       0.62500000000000000        0.0000000000000000     
  0.65625000000000000       0.62500000000000000        0.0000000000000000     
  0.68750000000000000       0.62500000000000000        0.0000000000000000     
  0.71875000000000000       0.62500000000000000        0.0000000000000000     
  0.75000000000000000       0.62500000000000000        0.0000000000000000     
  0.62500000000000000       0.65625000000000000        0.0000000000000000     
  0.65625000000000000       0.65625000000000000        0.0000000000000000     
  0.68750000000000000       0.65625000000000000        0.0000000000000000     
  0.71875000000000000       0.65625000000000000        0.0000000000000000     
  0.75000000000000000       0.65625000000000000        0.0000000000000000     
  0.62500000000000000       0.68750000000000000        0.0000000000000000     
  0.65625000000000000       0.68750000000000000        0.0000000000000000     
  0.68750000000000000       0.68750000000000000        0.0000000000000000     
  0.71875000000000000       0.68750000000000000        0.0000000000000000     
  0.75000000000000000       0.68750000000000000        0.0000000000000000     
  0.62500000000000000       0.71875000000000000        0.0000000000000000     
  0.65625000000000000       0.71875000000000000        0.0000000000000000     
  0.68750000000000000       0.71875000000000000        0.0000000000000000     
  0.71875000000000000       0.71875000000000000        0.0000000000000000     
  0.75000000000000000       0.71875000000000000        0.0000000000000000     
  0.62500000000000000       0.75000000000000000        0.0000000000000000     
  0.65625000000000000       0.75000000000000000        0.0000000000000000     
  0.68750000000000000       0.75000000000000000        0.0000000000000000     
  0.71875000000000000       0.75000000000000000        0.0000000000000000     
  0.75000000000000000       0.75000000000000000        0.0000000000000000     
  0.75000000000000000       0.62500000000000000        0.0000000000000000     
  0.78125000000000000       0.62500000000000000        0.0000000000000000     
  0.81250000000000000       0.62500000000000000        0.0000000000000000     
  0.84375000000000000       0.62500000000000000        0.0000000000000000     
  0.87500000000000000       0.62500000000000000        0.0000000000000000     
  0.75000000000000000       0.65625000000000000        0.0000000000000000     
  0.78125000000000000       0.65625000000000000        0.0000000000000000     
  0.81250000000000000       0.65625000000000000        0.0000000000000000     
  0.84375000000000000       0.65625000000000000        0.0000000000000000     
  0.87500000000000000       0.65625000000000000        0.0000000000000000     
  0.75000000000000000       0.68750000000000000        0.0000000000000000     
  0.78125000000000000       0.68750000000000000        0.0000000000000000     
  0.81250000000000000       0.68750000000000000        0.0000000000000000     
  0.84375000000000000       0.68750000000000000        0.0000000000000000     
  0.87500000000000000       0.68750000000000000        0.0000000000000000     
  0.75000000000000000       0.71875000000000000        0.0000000000000000     
  0.78125000000000000       0.71875000000000000        0.0000000000000000     
  0.81250000000000000       0.71875000000000000        0.0000000000000000     
  0.84375000000000000       0.71875000000000000        0.0000000000000000     
  0.87500000000000000       0.71875000000000000        0.0000000000000000     
  0.75000000000000000       0.75000000000000000        0.0000000000000000     
  0.78125000000000000       0.75000000000000000        0.0000000000000000     
  0.81250000000000000       0.75000000000000000        0.0000000000000000     
  0.84375000000000000       0.75000000000000000        0.0000000000000000     
  0.87500000000000000       0.75000000000000000        0.0000000000000000     
  0.87500000000000000       0.62500000000000000        0.0000000000000000     
  0.90625000000000000       0.62500000000000000        0.0000000000000000     
  0.93750000000000000       0.62500000000000000        0.0000000000000000     
  0.96875000000000000       0.62500000000000000        0.0000000000000000     
   1.0000000000000000       0.62500000000000000        0.0000000000000000     
  0.87500000000000000       0.65625000000000000        0.0000000000000000     
  0.90625000000000000       0.65625000000000000        0.0000000000000000     
  0.93750000000000000       0.65625000000000000        0.0000000000000000     
  0.96875000000000000       0.65625000000000000        0.0000000000000000     
   1.0000000000000000       0.65625000000000000        0.0000000000000000     
  0.87500000000000000       0.68750000000000000        0.0000000000000000     
  0.90625000000000000       0.68750000000000000        0.0000000000000000     
  0.93750000000000000       0.68750000000000000        0.0000000000000000     
  0.96875000000000000       0.68750000000000000        0.0000000000000000     
   1.0000000000000000       0.68750000000000000        0.0000000000000000     
  0.87500000000000000       0.71875000000000000        0.0000000000000000     
  0.90625000000000000       0.71875000000000000        0.0000000000000000     
  0.93750000000000000       0.71875000000000000        0.0000000000000000     
  0.96875000000000000       0.71875000000000000        0.0000000000000000     
   1.0000000000000000       0.71875000000000000        0.0000000000000000     
  0.87500000000000000       0.75000000000000000        0.0000000000000000     
  0.90625000000000000       0.75000000000000000        0.0000000000000000     
  0.93750000000000000       0.75000000000000000        0.0000000000000000     
  0.96875000000000000       0.75000000000000000        0.0000000000000000     
   1.0000000000000000       0.75000000000000000        0.0000000000000000     
   0.0000000000000000       0.75000000000000000        0.0000000000000000     
   3.1250000000000000E-002  0.75000000000000000        0.0000000000000000     
   6.2500000000000000E-002  0.75000000000000000        0.0000000000000000     
   9.3750000000000000E-002  0.75000000000000000        0.0000000000000000     
  0.12500000000000000       0.75000000000000000        0.0000000000000000     
   0.0000000000000000       0.78125000000000000        0.0000000000000000     
   3.1250000000000000E-002  0.78125000000000000        0.0000000000000000     
   6.2500000000000000E-002  0.78125000000000000        0.0000000000000000     
   9.3750000000000000E-002  0.78125000000000000        0.0000000000000000     
  0.12500000000000000       0.78125000000000000        0.0000000000000000     
   0.0000000000000000       0.81250000000000000        0.0000000000000000     
   3.1250000000000000E-002  0.81250000000000000        0.0000000000000000     
   6.2500000000000000E-002  0.81250000000000000        0.0000000000000000     
   9.3750000000000000E-002  0.81250000000000000        0.0000000000000000     
  0.12500000000000000       0.81250000000000000        0.0000000000000000     
   0.0000000000000000       0.84375000000000000        0.0000000000000000     
   3.1250000000000000E-002  0.84375000000000000        0.0000000000000000     
   6.2500000000000000E-002  0.84375000000000000        0.0000000000000000     
   9.3750000000000000E-002  0.84375000000000000        0.0000000000000000     
  0.12500000000000000       0.84375000000000000        0.0000000000000000     
   0.0000000000000000       0.87500000000000000        0.0000000000000000     
   3.1250000000000000E-002  0.87500000000000000        0.0000000000000000     
   6.2500000000000000E-002  0.87500000000000000        0.0000000000000000     
   9.3750000000000000E-002  0.87500000000000000        0.0000000000000000     
  0.12500000000000000       0.87500000000000000        0.0000000000000000     
  0.12500000000000000       0.75000000000000000        0.0000000000000000     
  0.15625000000000000       0.75000000000000000        0.0000000000000000     
  0.18750000000000000       0.75000000000000000        0.0000000000000000     
  0.21875000000000000       0.75000000000000000        0.0000000000000000     
  0.25000000000000000       0.75000000000000000        0.0000000000000000     
  0.12500000000000000       0.78125000000000000        0.0000000000000000     
  0.15625000000000000       0.78125000000000000        0.0000000000000000     
  0.18750000000000000       0.78125000000000000        0.0000000000000000     
  0.21875000000000000       0.78125000000000000        0.0000000000000000     
  0.25000000000000000       0.78125000000000000        0.0000000000000000     
  0.12500000000000000       0.81250000000000000        0.0000000000000000     
  0.15625000000000000       0.81250000000000000        0.0000000000000000     
  0.18750000000000000       0.81250000000000000        0.0000000000000000     
  0.21875000000000000       0.81250000000000000        0.0000000000000000     
  0.25000000000000000       0.81250000000000000        0.0000000000000000     
  0.12500000000000000       0.84375000000000000        0.0000000000000000     
  0.15625000000000000       0.84375000000000000        0.0000000000000000     
  0.18750000000000000       0.84375000000000000        0.0000000000000000     
  0.21875000000000000       0.84375000000000000        0.0000000000000000     
  0.25000000000000000       0.84375000000000000        0.0000000000000000     
  0.12500000000000000       0.87500000000000000        0.0000000000000000     
  0.15625000000000000       0.87500000000000000        0.0000000000000000     
  0.18750000000000000       0.87500000000000000        0.0000000000000000     
  0.21875000000000000       0.87500000000000000        0.0000000000000000     
  0.25000000000000000       0.87500000000000000        0.0000000000000000     
  0.25000000000000000       0.75000000000000000        0.0000000000000000     
  0.28125000000000000       0.75000000000000000        0.0000000000000000     
  0.31250000000000000       0.75000000000000000        0.0000000000000000     
  0.34375000000000000       0.75000000000000000        0.0000000000000000     
  0.37500000000000000       0.75000000000000000        0.0000000000000000     
  0.25000000000000000       0.78125000000000000        0.0000000000000000     
  0.28125000000000000       0.78125000000000000        0.0000000000000000     
  0.31250000000000000       0.78125000000000000        0.0000000000000000     
  0.34375000000000000       0.78125000000000000        0.0000000000000000     
  0.37500000000000000       0.78125000000000000        0.0000000000000000     
  0.25000000000000000       0.81250000000000000        0.0000000000000000     
  0.28125000000000000       0.81250000000000000        0.0000000000000000     
  0.31250000000000000       0.81250000000000000        0.0000000000000000     
  0.34375000000000000       0.81250000000000000        0.0000000000000000     
  0.37500000000000000       0.81250000000000000        0.0000000000000000     
  0.25000000000000000       0.84375000000000000        0.0000000000000000     
  0.28125000000000000       0.84375000000000000        0.0000000000000000     
  0.31250000000000000       0.84375000000000000        0.0000000000000000     
  0.34375000000000000       0.84375000000000000        0.0000000000000000     
  0.37500000000000000       0.84375000000000000        0.0000000000000000     
  0.25000000000000000       0.87500000000000000        0.0000000000000000     
  0.28125000000000000       0.87500000000000000        0.0000000000000000     
  0.31250000000000000       0.87500000000000000        0.0000000000000000     
  0.34375000000000000       0.87500000000000000        0.0000000000000000     
  0.37500000000000000       0.87500000000000000        0.0000000000000000     
  0.37500000000000000       0.75000000000000000        0.0000000000000000     
  0.40625000000000000       0.75000000000000000        0.0000000000000000     
  0.43750000000000000       0.75000000000000000        0.0000000000000000     
  0.46875000000000000       0.75000000000000000        0.0000000000000000     
  0.50000000000000000       0.75000000000000000        0.0000000000000000     
  0.37500000000000000       0.78125000000000000        0.0000000000000000     
  0.40625000000000000       0.78125000000000000        0.0000000000000000     
  0.43750000000000000       0.78125000000000000        0.0000000000000000     
  0.46875000000000000       0.78125000000000000        0.0000000000000000     
  0.50000000000000000       0.78125000000000000        0.0000000000000000     
  0.37500000000000000       0.81250000000000000        0.0000000000000000     
  0.40625000000000000       0.81250000000000000        0.0000000000000000     
  0.43750000000000000       0.81250000000000000        0.0000000000000000     
  0.46875000000000000       0.81250000000000000        0.0000000000000000     
  0.50000000000000000       0.81250000000000000        0.0000000000000000     
  0.37500000000000000       0.84375000000000000        0.0000000000000000     
  0.40625000000000000       0.84375000000000000        0.0000000000000000     
  0.43750000000000000       0.84375000000000000        0.0000000000000000     
  0.46875000000000000       0.84375000000000000        0.0000000000000000     
  0.50000000000000000       0.84375000000000000        0.0000000000000000     
  0.37500000000000000       0.87500000000000000        0.0000000000000000     
  0.40625000000000000       0.87500000000000000        0.0000000000000000     
  0.43750000000000000       0.87500000000000000        0.0000000000000000     
  0.46875000000000000       0.87500000000000000        0.0000000000000000     
  0.50000000000000000       0.87500000000000000        0.0000000000000000     
  0.50000000000000000       0.75000000000000000        0.0000000000000000     
  0.53125000000000000       0.75000000000000000        0.0000000000000000     
  0.56250000000000000       0.75000000000000000        0.0000000000000000     
  0.59375000000000000       0.75000000000000000        0.0000000000000000     
  0.62500000000000000       0.75000000000000000        0.0000000000000000     
  0.50000000000000000       0.78125000000000000        0.0000000000000000     
  0.53125000000000000       0.78125000000000000        0.0000000000000000     
  0.56250000000000000       0.78125000000000000        0.0000000000000000     
  0.59375000000000000       0.78125000000000000        0.0000000000000000     
  0.62500000000000000       0.78125000000000000        0.0000000000000000     
  0.50000000000000000       0.81250000000000000        0.0000000000000000     
  0.53125000000000000       0.81250000000000000        0.0000000000000000     
  0.56250000000000000       0.81250000000000000        0.0000000000000000     
  0.59375000000000000       0.81250000000000000        0.0000000000000000     
  0.62500000000000000       0.81250000000000000        0.0000000000000000     
  0.50000000000000000       0.84375000000000000        0.0000000000000000     
  0.53125000000000000       0.84375000000000000        0.0000000000000000     
  0.56250000000000000       0.84375000000000000        0.0000000000000000     
  0.59375000000000000       0.84375000000000000        0.0000000000000000     
  0.62500000000000000       0.84375000000000000        0.0000000000000000     
  0.50000000000000000       0.87500000000000000        0.0000000000000000     
  0.53125000000000000       0.87500000000000000        0.0000000000000000     
  0.56250000000000000       0.87500000000000000        0.0000000000000000     
  0.59375000000000000       0.87500000000000000        0.0000000000000000     
  0.62500000000000000       0.87500000000000000        0.0000000000000000     
  0.62500000000000000       0.75000000000000000        0.0000000000000000     
  0.65625000000000000       0.75000000000000000        0.0000000000000000     
  0.68750000000000000       0.75000000000000000        0.0000000000000000     
  0.71875000000000000       0.75000000000000000        0.0000000000000000     
  0.75000000000000000       0.75000000000000000        0.0000000000000000     
  0.62500000000000000       0.78125000000000000        0.0000000000000000     
  0.65625000000000000       0.78125000000000000        0.0000000000000000     
  0.68750000000000000       0.78125000000000000        0.0000000000000000     
  0.71875000000000000       0.78125000000000000        0.0000000000000000     
  0.75000000000000000       0.78125000000000000        0.0000000000000000     
  0.62500000000000000       0.81250000000000000        0.0000000000000000     
  0.65625000000000000       0.81250000000000000        0.0000000000000000     
  0.68750000000000000       0.81250000000000000        0.0000000000000000     
  0.71875000000000000       0.81250000000000000        0.0000000000000000     
  0.75000000000000000       0.81250000000000000        0.0000000000000000     
  0.62500000000000000       0.84375000000000000        0.0000000000000000     
  0.65625000000000000       0.84375000000000000        0.0000000000000000     
  0.68750000000000000       0.84375000000000000        0.0000000000000000     
  0.71875000000000000       0.84375000000000000        0.0000000000000000     
  0.75000000000000000       0.84375000000000000        0.0000000000000000     
  0.62500000000000000       0.87500000000000000        0.0000000000000000     
  0.65625000000000000       0.87500000000000000        0.0000000000000000     
  0.68750000000000000       0.87500000000000000        0.0000000000000000     
  0.71875000000000000       0.87500000000000000        0.0000000000000000     
  0.75000000000000000       0.87500000000000000        0.0000000000000000     
  0.75000000000000000       0.75000000000000000        0.0000000000000000     
  0.78125000000000000       0.75000000000000000        0.0000000000000000     
  0.81250000000000000       0.75000000000000000        0.0000000000000000     
  0.84375000000000000       0.75000000000000000        0.0000000000000000     
  0.87500000000000000       0.75000000000000000        0.0000000000000000     
  0.75000000000000000       0.78125000000000000        0.0000000000000000     
  0.78125000000000000       0.78125000000000000        0.0000000000000000     
  0.81250000000000000       0.78125000000000000        0.0000000000000000     
  0.84375000000000000       0.78125000000000000        0.0000000000000000     
  0.87500000000000000       0.78125000000000000        0.0000000000000000     
  0.75000000000000000       0.81250000000000000        0.0000000000000000     
  0.78125000000000000       0.81250000000000000        0.0000000000000000     
  0.81250000000000000       0.81250000000000000        0.0000000000000000     
  0.84375000000000000       0.81250000000000000        0.0000000000000000     
  0.87500000000000000       0.81250000000000000        0.0000000000000000     
  0.75000000000000000       0.84375000000000000        0.0000000000000000     
  0.78125000000000000       0.84375000000000000        0.0000000000000000     
  0.81250000000000000       0.84375000000000000        0.0000000000000000     
  0.84375000000000000       0.84375000000000000        0.0000000000000000     
  0.87500000000000000       0.84375000000000000        0.0000000000000000     
  0.75000000000000000       0.87500000000000000        0.0000000000000000     
  0.78125000000000000       0.87500000000000000        0.0000000000000000     
  0.81250000000000000       0.87500000000000000        0.0000000000000000     
  0.84375000000000000       0.87500000000000000        0.0000000000000000     
  0.87500000000000000       0.87500000000000000        0.0000000000000000     
  0.87500000000000000       0.75000000000000000        0.0000000000000000     
  0.90625000000000000       0.75000000000000000        0.0000000000000000     
  0.93750000000000000       0.75000000000000000        0.0000000000000000     
  0.96875000000000000       0.75000000000000000        0.0000000000000000     
   1.0000000000000000       0.75000000000000000        0.0000000000000000     
  0.87500000000000000       0.78125000000000000        0.0000000000000000     
  0.90625000000000000       0.78125000000000000        0.0000000000000000     
  0.93750000000000000       0.78125000000000000        0.0000000000000000     
  0.96875000000000000       0.78125000000000000        0.0000000000000000     
   1.0000000000000000       0.78125000000000000        0.0000000000000000     
  0.87500000000000000       0.81250000000000000        0.0000000000000000     
  0.90625000000000000       0.81250000000000000        0.0000000000000000     
  0.93750000000000000       0.81250000000000000        0.0000000000000000     
  0.96875000000000000       0.81250000000000000        0.0000000000000000     
   1.0000000000000000       0.81250000000000000        0.0000000000000000     
  0.87500000000000000       0.84375000000000000        0.0000000000000000     
  0.90625000000000000       0.84375000000000000        0.0000000000000000     
  0.93750000000000000       0.84375000000000000        0.0000000000000000     
  0.96875000000000000       0.84375000000000000        0.0000000000000000     
   1.0000000000000000       0.84375000000000000        0.0000000000000000     
  0.87500000000000000       0.87500000000000000        0.0000000000000000     
  0.90625000000000000       0.87500000000000000        0.0000000000000000     
  0.93750000000000000       0.87500000000000000        0.0000000000000000     
  0.96875000000000000       0.87500000000000000        0.0000000000000000     
   1.0000000000000000       0.87500000000000000        0.0000000000000000     
   0.0000000000000000       0.87500000000000000        0.0000000000000000     
   3.1250000000000000E-002  0.87500000000000000        0.0000000000000000     
   6.2500000000000000E-002  0.87500000000000000        0.0000000000000000     
   9.3750000000000000E-002  0.87500000000000000        0.0000000000000000     
  0.12500000000000000       0.87500000000000000        0.0000000000000000     
   0.0000000000000000       0.90625000000000000        0.0000000000000000     
   3.1250000000000000E-002  0.90625000000000000        0.0000000000000000     
   6.2500000000000000E-002  0.90625000000000000        0.0000000000000000     
   9.3750000000000000E-002  0.90625000000000000        0.0000000000000000     
  0.12500000000000000       0.90625000000000000        0.0000000000000000     
   0.0000000000000000       0.93750000000000000        0.0000000000000000     
   3.1250000000000000E-002  0.93750000000000000        0.0000000000000000     
   6.2500000000000000E-002  0.93750000000000000        0.0000000000000000     
   9.3750000000000000E-002  0.93750000000000000        0.0000000000000000     
  0.12500000000000000       0.93750000000000000        0.0000000000000000     
   0.0000000000000000       0.96875000000000000        0.0000000000000000     
   3.1250000000000000E-002  0.96875000000000000        0.0000000000000000     
   6.2500000000000000E-002  0.96875000000000000        0.0000000000000000     
   9.3750000000000000E-002  0.96875000000000000        0.0000000000000000     
  0.12500000000000000       0.96875000000000000        0.0000000000000000     
   0.0000000000000000        1.0000000000000000        0.0000000000000000     
   3.1250000000000000E-002   1.0000000000000000        0.0000000000000000     
   6.2500000000000000E-002   1.0000000000000000        0.0000000000000000     
   9.3750000000000000E-002   1.0000000000000000        0.0000000000000000     
  0.12500000000000000        1.0000000000000000        0.0000000000000000     
  0.12500000000000000       0.87500000000000000        0.0000000000000000     
  0.15625000000000000       0.87500000000000000        0.0000000000000000     
  0.18750000000000000       0.87500000000000000        0.0000000000000000     
  0.21875000000000000       0.87500000000000000        0.0000000000000000     
  0.25000000000000000       0.87500000000000000        0.0000000000000000     
  0.12500000000000000       0.90625000000000000        0.0000000000000000     
  0.15625000000000000       0.90625000000000000        0.0000000000000000     
  0.18750000000000000       0.90625000000000000        0.0000000000000000     
  0.21875000000000000       0.90625000000000000        0.0000000000000000     
  0.25000000000000000       0.90625000000000000        0.0000000000000000     
  0.12500000000000000       0.93750000000000000        0.0000000000000000     
  0.15625000000000000       0.93750000000000000        0.0000000000000000     
  0.18750000000000000       0.93750000000000000        0.0000000000000000     
  0.21875000000000000       0.93750000000000000        0.0000000000000000     
  0.25000000000000000       0.93750000000000000        0.0000000000000000     
  0.12500000000000000       0.96875000000000000        0.0000000000000000     
  0.15625000000000000       0.96875000000000000        0.0000000000000000     
  0.18750000000000000       0.96875000000000000        0.0000000000000000     
  0.21875000000000000       0.96875000000000000        0.0000000000000000     
  0.25000000000000000       0.96875000000000000        0.0000000000000000     
  0.12500000000000000        1.0000000000000000        0.0000000000000000     
  0.15625000000000000        1.0000000000000000        0.0000000000000000     
  0.18750000000000000        1.0000000000000000        0.0000000000000000     
  0.21875000000000000        1.0000000000000000        0.0000000000000000     
  0.25000000000000000        1.0000000000000000        0.0000000000000000     
  0.25000000000000000       0.87500000000000000        0.0000000000000000     
  0.28125000000000000       0.87500000000000000        0.0000000000000000     
  0.31250000000000000       0.87500000000000000        0.0000000000000000     
  0.34375000000000000       0.87500000000000000        0.0000000000000000     
  0.37500000000000000       0.87500000000000000        0.0000000000000000     
  0.25000000000000000       0.90625000000000000        0.0000000000000000     
  0.28125000000000000       0.90625000000000000        0.0000000000000000     
  0.31250000000000000       0.90625000000000000        0.0000000000000000     
  0.34375000000000000       0.90625000000000000        0.0000000000000000     
  0.37500000000000000       0.90625000000000000        0.0000000000000000     
  0.25000000000000000       0.93750000000000000        0.0000000000000000     
  0.28125000000000000       0.93750000000000000        0.0000000000000000     
  0.31250000000000000       0.93750000000000000        0.0000000000000000     
  0.34375000000000000       0.93750000000000000        0.0000000000000000     
  0.37500000000000000       0.93750000000000000        0.0000000000000000     
  0.25000000000000000       0.96875000000000000        0.0000000000000000     
  0.28125000000000000       0.96875000000000000        0.0000000000000000     
  0.31250000000000000       0.96875000000000000        0.0000000000000000     
  0.34375000000000000       0.96875000000000000        0.0000000000000000     
  0.37500000000000000       0.96875000000000000        0.0000000000000000     
  0.25000000000000000        1.0000000000000000        0.0000000000000000     
  0.28125000000000000        1.0000000000000000        0.0000000000000000     
  0.31250000000000000        1.0000000000000000        0.0000000000000000     
  0.34375000000000000        1.0000000000000000        0.0000000000000000     
  0.37500000000000000        1.0000000000000000        0.0000000000000000     
  0.37500000000000000       0.87500000000000000        0.0000000000000000     
  0.40625000000000000       0.87500000000000000        0.0000000000000000     
  0.43750000000000000       0.87500000000000000        0.0000000000000000     
  0.46875000000000000       0.87500000000000000        0.0000000000000000     
  0.50000000000000000       0.87500000000000000        0.0000000000000000     
  0.37500000000000000       0.90625000000000000        0.0000000000000000     
  0.40625000000000000       0.90625000000000000        0.0000000000000000     
  0.43750000000000000       0.90625000000000000        0.0000000000000000     
  0.46875000000000000       0.90625000000000000        0.0000000000000000     
  0.50000000000000000       0.90625000000000000        0.0000000000000000     
  0.37500000000000000       0.93750000000000000        0.0000000000000000     
  0.40625000000000000       0.93750000000000000        0.0000000000000000     
  0.43750000000000000       0.93750000000000000        0.0000000000000000     
  0.46875000000000000       0.93750000000000000        0.0000000000000000     
  0.50000000000000000       0.93750000000000000        0.0000000000000000     
  0.37500000000000000       0.96875000000000000        0.0000000000000000     
  0.40625000000000000       0.96875000000000000        0.0000000000000000     
  0.43750000000000000       0.96875000000000000        0.0000000000000000     
  0.46875000000000000       0.96875000000000000        0.0000000000000000     
  0.50000000000000000       0.96875000000000000        0.0000000000000000     
  0.37500000000000000        1.0000000000000000        0.0000000000000000     
  0.40625000000000000        1.0000000000000000        0.0000000000000000     
  0.43750000000000000        1.0000000000000000        0.0000000000000000     
  0.46875000000000000        1.0000000000000000        0.0000000000000000     
  0.50000000000000000        1.0000000000000000        0.0000000000000000     
  0.50000000000000000       0.87500000000000000        0.0000000000000000     
  0.53125000000000000       0.87500000000000000        0.0000000000000000     
  0.56250000000000000       0.87500000000000000        0.0000000000000000     
  0.59375000000000000       0.87500000000000000        0.0000000000000000     
  0.62500000000000000       0.87500000000000000        0.0000000000000000     
  0.50000000000000000       0.90625000000000000        0.0000000000000000     
  0.53125000000000000       0.90625000000000000        0.0000000000000000     
  0.56250000000000000       0.90625000000000000        0.0000000000000000     
  0.59375000000000000       0.90625000000000000        0.0000000000000000     
  0.62500000000000000       0.90625000000000000        0.0000000000000000     
  0.50000000000000000       0.93750000000000000        0.0000000000000000     
  0.53125000000000000       0.93750000000000000        0.0000000000000000     
  0.56250000000000000       0.93750000000000000        0.0000000000000000     
  0.59375000000000000       0.93750000000000000        0.0000000000000000     
  0.62500000000000000       0.93750000000000000        0.0000000000000000     
  0.50000000000000000       0.96875000000000000        0.0000000000000000     
  0.53125000000000000       0.96875000000000000        0.0000000000000000     
  0.56250000000000000       0.96875000000000000        0.0000000000000000     
  0.59375000000000000       0.96875000000000000        0.0000000000000000     
  0.62500000000000000       0.96875000000000000        0.0000000000000000     
  0.50000000000000000        1.0000000000000000        0.0000000000000000     
  0.53125000000000000        1.0000000000000000        0.0000000000000000     
  0.56250000000000000        1.0000000000000000        0.0000000000000000     
  0.59375000000000000        1.0000000000000000        0.0000000000000000     
  0.62500000000000000        1.0000000000000000        0.0000000000000000     
  0.62500000000000000       0.87500000000000000        0.0000000000000000     
  0.65625000000000000       0.87500000000000000        0.0000000000000000     
  0.68750000000000000       0.87500000000000000        0.0000000000000000     
  0.71875000000000000       0.87500000000000000        0.0000000000000000     
  0.75000000000000000       0.87500000000000000        0.0000000000000000     
  0.62500000000000000       0.90625000000000000        0.0000000000000000     
  0.65625000000000000       0.90625000000000000        0.0000000000000000     
  0.68750000000000000       0.90625000000000000        0.0000000000000000     
  0.71875000000000000       0.90625000000000000        0.0000000000000000     
  0.75000000000000000       0.90625000000000000        0.0000000000000000     
  0.62500000000000000       0.93750000000000000        0.0000000000000000     
  0.65625000000000000       0.93750000000000000        0.0000000000000000     
  0.68750000000000000       0.93750000000000000        0.0000000000000000     
  0.71875000000000000       0.93750000000000000        0.0000000000000000     
  0.75000000000000000       0.93750000000000000        0.0000000000000000     
  0.62500000000000000       0.96875000000000000        0.0000000000000000     
  0.65625000000000000       0.96875000000000000        0.0000000000000000     
  0.68750000000000000       0.96875000000000000        0.0000000000000000     
  0.71875000000000000       0.96875000000000000        0.0000000000000000     
  0.75000000000000000       0.96875000000000000        0.0000000000000000     
  0.62500000000000000        1.0000000000000000        0.0000000000000000     
  0.65625000000000000        1.0000000000000000        0.0000000000000000     
  0.68750000000000000        1.0000000000000000        0.0000000000000000     
  0.71875000000000000        1.0000000000000000        0.0000000000000000     
  0.75000000000000000        1.0000000000000000        0.0000000000000000     
  0.75000000000000000       0.87500000000000000        0.0000000000000000     
  0.78125000000000000       0.87500000000000000        0.0000000000000000     
  0.81250000000000000       0.87500000000000000        0.0000000000000000     
  0.84375000000000000       0.87500000000000000        0.0000000000000000     
  0.87500000000000000       0.87500000000000000        0.0000000000000000     
  0.75000000000000000       0.90625000000000000        0.0000000000000000     
  0.78125000000000000       0.90625000000000000        0.0000000000000000     
  0.81250000000000000       0.90625000000000000        0.0000000000000000     
  0.84375000000000000       0.90625000000000000        0.0000000000000000     
  0.87500000000000000       0.90625000000000000        0.0000000000000000     
  0.75000000000000000       0.93750000000000000        0.0000000000000000     
  0.78125000000000000       0.93750000000000000        0.0000000000000000     
  0.81250000000000000       0.93750000000000000        0.0000000000000000     
  0.84375000000000000       0.93750000000000000        0.0000000000000000     
  0.87500000000000000       0.93750000000000000        0.0000000000000000     
  0.75000000000000000       0.96875000000000000        0.0000000000000000     
  0.78125000000000000       0.96875000000000000        0.0000000000000000     
  0.81250000000000000       0.96875000000000000        0.0000000000000000     
  0.84375000000000000       0.96875000000000000        0.0000000000000000     
  0.87500000000000000       0.96875000000000000        0.0000000000000000     
  0.75000000000000000        1.0000000000000000        0.0000000000000000     
  0.78125000000000000        1.0000000000000000        0.0000000000000000     
  0.81250000000000000        1.0000000000000000        0.0000000000000000     
  0.84375000000000000        1.0000000000000000        0.0000000000000000     
  0.87500000000000000        1.0000000000000000        0.0000000000000000     
  0.87500000000000000       0.87500000000000000        0.0000000000000000     
  0.90625000000000000       0.87500000000000000        0.0000000000000000     
  0.93750000000000000       0.87500000000000000        0.0000000000000000     
  0.96875000000000000       0.87500000000000000        0.0000000000000000     
   1.0000000000000000       0.87500000000000000        0.0000000000000000     
  0.87500000000000000       0.90625000000000000        0.0000000000000000     
  0.90625000000000000       0.90625000000000000        0.0000000000000000     
  0.93750000000000000       0.90625000000000000        0.0000000000000000     
  0.96875000000000000       0.90625000000000000        0.0000000000000000     
   1.0000000000000000       0.90625000000000000        0.0000000000000000     
  0.87500000000000000       0.93750000000000000        0.0000000000000000     
  0.90625000000000000       0.93750000000000000        0.0000000000000000     
  0.93750000000000000       0.93750000000000000        0.0000000000000000     
  0.96875000000000000       0.93750000000000000        0.0000000000000000     
   1.0000000000000000       0.93750000000000000        0.0000000000000000     
  0.87500000000000000       0.96875000000000000        0.0000000000000000     
  0.90625000000000000       0.96875000000000000        0.0000000000000000     
  0.93750000000000000       0.96875000000000000        0.0000000000000000     
  0.96875000000000000       0.96875000000000000        0.0000000000000000     
   1.0000000000000000       0.96875000000000000        0.0000000000000000     
  0.87500000000000000        1.0000000000000000        0.0000000000000000     
  0.90625000000000000        1.0000000000000000        0.0000000000000000     
  0.93750000000000000        1.0000000000000000        0.0000000000000000     
  0.96875000000000000        1.0000000000000000        0.0000000000000000     
   1.0000000000000000        1.0000000000000000        0.0000000000000000     
 </DataArray>
 </Points>
 <Cells>
 <DataArray  type="Int32"  Name="connectivity"  format="ascii">
           0           1           6           5
           1           2           7           6
           2           3           8           7
           3           4           9           8
           5           6          11          10
           6           7          12          11
           7           8          13          12
           8           9          14          13
          10          11          16          15
          11          12          17          16
          12          13          18          17
          13          14          19          18
          15          16          21          20
          16          17          22          21
          17          18          23          22
          18          19          24          23
          25          26          31          30
          26          27          32          31
          27          28          33          32
          28          29          34          33
          30          31          36          35
          31          32          37          36
          32          33          38          37
          33          34          39          38
          35          36          41          40
          36          37          42          41
          37          38          43          42
          38          39          44          43
          40          41          46          45
          41          42          47          46
          42          43          48          47
          43          44          49          48
          50          51          56          55
          51          52          57          56
          52          53          58          57
          53          54          59          58
          55          56          61          60
          56          57          62          61
          57          58          63          62
          58          59          64          63
          60          61          66          65
          61          62          67          66
          62          63          68          67
          63          64          69          68
          65          66          71          70
          66          67          72          71
          67          68          73          72
          68          69          74          73
          75          76          81          80
          76          77          82          81
          77          78          83          82
          78          79          84          83
          80          81          86          85
          81          82          87          86
          82          83          88          87
          83          84          89          88
          85          86          91          90
          86          87          92          91
          87          88          93          92
          88          89          94          93
          90          91          96          95
          91          92          97          96
          92          93          98          97
          93          94          99          98
         100         101         106         105
         101         102         107         106
         102         103         108         107
         103         104         109         108
         105         106         111         110
         106         107         112         111
         107         108         113         112
         108         109         114         113
         110         111         116         115
         111         112         117         116
         112         113         118         117
         113         114         119         118
         115         116         121         120
         116         117         122         121
         117         118         123         122
         118         119         124         123
         125         126         131         130
         126         127         132         131
         127         128         133         132
         128         129         134         133
         130         131         136         135
         131         132         137         136
         132         133         138         137
         133         134         139         138
         135         136         141         140
         136         137         142         141
         137         138         143         142
         138         139         144         143
         140         141         146         145
         141         142         147         146
         142         143         148         147
         143         144         149         148
         150         151         156         155
         151         152         157         156
         152         153         158         157
         153         154         159         158
         155         156         161         160
         156         157         162         161
         157         158         163         162
         158         159         164         163
         160         161         166         165
         161         162         167         166
         162         163         168         167
         163         164         169         168
         165         166         171         170
         166         167         172         171
         167         168         173         172
         168         169         174         173
         175         176         181         180
         176         177         182         181
         177         178         183         182
         178         179         184         183
         180         181         186         185
         181         182         187         186
         182         183         188         187
         183         184         189         188
         185         186         191         190
         186         187         192         191
         187         188         193         192
         188         189         194         193
         190         191         196         195
         191         192         197         196
         192         193         198         197
         193         194         199         198
         200         201         206         205
         201         202         207         206
         202         203         208         207
         203         204         209         208
         205         206         211         210
         206         207         212         211
         207         208         213         212
         208         209         214         213
         210         211         216         215
         211         212         217         216
         212         213         218         217
         213         214         219         218
         215         216         221         220
         216         217         222         221
         217         218         223         222
         218         219         224         223
         225         226         231         230
         226         227         232         231
         227         228         233         232
         228         229         234         233
         230         231         236         235
         231         232         237         236
         232         233         238         237
         233         234         239         238
         235         236         241         240
         236         237         242         241
         237         238         243         242
         238         239         244         243
         240         241         246         245
         241         242         247         246
         242         243         248         247
         243         244         249         248
         250         251         256         255
         251         252         257         256
         252         253         258         257
         253         254         259         258
         255         256         261         260
         256         257         262         261
         257         258         263         262
         258         259         264         263
         260         261         266         265
         261         262         267         266
         262         263         268         267
         263         264         269         268
         265         266         271         270
         266         267         272         271
         267         268         273         272
         268         269         274         273
         275         276         281         280
         276         277         282         281
         277         278         283         282
         278         279         284         283
         280         281         286         285
         281         282         287         286
         282         283         288         287
         283         284         289         288
         285         286         291         290
         286         287         292         291
         287         288         293         292
         288         289         294         293
         290         291         296         295
         291         292         297         296
         292         293         298         297
         293         294         299         298
         300         301         306         305
         301         302         307         306
         302         303         308         307
         303         304         309         308
         305         306         311         310
         306         307         312         311
         307         308         313         312
         308         309         314         313
         310         311         316         315
         311         312         317         316
         312         313         318         317
         313         314         319         318
         315         316         321         320
         316         317         322         321
         317         318         323         322
         318         319         324         323
         325         326         331         330
         326         327         332         331
         327         328         333         332
         328         329         334         333
         330         331         336         335
         331         332         337         336
         332         333         338         337
         333         334         339         338
         335         336         341         340
         336         337         342         341
         337         338         343         342
         338         339         344         343
         340         341         346         345
         341         342         347         346
         342         343         348         347
         343         344         349         348
         350         351         356         355
         351         352         357         356
         352         353         358         357
         353         354         359         358
         355         356         361         360
         356         357         362         361
         357         358         363         362
         358         359         364         363
         360         361         366         365
         361         362         367         366
         362         363         368         367
         363         364         369         368
         365         366         371         370
         366         367         372         371
         367         368         373         372
         368         369         374         373
         375         376         381         380
         376         377         382         381
         377         378         383         382
         378         379         384         383
         380         381         386         385
         381         382         387         386
         382         383         388         387
         383         384         389         388
         385         386         391         390
         386         387         392         391
         387         388         393         392
         388         389         394         393
         390         391         396         395
         391         392         397         396
         392         393         398         397
         393         394         399         398
         400         401         406         405
         401         402         407         406
         402         403         408         407
         403         404         409         408
         405         406         411         410
         406         407         412         411
         407         408         413         412
         408         409         414         413
         410         411         416         415
         411         412         417         416
         412         413         418         417
         413         414         419         418
         415         416         421         420
         416         417         422         421
         417         418         423         422
         418         419         424         423
         425         426         431         430
         426         427         432         431
         427         428         433         432
         428         429         434         433
         430         431         436         435
         431         432         437         436
         432         433         438         437
         433         434         439         438
         435         436         441         440
         436         437         442         441
         437         438         443         442
         438         439         444         443
         440         441         446         445
         441         442         447         446
         442         443         448         447
         443         444         449         448
         450         451         456         455
         451         452         457         456
         452         453         458         457
         453         454         459         458
         455         456         461         460
         456         457         462         461
         457         458         463         462
         458         459         464         463
         460         461         466         465
         461         462         467         466
         462         463         468         467
         463         464         469         468
         465         466         471         470
         466         467         472         471
         467         468         473         472
         468         469         474         473
         475         476         481         480
         476         477         482         481
         477         478         483         482
         478         479         484         483
         480         481         486         485
         481         482         487         486
         482         483         488         487
         483         484         489         488
         485         486         491         490
         486         487         492         491
         487         488         493         492
         488         489         494         493
         490         491         496         495
         491         492         497         496
         492         493         498         497
         493         494         499         498
         500         501         506         505
         501         502         507         506
         502         503         508         507
         503         504         509         508
         505         506         511         510
         506         507         512         511
         507         508         513         512
         508         509         514         513
         510         511         516         515
         511         512         517         516
         512         513         518         517
         513         514         519         518
         515         516         521         520
         516         517         522         521
         517         518         523         522
         518         519         524         523
         525         526         531         530
         526         527         532         531
         527         528         533         532
         528         529         534         533
         530         531         536         535
         531         532         537         536
         532         533         538         537
         533         534         539         538
         535         536         541         540
         536         537         542         541
         537         538         543         542
         538         539         544         543
         540         541         546         545
         541         542         547         546
         542         543         548         547
         543         544         549         548
         550         551         556         555
         551         552         557         556
         552         553         558         557
         553         554         559         558
         555         556         561         560
         556         557         562         561
         557         558         563         562
         558         559         564         563
         560         561         566         565
         561         562         567         566
         562         563         568         567
         563         564         569         568
         565         566         571         570
         566         567         572         571
         567         568         573         572
         568         569         574         573
         575         576         581         580
         576         577         582         581
         577         578         583         582
         578         579         584         583
         580         581         586         585
         581         582         587         586
         582         583         588         587
         583         584         589         588
         585         586         591         590
         586         587         592         591
         587         588         593         592
         588         589         594         593
         590         591         596         595
         591         592         597         596
         592         593         598         597
         593         594         599         598
         600         601         606         605
         601         602         607         606
         602         603         608         607
         603         604         609         608
         605         606         611         610
         606         607         612         611
         607         608         613         612
         608         609         614         613
         610         611         616         615
         611         612         617         616
         612         613         618         617
         613         614         619         618
         615         616         621         620
         616         617         622         621
         617         618         623         622
         618         619         624         623
         625         626         631         630
         626         627         632         631
         627         628         633         632
         628         629         634         633
         630         631         636         635
         631         632         637         636
         632         633         638         637
         633         634         639         638
         635         636         641         640
         636         637         642         641
         637         638         643         642
         638         639         644         643
         640         641         646         645
         641         642         647         646
         642         643         648         647
         643         644         649         648
         650         651         656         655
         651         652         657         656
         652         653         658         657
         653         654         659         658
         655         656         661         660
         656         657         662         661
         657         658         663         662
         658         659         664         663
         660         661         666         665
         661         662         667         666
         662         663         668         667
         663         664         669         668
         665         666         671         670
         666         667         672         671
         667         668         673         672
         668         669         674         673
         675         676         681         680
         676         677         682         681
         677         678         683         682
         678         679         684         683
         680         681         686         685
         681         682         687         686
         682         683         688         687
         683         684         689         688
         685         686         691         690
         686         687         692         691
         687         688         693         692
         688         689         694         693
         690         691         696         695
         691         692         697         696
         692         693         698         697
         693         694         699         698
         700         701         706         705
         701         702         707         706
         702         703         708         707
         703         704         709         708
         705         706         711         710
         706         707         712         711
         707         708         713         712
         708         709         714         713
         710         711         716         715
         711         712         717         716
         712         713         718         717
         713         714         719         718
         715         716         721         720
         716         717         722         721
         717         718         723         722
         718         719         724         723
         725         726         731         730
         726         727         732         731
         727         728         733         732
         728         729         734         733
         730         731         736         735
         731         732         737         736
         732         733         738         737
         733         734         739         738
         735         736         741         740
         736         737         742         741
         737         738         743         742
         738         739         744         743
         740         741         746         745
         741         742         747         746
         742         743         748         747
         743         744         749         748
         750         751         756         755
         751         752         757         756
         752         753         758         757
         753         754         759         758
         755         756         761         760
         756         757         762         761
         757         758         763         762
         758         759         764         763
         760         761         766         765
         761         762         767         766
         762         763         768         767
         763         764         769         768
         765         766         771         770
         766         767         772         771
         767         768         773         772
         768         769         774         773
         775         776         781         780
         776         777         782         781
         777         778         783         782
         778         779         784         783
         780         781         786         785
         781         782         787         786
         782         783         788         787
         783         784         789         788
         785         786         791         790
         786         787         792         791
         787         788         793         792
         788         789         794         793
         790         791         796         795
         791         792         797         796
         792         793         798         797
         793         794         799         798
         800         801         806         805
         801         802         807         806
         802         803         808         807
         803         804         809         808
         805         806         811         810
         806         807         812         811
         807         808         813         812
         808         809         814         813
         810         811         816         815
         811         812         817         816
         812         813         818         817
         813         814         819         818
         815         816         821         820
         816         817         822         821
         817         818         823         822
         818         819         824         823
         825         826         831         830
         826         827         832         831
         827         828         833         832
         828         829         834         833
         830         831         836         835
         831         832         837         836
         832         833         838         837
         833         834         839         838
         835         836         841         840
         836         837         842         841
         837         838         843         842
         838         839         844         843
         840         841         846         845
         841         842         847         846
         842         843         848         847
         843         844         849         848
         850         851         856         855
         851         852         857         856
         852         853         858         857
         853         854         859         858
         855         856         861         860
         856         857         862         861
         857         858         863         862
         858         859         864         863
         860         861         866         865
         861         862         867         866
         862         863         868         867
         863         864         869         868
         865         866         871         870
         866         867         872         871
         867         868         873         872
         868         869         874         873
         875         876         881         880
         876         877         882         881
         877         878         883         882
         878         879         884         883
         880         881         886         885
         881         882         887         886
         882         883         888         887
         883         884         889         888
         885         886         891         890
         886         887         892         891
         887         888         893         892
         888         889         894         893
         890         891         896         895
         891         892         897         896
         892         893         898         897
         893         894         899         898
         900         901         906         905
         901         902         907         906
         902         903         908         907
         903         904         909         908
         905         906         911         910
         906         907         912         911
         907         908         913         912
         908         909         914         913
         910         911         916         915
         911         912         917         916
         912         913         918         917
         913         914         919         918
         915         916         921         920
         916         917         922         921
         917         918         923         922
         918         919         924         923
         925         926         931         930
         926         927         932         931
         927         928         933         932
         928         929         934         933
         930         931         936         935
         931         932         937         936
         932         933         938         937
         933         934         939         938
         935         936         941         940
         936         937         942         941
         937         938         943         942
         938         939         944         943
         940         941         946         945
         941         942         947         946
         942         943         948         947
         943         944         949         948
         950         951         956         955
         951         952         957         956
         952         953         958         957
         953         954         959         958
         955         956         961         960
         956         957         962         961
         957         958         963         962
         958         959         964         963
         960         961         966         965
         961         962         967         966
         962         963         968         967
         963         964         969         968
         965         966         971         970
         966         967         972         971
         967         968         973         972
         968         969         974         973
         975         976         981         980
         976         977         982         981
         977         978         983         982
         978         979         984         983
         980         981         986         985
         981         982         987         986
         982         983         988         987
         983         984         989         988
         985         986         991         990
         986         987         992         991
         987         988         993         992
         988         989         994         993
         990         991         996         995
         991         992         997         996
         992         993         998         997
         993         994         999         998
        1000        1001        1006        1005
        1001        1002        1007        1006
        1002        1003        1008        1007
        1003        1004        1009        1008
        1005        1006        1011        1010
        1006        1007        1012        1011
        1007        1008        1013        1012
        1008        1009        1014        1013
        1010        1011        1016        1015
        1011        1012        1017        1016
        1012        1013        1018        1017
        1013        1014        1019        1018
        1015        1016        1021        1020
        1016        1017        1022        1021
        1017        1018        1023        1022
        1018        1019        1024        1023
        1025        1026        1031        1030
        1026        1027        1032        1031
        1027        1028        1033        1032
        1028        1029        1034        1033
        1030        1031        1036        1035
        1031        1032        1037        1036
        1032        1033        1038        1037
        1033        1034        1039        1038
        1035        1036        1041        1040
        1036        1037        1042        1041
        1037        1038        1043        1042
        1038        1039        1044        1043
        1040        1041        1046        1045
        1041        1042        1047        1046
        1042        1043        1048        1047
        1043        1044        1049        1048
        1050        1051        1056        1055
        1051        1052        1057        1056
        1052        1053        1058        1057
        1053        1054        1059        1058
        1055        1056        1061        1060
        1056        1057        1062        1061
        1057        1058        1063        1062
        1058        1059        1064        1063
        1060        1061        1066        1065
        1061        1062        1067        1066
        1062        1063        1068        1067
        1063        1064        1069        1068
        1065        1066        1071        1070
        1066        1067        1072        1071
        1067        1068        1073        1072
        1068        1069        1074        1073
        1075        1076        1081        1080
        1076        1077        1082        1081
        1077        1078        1083        1082
        1078        1079        1084        1083
        1080        1081        1086        1085
        1081        1082        1087        1086
        1082        1083        1088        1087
        1083        1084        1089        1088
        1085        1086        1091        1090
        1086        1087        1092        1091
        1087        1088        1093        1092
        1088        1089        1094        1093
        1090        1091        1096        1095
        1091        1092        1097        1096
        1092        1093        1098        1097
        1093        1094        1099        1098
        1100        1101        1106        1105
        1101        1102        1107        1106
        1102        1103        1108        1107
        1103        1104        1109        1108
        1105        1106        1111        1110
        1106        1107        1112        1111
        1107        1108        1113        1112
        1108        1109        1114        1113
        1110        1111        1116        1115
        1111        1112        1117        1116
        1112        1113        1118        1117
        1113        1114        1119        1118
        1115        1116        1121        1120
        1116        1117        1122        1121
        1117        1118        1123        1122
        1118        1119        1124        1123
        1125        1126        1131        1130
        1126        1127        1132        1131
        1127        1128        1133        1132
        1128        1129        1134        1133
        1130        1131        1136        1135
        1131        1132        1137        1136
        1132        1133        1138        1137
        1133        1134        1139        1138
        1135        1136        1141        1140
        1136        1137        1142        1141
        1137        1138        1143        1142
        1138        1139        1144        1143
        1140        1141        1146        1145
        1141        1142        1147        1146
        1142        1143        1148        1147
        1143        1144        1149        1148
        1150        1151        1156        1155
        1151        1152        1157        1156
        1152        1153        1158        1157
        1153        1154        1159        1158
        1155        1156        1161        1160
        1156        1157        1162        1161
        1157        1158        1163        1162
        1158        1159        1164        1163
        1160        1161        1166        1165
        1161        1162        1167        1166
        1162        1163        1168        1167
        1163        1164        1169        1168
        1165        1166        1171        1170
        1166        1167        1172        1171
        1167        1168        1173        1172
        1168        1169        1174        1173
        1175        1176        1181        1180
        1176        1177        1182        1181
        1177        1178        1183        1182
        1178        1179        1184        1183
        1180        1181        1186        1185
        1181        1182        1187        1186
        1182        1183        1188        1187
        1183        1184        1189        1188
        1185        1186        1191        1190
        1186        1187        1192        1191
        1187        1188        1193        1192
        1188        1189        1194        1193
        1190        1191        1196        1195
        1191        1192        1197        1196
        1192        1193        1198        1197
        1193        1194        1199        1198
        1200        1201        1206        1205
        1201        1202        1207        1206
        1202        1203        1208        1207
        1203        1204        1209        1208
        1205        1206        1211        1210
        1206        1207        1212        1211
        1207        1208        1213        1212
        1208        1209        1214        1213
        1210        1211        1216        1215
        1211        1212        1217        1216
        1212        1213        1218        1217
        1213        1214        1219        1218
        1215        1216        1221        1220
        1216        1217        1222        1221
        1217        1218        1223        1222
        1218        1219        1224        1223
        1225        1226        1231        1230
        1226        1227        1232        1231
        1227        1228        1233        1232
        1228        1229        1234        1233
        1230        1231        1236        1235
        1231        1232        1237        1236
        1232        1233        1238        1237
        1233        1234        1239        1238
        1235        1236        1241        1240
        1236        1237        1242        1241
        1237        1238        1243        1242
        1238        1239        1244        1243
        1240        1241        1246        1245
        1241        1242        1247        1246
        1242        1243        1248        1247
        1243        1244        1249        1248
        1250        1251        1256        1255
        1251        1252        1257        1256
        1252        1253        1258        1257
        1253        1254        1259        1258
        1255        1256        1261        1260
        1256        1257        1262        1261
        1257        1258        1263        1262
        1258        1259        1264        1263
        1260        1261        1266        1265
        1261        1262        1267        1266
        1262        1263        1268        1267
        1263        1264        1269        1268
        1265        1266        1271        1270
        1266        1267        1272        1271
        1267        1268        1273        1272
        1268        1269        1274        1273
        1275        1276        1281        1280
        1276        1277        1282        1281
        1277        1278        1283        1282
        1278        1279        1284        1283
        1280        1281        1286        1285
        1281        1282        1287        1286
        1282        1283        1288        1287
        1283        1284        1289        1288
        1285        1286        1291        1290
        1286        1287        1292        1291
        1287        1288        1293        1292
        1288        1289        1294        1293
        1290        1291        1296        1295
        1291        1292        1297        1296
        1292        1293        1298        1297
        1293        1294        1299        1298
        1300        1301        1306        1305
        1301        1302        1307        1306
        1302        1303        1308        1307
        1303        1304        1309        1308
        1305        1306        1311        1310
        1306        1307        1312        1311
        1307        1308        1313        1312
        1308        1309        1314        1313
        1310        1311        1316        1315
        1311        1312        1317        1316
        1312        1313        1318        1317
        1313        1314        1319        1318
        1315        1316        1321        1320
        1316        1317        1322        1321
        1317        1318        1323        1322
        1318        1319        1324        1323
        1325        1326        1331        1330
        1326        1327        1332        1331
        1327        1328        1333        1332
        1328        1329        1334        1333
        1330        1331        1336        1335
        1331        1332        1337        1336
        1332        1333        1338        1337
        1333        1334        1339        1338
        1335        1336        1341        1340
        1336        1337        1342        1341
        1337        1338        1343        1342
        1338        1339        1344        1343
        1340        1341        1346        1345
        1341        1342        1347        1346
        1342        1343        1348        1347
        1343        1344        1349        1348
        1350        1351        1356        1355
        1351        1352        1357        1356
        1352        1353        1358        1357
        1353        1354        1359        1358
        1355        1356        1361        1360
        1356        1357        1362        1361
        1357        1358        1363        1362
        1358        1359        1364        1363
        1360        1361        1366        1365
        1361        1362        1367        1366
        1362        1363        1368        1367
        1363        1364        1369        1368
        1365        1366        1371        1370
        1366        1367        1372        1371
        1367        1368        1373        1372
        1368        1369        1374        1373
        1375        1376        1381        1380
        1376        1377        1382        1381
        1377        1378        1383        1382
        1378        1379        1384        1383
        1380        1381        1386        1385
        1381        1382        1387        1386
        1382        1383        1388        1387
        1383        1384        1389        1388
        1385        1386        1391        1390
        1386        1387        1392        1391
        1387        1388        1393        1392
        1388        1389        1394        1393
        1390        1391        1396        1395
        1391        1392        1397        1396
        1392        1393        1398        1397
        1393        1394        1399        1398
        1400        1401        1406        1405
        1401        1402        1407        1406
        1402        1403        1408        1407
        1403        1404        1409        1408
        1405        1406        1411        1410
        1406        1407        1412        1411
        1407        1408        1413        1412
        1408        1409        1414        1413
        1410        1411        1416        1415
        1411        1412        1417        1416
        1412        1413        1418        1417
        1413        1414        1419        1418
        1415        1416        1421        1420
        1416        1417        1422        1421
        1417        1418        1423        1422
        1418        1419        1424        1423
        1425        1426        1431        1430
        1426        1427        1432        1431
        1427        1428        1433        1432
        1428        1429        1434        1433
        1430        1431        1436        1435
        1431        1432        1437        1436
        1432        1433        1438        1437
        1433        1434        1439        1438
        1435        1436        1441        1440
        1436        1437        1442        1441
        1437        1438        1443        1442
        1438        1439        1444        1443
        1440        1441        1446        1445
        1441        1442        1447        1446
        1442        1443        1448        1447
        1443        1444        1449        1448
        1450        1451        1456        1455
        1451        1452        1457        1456
        1452        1453        1458        1457
        1453        1454        1459        1458
        1455        1456        1461        1460
        1456        1457        1462        1461
        1457        1458        1463        1462
        1458        1459        1464        1463
        1460        1461        1466        1465
        1461        1462        1467        1466
        1462        1463        1468        1467
        1463        1464        1469        1468
        1465        1466        1471        1470
        1466        1467        1472        1471
        1467        1468        1473        1472
        1468        1469        1474        1473
        1475        1476        1481        1480
        1476        1477        1482        1481
        1477        1478        1483        1482
        1478        1479        1484        1483
        1480        1481        1486        1485
        1481        1482        1487        1486
        1482        1483        1488        1487
        1483        1484        1489        1488
        1485        1486        1491        1490
        1486        1487        1492        1491
        1487        1488        1493        1492
        1488        1489        1494        1493
        1490        1491        1496        1495
        1491        1492        1497        1496
        1492        1493        1498        1497
        1493        1494        1499        1498
        1500        1501        1506        1505
        1501        1502        1507        1506
        1502        1503        1508        1507
        1503        1504        1509        1508
        1505        1506        1511        1510
        1506        1507        1512        1511
        1507        1508        1513        1512
        1508        1509        1514        1513
        1510        1511        1516        1515
        1511        1512        1517        1516
        1512        1513        1518        1517
        1513        1514        1519        1518
        1515        1516        1521        1520
        1516        1517        1522        1521
        1517        1518        1523        1522
        1518        1519        1524        1523
        1525        1526        1531        1530
        1526        1527        1532        1531
        1527        1528        1533        1532
        1528        1529        1534        1533
        1530        1531        1536        1535
        1531        1532        1537        1536
        1532        1533        1538        1537
        1533        1534        1539        1538
        1535        1536        1541        1540
        1536        1537        1542        1541
        1537        1538        1543        1542
        1538        1539        1544        1543
        1540        1541        1546        1545
        1541        1542        1547        1546
        1542        1543        1548        1547
        1543        1544        1549        1548
        1550        1551        1556        1555
        1551        1552        1557        1556
        1552        1553        1558        1557
        1553        1554        1559        1558
        1555        1556        1561        1560
        1556        1557        1562        1561
        1557        1558        1563        1562
        1558        1559        1564        1563
        1560        1561        1566        1565
        1561        1562        1567        1566
        1562        1563        1568        1567
        1563        1564        1569        1568
        1565        1566        1571        1570
        1566        1567        1572        1571
        1567        1568        1573        1572
        1568        1569        1574        1573
        1575        1576        1581        1580
        1576        1577        1582        1581
        1577        1578        1583        1582
        1578        1579        1584        1583
        1580        1581        1586        1585
        1581        1582        1587        1586
        1582        1583        1588        1587
        1583        1584        1589        1588
        1585        1586        1591        1590
        1586        1587        1592        1591
        1587        1588        1593        1592
        1588        1589        1594        1593
        1590        1591        1596        1595
        1591        1592        1597        1596
        1592        1593        1598        1597
        1593        1594        1599        1598
 </DataArray>
 <DataArray  type="Int32"  Name="offsets"  format="ascii"> 
           4
           8
          12
          16
          20
          24
          28
          32
          36
          40
          44
          48
          52
          56
          60
          64
          68
          72
          76
          80
          84
          88
          92
          96
         100
         104
         108
         112
         116
         120
         124
         128
         132
         136
         140
         144
         148
         152
         156
         160
         164
         168
         172
         176
         180
         184
         188
         192
         196
         200
         204
         208
         212
         216
         220
         224
         228
         232
         236
         240
         244
         248
         252
         256
         260
         264
         268
         272
         276
         280
         284
         288
         292
         296
         300
         304
         308
         312
         316
         320
         324
         328
         332
         336
         340
         344
         348
         352
         356
         360
         364
         368
         372
         376
         380
         384
         388
         392
         396
         400
         404
         408
         412
         416
         420
         424
         428
         432
         436
         440
         444
         448
         452
         456
         460
         464
         468
         472
         476
         480
         484
         488
         492
         496
         500
         504
         508
         512
         516
         520
         524
         528
         532
         536
         540
         544
         548
         552
         556
         560
         564
         568
         572
         576
         580
         584
         588
         592
         596
         600
         604
         608
         612
         616
         620
         624
         628
         632
         636
         640
         644
         648
         652
         656
         660
         664
         668
         672
         676
         680
         684
         688
         692
         696
         700
         704
         708
         712
         716
         720
         724
         728
         732
         736
         740
         744
         748
         752
         756
         760
         764
         768
         772
         776
         780
         784
         788
         792
         796
         800
         804
         808
         812
         816
         820
         824
         828
         832
         836
         840
         844
         848
         852
         856
         860
         864
         868
         872
         876
         880
         884
         888
         892
         896
         900
         904
         908
         912
         916
         920
         924
         928
         932
         936
         940
         944
         948
         952
         956
         960
         964
         968
         972
         976
         980
         984
         988
         992
         996
        1000
        1004
        1008
        1012
        1016
        1020
        1024
        1028
        1032
        1036
        1040
        1044
        1048
        1052
        1056
        1060
        1064
        1068
        1072
        1076
        1080
        1084
        1088
        1092
        1096
        1100
        1104
        1108
        1112
        1116
        1120
        1124
        1128
        1132
        1136
        1140
        1144
        1148
        1152
        1156
        1160
        1164
        1168
        1172
        1176
        1180
        1184
        1188
        1192
        1196
        1200
        1204
        1208
        1212
        1216
        1220
        1224
        1228
        1232
        1236
        1240
        1244
        1248
        1252
        1256
        1260
        1264
        1268
        1272
        1276
        1280
        1284
        1288
        1292
        1296
        1300
        1304
        1308
        1312
        1316
        1320
        1324
        1328
        1332
        1336
        1340
        1344
        1348
        1352
        1356
        1360
        1364
        1368
        1372
        1376
        1380
        1384
        1388
        1392
        1396
        1400
        1404
        1408
        1412
        1416
        1420
        1424
        1428
        1432
        1436
        1440
        1444
        1448
        1452
        1456
        1460
        1464
        1468
        1472
        1476
        1480
        1484
        1488
        1492
        1496
        1500
        1504
        1508
        1512
        1516
        1520
        1524
        1528
        1532
        1536
        1540
        1544
        1548
        1552
        1556
        1560
        1564
        1568
        1572
        1576
        1580
        1584
        1588
        1592
        1596
        1600
        1604
        1608
        1612
        1616
        1620
        1624
        1628
        1632
        1636
        1640
        1644
        1648
        1652
        1656
        1660
        1664
        1668
        1672
        1676
        1680
        1684
        1688
        1692
        1696
        1700
        1704
        1708
        1712
        1716
        1720
        1724
        1728
        1732
        1736
        1740
        1744
        1748
        1752
        1756
        1760
        1764
        1768
        1772
        1776
        1780
        1784
        1788
        1792
        1796
        1800
        1804
        1808
        1812
        1816
        1820
        1824
        1828
        1832
        1836
        1840
        1844
        1848
        1852
        1856
        1860
        1864
        1868
        1872
        1876
        1880
        1884
        1888
        1892
        1896
        1900
        1904
        1908
        1912
        1916
        1920
        1924
        1928
        1932
        1936
        1940
        1944
        1948
        1952
        1956
        1960
        1964
        1968
        1972
        1976
        1980
        1984
        1988
        1992
        1996
        2000
        2004
        2008
        2012
        2016
        2020
        2024
        2028
        2032
        2036
        2040
        2044
        2048
        2052
        2056
        2060
        2064
        2068
        2072
        2076
        2080
        2084
        2088
        2092
        2096
        2100
        2104
        2108
        2112
        2116
        2120
        2124
        2128
        2132
        2136
        2140
        2144
        2148
        2152
        2156
        2160
        2164
        2168
        2172
        2176
        2180
        2184
        2188
        2192
        2196
        2200
        2204
        2208
        2212
        2216
        2220
        2224
        2228
        2232
        2236
        2240
        2244
        2248
        2252
        2256
        2260
        2264
        2268
        2272
        2276
        2280
        2284
        2288
        2292
        2296
        2300
        2304
        2308
        2312
        2316
        2320
        2324
        2328
        2332
        2336
        2340
        2344
        2348
        2352
        2356
        2360
        2364
        2368
        2372
        2376
        2380
        2384
        2388
        2392
        2396
        2400
        2404
        2408
        2412
        2416
        2420
        2424
        2428
        2432
        2436
        2440
        2444
        2448
        2452
        2456
        2460
        2464
        2468
        2472
        2476
        2480
        2484
        2488
        2492
        2496
        2500
        2504
        2508
        2512
        2516
        2520
        2524
        2528
        2532
        2536
        2540
        2544
        2548
        2552
        2556
        2560
        2564
        2568
        2572
        2576
        2580
        2584
        2588
        2592
        2596
        2600
        2604
        2608
        2612
        2616
        2620
        2624
        2628
        2632
        2636
        2640
        2644
        2648
        2652
        2656
        2660
        2664
        2668
        2672
        2676
        2680
        2684
        2688
        2692
        2696
        2700
        2704
        2708
        2712
        2716
        2720
        2724
        2728
        2732
        2736
        2740
        2744
        2748
        2752
        2756
        2760
        2764
        2768
        2772
        2776
        2780
        2784
        2788
        2792
        2796
        2800
        2804
        2808
        2812
        2816
        2820
        2824
        2828
        2832
        2836
        2840
        2844
        2848
        2852
        2856
        2860
        2864
        2868
        2872
        2876
        2880
        2884
        2888
        2892
        2896
        2900
        2904
        2908
        2912
        2916
        2920
        2924
        2928
        2932
        2936
        2940
        2944
        2948
        2952
        2956
        2960
        2964
        2968
        2972
        2976
        2980
        2984
        2988
        2992
        2996
        3000
        3004
        3008
        3012
        3016
        3020
        3024
        3028
        3032
        3036
        3040
        3044
        3048
        3052
        3056
        3060
        3064
        3068
        3072
        3076
        3080
        3084
        3088
        3092
        3096
        3100
        3104
        3108
        3112
        3116
        3120
        3124
        3128
        3132
        3136
        3140
        3144
        3148
        3152
        3156
        3160
        3164
        3168
        3172
        3176
        3180
        3184
        3188
        3192
        3196
        3200
        3204
        3208
        3212
        3216
        3220
        3224
        3228
        3232
        3236
        3240
        3244
        3248
        3252
        3256
        3260
        3264
        3268
        3272
        3276
        3280
        3284
        3288
        3292
        3296
        3300
        3304
        3308
        3312
        3316
        3320
        3324
        3328
        3332
        3336
        3340
        3344
        3348
        3352
        3356
        3360
        3364
        3368
        3372
        3376
        3380
        3384
        3388
        3392
        3396
        3400
        3404
        3408
        3412
        3416
        3420
        3424
        3428
        3432
        3436
        3440
        3444
        3448
        3452
        3456
        3460
        3464
        3468
        3472
        3476
        3480
        3484
        3488
        3492
        3496
        3500
        3504
        3508
        3512
        3516
        3520
        3524
        3528
        3532
        3536
        3540
        3544
        3548
        3552
        3556
        3560
        3564
        3568
        3572
        3576
        3580
        3584
        3588
        3592
        3596
        3600
        3604
        3608
        3612
        3616
        3620
        3624
        3628
        3632
        3636
        3640
        3644
        3648
        3652
        3656
        3660
        3664
        3668
        3672
        3676
        3680
        3684
        3688
        3692
        3696
        3700
        3704
        3708
        3712
        3716
        3720
        3724
        3728
        3732
        3736
        3740
        3744
        3748
        3752
        3756
        3760
        3764
        3768
        3772
        3776
        3780
        3784
        3788
        3792
        3796
        3800
        3804
        3808
        3812
        3816
        3820
        3824
        3828
        3832
        3836
        3840
        3844
        3848
        3852
        3856
        3860
        3864
        3868
        3872
        3876
        3880
        3884
        3888
        3892
        3896
        3900
        3904
        3908
        3912
        3916
        3920
        3924
        3928
        3932
        3936
        3940
        3944
        3948
        3952
        3956
        3960
        3964
        3968
        3972
        3976
        3980
        3984
        3988
        3992
        3996
        4000
        4004
        4008
        4012
        4016
        4020
        4024
        4028
        4032
        4036
        4040
        4044
        4048
        4052
        4056
        4060
        4064
        4068
        4072
        4076
        4080
        4084
        4088
        4092
        4096
 </DataArray>
 <DataArray  type="UInt8"  Name="types"  format="ascii">
 9
 9
 9
 9
 9
 9
 9
 9
 9
 9
 9
 9
 9
 9
 9
 9
 9
 9
 9
 9
 9
 9
 9
 9
 9
 9
 9
 9
 9
 9
 9
 9
 9
 9
 9
 9
 9
 9
 9
 9
 9
 9
 9
 9
 9
 9
 9
 9
 9
 9
 9
 9
 9
 9
 9
 9
 9
 9
 9
 9
 9
 9
 9
 9
 9
 9
 9
 9
 9
 9
 9
 9
 9
 9
 9
 9
 9
 9
 9
 9
 9
 9
 9
 9
 9
 9
 9
 9
 9
 9
 9
 9
 9
 9
 9
 9
 9
 9
 9
 9
 9
 9
 9
 9
 9
 9
 9
 9
 9
 9
 9
 9
 9
 9
 9
 9
 9
 9
 9
 9
 9
 9
 9
 9
 9
 9
 9
 9
 9
 9
 9
 9
 9
 9
 9
 9
 9
 9
 9
 9
 9
 9
 9
 9
 9
 9
 9
 9
 9
 9
 9
 9
 9
 9
 9
 9
 9
 9
 9
 9
 9
 9
 9
 9
 9
 9
 9
 9
 9
 9
 9
 9
 9
 9
 9
 9
 9
 9
 9
 9
 9
 9
 9
 9
 9
 9
 9
 9
 9
 9
 9
 9
 9
 9
 9
 9
 9
 9
 9
 9
 9
 9
 9
 9
 9
 9
 9
 9
 9
 9
 9
 9
 9
 9
 9
 9
 9
 9
 9
 9
 9
 9
 9
 9
 9
 9
 9
 9
 9
 9
 9
 9
 9
 9
 9
 9
 9
 9
 9
 9
 9
 9
 9
 9
 9
 9
 9
 9
 9
 9
 9
 9
 9
 9
 9
 9
 9
 9
 9
 9
 9
 9
 9
 9
 9
 9
 9
 9
 9
 9
 9
 9
 9
 9
 9
 9
 9
 9
 9
 9
 9
 9
 9
 9
 9
 9
 9
 9
 9
 9
 9
 9
 9
 9
 9
 9
 9
 9
 9
 9
 9
 9
 9
 9
 9
 9
 9
 9
 9
 9
 9
 9
 9
 9
 9
 9
 9
 9
 9
 9
 9
 9
 9
 9
 9
 9
 9
 9
 9
 9
 9
 9
 9
 9
 9
 9
 9
 9
 9
 9
 9
 9
 9
 9
 9
 9
 9
 9
 9
 9
 9
 9
 9
 9
 9
 9
 9
 9
 9
 9
 9
 9
 9
 9
 9
 9
 9
 9
 9
 9
 9
 9
 9
 9
 9
 9
 9
 9
 9
 9
 9
 9
 9
 9
 9
 9
 9
 9
 9
 9
 9
 9
 9
 9
 9
 9
 9
 9
 9
 9
 9
 9
 9
 9
 9
 9
 9
 9
 9
 9
 9
 9
 9
 9
 9
 9
 9
 9
 9
 9
 9
 9
 9
 9
 9
 9
 9
 9
 9
 9
 9
 9
 9
 9
 9
 9
 9
 9
 9
 9
 9
 9
 9
 9
 9
 9
 9
 9
 9
 9
 9
 9
 9
 9
 9
 9
 9
 9
 9
 9
 9
 9
 9
 9
 9
 9
 9
 9
 9
 9
 9
 9
 9
 9
 9
 9
 9
 9
 9
 9
 9
 9
 9
 9
 9
 9
 9
 9
 9
 9
 9
 9
 9
 9
 9
 9
 9
 9
 9
 9
 9
 9
 9
 9
 9
 9
 9
 9
 9
 9
 9
 9
 9
 9
 9
 9
 9
 9
 9
 9
 9
 9
 9
 9
 9
 9
 9
 9
 9
 9
 9
 9
 9
 9
 9
 9
 9
 9
 9
 9
 9
 9
 9
 9
 9
 9
 9
 9
 9
 9
 9
 9
 9
 9
 9
 9
 9
 9
 9
 9
 9
 9
 9
 9
 9
 9
 9
 9
 9
 9
 9
 9
 9
 9
 9
 9
 9
 9
 9
 9
 9
 9
 9
 9
 9
 9
 9
 9
 9
 9
 9
 9
 9
 9
 9
 9
 9
 9
 9
 9
 9
 9
 9
 9
 9
 9
 9
 9
 9
 9
 9
 9
 9
 9
 9
 9
 9
 9
 9
 9
 9
 9
 9
 9
 9
 9
 9
 9
 9
 9
 9
 9
 9
 9
 9
 9
 9
 9
 9
 9
 9
 9
 9
 9
 9
 9
 9
 9
 9
 9
 9
 9
 9
 9
 9
 9
 9
 9
 9
 9
 9
 9
 9
 9
 9
 9
 9
 9
 9
 9
 9
 9
 9
 9
 9
 9
 9
 9
 9
 9
 9
 9
 9
 9
 9
 9
 9
 9
 9
 9
 9
 9
 9
 9
 9
 9
 9
 9
 9
 9
 9
 9
 9
 9
 9
 9
 9
 9
 9
 9
 9
 9
 9
 9
 9
 9
 9
 9
 9
 9
 9
 9
 9
 9
 9
 9
 9
 9
 9
 9
 9
 9
 9
 9
 9
 9
 9
 9
 9
 9
 9
 9
 9
 9
 9
 9
 9
 9
 9
 9
 9
 9
 9
 9
 9
 9
 9
 9
 9
 9
 9
 9
 9
 9
 9
 9
 9
 9
 9
 9
 9
 9
 9
 9
 9
 9
 9
 9
 9
 9
 9
 9
 9
 9
 9
 9
 9
 9
 9
 9
 9
 9
 9
 9
 9
 9
 9
 9
 9
 9
 9
 9
 9
 9
 9
 9
 9
 9
 9
 9
 9
 9
 9
 9
 9
 9
 9
 9
 9
 9
 9
 9
 9
 9
 9
 9
 9
 9
 9
 9
 9
 9
 9
 9
 9
 9
 9
 9
 9
 9
 9
 9
 9
 9
 9
 9
 9
 9
 9
 9
 9
 9
 9
 9
 9
 9
 9
 9
 9
 9
 9
 9
 9
 9
 9
 9
 9
 9
 9
 9
 9
 9
 9
 9
 9
 9
 9
 9
 9
 9
 9
 9
 9
 9
 9
 9
 9
 9
 9
 9
 9
 9
 9
 9
 9
 9
 9
 9
 9
 9
 9
 9
 9
 9
 9
 9
 9
 9
 9
 9
 9
 9
 9
 9
 9
 9
 9
 9
 9
 9
 9
 9
 9
 9
 9
 9
 9
 9
 9
 9
 9
 9
 9
 9
 9
 9
 9
 9
 9
 9
 9
 9
 9
 9
 9
 9
 9
 9
 9
 9
 9
 9
 9
 9
 9
 9
 9
 9
 9
 9
 9
 9
 9
 9
 9
 9
 9
 9
 9
 9
 9
 9
 9
 9
 9
 9
 9
 9
 9
 9
 9
 9
 9
 9
 9
 9
 9
 9
 9
 9
 9
 9
 9
 9
 9
 9
 9
 9
 9
 9
 9
 9
 9
 9
 9
 9
 9
 9
 9
 9
 9
 9
 9
 9
 9
 9
 9
 9
 9
 9
 9
 9
 9
 9
 </DataArray>
 </Cells> 
 <PointData>
 <DataArray  type="Float64" Name="disp" NumberOfComponents="3" format="ascii">
   0.0000000000000000        0.0000000000000000        0.0000000000000000     
   6.0957093215960973E-003   3.7904023192161579E-003   0.0000000000000000     
   1.1665646566194319E-002   7.3237881754133630E-003   0.0000000000000000     
   1.6709811733794665E-002   1.0600157568591614E-002   0.0000000000000000     
   2.1228204824397134E-002   1.3619510498750912E-002   0.0000000000000000     
   0.0000000000000000        0.0000000000000000        0.0000000000000000     
   4.8910184223017964E-003   3.0221398545573755E-003   0.0000000000000000     
   9.5734181133721695E-003   6.0605153042559944E-003   0.0000000000000000     
   1.4047199073211118E-002   9.1151263490958576E-003   0.0000000000000000     
   1.8312361301818639E-002   1.2185972989076962E-002   0.0000000000000000     
   0.0000000000000000        0.0000000000000000        0.0000000000000000     
   3.9535159358578204E-003   2.4251269715290483E-003   0.0000000000000000     
   7.9105054847008749E-003   5.0629052001560414E-003   0.0000000000000000     
   1.1870968646529166E-002   7.9133346858809780E-003   0.0000000000000000     
   1.5834905421342693E-002   1.0976415428703862E-002   0.0000000000000000     
   0.0000000000000000        0.0000000000000000        0.0000000000000000     
   3.2832018622641680E-003   1.9993636701311759E-003   0.0000000000000000     
   6.6769086801804394E-003   4.3309578631135024E-003   0.0000000000000000     
   1.0181120453748816E-002   6.9947825789469804E-003   0.0000000000000000     
   1.3795837182969298E-002   9.9908378176316107E-003   0.0000000000000000     
   0.0000000000000000        0.0000000000000000        0.0000000000000000     
   2.8800762015208387E-003   1.7448499503637581E-003   0.0000000000000000     
   5.8726276998108595E-003   3.8646732931283787E-003   0.0000000000000000     
   8.9776544948700632E-003   6.3594700282938619E-003   0.0000000000000000     
   1.2195156586698447E-002   9.2292401558602081E-003   0.0000000000000000     
   2.1228204824397134E-002   1.3619510498750912E-002   0.0000000000000000     
   2.5433419830570514E-002   1.6612456108841194E-002   0.0000000000000000     
   2.9538050744883575E-002   1.9809603541812403E-002   0.0000000000000000     
   3.3542097567336331E-002   2.3210952797664539E-002   0.0000000000000000     
   3.7445560297928768E-002   2.6816503876397599E-002   0.0000000000000000     
   1.8312361301818639E-002   1.2185972989076962E-002   0.0000000000000000     
   2.2407001856888906E-002   1.5341421253466953E-002   0.0000000000000000     
   2.6369217796116083E-002   1.8649837171533470E-002   0.0000000000000000     
   3.0199009119500169E-002   2.2111220743276525E-002   0.0000000000000000     
   3.3896375827041171E-002   2.5725571968696102E-002   0.0000000000000000     
   1.5834905421342693E-002   1.0976415428703862E-002   0.0000000000000000     
   1.9730529794756528E-002   1.4210974009699782E-002   0.0000000000000000     
   2.3486055752385746E-002   1.7575837009943831E-002   0.0000000000000000     
   2.7101483294230341E-002   2.1071004429436012E-002   0.0000000000000000     
   3.0576812420290318E-002   2.4696476268176320E-002   0.0000000000000000     
   1.3795837182969298E-002   9.9908378176316107E-003   0.0000000000000000     
   1.7404003644173379E-002   1.3221114377539679E-002   0.0000000000000000     
   2.0888564613692557E-002   1.6587603057043473E-002   0.0000000000000000     
   2.4249520091526831E-002   2.0090303856143001E-002   0.0000000000000000     
   2.7486870077676206E-002   2.3729216774838250E-002   0.0000000000000000     
   1.2195156586698447E-002   9.2292401558602081E-003   0.0000000000000000     
   1.5427423405139454E-002   1.2371842356986644E-002   0.0000000000000000     
   1.8576744380036522E-002   1.5685135312832405E-002   0.0000000000000000     
   2.1643119511389648E-002   1.9169119023397487E-002   0.0000000000000000     
   2.4626548799198837E-002   2.2823793488681889E-002   0.0000000000000000     
   3.7445560297928768E-002   2.6816503876397599E-002   0.0000000000000000     
   4.1253537016472795E-002   3.0621434133884476E-002   0.0000000000000000     
   4.4971125802780329E-002   3.4620920925998069E-002   0.0000000000000000     
   4.8598326656851348E-002   3.8814964252738379E-002   0.0000000000000000     
   5.2135139578685881E-002   4.3203564114105392E-002   0.0000000000000000     
   3.3896375827041171E-002   2.5725571968696102E-002   0.0000000000000000     
   3.7484842022393973E-002   2.9521525203982307E-002   0.0000000000000000     
   4.0987931809213486E-002   3.3527714805325237E-002   0.0000000000000000     
   4.4405645187499704E-002   3.7744140772724893E-002   0.0000000000000000     
   4.7737982157252598E-002   4.2170803106181272E-002   0.0000000000000000     
   3.0576812420290318E-002   2.4696476268176320E-002   0.0000000000000000     
   3.3941561077499467E-002   2.8496657040539823E-002   0.0000000000000000     
   3.7225247212791586E-002   3.2515951260901607E-002   0.0000000000000000     
   4.0427870826166681E-002   3.6754358929261641E-002   0.0000000000000000     
   4.3549431917624740E-002   4.1211880045619959E-002   0.0000000000000000     
   2.7486870077676206E-002   2.3729216774838250E-002   0.0000000000000000     
   3.0623694181789278E-002   2.7546829643557032E-002   0.0000000000000000     
   3.3683072013514642E-002   3.1585630292727165E-002   0.0000000000000000     
   3.6665003572852316E-002   3.5845618722348642E-002   0.0000000000000000     
   3.9569488859802271E-002   4.0326794932421452E-002   0.0000000000000000     
   2.4626548799198837E-002   2.2823793488681889E-002   0.0000000000000000     
   2.7531241335263398E-002   2.6672043013033928E-002   0.0000000000000000     
   3.0361406211382648E-002   3.0736751900801922E-002   0.0000000000000000     
   3.3117043427556586E-002   3.5017920151985862E-002   0.0000000000000000     
   3.5798152983785220E-002   3.9515547766585758E-002   0.0000000000000000     
   5.2135139578685881E-002   4.3203564114105392E-002   0.0000000000000000     
   5.5577231391035917E-002   4.7791998087052215E-002   0.0000000000000000     
   5.8920268916653487E-002   5.2585543748531929E-002   0.0000000000000000     
   6.2164252155538592E-002   5.7584201098544556E-002   0.0000000000000000     
   6.5309181107691225E-002   6.2787970137090060E-002   0.0000000000000000     
   4.7737982157252598E-002   4.2170803106181272E-002   0.0000000000000000     
   5.0979766441430353E-002   4.6802240959053193E-002   0.0000000000000000     
   5.4125821762991071E-002   5.1632993484699463E-002   0.0000000000000000     
   5.7176148121934750E-002   5.6663060683120089E-002   0.0000000000000000     
   6.0130745518261385E-002   6.1892442554315058E-002   0.0000000000000000     
   4.3549431917624740E-002   4.1211880045619959E-002   0.0000000000000000     
   4.6585045779290131E-002   4.5876972957781516E-002   0.0000000000000000     
   4.9529827703287226E-002   5.0738096013551233E-002   0.0000000000000000     
   5.2383777689616030E-002   5.5795249212929145E-002   0.0000000000000000     
   5.5146895738276545E-002   6.1048432555915237E-002   0.0000000000000000     
   3.9569488859802271E-002   4.0326794932421452E-002   0.0000000000000000     
   4.2393069404615270E-002   4.5016194083237149E-002   0.0000000000000000     
   4.5132286737541993E-002   4.9900851335087246E-002   0.0000000000000000     
   4.7787140858582475E-002   5.4980766687971729E-002   0.0000000000000000     
   5.0357631767736687E-002   6.0255940141890625E-002   0.0000000000000000     
   3.5798152983785220E-002   3.9515547766585758E-002   0.0000000000000000     
   3.8403837317405744E-002   4.4219904335420120E-002   0.0000000000000000     
   4.0933198865755346E-002   4.9121259449307487E-002   0.0000000000000000     
   4.3386237628834042E-002   5.4219613108247848E-002   0.0000000000000000     
   4.5762953606641829E-002   5.9514965312241194E-002   0.0000000000000000     
   6.5309181107691225E-002   6.2787970137090060E-002   0.0000000000000000     
   6.8362196341998666E-002   6.8182457934143736E-002   0.0000000000000000     
   7.1330438427348167E-002   7.3753271559680839E-002   0.0000000000000000     
   7.4213907363739770E-002   7.9500411013701394E-002   0.0000000000000000     
   7.7012603151173420E-002   8.5423876296205362E-002   0.0000000000000000     
   6.0130745518261385E-002   6.1892442554315058E-002   0.0000000000000000     
   6.2997535910133670E-002   6.7310958949661409E-002   0.0000000000000000     
   6.5784441255714268E-002   7.2908429720536169E-002   0.0000000000000000     
   6.8491461555003172E-002   7.8684854866939352E-002   0.0000000000000000     
   7.1118596808000381E-002   8.4640234388870916E-002   0.0000000000000000     
   5.5146895738276545E-002   6.1048432555915237E-002   0.0000000000000000     
   5.7826989645515157E-002   6.6490003989921373E-002   0.0000000000000000     
   6.0431867207578260E-002   7.2112321462359408E-002   0.0000000000000000     
   6.2961528424465868E-002   7.7915384973229321E-002   0.0000000000000000     
   6.5415973296177973E-002   8.3899194522531112E-002   0.0000000000000000     
   5.0357631767736687E-002   6.0255940141890625E-002   0.0000000000000000     
   5.2850557548143107E-002   6.5719593054923656E-002   0.0000000000000000     
   5.5272716282940150E-002   7.1364946785150540E-002   0.0000000000000000     
   5.7624107972127851E-002   7.7192001332571272E-002   0.0000000000000000     
   5.9904732615706190E-002   8.3200756697185907E-002   0.0000000000000000     
   4.5762953606641829E-002   5.9514965312241194E-002   0.0000000000000000     
   4.8068239618017525E-002   6.4999726144668216E-002   0.0000000000000000     
   5.0306988481799951E-002   7.0666305688909567E-002   0.0000000000000000     
   5.2479200197989136E-002   7.6514703944965276E-002   0.0000000000000000     
   5.4584874766585037E-002   8.2544920912835329E-002   0.0000000000000000     
   7.7012603151173420E-002   8.5423876296205362E-002   0.0000000000000000     
   7.9710930469681432E-002   9.1515489026230551E-002   0.0000000000000000     
   8.2293293999296052E-002   9.7767070822814828E-002   0.0000000000000000     
   8.4759693740017281E-002  0.10417862168595812        0.0000000000000000     
   8.7110129691845117E-002  0.11075014161566048        0.0000000000000000     
   7.1118596808000381E-002   8.4640234388870916E-002   0.0000000000000000     
   7.3650901203759306E-002   9.0764249911458553E-002   0.0000000000000000     
   7.6073428931333301E-002   9.7046583059829827E-002   0.0000000000000000     
   7.8386179990722421E-002  0.10348723383398481        0.0000000000000000     
   8.0589154381926625E-002  0.11008620223392344        0.0000000000000000     
   6.5415973296177973E-002   8.3899194522531112E-002   0.0000000000000000     
   6.7781264897975368E-002   9.0051978666772031E-002   0.0000000000000000     
   7.0043466305118832E-002   9.6361965962459314E-002   0.0000000000000000     
   7.2202577517608377E-002  0.10282915640959300        0.0000000000000000     
   7.4258598535444004E-002  0.10945355000817304        0.0000000000000000     
   5.9904732615706190E-002   8.3200756697185907E-002   0.0000000000000000     
   6.2102021552329627E-002   8.9378675292171042E-002   0.0000000000000000     
   6.4203406120652604E-002   9.5713219530703303E-002   0.0000000000000000     
   6.6208886320675134E-002  0.10220438941278273        0.0000000000000000     
   6.8118462152397211E-002  0.10885218493840930        0.0000000000000000     
   5.4584874766585037E-002   8.2544920912835329E-002   0.0000000000000000     
   5.6613171166822074E-002   8.8744339787655530E-002   0.0000000000000000     
   5.8553248377934637E-002   9.5100343764561751E-002   0.0000000000000000     
   6.0405106399922692E-002  0.10161293284355398        0.0000000000000000     
   6.2168745232786260E-002  0.10828210702463220        0.0000000000000000     
   8.7110129691845117E-002  0.11075014161566048        0.0000000000000000     
   8.9371072725754869E-002  0.11746948204309714        0.0000000000000000     
   9.1568993712721855E-002  0.12432449439944332        0.0000000000000000     
   9.3703892652746062E-002  0.13131517868469905        0.0000000000000000     
   9.5775769545827505E-002  0.13844153489886438        0.0000000000000000     
   8.0589154381926625E-002  0.11008620223392344        0.0000000000000000     
   8.2708527544215288E-002  0.11683293383916972        0.0000000000000000     
   8.4770474916857769E-002  0.12371687422924764        0.0000000000000000     
   8.6774996499854040E-002  0.13073802340415719        0.0000000000000000     
   8.8722092293204130E-002  0.13789638136389840        0.0000000000000000     
   7.4258598535444004E-002  0.10945355000817304        0.0000000000000000     
   7.6236634980314966E-002  0.11622517670417971        0.0000000000000000     
   7.8161792473910516E-002  0.12313406644359322        0.0000000000000000     
   8.0034071016230668E-002  0.13018021922641360        0.0000000000000000     
   8.1853470607275408E-002  0.13736363505264082        0.0000000000000000     
   6.8118462152397211E-002  0.10885218493840930        0.0000000000000000     
   6.9955395034053861E-002  0.11564621063812706        0.0000000000000000     
   7.1742946383880096E-002  0.12257607104248003        0.0000000000000000     
   7.3481116201875946E-002  0.12964176615146822        0.0000000000000000     
   7.5169904488041339E-002  0.13684329596509168        0.0000000000000000     
   6.2168745232786260E-002  0.10828210702463220        0.0000000000000000     
   6.3864807705431986E-002  0.11509603564101180        0.0000000000000000     
   6.5513936646766510E-002  0.12204288802590810        0.0000000000000000     
   6.7116132056789832E-002  0.12912266417932114        0.0000000000000000     
   6.8671393935501951E-002  0.13633536410125088        0.0000000000000000     
   9.5775769545827505E-002  0.13844153489886438        0.0000000000000000     
   9.7742934241721757E-002  0.14567520804850081        0.0000000000000000     
   9.9563696590184367E-002  0.15298784314017003        0.0000000000000000     
  0.10123805659121535       0.16037944017387198        0.0000000000000000     
  0.10276601424481469       0.16784999914960666        0.0000000000000000     
   8.8722092293204130E-002  0.13789638136389840        0.0000000000000000     
   9.0568809854113169E-002  0.14517360914104382        0.0000000000000000     
   9.2272196739786372E-002  0.15255136776816619        0.0000000000000000     
   9.3832252950223669E-002  0.16002965724526536        0.0000000000000000     
   9.5248978485425101E-002  0.16760847757234143        0.0000000000000000     
   8.1853470607275408E-002  0.13736363505264082        0.0000000000000000     
   8.3577602916323657E-002  0.14467226185338877        0.0000000000000000     
   8.5164079612654334E-002  0.15209404755977129        0.0000000000000000     
   8.6612900696267453E-002  0.15962899217178833        0.0000000000000000     
   8.7924066167163001E-002  0.16727709568943994        0.0000000000000000     
   7.5169904488041339E-002  0.13684329596509168        0.0000000000000000     
   7.6769313428353192E-002  0.14417116618553558        0.0000000000000000     
   7.8239345208788322E-002  0.15161588251498528        0.0000000000000000     
   7.9579999829346701E-002  0.15917744495344086        0.0000000000000000     
   8.0791277290028357E-002  0.16685585350090218        0.0000000000000000     
   6.8671393935501951E-002  0.13633536410125088        0.0000000000000000     
   7.0143941390201789E-002  0.14367032213748429        0.0000000000000000     
   7.1497993528188281E-002  0.15111687263380832        0.0000000000000000     
   7.2733550349461426E-002  0.15867501559022296        0.0000000000000000     
   7.3850611854021225E-002  0.16634475100672821        0.0000000000000000     
   0.0000000000000000        0.0000000000000000        0.0000000000000000     
   2.8800762015208387E-003   1.7448499503637581E-003   0.0000000000000000     
   5.8726276998108595E-003   3.8646732931283787E-003   0.0000000000000000     
   8.9776544948700632E-003   6.3594700282938619E-003   0.0000000000000000     
   1.2195156586698447E-002   9.2292401558602081E-003   0.0000000000000000     
   0.0000000000000000        0.0000000000000000        0.0000000000000000     
   2.6103172803634109E-003   1.5889320964978921E-003   0.0000000000000000     
   5.2897064545527877E-003   3.5567403947160945E-003   0.0000000000000000     
   8.0381675225681317E-003   5.9034248946546065E-003   0.0000000000000000     
   1.0855700484409441E-002   8.6289855963134297E-003   0.0000000000000000     
   0.0000000000000000        0.0000000000000000        0.0000000000000000     
   2.3401034255274627E-003   1.4589563928046746E-003   0.0000000000000000     
   4.7201888553668782E-003   3.2998480723920756E-003   0.0000000000000000     
   7.1402562895182473E-003   5.5226750387622030E-003   0.0000000000000000     
   9.6003057279815691E-003   8.1274372919150559E-003   0.0000000000000000     
   0.0000000000000000        0.0000000000000000        0.0000000000000000     
   2.0694346370129929E-003   1.3549228392841061E-003   0.0000000000000000     
   4.1640749022531301E-003   3.0939963261563219E-003   0.0000000000000000     
   6.2839207957204090E-003   5.2172204606166480E-003   0.0000000000000000     
   8.4289723174148321E-003   7.7245952426650832E-003   0.0000000000000000     
   0.0000000000000000        0.0000000000000000        0.0000000000000000     
   1.7983109148200027E-003   1.2768314359361856E-003   0.0000000000000000     
   3.6213645952115417E-003   2.9391851560088339E-003   0.0000000000000000     
   5.4691610411746168E-003   4.9870611602179440E-003   0.0000000000000000     
   7.3417002527092282E-003   7.4204594485635161E-003   0.0000000000000000     
   1.2195156586698447E-002   9.2292401558602081E-003   0.0000000000000000     
   1.5427423405139454E-002   1.2371842356986644E-002   0.0000000000000000     
   1.8576744380036522E-002   1.5685135312832405E-002   0.0000000000000000     
   2.1643119511389648E-002   1.9169119023397487E-002   0.0000000000000000     
   2.4626548799198837E-002   2.2823793488681889E-002   0.0000000000000000     
   1.0855700484409441E-002   8.6289855963134297E-003   0.0000000000000000     
   1.3688955403527412E-002   1.1651047856221123E-002   0.0000000000000000     
   1.6484582343372741E-002   1.4887237030906240E-002   0.0000000000000000     
   1.9242581303945423E-002   1.8337553120368791E-002   0.0000000000000000     
   2.1962952285245460E-002   2.2001996124608767E-002   0.0000000000000000     
   9.6003057279815691E-003   8.1274372919150559E-003   0.0000000000000000     
   1.2076765965209905E-002   1.1046620783423552E-002   0.0000000000000000     
   1.4546065795656309E-002   1.4212711464860608E-002   0.0000000000000000     
   1.7008205219320779E-002   1.7625709336226220E-002   0.0000000000000000     
   1.9463184236203319E-002   2.1285614397520400E-002   0.0000000000000000     
   8.4289723174148321E-003   7.7245952426650832E-003   0.0000000000000000     
   1.0590855090186929E-002   1.0558561138593932E-002   0.0000000000000000     
   1.2761194736887225E-002   1.3661558614695500E-002   0.0000000000000000     
   1.4939991257515727E-002   1.7033587670969786E-002   0.0000000000000000     
   1.7127244652072431E-002   2.0674648307416790E-002   0.0000000000000000     
   7.3417002527092282E-003   7.4204594485635161E-003   0.0000000000000000     
   9.2312227784584824E-003   1.0186868921732270E-002   0.0000000000000000     
   1.1129969167065493E-002   1.3233778480410924E-002   0.0000000000000000     
   1.3037939418530254E-002   1.6561188124599474E-002   0.0000000000000000     
   1.4955133532852771E-002   2.0169097854297931E-002   0.0000000000000000     
   2.4626548799198837E-002   2.2823793488681889E-002   0.0000000000000000     
   2.7531241335263398E-002   2.6672043013033928E-002   0.0000000000000000     
   3.0361406211382648E-002   3.0736751900801922E-002   0.0000000000000000     
   3.3117043427556586E-002   3.5017920151985862E-002   0.0000000000000000     
   3.5798152983785220E-002   3.9515547766585758E-002   0.0000000000000000     
   2.1962952285245460E-002   2.2001996124608767E-002   0.0000000000000000     
   2.4629259670281858E-002   2.5878919255519640E-002   0.0000000000000000     
   2.7225067842063615E-002   2.9966675724994864E-002   0.0000000000000000     
   2.9750376800590745E-002   3.4265265533034453E-002   0.0000000000000000     
   3.2205186545863233E-002   3.8774688679638403E-002   0.0000000000000000     
   1.9463184236203319E-002   2.1285614397520400E-002   0.0000000000000000     
   2.1882806319204667E-002   2.5174080477563272E-002   0.0000000000000000     
   2.4238874941225563E-002   2.9272761405174992E-002   0.0000000000000000     
   2.6531390102265996E-002   3.3581657180355544E-002   0.0000000000000000     
   2.8760351802325966E-002   3.8100767803104937E-002   0.0000000000000000     
   1.7127244652072431E-002   2.0674648307416790E-002   0.0000000000000000     
   1.9291881282031843E-002   2.4557526679164846E-002   0.0000000000000000     
   2.1402827508868474E-002   2.8655008941342288E-002   0.0000000000000000     
   2.3460083332582333E-002   3.2967095093949121E-002   0.0000000000000000     
   2.5463648753173421E-002   3.7493785136985341E-002   0.0000000000000000     
   1.4955133532852771E-002   2.0169097854297931E-002   0.0000000000000000     
   1.6856484558763367E-002   2.4029257860324341E-002   0.0000000000000000     
   1.8716925544992373E-002   2.8113418333496766E-002   0.0000000000000000     
   2.0536456491539783E-002   3.2421579273815199E-002   0.0000000000000000     
   2.2315077398405603E-002   3.6953740681279643E-002   0.0000000000000000     
   3.5798152983785220E-002   3.9515547766585758E-002   0.0000000000000000     
   3.8403837317405744E-002   4.4219904335420120E-002   0.0000000000000000     
   4.0933198865755346E-002   4.9121259449307487E-002   0.0000000000000000     
   4.3386237628834042E-002   5.4219613108247848E-002   0.0000000000000000     
   4.5762953606641829E-002   5.9514965312241194E-002   0.0000000000000000     
   3.2205186545863233E-002   3.8774688679638403E-002   0.0000000000000000     
   3.4590775203289931E-002   4.3489390360429057E-002   0.0000000000000000     
   3.6908420898279684E-002   4.8403815771028751E-002   0.0000000000000000     
   3.9158123630832493E-002   5.3517964911437489E-002   0.0000000000000000     
   4.1339883400948359E-002   5.8831837781655273E-002   0.0000000000000000     
   2.8760351802325966E-002   3.8100767803104937E-002   0.0000000000000000     
   3.0927308747896193E-002   4.2825938804362557E-002   0.0000000000000000     
   3.3033809645467392E-002   4.7753015715067806E-002   0.0000000000000000     
   3.5079854495039565E-002   5.2881998535220673E-002   0.0000000000000000     
   3.7065443296612703E-002   5.8212887264821170E-002   0.0000000000000000     
   2.5463648753173421E-002   3.7493785136985341E-002   0.0000000000000000     
   2.7413437951224529E-002   4.2229549667220638E-002   0.0000000000000000     
   2.9309365107318477E-002   4.7168859281424648E-002   0.0000000000000000     
   3.1151430221455247E-002   5.2311713979597406E-002   0.0000000000000000     
   3.2939633293634862E-002   5.7658113761738884E-002   0.0000000000000000     
   2.2315077398405603E-002   3.6953740681279643E-002   0.0000000000000000     
   2.4049162813274939E-002   4.1700222949003274E-002   0.0000000000000000     
   2.5735087283832926E-002   4.6651346470099282E-002   0.0000000000000000     
   2.7372850810079553E-002   5.1807111244567675E-002   0.0000000000000000     
   2.8962453392014822E-002   5.7167517272408430E-002   0.0000000000000000     
   4.5762953606641829E-002   5.9514965312241194E-002   0.0000000000000000     
   4.8068239618017525E-002   6.4999726144668216E-002   0.0000000000000000     
   5.0306988481799951E-002   7.0666305688909567E-002   0.0000000000000000     
   5.2479200197989136E-002   7.6514703944965276E-002   0.0000000000000000     
   5.4584874766585037E-002   8.2544920912835329E-002   0.0000000000000000     
   4.1339883400948359E-002   5.8831837781655273E-002   0.0000000000000000     
   4.3456616119456934E-002   6.4336406558970036E-002   0.0000000000000000     
   4.5511237697187887E-002   7.0022643420669717E-002   0.0000000000000000     
   4.7503748134141210E-002   7.5890548366754296E-002   0.0000000000000000     
   4.9434147430316905E-002   8.1940121397223800E-002   0.0000000000000000     
   3.7065443296612703E-002   5.8212887264821170E-002   0.0000000000000000     
   3.8992267316779891E-002   6.3735637597644071E-002   0.0000000000000000     
   4.0862017822134201E-002   6.9440205227464136E-002   0.0000000000000000     
   4.2674694812675620E-002   7.5326590154281378E-002   0.0000000000000000     
   4.4430298288404169E-002   8.1394792378095798E-002   0.0000000000000000     
   3.2939633293634862E-002   5.7658113761738884E-002   0.0000000000000000     
   3.4675193209986382E-002   6.3197419260690307E-002   0.0000000000000000     
   3.6359328856638867E-002   6.8918991109292851E-002   0.0000000000000000     
   3.7992040233592352E-002   7.4822829307546537E-002   0.0000000000000000     
   3.9573327340846814E-002   8.0908933855451309E-002   0.0000000000000000     
   2.8962453392014822E-002   5.7167517272408430E-002   0.0000000000000000     
   3.0505393799076394E-002   6.2721751548108759E-002   0.0000000000000000     
   3.2003170800701926E-002   6.8459001066155864E-002   0.0000000000000000     
   3.3455784396891418E-002   7.4379265826549718E-002   0.0000000000000000     
   3.4863234587644870E-002   8.0482545829290347E-002   0.0000000000000000     
   5.4584874766585037E-002   8.2544920912835329E-002   0.0000000000000000     
   5.6613171166822074E-002   8.8744339787655530E-002   0.0000000000000000     
   5.8553248377934637E-002   9.5100343764561751E-002   0.0000000000000000     
   6.0405106399922692E-002  0.10161293284355398        0.0000000000000000     
   6.2168745232786260E-002  0.10828210702463220        0.0000000000000000     
   4.9434147430316905E-002   8.1940121397223800E-002   0.0000000000000000     
   5.1293252107898868E-002   8.8158929658663482E-002   0.0000000000000000     
   5.3071878689070991E-002   9.4534540297658648E-002   0.0000000000000000     
   5.4770027173833287E-002  0.10106695331420926        0.0000000000000000     
   5.6387697562185743E-002  0.10775616870831536        0.0000000000000000     
   4.4430298288404169E-002   8.1394792378095798E-002   0.0000000000000000     
   4.6120802742006126E-002   8.7632402410632831E-002   0.0000000000000000     
   4.7738182666167785E-002   9.4027010763617955E-002   0.0000000000000000     
   4.9282438060889160E-002  0.10057861743705113        0.0000000000000000     
   5.0753568926170251E-002  0.10728722243093239        0.0000000000000000     
   3.9573327340846814E-002   8.0908933855451309E-002   0.0000000000000000     
   4.1095823069143840E-002   8.7164758043563564E-002   0.0000000000000000     
   4.2552160309225005E-002   9.3577755162439685E-002   0.0000000000000000     
   4.3942339061090310E-002  0.10014792521207955        0.0000000000000000     
   4.5266359324739748E-002  0.10687526819248330        0.0000000000000000     
   3.4863234587644870E-002   8.0482545829290347E-002   0.0000000000000000     
   3.6218313089312032E-002   8.6755996557455708E-002   0.0000000000000000     
   3.7513811618242653E-002   9.3186773494123784E-002   0.0000000000000000     
   3.8749730174436739E-002   9.9774876639294546E-002   0.0000000000000000     
   3.9926068757894284E-002  0.10652030599296804        0.0000000000000000     
   6.2168745232786260E-002  0.10828210702463220        0.0000000000000000     
   6.3864807705431986E-002  0.11509603564101180        0.0000000000000000     
   6.5513936646766510E-002  0.12204288802590810        0.0000000000000000     
   6.7116132056789832E-002  0.12912266417932114        0.0000000000000000     
   6.8671393935501951E-002  0.13633536410125088        0.0000000000000000     
   5.6387697562185743E-002  0.10775616870831536        0.0000000000000000     
   5.7942779512934015E-002  0.11458882060501158        0.0000000000000000     
   5.9453162684883709E-002  0.12155154312933258        0.0000000000000000     
   6.0918847078034861E-002  0.12864433628127836        0.0000000000000000     
   6.2339832692387437E-002  0.13586720006084890        0.0000000000000000     
   5.0753568926170251E-002  0.10728722243093239        0.0000000000000000     
   5.2167216975044561E-002  0.11413873442230409        0.0000000000000000     
   5.3539023920545624E-002  0.12111906208820858        0.0000000000000000     
   5.4868989762673445E-002  0.12822820542864594        0.0000000000000000     
   5.6157114501428025E-002  0.13546616444361603        0.0000000000000000     
   4.5266359324739748E-002  0.10687526819248330        0.0000000000000000     
   4.6538120091763641E-002  0.11374577709288934        0.0000000000000000     
   4.7771520353752255E-002  0.12074544490253621        0.0000000000000000     
   4.8966560110705624E-002  0.12787427162142387        0.0000000000000000     
   5.0123239362623702E-002  0.13513225724955238        0.0000000000000000     
   3.9926068757894284E-002  0.10652030599296804        0.0000000000000000     
   4.1055488863091259E-002  0.11340994861676729        0.0000000000000000     
   4.2150651984503615E-002  0.12043069157231531        0.0000000000000000     
   4.3211558122131358E-002  0.12758253485961216        0.0000000000000000     
   4.4238207275974481E-002  0.13486547847865782        0.0000000000000000     
   6.8671393935501951E-002  0.13633536410125088        0.0000000000000000     
   7.0143941390201789E-002  0.14367032213748429        0.0000000000000000     
   7.1497993528188281E-002  0.15111687263380832        0.0000000000000000     
   7.2733550349461426E-002  0.15867501559022296        0.0000000000000000     
   7.3850611854021225E-002  0.16634475100672821        0.0000000000000000     
   6.2339832692387437E-002  0.13586720006084890        0.0000000000000000     
   6.3684919127021858E-002  0.14320750967646856        0.0000000000000000     
   6.4922905981018506E-002  0.15065264033656164        0.0000000000000000     
   6.6053793254377394E-002  0.15820259204112821        0.0000000000000000     
   6.7077580947098508E-002  0.16585736479016813        0.0000000000000000     
   5.6157114501428025E-002  0.13546616444361603        0.0000000000000000     
   5.7375678963965809E-002  0.14282050876972199        0.0000000000000000     
   5.8496963977443250E-002  0.15027880804356664        0.0000000000000000     
   5.9520969541860369E-002  0.15784106226515005        0.0000000000000000     
   6.0447695657217138E-002  0.16550727143447219        0.0000000000000000     
   5.0123239362623702E-002  0.13513225724955238        0.0000000000000000     
   5.1216220901033643E-002  0.14250931941724457        0.0000000000000000     
   5.2220167517462522E-002  0.14999537575482325        0.0000000000000000     
   5.3135079211910366E-002  0.15759042626228853        0.0000000000000000     
   5.3960955984377140E-002  0.16529447093964031        0.0000000000000000     
   4.4238207275974481E-002  0.13486547847865782        0.0000000000000000     
   4.5206544938225353E-002  0.14227394161903628        0.0000000000000000     
   4.6092516601076314E-002  0.14980234347033156        0.0000000000000000     
   4.6896122264527364E-002  0.15745068403254364        0.0000000000000000     
   4.7617361928578510E-002  0.16521896330567254        0.0000000000000000     
   0.0000000000000000        0.0000000000000000        0.0000000000000000     
   1.7983109148200027E-003   1.2768314359361856E-003   0.0000000000000000     
   3.6213645952115417E-003   2.9391851560088339E-003   0.0000000000000000     
   5.4691610411746168E-003   4.9870611602179440E-003   0.0000000000000000     
   7.3417002527092282E-003   7.4204594485635161E-003   0.0000000000000000     
   0.0000000000000000        0.0000000000000000        0.0000000000000000     
   1.5350100109642090E-003   1.2175628509438047E-003   0.0000000000000000     
   3.0994120223423569E-003   2.8209002291733304E-003   0.0000000000000000     
   4.6932060341344445E-003   4.8100121346885769E-003   0.0000000000000000     
   6.3163920463404702E-003   7.1848985674895444E-003   0.0000000000000000     
   0.0000000000000000        0.0000000000000000        0.0000000000000000     
   1.2878096774613288E-003   1.1699977524898537E-003   0.0000000000000000     
   2.6055712717458165E-003   2.7246272128735320E-003   0.0000000000000000     
   3.9532847828534622E-003   4.6638883811510358E-003   0.0000000000000000     
   5.3309502107842660E-003   6.9877812573223641E-003   0.0000000000000000     
   0.0000000000000000        0.0000000000000000        0.0000000000000000     
   1.0567099143113624E-003   1.1341361405743323E-003   0.0000000000000000     
   2.1398423434219197E-003   2.6503661071094389E-003   0.0000000000000000     
   3.2493972873316721E-003   4.5486898996053189E-003   0.0000000000000000     
   4.3853747460406199E-003   6.8291075180619745E-003   0.0000000000000000     
   0.0000000000000000        0.0000000000000000        0.0000000000000000     
   8.4171072151430931E-004   1.1099780151972408E-003   0.0000000000000000     
   1.7022252373706671E-003   2.5981169118810500E-003   0.0000000000000000     
   2.5815435475690734E-003   4.4644166900514280E-003   0.0000000000000000     
   3.4796656521095281E-003   6.7088773497083736E-003   0.0000000000000000     
   7.3417002527092282E-003   7.4204594485635161E-003   0.0000000000000000     
   9.2312227784584824E-003   1.0186868921732270E-002   0.0000000000000000     
   1.1129969167065493E-002   1.3233778480410924E-002   0.0000000000000000     
   1.3037939418530254E-002   1.6561188124599474E-002   0.0000000000000000     
   1.4955133532852771E-002   2.0169097854297931E-002   0.0000000000000000     
   6.3163920463404702E-003   7.1848985674895444E-003   0.0000000000000000     
   7.9561708392145263E-003   9.8959434155849371E-003   0.0000000000000000     
   9.5997431930107072E-003   1.2893530566983462E-002   0.0000000000000000     
   1.1247109107729010E-002   1.6177660021685122E-002   0.0000000000000000     
   1.2898268583369439E-002   1.9748331779689907E-002   0.0000000000000000     
   5.3309502107842660E-003   6.9877812573223641E-003   0.0000000000000000     
   6.7240010816450061E-003   9.6501839028983218E-003   0.0000000000000000     
   8.1178709215424597E-003   1.2604974379389709E-002   0.0000000000000000     
   9.5125597304766274E-003   1.5852152686796531E-002   0.0000000000000000     
   1.0908067508447507E-002   1.9391718825118785E-002   0.0000000000000000     
   4.3853747460406199E-003   6.8291075180619745E-003   0.0000000000000000     
   5.5347135057499256E-003   9.4495903836724175E-003   0.0000000000000000     
   6.6843523526607532E-003   1.2368109917629664E-002   0.0000000000000000     
   7.8342912867731037E-003   1.5584666119933714E-002   0.0000000000000000     
   8.9845303080869771E-003   1.9099258990584567E-002   0.0000000000000000     
   3.4796656521095281E-003   6.7088773497083736E-003   0.0000000000000000     
   4.3883081115292820E-003   9.2941628579072295E-003   0.0000000000000000     
   5.2991874863655870E-003   1.2182937181703326E-002   0.0000000000000000     
   6.2123037766184438E-003   1.5375200321096665E-002   0.0000000000000000     
   7.1276569822878496E-003   1.8870952276087254E-002   0.0000000000000000     
   1.4955133532852771E-002   2.0169097854297931E-002   0.0000000000000000     
   1.6856484558763367E-002   2.4029257860324341E-002   0.0000000000000000     
   1.8716925544992373E-002   2.8113418333496766E-002   0.0000000000000000     
   2.0536456491539783E-002   3.2421579273815199E-002   0.0000000000000000     
   2.2315077398405603E-002   3.6953740681279643E-002   0.0000000000000000     
   1.2898268583369439E-002   1.9748331779689907E-002   0.0000000000000000     
   1.4537154885915471E-002   2.3579602978994269E-002   0.0000000000000000     
   1.6147701281350582E-002   2.7645530757594638E-002   0.0000000000000000     
   1.7729907769674778E-002   3.1946115115491017E-002   0.0000000000000000     
   1.9283774350888055E-002   3.6481356052683420E-002   0.0000000000000000     
   1.0908067508447507E-002   1.9391718825118785E-002   0.0000000000000000     
   1.2294431000004363E-002   2.3198890993127108E-002   0.0000000000000000     
   1.3661686949696453E-002   2.7248887389592129E-002   0.0000000000000000     
   1.5009835357523784E-002   3.1541708014513857E-002   0.0000000000000000     
   1.6338876223486350E-002   3.6077352867892279E-002   0.0000000000000000     
   8.9845303080869771E-003   1.9099258990584567E-002   0.0000000000000000     
   1.0128312901030046E-002   2.2887121902722862E-002   0.0000000000000000     
   1.1258882550029986E-002   2.6923488229489236E-002   0.0000000000000000     
   1.2376239255086796E-002   3.1208357970883692E-002   0.0000000000000000     
   1.3480383016200479E-002   3.5741731126906234E-002   0.0000000000000000     
   7.1276569822878496E-003   1.8870952276087254E-002   0.0000000000000000     
   8.0388005889925236E-003   2.2644295707781533E-002   0.0000000000000000     
   8.9392880823511815E-003   2.6669333277285961E-002   0.0000000000000000     
   9.8291194623638199E-003   3.0946064984600542E-002   0.0000000000000000     
   1.0708294729030444E-002   3.5474490829725265E-002   0.0000000000000000     
   2.2315077398405603E-002   3.6953740681279643E-002   0.0000000000000000     
   2.4049162813274939E-002   4.1700222949003274E-002   0.0000000000000000     
   2.5735087283832926E-002   4.6651346470099282E-002   0.0000000000000000     
   2.7372850810079553E-002   5.1807111244567675E-002   0.0000000000000000     
   2.8962453392014822E-002   5.7167517272408430E-002   0.0000000000000000     
   1.9283774350888055E-002   3.6481356052683420E-002   0.0000000000000000     
   2.0802155535541413E-002   4.1236777027933075E-002   0.0000000000000000     
   2.2277905834185843E-002   4.6197901500001262E-002   0.0000000000000000     
   2.3711025246821352E-002   5.1364729468887940E-002   0.0000000000000000     
   2.5101513773447940E-002   5.6737260934593151E-002   0.0000000000000000     
   1.6338876223486350E-002   3.6077352867892279E-002   0.0000000000000000     
   1.7640088319517935E-002   4.0838030282232624E-002   0.0000000000000000     
   1.8904750417552331E-002   4.5805948590040099E-002   0.0000000000000000     
   2.0132862517589532E-002   5.0981107791314678E-002   0.0000000000000000     
   2.1324424619629544E-002   5.6363507886056388E-002   0.0000000000000000     
   1.3480383016200479E-002   3.5741731126906234E-002   0.0000000000000000     
   1.4562961165204514E-002   4.0503982711901906E-002   0.0000000000000000     
   1.5615621033932386E-002   4.5475487740215793E-002   0.0000000000000000     
   1.6638362622384092E-002   5.0656246211847868E-002   0.0000000000000000     
   1.7631185930559644E-002   5.6046258126798164E-002   0.0000000000000000     
   1.0708294729030444E-002   3.5474490829725265E-002   0.0000000000000000     
   1.1570774072601143E-002   4.0234634316940937E-002   0.0000000000000000     
   1.2410517683326006E-002   4.5206518950528365E-002   0.0000000000000000     
   1.3227525561205036E-002   5.0390144730487543E-002   0.0000000000000000     
   1.4021797706238230E-002   5.5785511656818457E-002   0.0000000000000000     
   2.8962453392014822E-002   5.7167517272408430E-002   0.0000000000000000     
   3.0505393799076394E-002   6.2721751548108759E-002   0.0000000000000000     
   3.2003170800701926E-002   6.8459001066155864E-002   0.0000000000000000     
   3.3455784396891418E-002   7.4379265826549718E-002   0.0000000000000000     
   3.4863234587644870E-002   8.0482545829290347E-002   0.0000000000000000     
   2.5101513773447940E-002   5.6737260934593151E-002   0.0000000000000000     
   2.6451283638779365E-002   6.2304562171062866E-002   0.0000000000000000     
   2.7762247067529396E-002   6.8055699452243115E-002   0.0000000000000000     
   2.9034404059698034E-002   7.3990672778133912E-002   0.0000000000000000     
   3.0267754615285282E-002   8.0109482148735242E-002   0.0000000000000000     
   2.1324424619629544E-002   5.6363507886056388E-002   0.0000000000000000     
   2.2481277283824697E-002   6.1941778840716090E-002   0.0000000000000000     
   2.3605261070327326E-002   6.7704550621744658E-002   0.0000000000000000     
   2.4696375979137434E-002   7.3651823229142072E-002   0.0000000000000000     
   2.5754622010255017E-002   7.9783596662908338E-002   0.0000000000000000     
   1.7631185930559644E-002   5.6046258126798164E-002   0.0000000000000000     
   1.8595374734212394E-002   6.1633401557068410E-002   0.0000000000000000     
   1.9532212809095714E-002   6.7405554574660409E-002   0.0000000000000000     
   2.0441700155209616E-002   7.3362717179574141E-002   0.0000000000000000     
   2.1323836772554085E-002   7.9504889371809648E-002   0.0000000000000000     
   1.4021797706238230E-002   5.5785511656818457E-002   0.0000000000000000     
   1.4793575989942454E-002   6.1379430320119846E-002   0.0000000000000000     
   1.5543102283834567E-002   6.7158711310990424E-002   0.0000000000000000     
   1.6270376587914578E-002   7.3123354629430190E-002   0.0000000000000000     
   1.6975398902182474E-002   7.9273360275439145E-002   0.0000000000000000     
   3.4863234587644870E-002   8.0482545829290347E-002   0.0000000000000000     
   3.6218313089312032E-002   8.6755996557455708E-002   0.0000000000000000     
   3.7513811618242653E-002   9.3186773494123784E-002   0.0000000000000000     
   3.8749730174436739E-002   9.9774876639294546E-002   0.0000000000000000     
   3.9926068757894284E-002  0.10652030599296804        0.0000000000000000     
   3.0267754615285282E-002   8.0109482148735242E-002   0.0000000000000000     
   3.1455224772150535E-002   8.6398931715830699E-002   0.0000000000000000     
   3.2589740568153197E-002   9.2845825631203888E-002   0.0000000000000000     
   3.3671302003293262E-002   9.9450163894854809E-002   0.0000000000000000     
   3.4699909077570736E-002  0.10621194650678344        0.0000000000000000     
   2.5754622010255017E-002   7.9783596662908338E-002   0.0000000000000000     
   2.6773510087299199E-002   8.6086377282209983E-002   0.0000000000000000     
   2.7746551133889089E-002   9.2546671446213508E-002   0.0000000000000000     
   2.8673745150024688E-002   9.9164479154918939E-002   0.0000000000000000     
   2.9555092135705990E-002  0.10593980040832623        0.0000000000000000     
   2.1323836772554085E-002   7.9504889371809648E-002   0.0000000000000000     
   2.2173169034758026E-002   8.5818333256593590E-002   0.0000000000000000     
   2.2984243315450337E-002   9.2289310939152699E-002   0.0000000000000000     
   2.3757059614631017E-002   9.8917822419486989E-002   0.0000000000000000     
   2.4491617932300067E-002  0.10570386769759646        0.0000000000000000     
   1.6975398902182474E-002   7.9273360275439145E-002   0.0000000000000000     
   1.7654201614527014E-002   8.5594799638981478E-002   0.0000000000000000     
   1.8302817112836940E-002   9.2073744110021408E-002   0.0000000000000000     
   1.8921245397112256E-002   9.8710193688558961E-002   0.0000000000000000     
   1.9509486467352958E-002  0.10550414837459408        0.0000000000000000     
   3.9926068757894284E-002  0.10652030599296804        0.0000000000000000     
   4.1055488863091259E-002  0.11340994861676729        0.0000000000000000     
   4.2150651984503615E-002  0.12043069157231531        0.0000000000000000     
   4.3211558122131358E-002  0.12758253485961216        0.0000000000000000     
   4.4238207275974481E-002  0.13486547847865782        0.0000000000000000     
   3.4699909077570736E-002  0.10621194650678344        0.0000000000000000     
   3.5687044635256841E-002  0.11311932868383390        0.0000000000000000     
   3.6644191520622801E-002  0.12016046564285032        0.0000000000000000     
   3.7571349733668630E-002  0.12733535738383267        0.0000000000000000     
   3.8468519274394326E-002  0.13464400390678094        0.0000000000000000     
   2.9555092135705990E-002  0.10593980040832623        0.0000000000000000     
   3.0400508754489814E-002  0.11286199698398520        0.0000000000000000     
   3.1219911669932952E-002  0.11992043065944549        0.0000000000000000     
   3.2013300882035405E-002  0.12711510143470720        0.0000000000000000     
   3.2780676390797181E-002  0.13444600930977021        0.0000000000000000     
   2.4491617932300067E-002  0.10570386769759646        0.0000000000000000     
   2.5195881220790178E-002  0.11263795351722108        0.0000000000000000     
   2.5877812432434047E-002  0.11971058662210084        0.0000000000000000     
   2.6537411567231679E-002  0.12692176701223568        0.0000000000000000     
   2.7174678625183062E-002  0.13427149468762570        0.0000000000000000     
   1.9509486467352958E-002  0.10550414837459408        0.0000000000000000     
   2.0073162034157942E-002  0.11244719828354163        0.0000000000000000     
   2.0617893808126106E-002  0.11953093353081633        0.0000000000000000     
   2.1143681789257449E-002  0.12675535411641822        0.0000000000000000     
   2.1650525977551974E-002  0.13412046004034731        0.0000000000000000     
   4.4238207275974481E-002  0.13486547847865782        0.0000000000000000     
   4.5206544938225353E-002  0.14227394161903628        0.0000000000000000     
   4.6092516601076314E-002  0.14980234347033156        0.0000000000000000     
   4.6896122264527364E-002  0.15745068403254364        0.0000000000000000     
   4.7617361928578510E-002  0.16521896330567254        0.0000000000000000     
   3.8468519274394326E-002  0.13464400390678094        0.0000000000000000     
   3.9313011219857530E-002  0.14208425927853241        0.0000000000000000     
   4.0082136647115893E-002  0.14965397756592430        0.0000000000000000     
   4.0775895556169423E-002  0.15735315876895653        0.0000000000000000     
   4.1394287947018119E-002  0.16518180288762924        0.0000000000000000     
   3.2780676390797181E-002  0.13444600930977021        0.0000000000000000     
   3.3501979890246732E-002  0.14191015629916809        0.0000000000000000     
   3.4157153074412534E-002  0.14950454441743416        0.0000000000000000     
   3.4746195943294568E-002  0.15722917366456843        0.0000000000000000     
   3.5269108496892840E-002  0.16508404404057089        0.0000000000000000     
   2.7174678625183062E-002  0.13427149468762570        0.0000000000000000     
   2.7773450949392993E-002  0.14175163268094332        0.0000000000000000     
   2.8317565882966238E-002  0.14935404402486122        0.0000000000000000     
   2.8807023425902797E-002  0.15707872871937922        0.0000000000000000     
   2.9241823578202673E-002  0.16492568676449748        0.0000000000000000     
   2.1650525977551974E-002  0.13412046004034731        0.0000000000000000     
   2.2127424397296282E-002  0.14160868842385813        0.0000000000000000     
   2.2563375072776996E-002  0.14920247638820539        0.0000000000000000     
   2.2958378003994112E-002  0.15690182393338900        0.0000000000000000     
   2.3312433190947630E-002  0.16470673105940897        0.0000000000000000     
   0.0000000000000000        0.0000000000000000        0.0000000000000000     
   8.4171072151430931E-004   1.1099780151972408E-003   0.0000000000000000     
   1.7022252373706671E-003   2.5981169118810500E-003   0.0000000000000000     
   2.5815435475690734E-003   4.4644166900514280E-003   0.0000000000000000     
   3.4796656521095281E-003   6.7088773497083736E-003   0.0000000000000000     
   0.0000000000000000        0.0000000000000000        0.0000000000000000     
   6.3389540945189534E-004   1.0939574492983652E-003   0.0000000000000000     
   1.2781707481864975E-003   2.5620267642722547E-003   0.0000000000000000     
   1.9328260162038060E-003   4.4042079449216681E-003   0.0000000000000000     
   2.5978612135038213E-003   6.6205009912466053E-003   0.0000000000000000     
   0.0000000000000000        0.0000000000000000        0.0000000000000000     
   4.2434728850584567E-004   1.0825085158174925E-003   0.0000000000000000     
   8.5312967046384872E-004   2.5362428013669409E-003   0.0000000000000000     
   1.2863471458740090E-003   4.3612028566483449E-003   0.0000000000000000     
   1.7239997147363265E-003   6.5573886816617036E-003   0.0000000000000000     
   0.0000000000000000        0.0000000000000000        0.0000000000000000     
   2.1306635867616045E-004   1.0756312147546226E-003   0.0000000000000000     
   4.2710200420272145E-004   2.5207650231651086E-003   0.0000000000000000     
   6.4210693657968309E-004   4.3354014252314577E-003   0.0000000000000000     
   8.5808115580704523E-004   6.5195404209536702E-003   0.0000000000000000     
   0.0000000000000000        0.0000000000000000        0.0000000000000000     
   5.2619962839480297E-008   1.0733255461097555E-003   0.0000000000000000     
   8.7749403115424101E-008   2.5155934296667588E-003   0.0000000000000000     
   1.0538832082761457E-007   4.3268036506710090E-003   0.0000000000000000     
   1.0553671597629565E-007   6.5069562091225070E-003   0.0000000000000000     
   3.4796656521095281E-003   6.7088773497083736E-003   0.0000000000000000     
   4.3883081115292820E-003   9.2941628579072295E-003   0.0000000000000000     
   5.2991874863655870E-003   1.2182937181703326E-002   0.0000000000000000     
   6.2123037766184438E-003   1.5375200321096665E-002   0.0000000000000000     
   7.1276569822878496E-003   1.8870952276087254E-002   0.0000000000000000     
   2.5978612135038213E-003   6.6205009912466053E-003   0.0000000000000000     
   3.2703227519809762E-003   9.1779337085768319E-003   0.0000000000000000     
   3.9472570435297042E-003   1.2043533902242118E-002   0.0000000000000000     
   4.6286640881500049E-003   1.5217301572242463E-002   0.0000000000000000     
   5.3145438858418770E-003   1.8699236718577865E-002   0.0000000000000000     
   1.7239997147363265E-003   6.5573886816617036E-003   0.0000000000000000     
   2.1662952801029044E-003   9.0949353186553158E-003   0.0000000000000000     
   2.6134417450258450E-003   1.1943977809877472E-002   0.0000000000000000     
   3.0654391095051481E-003   1.5104516155328174E-002   0.0000000000000000     
   3.5222873735408140E-003   1.8576550355007423E-002   0.0000000000000000     
   8.5808115580704523E-004   6.5195404209536702E-003   0.0000000000000000     
   1.0762256958950678E-003   9.0451676881426694E-003   0.0000000000000000     
   1.2977415908540107E-003   1.1884268904609384E-002   0.0000000000000000     
   1.5226288406838743E-003   1.5036844070353803E-002   0.0000000000000000     
   1.7508874453846580E-003   1.8502893185375940E-002   0.0000000000000000     
   1.0553671597629565E-007   6.5069562091225070E-003   0.0000000000000000     
   1.1399935746612836E-007   9.0286308170389046E-003   0.0000000000000000     
   1.5658101420180757E-007   1.1864407186437853E-002   0.0000000000000000     
   2.3328168618345697E-007   1.5014285317319354E-002   0.0000000000000000     
   3.4410137341085462E-007   1.8478265209683400E-002   0.0000000000000000     
   7.1276569822878496E-003   1.8870952276087254E-002   0.0000000000000000     
   8.0388005889925236E-003   2.2644295707781533E-002   0.0000000000000000     
   8.9392880823511815E-003   2.6669333277285961E-002   0.0000000000000000     
   9.8291194623638199E-003   3.0946064984600542E-002   0.0000000000000000     
   1.0708294729030444E-002   3.5474490829725265E-002   0.0000000000000000     
   5.3145438858418770E-003   1.8699236718577865E-002   0.0000000000000000     
   5.9979939241065379E-003   2.2461965182089923E-002   0.0000000000000000     
   6.6721116904451981E-003   2.6478112803620248E-002   0.0000000000000000     
   7.3368971848578593E-003   3.0747679583168840E-002   0.0000000000000000     
   7.9923504073445197E-003   3.5270665520735683E-002   0.0000000000000000     
   3.5222873735408140E-003   1.8576550355007423E-002   0.0000000000000000     
   3.9779927665868344E-003   2.2331683099434840E-002   0.0000000000000000     
   4.4265615180972022E-003   2.6341517079130041E-002   0.0000000000000000     
   4.8679936280719167E-003   3.0606052294093022E-002   0.0000000000000000     
   5.3022890965109789E-003   3.5125288744323788E-002   0.0000000000000000     
   1.7508874453846580E-003   1.8502893185375940E-002   0.0000000000000000     
   1.9787971164334137E-003   2.2253449459816280E-002   0.0000000000000000     
   2.2026375653071925E-003   2.6259546103815336E-002   0.0000000000000000     
   2.4224087920059951E-003   3.0521183117373105E-002   0.0000000000000000     
   2.6381107965298203E-003   3.5038360500489571E-002   0.0000000000000000     
   3.4410137341085462E-007   1.8478265209683400E-002   0.0000000000000000     
   4.0697364627590403E-007   2.2227264263234250E-002   0.0000000000000000     
   3.3983207517004790E-007   2.6232199877676138E-002   0.0000000000000000     
   1.4267666009308973E-007   3.0493072053009069E-002   0.0000000000000000     
  -1.8449259895476043E-007   3.5009880789233033E-002   0.0000000000000000     
   1.0708294729030444E-002   3.5474490829725265E-002   0.0000000000000000     
   1.1570774072601143E-002   4.0234634316940937E-002   0.0000000000000000     
   1.2410517683326006E-002   4.5206518950528365E-002   0.0000000000000000     
   1.3227525561205036E-002   5.0390144730487543E-002   0.0000000000000000     
   1.4021797706238230E-002   5.5785511656818457E-002   0.0000000000000000     
   7.9923504073445197E-003   3.5270665520735683E-002   0.0000000000000000     
   8.6352783062465365E-003   4.0027399288684810E-002   0.0000000000000000     
   9.2624878299052676E-003   4.4998209559380227E-002   0.0000000000000000     
   9.8739789783207112E-003   5.0183096332821926E-002   0.0000000000000000     
   1.0469751751492867E-002   5.5582059609009915E-002   0.0000000000000000     
   5.3022890965109789E-003   3.5125288744323788E-002   0.0000000000000000     
   5.7282251306794135E-003   3.9879691818468621E-002   0.0000000000000000     
   6.1445789378422452E-003   4.4849726905173790E-002   0.0000000000000000     
   6.5513505179994758E-003   5.0035394004439300E-002   0.0000000000000000     
   6.9485398711511045E-003   5.5436693116265159E-002   0.0000000000000000     
   2.6381107965298203E-003   3.5038360500489571E-002   0.0000000000000000     
   2.8496145458997688E-003   3.9791511906292341E-002   0.0000000000000000     
   3.0567910071369383E-003   4.4761070987909060E-002   0.0000000000000000     
   3.2596401802413300E-003   4.9947037745339658E-002   0.0000000000000000     
   3.4581620652129434E-003   5.5349412178584183E-002   0.0000000000000000     
  -1.8449259895476043E-007   3.5009880789233033E-002   0.0000000000000000     
  -5.5344809239612092E-007   3.9762859552156027E-002   0.0000000000000000     
  -8.7596221065333905E-007   4.4732241807586018E-002   0.0000000000000000     
  -1.1520349537254255E-006   4.9918027555523006E-002   0.0000000000000000     
  -1.3816663216150230E-006   5.5320216795967006E-002   0.0000000000000000     
   1.4021797706238230E-002   5.5785511656818457E-002   0.0000000000000000     
   1.4793575989942454E-002   6.1379430320119846E-002   0.0000000000000000     
   1.5543102283834567E-002   6.7158711310990424E-002   0.0000000000000000     
   1.6270376587914578E-002   7.3123354629430190E-002   0.0000000000000000     
   1.6975398902182474E-002   7.9273360275439145E-002   0.0000000000000000     
   1.0469751751492867E-002   5.5582059609009915E-002   0.0000000000000000     
   1.1049061571308534E-002   6.1180872899838749E-002   0.0000000000000000     
   1.1611163859654517E-002   6.6965309717202992E-002   0.0000000000000000     
   1.2156058616530812E-002   7.2935370061102595E-002   0.0000000000000000     
   1.2683745841937415E-002   7.9091053931537619E-002   0.0000000000000000     
   6.9485398711511045E-003   5.5436693116265159E-002   0.0000000000000000     
   7.3350119986042885E-003   6.1038737066193477E-002   0.0000000000000000     
   7.7096319016661877E-003   6.6826638679766362E-002   0.0000000000000000     
   8.0723995803368021E-003   7.2800397956983814E-002   0.0000000000000000     
   8.4233150346161318E-003   7.8960014897845834E-002   0.0000000000000000     
   3.4581620652129434E-003   5.5349412178584183E-002   0.0000000000000000     
   3.6514272718297168E-003   6.0953022819184036E-002   0.0000000000000000     
   3.8385064098695877E-003   6.6742698198680575E-002   0.0000000000000000     
   4.0193994793325562E-003   7.2718438317073836E-002   0.0000000000000000     
   4.1941064802186231E-003   7.8880243174363804E-002   0.0000000000000000     
  -1.3816663216150230E-006   5.5320216795967006E-002   0.0000000000000000     
  -1.6926090151808118E-006   6.0923730158810419E-002   0.0000000000000000     
  -2.2126157352861343E-006   6.6713488273945631E-002   0.0000000000000000     
  -2.9416864819289035E-006   7.2689491141372672E-002   0.0000000000000000     
  -3.8798212551112606E-006   7.8851738761091542E-002   0.0000000000000000     
   1.6975398902182474E-002   7.9273360275439145E-002   0.0000000000000000     
   1.7654201614527014E-002   8.5594799638981478E-002   0.0000000000000000     
   1.8302817112836940E-002   9.2073744110021408E-002   0.0000000000000000     
   1.8921245397112256E-002   9.8710193688558961E-002   0.0000000000000000     
   1.9509486467352958E-002  0.10550414837459408        0.0000000000000000     
   1.2683745841937415E-002   7.9091053931537619E-002   0.0000000000000000     
   1.3191817835122157E-002   8.5418331697699940E-002   0.0000000000000000     
   1.3677866895332848E-002   9.1903173728781498E-002   0.0000000000000000     
   1.4141893022569494E-002   9.8545580024782295E-002   0.0000000000000000     
   1.4583896216832093E-002  0.10534555058570233        0.0000000000000000     
   8.4233150346161318E-003   7.8960014897845834E-002   0.0000000000000000     
   8.7612277050594448E-003   8.5291484701075213E-002   0.0000000000000000     
   9.0849870322220125E-003   9.1780802565394781E-002   0.0000000000000000     
   9.3945930161038315E-003   9.8427968490804457E-002   0.0000000000000000     
   9.6900456567049036E-003  0.10523298247730434        0.0000000000000000     
   4.1941064802186231E-003   7.8880243174363804E-002   0.0000000000000000     
   4.3624312243388816E-003   8.5214258649107325E-002   0.0000000000000000     
   4.5241775235044298E-003   9.1706630619861215E-002   0.0000000000000000     
   4.6793453777152659E-003   9.8357359086625476E-002   0.0000000000000000     
   4.8279347869713916E-003  0.10516644404940013        0.0000000000000000     
  -3.8798212551112606E-006   7.8851738761091542E-002   0.0000000000000000     
  -4.5716070395326620E-006   8.5186653541796248E-002   0.0000000000000000     
  -4.5616308198951662E-006   9.1680657892180856E-002   0.0000000000000000     
  -3.8498925961996406E-006   9.8333751812245351E-002   0.0000000000000000     
  -2.4363923684447841E-006  0.10514593530198973        0.0000000000000000     
   1.9509486467352958E-002  0.10550414837459408        0.0000000000000000     
   2.0073162034157942E-002  0.11244719828354163        0.0000000000000000     
   2.0617893808126106E-002  0.11953093353081633        0.0000000000000000     
   2.1143681789257449E-002  0.12675535411641822        0.0000000000000000     
   2.1650525977551974E-002  0.13412046004034731        0.0000000000000000     
   1.4583896216832093E-002  0.10534555058570233        0.0000000000000000     
   1.5007193639112217E-002  0.11229527193547319        0.0000000000000000     
   1.5415102450401438E-002  0.11938693059802651        0.0000000000000000     
   1.5807622650699765E-002  0.12662052657336229        0.0000000000000000     
   1.6184754240007183E-002  0.13399605986148047        0.0000000000000000     
   9.6900456567049036E-003  0.10523298247730434        0.0000000000000000     
   9.9728184801721204E-003  0.11218771512554218        0.0000000000000000     
   1.0244385012652374E-002  0.11928403703616587        0.0000000000000000     
   1.0504745254145666E-002  0.12652194820917537        0.0000000000000000     
   1.0753899204651994E-002  0.13390144864457068        0.0000000000000000     
   4.8279347869713916E-003  0.10516644404940013        0.0000000000000000     
   4.9700365573376567E-003  0.11212452785374862        0.0000000000000000     
   5.1057414948789117E-003  0.11922225284523441        0.0000000000000000     
   5.2350495995951594E-003  0.12645961902385749        0.0000000000000000     
   5.3579608714863962E-003  0.13383662638961788        0.0000000000000000     
  -2.4363923684447841E-006  0.10514593530198973        0.0000000000000000     
  -1.1521293911784681E-006  0.11210571012009250        0.0000000000000000     
  -8.2810291895019008E-007  0.11920157802523212        0.0000000000000000     
  -1.4643129517592725E-006  0.12643353901740867        0.0000000000000000     
  -3.0607594896049292E-006  0.13380159309662210        0.0000000000000000     
   2.1650525977551974E-002  0.13412046004034731        0.0000000000000000     
   2.2127424397296282E-002  0.14160868842385813        0.0000000000000000     
   2.2563375072776996E-002  0.14920247638820539        0.0000000000000000     
   2.2958378003994112E-002  0.15690182393338900        0.0000000000000000     
   2.3312433190947630E-002  0.16470673105940897        0.0000000000000000     
   1.6184754240007183E-002  0.13399605986148047        0.0000000000000000     
   1.6540636346483763E-002  0.14148747080181504        0.0000000000000000     
   1.6869408098289559E-002  0.14906869973379974        0.0000000000000000     
   1.7171069495424570E-002  0.15673974665743465        0.0000000000000000     
   1.7445620537888791E-002  0.16450061157271970        0.0000000000000000     
   1.0753899204651994E-002  0.13390144864457068        0.0000000000000000     
   1.0989822909482583E-002  0.14139412708871640        0.0000000000000000     
   1.1210492413948654E-002  0.14897157228797722        0.0000000000000000     
   1.1415907718050211E-002  0.15663378424235300        0.0000000000000000     
   1.1606068821787253E-002  0.16438076295184390        0.0000000000000000     
   5.3579608714863962E-003  0.13383662638961788        0.0000000000000000     
   5.4749840862927364E-003  0.14132865728456240        0.0000000000000000     
   5.5866280197542847E-003  0.14891109405073782        0.0000000000000000     
   5.6928926718710447E-003  0.15658393668814427        0.0000000000000000     
   5.7937780426430153E-003  0.16434718519678160        0.0000000000000000     
  -3.0607594896049292E-006  0.13380159309662210        0.0000000000000000     
  -3.8801230857730701E-006  0.14129106138935288        0.0000000000000000     
  -2.1850842935486293E-006  0.14888726502208161        0.0000000000000000     
   2.0243568870664688E-006  0.15659020399480825        0.0000000000000000     
   8.7482004560756124E-006  0.16439987830753278        0.0000000000000000     
   0.0000000000000000        0.0000000000000000        0.0000000000000000     
   5.2619962839480297E-008   1.0733255461097555E-003   0.0000000000000000     
   8.7749403115424101E-008   2.5155934296667588E-003   0.0000000000000000     
   1.0538832082761457E-007   4.3268036506710090E-003   0.0000000000000000     
   1.0553671597629565E-007   6.5069562091225070E-003   0.0000000000000000     
   0.0000000000000000        0.0000000000000000        0.0000000000000000     
  -2.1296480741921921E-004   1.0755991878154117E-003   0.0000000000000000     
  -4.2693040054707788E-004   2.5207344905687499E-003   0.0000000000000000     
  -6.4189677938357621E-004   4.3354059082600146E-003   0.0000000000000000     
  -8.5786394392871378E-004   6.5196134408892067E-003   0.0000000000000000     
   0.0000000000000000        0.0000000000000000        0.0000000000000000     
  -4.2425680325511772E-004   1.0824598178041118E-003   0.0000000000000000     
  -8.5296975225996675E-004   2.5361946755679435E-003   0.0000000000000000     
  -1.2861388470145473E-003   4.3612045732914946E-003   0.0000000000000000     
  -1.7237640875188589E-003   6.5574895109747665E-003   0.0000000000000000     
   0.0000000000000000        0.0000000000000000        0.0000000000000000     
  -6.3382336754485603E-004   1.0939074360758558E-003   0.0000000000000000     
  -1.2780303057355513E-003   2.5619739846643383E-003   0.0000000000000000     
  -1.9326208145720855E-003   4.4041996457654491E-003   0.0000000000000000     
  -2.5975948940544598E-003   6.6205844193791856E-003   0.0000000000000000     
   0.0000000000000000        0.0000000000000000        0.0000000000000000     
  -8.4166450028843416E-004   1.1099420426306436E-003   0.0000000000000000     
  -1.7021120609738314E-003   2.5980724178579356E-003   0.0000000000000000     
  -2.5813426820561923E-003   4.4643911256818762E-003   0.0000000000000000     
  -3.4793563635355149E-003   6.7088981661024656E-003   0.0000000000000000     
   1.0553671597629565E-007   6.5069562091225070E-003   0.0000000000000000     
   1.1399935746612836E-007   9.0286308170389046E-003   0.0000000000000000     
   1.5658101420180757E-007   1.1864407186437853E-002   0.0000000000000000     
   2.3328168618345697E-007   1.5014285317319354E-002   0.0000000000000000     
   3.4410137341085462E-007   1.8478265209683400E-002   0.0000000000000000     
  -8.5786394392871378E-004   6.5196134408892067E-003   0.0000000000000000     
  -1.0759859472802248E-003   9.0452888687792641E-003   0.0000000000000000     
  -1.2974168425358430E-003   1.1884363972253124E-002   0.0000000000000000     
  -1.5221566296955689E-003   1.5036838751310786E-002   0.0000000000000000     
  -1.7502053087594010E-003   1.8502713205952252E-002   0.0000000000000000     
  -1.7237640875188589E-003   6.5574895109747665E-003   0.0000000000000000     
  -2.1660202817883291E-003   9.0951060067989992E-003   0.0000000000000000     
  -2.6130822378383849E-003   1.1944110578945438E-002   0.0000000000000000     
  -3.0649499556690252E-003   1.5104503227414075E-002   0.0000000000000000     
  -3.5216234352802517E-003   1.8576283952204922E-002   0.0000000000000000     
  -2.5975948940544598E-003   6.6205844193791856E-003   0.0000000000000000     
  -3.2699890041668479E-003   9.1780822310981152E-003   0.0000000000000000     
  -3.9468396048934224E-003   1.2043647006514793E-002   0.0000000000000000     
  -4.6281466962341871E-003   1.5217278745629226E-002   0.0000000000000000     
  -5.3139102781891408E-003   1.8698977448441411E-002   0.0000000000000000     
  -3.4793563635355149E-003   6.7088981661024656E-003   0.0000000000000000     
  -4.3878921144157781E-003   9.2942175416766033E-003   0.0000000000000000     
  -5.2986889437009587E-003   1.2182973254961194E-002   0.0000000000000000     
  -6.2117468513910546E-003   1.5375165305956232E-002   0.0000000000000000     
  -7.1270658374860667E-003   1.8870793694661721E-002   0.0000000000000000     
   3.4410137341085462E-007   1.8478265209683400E-002   0.0000000000000000     
   4.0697364627590403E-007   2.2227264263234250E-002   0.0000000000000000     
   3.3983207517004790E-007   2.6232199877676138E-002   0.0000000000000000     
   1.4267666009308973E-007   3.0493072053009069E-002   0.0000000000000000     
  -1.8449259895476043E-007   3.5009880789233033E-002   0.0000000000000000     
  -1.7502053087594010E-003   1.8502713205952252E-002   0.0000000000000000     
  -1.9779919835220070E-003   2.2253196587389942E-002   0.0000000000000000     
  -2.2019457577780502E-003   2.6259498146836292E-002   0.0000000000000000     
  -2.4220666315275322E-003   3.0521617884291287E-002   0.0000000000000000     
  -2.6383546047704519E-003   3.5039555799754936E-002   0.0000000000000000     
  -3.5216234352802517E-003   1.8576283952204922E-002   0.0000000000000000     
  -3.9772140768188609E-003   2.2331315509984573E-002   0.0000000000000000     
  -4.4258332804316524E-003   2.6341460657419644E-002   0.0000000000000000     
  -4.8674810461186227E-003   3.0606719394510123E-002   0.0000000000000000     
  -5.3021573738797761E-003   3.5127091721256019E-002   0.0000000000000000     
  -5.3139102781891408E-003   1.8698977448441411E-002   0.0000000000000000     
  -5.9972593062442865E-003   2.2461621031018141E-002   0.0000000000000000     
  -6.6713227358856323E-003   2.6478087409426192E-002   0.0000000000000000     
  -7.3361005671131810E-003   3.0748376583665579E-002   0.0000000000000000     
  -7.9915927999269255E-003   3.5272488553736298E-002   0.0000000000000000     
  -7.1270658374860667E-003   1.8870793694661721E-002   0.0000000000000000     
  -8.0381276717982827E-003   2.2644113150490634E-002   0.0000000000000000     
  -8.9384141241399973E-003   2.6669378402855947E-002   0.0000000000000000     
  -9.8279251945112018E-003   3.0946589451757656E-002   0.0000000000000000     
  -1.0706660882911905E-002   3.5475746297195757E-002   0.0000000000000000     
  -1.8449259895476043E-007   3.5009880789233033E-002   0.0000000000000000     
  -5.5344809239612092E-007   3.9762859552156027E-002   0.0000000000000000     
  -8.7596221065333905E-007   4.4732241807586018E-002   0.0000000000000000     
  -1.1520349537254255E-006   4.9918027555523006E-002   0.0000000000000000     
  -1.3816663216150230E-006   5.5320216795967006E-002   0.0000000000000000     
  -2.6383546047704519E-003   3.5039555799754936E-002   0.0000000000000000     
  -2.8505137791502017E-003   3.9793279451252314E-002   0.0000000000000000     
  -3.0582482563101714E-003   4.4762756396808490E-002   0.0000000000000000     
  -3.2615580362503624E-003   4.9947986636423469E-002   0.0000000000000000     
  -3.4604431189707734E-003   5.5348970170097239E-002   0.0000000000000000     
  -5.3021573738797761E-003   3.5127091721256019E-002   0.0000000000000000     
  -5.7285013751267686E-003   3.9882316298773889E-002   0.0000000000000000     
  -6.1451521612712594E-003   4.4852131788180254E-002   0.0000000000000000     
  -6.5521097323132478E-003   5.0036538189475135E-002   0.0000000000000000     
  -6.9493740882527353E-003   5.5435535502658520E-002   0.0000000000000000     
  -7.9915927999269255E-003   3.5272488553736298E-002   0.0000000000000000     
  -8.6345162360220978E-003   4.0029970094720750E-002   0.0000000000000000     
  -9.2615876770939173E-003   4.5000367981701324E-002   0.0000000000000000     
  -9.8728071231423825E-003   5.0183682214678033E-002   0.0000000000000000     
  -1.0468174574167500E-002   5.5579912793650862E-002   0.0000000000000000     
  -1.0706660882911905E-002   3.5475746297195757E-002   0.0000000000000000     
  -1.1568558361836189E-002   4.0236240839092892E-002   0.0000000000000000     
  -1.2407554803778142E-002   4.5207464977371686E-002   0.0000000000000000     
  -1.3223650208737772E-002   5.0389418712032133E-002   0.0000000000000000     
  -1.4016844576715067E-002   5.5782102043074239E-002   0.0000000000000000     
  -1.3816663216150230E-006   5.5320216795967006E-002   0.0000000000000000     
  -1.6926090151808118E-006   6.0923730158810419E-002   0.0000000000000000     
  -2.2126157352861343E-006   6.6713488273945631E-002   0.0000000000000000     
  -2.9416864819289035E-006   7.2689491141372672E-002   0.0000000000000000     
  -3.8798212551112606E-006   7.8851738761091542E-002   0.0000000000000000     
  -3.4604431189707734E-003   5.5348970170097239E-002   0.0000000000000000     
  -3.6542196409813030E-003   6.0951009550901117E-002   0.0000000000000000     
  -3.8422037387918452E-003   6.6739407331906378E-002   0.0000000000000000     
  -4.0243954124024005E-003   7.2714163513113050E-002   0.0000000000000000     
  -4.2007946618129706E-003   7.8875278094521120E-002   0.0000000000000000     
  -6.9493740882527353E-003   5.5435535502658520E-002   0.0000000000000000     
  -7.3360258211195442E-003   6.1035011461284643E-002   0.0000000000000000     
  -7.7111455229435027E-003   6.6820853798907690E-002   0.0000000000000000     
  -8.0747331937246081E-003   7.2793062515527723E-002   0.0000000000000000     
  -8.4267888334628588E-003   7.8951637611144654E-002   0.0000000000000000     
  -1.0468174574167500E-002   5.5579912793650862E-002   0.0000000000000000     
  -1.1047111149429910E-002   6.1175735889960975E-002   0.0000000000000000     
  -1.1609037968190258E-002   6.6957827674949580E-002   0.0000000000000000     
  -1.2153955030448547E-002   7.2926188148616650E-002   0.0000000000000000     
  -1.2681862336204776E-002   7.9080817310962184E-002   0.0000000000000000     
  -1.4016844576715067E-002   5.5782102043074239E-002   0.0000000000000000     
  -1.4787475625912393E-002   6.1373182836930155E-002   0.0000000000000000     
  -1.5535881074532113E-002   6.7150328960032035E-002   0.0000000000000000     
  -1.6262060922574220E-002   7.3113540412379871E-002   0.0000000000000000     
  -1.6966015170038720E-002   7.9262817193973670E-002   0.0000000000000000     
  -3.8798212551112606E-006   7.8851738761091542E-002   0.0000000000000000     
  -4.5716070395326620E-006   8.5186653541796248E-002   0.0000000000000000     
  -4.5616308198951662E-006   9.1680657892180856E-002   0.0000000000000000     
  -3.8498925961996406E-006   9.8333751812245351E-002   0.0000000000000000     
  -2.4363923684447841E-006  0.10514593530198973        0.0000000000000000     
  -4.2007946618129706E-003   7.8875278094521120E-002   0.0000000000000000     
  -4.3703644737583588E-003   8.5209406643010313E-002   0.0000000000000000     
  -4.5320678349733698E-003   9.1703204725460424E-002   0.0000000000000000     
  -4.6859047454580003E-003   9.8356672341871398E-002   0.0000000000000000     
  -4.8318752052122554E-003  0.10516980949224328        0.0000000000000000     
  -8.4267888334628588E-003   7.8951637611144654E-002   0.0000000000000000     
  -8.7655310605001570E-003   8.5283255216617879E-002   0.0000000000000000     
  -9.0891784931783921E-003   9.1774591462806657E-002   0.0000000000000000     
  -9.3977311314975727E-003   9.8425646349711030E-002   0.0000000000000000     
  -9.6911889754576885E-003  0.10523641987733096        0.0000000000000000     
  -1.2681862336204776E-002   7.9080817310962184E-002   0.0000000000000000     
  -1.3190071367264921E-002   8.5408199262618903E-002   0.0000000000000000     
  -1.3675893605434968E-002   9.1894818104219608E-002   0.0000000000000000     
  -1.4139329050714909E-002   9.8540673835764217E-002   0.0000000000000000     
  -1.4580377703104748E-002  0.10534576645725278        0.0000000000000000     
  -1.6966015170038720E-002   7.9262817193973670E-002   0.0000000000000000     
  -1.7643985394052659E-002   8.5584238781013455E-002   0.0000000000000000     
  -1.8292213171743097E-002   9.2063884649699210E-002   0.0000000000000000     
  -1.8910698503110016E-002   9.8701754800030989E-002   0.0000000000000000     
  -1.9499441388153436E-002  0.10549784923200874        0.0000000000000000     
  -2.4363923684447841E-006  0.10514593530198973        0.0000000000000000     
  -1.1521293911784681E-006  0.11210571012009250        0.0000000000000000     
  -8.2810291895019008E-007  0.11920157802523212        0.0000000000000000     
  -1.4643129517592725E-006  0.12643353901740867        0.0000000000000000     
  -3.0607594896049292E-006  0.13380159309662210        0.0000000000000000     
  -4.8318752052122554E-003  0.10516980949224328        0.0000000000000000     
  -4.9716165465371054E-003  0.11212915476086902        0.0000000000000000     
  -5.1067661017335274E-003  0.11922124673204156        0.0000000000000000     
  -5.2373238708015180E-003  0.12644608540576091        0.0000000000000000     
  -5.3632898537410807E-003  0.13380367078202712        0.0000000000000000     
  -9.6911889754576885E-003  0.10523641987733096        0.0000000000000000     
  -9.9722256606228458E-003  0.11219275461237337        0.0000000000000000     
  -1.0243514822557132E-002  0.11928049312154512        0.0000000000000000     
  -1.0505056461260551E-002  0.12649963540484627        0.0000000000000000     
  -1.0756850576733101E-002  0.13385018146227678        0.0000000000000000     
  -1.4580377703104748E-002  0.10534576645725278        0.0000000000000000     
  -1.5002979471648399E-002  0.11229650967460558        0.0000000000000000     
  -1.5411074265389768E-002  0.11937931719374292        0.0000000000000000     
  -1.5804662084328853E-002  0.12659418901466477        0.0000000000000000     
  -1.6183742928465673E-002  0.13394112513737116        0.0000000000000000     
  -1.9499441388153436E-002  0.10549784923200874        0.0000000000000000     
  -2.0063877979613766E-002  0.11244041994756565        0.0000000000000000     
  -2.0609444430231435E-002  0.11951771894863486        0.0000000000000000     
  -2.1136140740006439E-002  0.12672974623521638        0.0000000000000000     
  -2.1643966908938779E-002  0.13407650180731015        0.0000000000000000     
  -3.0607594896049292E-006  0.13380159309662210        0.0000000000000000     
  -3.8801230857730701E-006  0.14129106138935288        0.0000000000000000     
  -2.1850842935486293E-006  0.14888726502208161        0.0000000000000000     
   2.0243568870664688E-006  0.15659020399480825        0.0000000000000000     
   8.7482004560756124E-006  0.16439987830753278        0.0000000000000000     
  -5.3632898537410807E-003  0.13380367078202712        0.0000000000000000     
  -5.4819221814808835E-003  0.14128945743514462        0.0000000000000000     
  -5.5904789849495935E-003  0.14889889993941791        0.0000000000000000     
  -5.6889602641472126E-003  0.15663199829484692        0.0000000000000000     
  -5.7773660190737399E-003  0.16448875250143180        0.0000000000000000     
  -1.0756850576733101E-002  0.13385018146227678        0.0000000000000000     
  -1.0994294551720536E-002  0.14133196345399421        0.0000000000000000     
  -1.1212785768968597E-002  0.14894481354015604        0.0000000000000000     
  -1.1412324228477284E-002  0.15668873172076228        0.0000000000000000     
  -1.1592909930246602E-002  0.16456371799581293        0.0000000000000000     
  -1.6183742928465673E-002  0.13394112513737116        0.0000000000000000     
  -1.6540997233804724E-002  0.14141857944590169        0.0000000000000000     
  -1.6869105436350552E-002  0.14902500582429606        0.0000000000000000     
  -1.7168067536103147E-002  0.15676040427255419        0.0000000000000000     
  -1.7437883533062519E-002  0.16462477479067616        0.0000000000000000     
  -2.1643966908938779E-002  0.13407650180731015        0.0000000000000000     
  -2.2122030227733454E-002  0.14154930541086708        0.0000000000000000     
  -2.2559437987095459E-002  0.14913947679183795        0.0000000000000000     
  -2.2956190187024800E-002  0.15684701595022280        0.0000000000000000     
  -2.3312286827521476E-002  0.16467192288602156        0.0000000000000000     
   0.0000000000000000        0.0000000000000000        0.0000000000000000     
  -8.4166450028843416E-004   1.1099420426306436E-003   0.0000000000000000     
  -1.7021120609738314E-003   2.5980724178579356E-003   0.0000000000000000     
  -2.5813426820561923E-003   4.4643911256818762E-003   0.0000000000000000     
  -3.4793563635355149E-003   6.7088981661024656E-003   0.0000000000000000     
   0.0000000000000000        0.0000000000000000        0.0000000000000000     
  -1.0566889462633668E-003   1.1341169617858527E-003   0.0000000000000000     
  -2.1397585476534611E-003   2.6503315210427208E-003   0.0000000000000000     
  -3.2492088041702841E-003   4.5486436777706050E-003   0.0000000000000000     
  -4.3850397158138330E-003   6.8290534319695043E-003   0.0000000000000000     
   0.0000000000000000        0.0000000000000000        0.0000000000000000     
  -1.2878054502471680E-003   1.1699855178588603E-003   0.0000000000000000     
  -2.6055132954530946E-003   2.7245928401126813E-003   0.0000000000000000     
  -3.9531235356177787E-003   4.6638219667614620E-003   0.0000000000000000     
  -5.3306361707412221E-003   6.9876728978052029E-003   0.0000000000000000     
   0.0000000000000000        0.0000000000000000        0.0000000000000000     
  -1.5350140122398386E-003   1.2175477108496663E-003   0.0000000000000000     
  -3.0993763043727311E-003   2.8208563750678145E-003   0.0000000000000000     
  -4.6930868763986784E-003   4.8099259926544461E-003   0.0000000000000000     
  -6.3161457283176809E-003   7.1847565636095605E-003   0.0000000000000000     
   0.0000000000000000        0.0000000000000000        0.0000000000000000     
  -1.7983146322413778E-003   1.2768035407582708E-003   0.0000000000000000     
  -3.6213475744123714E-003   2.9391221259081239E-003   0.0000000000000000     
  -5.4690988265129834E-003   4.9869557554495592E-003   0.0000000000000000     
  -7.3415683885432086E-003   7.4203044293825772E-003   0.0000000000000000     
  -3.4793563635355149E-003   6.7088981661024656E-003   0.0000000000000000     
  -4.3878921144157781E-003   9.2942175416766033E-003   0.0000000000000000     
  -5.2986889437009587E-003   1.2182973254961194E-002   0.0000000000000000     
  -6.2117468513910546E-003   1.5375165305956232E-002   0.0000000000000000     
  -7.1270658374860667E-003   1.8870793694661721E-002   0.0000000000000000     
  -4.3850397158138330E-003   6.8290534319695043E-003   0.0000000000000000     
  -5.5342415513177012E-003   9.4495343338941006E-003   0.0000000000000000     
  -6.6838045794154781E-003   1.2368059933799075E-002   0.0000000000000000     
  -7.8337288001071610E-003   1.5584630231684429E-002   0.0000000000000000     
  -8.9840142133927499E-003   1.9099245227550153E-002   0.0000000000000000     
  -5.3306361707412221E-003   6.9876728978052029E-003   0.0000000000000000     
  -6.7235492536551937E-003   9.6500550031102337E-003   0.0000000000000000     
  -8.1173608371914695E-003   1.2604877652542876E-002   0.0000000000000000     
  -9.5120709213500423E-003   1.5852140846103133E-002   0.0000000000000000     
  -1.0907679506130917E-002   1.9391844583791007E-002   0.0000000000000000     
  -6.3161457283176809E-003   7.1847565636095605E-003   0.0000000000000000     
  -7.9558152214282574E-003   9.8957795493249991E-003   0.0000000000000000     
  -9.5993577170289321E-003   1.2893426411192599E-002   0.0000000000000000     
  -1.1246773215119700E-002   1.6177697149212359E-002   0.0000000000000000     
  -1.2898061715700564E-002   1.9748591763384286E-002   0.0000000000000000     
  -7.3415683885432086E-003   7.4203044293825772E-003   0.0000000000000000     
  -9.2310394546368888E-003   1.0186707972538397E-002   0.0000000000000000     
  -1.1129795218927865E-002   1.3233706209748237E-002   0.0000000000000000     
  -1.3037835681416129E-002   1.6561299141012096E-002   0.0000000000000000     
  -1.4955160842101693E-002   2.0169486766329982E-002   0.0000000000000000     
  -7.1270658374860667E-003   1.8870793694661721E-002   0.0000000000000000     
  -8.0381276717982827E-003   2.2644113150490634E-002   0.0000000000000000     
  -8.9384141241399973E-003   2.6669378402855947E-002   0.0000000000000000     
  -9.8279251945112018E-003   3.0946589451757656E-002   0.0000000000000000     
  -1.0706660882911905E-002   3.5475746297195757E-002   0.0000000000000000     
  -8.9840142133927499E-003   1.9099245227550153E-002   0.0000000000000000     
  -1.0127742276522736E-002   2.2887157904578403E-002   0.0000000000000000     
  -1.1257994446747603E-002   2.6923621245951310E-002   0.0000000000000000     
  -1.2374770724067346E-002   3.1208635251668896E-002   0.0000000000000000     
  -1.3478071108481969E-002   3.5742199921731131E-002   0.0000000000000000     
  -1.0907679506130917E-002   1.9391844583791007E-002   0.0000000000000000     
  -1.2294026223459530E-002   2.3199121329457777E-002   0.0000000000000000     
  -1.3660950705261311E-002   2.7249103546954721E-002   0.0000000000000000     
  -1.5008452951536265E-002   3.1541791236281841E-002   0.0000000000000000     
  -1.6336532962284385E-002   3.6077184397439142E-002   0.0000000000000000     
  -1.2898061715700564E-002   1.9748591763384286E-002   0.0000000000000000     
  -1.4536979512608662E-002   2.3580003425128761E-002   0.0000000000000000     
  -1.6147282899681127E-002   2.7645825305866161E-002   0.0000000000000000     
  -1.7728971876917955E-002   3.1946057405596508E-002   0.0000000000000000     
  -1.9282046444319152E-002   3.6480699724319776E-002   0.0000000000000000     
  -1.4955160842101693E-002   2.0169486766329982E-002   0.0000000000000000     
  -1.6856602143970133E-002   2.4029804191591345E-002   0.0000000000000000     
  -1.8716991030007044E-002   2.8113786522685646E-002   0.0000000000000000     
  -2.0536327500212424E-002   3.2421433759612879E-002   0.0000000000000000     
  -2.2314611554586271E-002   3.6952745902373060E-002   0.0000000000000000     
  -1.0706660882911905E-002   3.5475746297195757E-002   0.0000000000000000     
  -1.1568558361836189E-002   4.0236240839092892E-002   0.0000000000000000     
  -1.2407554803778142E-002   4.5207464977371686E-002   0.0000000000000000     
  -1.3223650208737772E-002   5.0389418712032133E-002   0.0000000000000000     
  -1.4016844576715067E-002   5.5782102043074239E-002   0.0000000000000000     
  -1.3478071108481969E-002   3.5742199921731131E-002   0.0000000000000000     
  -1.4559593771114725E-002   4.0504334629215877E-002   0.0000000000000000     
  -1.5611036883088864E-002   4.5475058747200946E-002   0.0000000000000000     
  -1.6632400444404383E-002   5.0654372275686352E-002   0.0000000000000000     
  -1.7623684455061291E-002   5.6042275214672102E-002   0.0000000000000000     
  -1.6336532962284385E-002   3.6077184397439142E-002   0.0000000000000000     
  -1.7636588482403397E-002   4.0837457562415226E-002   0.0000000000000000     
  -1.8900017256791003E-002   4.5804785263198693E-002   0.0000000000000000     
  -2.0126819285447222E-002   5.0979167499789577E-002   0.0000000000000000     
  -2.1316994568372032E-002   5.6360604272187850E-002   0.0000000000000000     
  -1.9282046444319152E-002   3.6480699724319776E-002   0.0000000000000000     
  -2.0799542495702199E-002   4.1235609638690940E-002   0.0000000000000000     
  -2.2274495924884570E-002   4.6196644525364948E-002   0.0000000000000000     
  -2.3706906731866269E-002   5.1363804384341794E-002   0.0000000000000000     
  -2.5096774916647285E-002   5.6737089215621511E-002   0.0000000000000000     
  -2.2314611554586271E-002   3.6952745902373060E-002   0.0000000000000000     
  -2.4048455811011133E-002   4.1698790858043039E-002   0.0000000000000000     
  -2.5734472887369551E-002   4.6650636533699691E-002   0.0000000000000000     
  -2.7372662783661527E-002   5.1808282929343044E-002   0.0000000000000000     
  -2.8963025499887059E-002   5.7171730044973064E-002   0.0000000000000000     
  -1.4016844576715067E-002   5.5782102043074239E-002   0.0000000000000000     
  -1.4787475625912393E-002   6.1373182836930155E-002   0.0000000000000000     
  -1.5535881074532113E-002   6.7150328960032035E-002   0.0000000000000000     
  -1.6262060922574220E-002   7.3113540412379871E-002   0.0000000000000000     
  -1.6966015170038720E-002   7.9262817193973670E-002   0.0000000000000000     
  -1.7623684455061291E-002   5.6042275214672102E-002   0.0000000000000000     
  -1.8586184229050479E-002   6.1627287173879677E-002   0.0000000000000000     
  -1.9521195080362840E-002   6.7397927763030593E-002   0.0000000000000000     
  -2.0428717008998384E-002   7.3354196982124836E-002   0.0000000000000000     
  -2.1308750014957099E-002   7.9496094831162434E-002   0.0000000000000000     
  -2.1316994568372032E-002   5.6360604272187850E-002   0.0000000000000000     
  -2.2472301937327636E-002   6.1937983772497089E-002   0.0000000000000000     
  -2.3594500224076220E-002   6.7700194192820820E-002   0.0000000000000000     
  -2.4683589428617782E-002   7.3647235533159078E-002   0.0000000000000000     
  -2.5739569550952329E-002   7.9779107793511841E-002   0.0000000000000000     
  -2.5096774916647285E-002   5.6737089215621511E-002   0.0000000000000000     
  -2.6445828750743878E-002   6.2305272632782377E-002   0.0000000000000000     
  -2.7755796505672250E-002   6.8057128249402729E-002   0.0000000000000000     
  -2.9026678181432428E-002   7.3992656065482554E-002   0.0000000000000000     
  -3.0258473778024396E-002   8.0111856081021865E-002   0.0000000000000000     
  -2.8963025499887059E-002   5.7171730044973064E-002   0.0000000000000000     
  -3.0506764669299184E-002   6.2729153754735562E-002   0.0000000000000000     
  -3.2005083925150939E-002   6.8468729932776279E-002   0.0000000000000000     
  -3.3457983267442308E-002   7.4390458579095278E-002   0.0000000000000000     
  -3.4865462696173313E-002   8.0494339693692504E-002   0.0000000000000000     
  -1.6966015170038720E-002   7.9262817193973670E-002   0.0000000000000000     
  -1.7643985394052659E-002   8.5584238781013455E-002   0.0000000000000000     
  -1.8292213171743097E-002   9.2063884649699210E-002   0.0000000000000000     
  -1.8910698503110016E-002   9.8701754800030989E-002   0.0000000000000000     
  -1.9499441388153436E-002  0.10549784923200874        0.0000000000000000     
  -2.1308750014957099E-002   7.9496094831162434E-002   0.0000000000000000     
  -2.2156464110009426E-002   8.5809404594491684E-002   0.0000000000000000     
  -2.2967029305925798E-002   9.2279909556460912E-002   0.0000000000000000     
  -2.3740445602706210E-002   9.8907609717070105E-002   0.0000000000000000     
  -2.4476713000350661E-002  0.10569250507631930        0.0000000000000000     
  -2.5739569550952329E-002   7.9779107793511841E-002   0.0000000000000000     
  -2.6756698484281288E-002   8.6081727525743917E-002   0.0000000000000000     
  -2.7729234121806112E-002   9.2541011281720098E-002   0.0000000000000000     
  -2.8657176463526803E-002   9.9156959061440411E-002   0.0000000000000000     
  -2.9540525509443354E-002  0.10592957086490484        0.0000000000000000     
  -3.0258473778024396E-002   8.0111856081021865E-002   0.0000000000000000     
  -3.1444688516868248E-002   8.6401207574770128E-002   0.0000000000000000     
  -3.2578827619384035E-002   9.2847189825476822E-002   0.0000000000000000     
  -3.3660891085571791E-002   9.9449802833141920E-002   0.0000000000000000     
  -3.4690878915431496E-002  0.10620904659776545        0.0000000000000000     
  -3.4865462696173313E-002   8.0494339693692504E-002   0.0000000000000000     
  -3.6220434207770276E-002   8.6767844741570316E-002   0.0000000000000000     
  -3.7515809798659566E-002   9.3198445187731002E-002   0.0000000000000000     
  -3.8751589468841177E-002   9.9786141032174605E-002   0.0000000000000000     
  -3.9927773218315102E-002  0.10653093227490107        0.0000000000000000     
  -1.9499441388153436E-002  0.10549784923200874        0.0000000000000000     
  -2.0063877979613766E-002  0.11244041994756565        0.0000000000000000     
  -2.0609444430231435E-002  0.11951771894863486        0.0000000000000000     
  -2.1136140740006439E-002  0.12672974623521638        0.0000000000000000     
  -2.1643966908938779E-002  0.13407650180731015        0.0000000000000000     
  -2.4476713000350661E-002  0.10569250507631930        0.0000000000000000     
  -2.5182908397983442E-002  0.11262478336413312        0.0000000000000000     
  -2.5866108694728829E-002  0.11969463231043630        0.0000000000000000     
  -2.6526313890586829E-002  0.12690205191522885        0.0000000000000000     
  -2.7163523985557443E-002  0.13424704217851077        0.0000000000000000     
  -2.9540525509443354E-002  0.10592957086490484        0.0000000000000000     
  -3.0388057940221917E-002  0.11284989785718753        0.0000000000000000     
  -3.1208550436528662E-002  0.11990899120336260        0.0000000000000000     
  -3.2002002998363581E-002  0.12710685090343007        0.0000000000000000     
  -3.2768415625726674E-002  0.13444347695738992        0.0000000000000000     
  -3.4690878915431496E-002  0.10620904659776545        0.0000000000000000     
  -3.5679326606329199E-002  0.11311576342672888        0.0000000000000000     
  -3.6636769655630924E-002  0.12016079562741372        0.0000000000000000     
  -3.7563208063336684E-002  0.12734414319981999        0.0000000000000000     
  -3.8458641829446472E-002  0.13466580614394763        0.0000000000000000     
  -3.9927773218315102E-002  0.10653093227490107        0.0000000000000000     
  -4.1056714396305274E-002  0.11342238007275716        0.0000000000000000     
  -4.2150766352035615E-002  0.12045004558258969        0.0000000000000000     
  -4.3209929085506145E-002  0.12761392880439856        0.0000000000000000     
  -4.4234202596716829E-002  0.13491402973818387        0.0000000000000000     
  -2.1643966908938779E-002  0.13407650180731015        0.0000000000000000     
  -2.2122030227733454E-002  0.14154930541086708        0.0000000000000000     
  -2.2559437987095459E-002  0.14913947679183795        0.0000000000000000     
  -2.2956190187024800E-002  0.15684701595022280        0.0000000000000000     
  -2.3312286827521476E-002  0.16467192288602156        0.0000000000000000     
  -2.7163523985557443E-002  0.13424704217851077        0.0000000000000000     
  -2.7763105109290434E-002  0.14171305894912617        0.0000000000000000     
  -2.8310423391435580E-002  0.14928355807591914        0.0000000000000000     
  -2.8805478831992873E-002  0.15695853955888975        0.0000000000000000     
  -2.9248271430962331E-002  0.16473800339803796        0.0000000000000000     
  -3.2768415625726674E-002  0.13444347695738992        0.0000000000000000     
  -3.3489933454259387E-002  0.14189875766091473        0.0000000000000000     
  -3.4148701619603164E-002  0.14945258130967709        0.0000000000000000     
  -3.4744720121758013E-002  0.15710494790367688        0.0000000000000000     
  -3.5277988960723920E-002  0.16485585744291426        0.0000000000000000     
  -3.8458641829446472E-002  0.13466580614394763        0.0000000000000000     
  -3.9302515262640302E-002  0.14210640154623280        0.0000000000000000     
  -4.0074272671598209E-002  0.14964654649311168        0.0000000000000000     
  -4.0773914056320193E-002  0.15728624098458424        0.0000000000000000     
  -4.1401439416806254E-002  0.16502548502065051        0.0000000000000000     
  -4.4234202596716829E-002  0.13491402973818387        0.0000000000000000     
  -4.5200850534433179E-002  0.14233599060508043        0.0000000000000000     
  -4.6087136547420721E-002  0.14986545362622308        0.0000000000000000     
  -4.6893060635679433E-002  0.15750241880161181        0.0000000000000000     
  -4.7618622799209309E-002  0.16524688613124663        0.0000000000000000     
   0.0000000000000000        0.0000000000000000        0.0000000000000000     
  -1.7983146322413778E-003   1.2768035407582708E-003   0.0000000000000000     
  -3.6213475744123714E-003   2.9391221259081239E-003   0.0000000000000000     
  -5.4690988265129834E-003   4.9869557554495592E-003   0.0000000000000000     
  -7.3415683885432086E-003   7.4203044293825772E-003   0.0000000000000000     
   0.0000000000000000        0.0000000000000000        0.0000000000000000     
  -2.0694363739517606E-003   1.3548816300835878E-003   0.0000000000000000     
  -4.1640774287011566E-003   3.0939168077084972E-003   0.0000000000000000     
  -6.2839231642481874E-003   5.2171055328747284E-003   0.0000000000000000     
  -8.4289735805928526E-003   7.7244478055822829E-003   0.0000000000000000     
   0.0000000000000000        0.0000000000000000        0.0000000000000000     
  -2.3401083010709620E-003   1.4589106013245302E-003   0.0000000000000000     
  -4.7202161903682240E-003   3.2997671355438243E-003   0.0000000000000000     
  -7.1403236678917901E-003   5.5225696026578843E-003   0.0000000000000000     
  -9.6004307336416562E-003   8.1273180026667068E-003   0.0000000000000000     
   0.0000000000000000        0.0000000000000000        0.0000000000000000     
  -2.6103304135989811E-003   1.5888904544810983E-003   0.0000000000000000     
  -5.2897638594135779E-003   3.5566731094141065E-003   0.0000000000000000     
  -8.0383003374437916E-003   5.9033479647990234E-003   0.0000000000000000     
  -1.0855939847689620E-002   8.6289150206358516E-003   0.0000000000000000     
   0.0000000000000000        0.0000000000000000        0.0000000000000000     
  -2.8801027115358179E-003   1.7448211895532920E-003   0.0000000000000000     
  -5.8727204358372150E-003   3.8646347293193419E-003   0.0000000000000000     
  -8.9778531729041919E-003   6.3594406192981493E-003   0.0000000000000000     
  -1.2195500922736744E-002   9.2292388594897162E-003   0.0000000000000000     
  -7.3415683885432086E-003   7.4203044293825772E-003   0.0000000000000000     
  -9.2310394546368888E-003   1.0186707972538397E-002   0.0000000000000000     
  -1.1129795218927865E-002   1.3233706209748237E-002   0.0000000000000000     
  -1.3037835681416129E-002   1.6561299141012096E-002   0.0000000000000000     
  -1.4955160842101693E-002   2.0169486766329982E-002   0.0000000000000000     
  -8.4289735805928526E-003   7.7244478055822829E-003   0.0000000000000000     
  -1.0590870634543821E-002   1.0558430679690868E-002   0.0000000000000000     
  -1.2761256282909755E-002   1.3661541209060187E-002   0.0000000000000000     
  -1.4940130525690662E-002   1.7033779393690246E-002   0.0000000000000000     
  -1.7127493362886537E-002   2.0675145233581042E-002   0.0000000000000000     
  -9.6004307336416562E-003   8.1273180026667068E-003   0.0000000000000000     
  -1.2076957442411775E-002   1.1046538077722842E-002   0.0000000000000000     
  -1.4546323848996092E-002   1.4212755569978837E-002   0.0000000000000000     
  -1.7008529953394615E-002   1.7625970479434691E-002   0.0000000000000000     
  -1.9463575755607341E-002   2.1286182806090407E-002   0.0000000000000000     
  -1.0855939847689620E-002   8.6289150206358516E-003   0.0000000000000000     
  -1.3689299878240753E-002   1.1651030166634326E-002   0.0000000000000000     
  -1.6484997917186876E-002   1.4887349292504189E-002   0.0000000000000000     
  -1.9243033964527988E-002   1.8337872398245435E-002   0.0000000000000000     
  -2.1963408020264089E-002   2.2002599483858066E-002   0.0000000000000000     
  -1.2195500922736744E-002   9.2292388594897162E-003   0.0000000000000000     
  -1.5427897942030757E-002   1.2371906946425319E-002   0.0000000000000000     
  -1.8577278487482099E-002   1.5685322376636238E-002   0.0000000000000000     
  -2.1643642559090789E-002   1.9169485150122477E-002   0.0000000000000000     
  -2.4626990156856807E-002   2.2824395266884026E-002   0.0000000000000000     
  -1.4955160842101693E-002   2.0169486766329982E-002   0.0000000000000000     
  -1.6856602143970133E-002   2.4029804191591345E-002   0.0000000000000000     
  -1.8716991030007044E-002   2.8113786522685646E-002   0.0000000000000000     
  -2.0536327500212424E-002   3.2421433759612879E-002   0.0000000000000000     
  -2.2314611554586271E-002   3.6952745902373060E-002   0.0000000000000000     
  -1.7127493362886537E-002   2.0675145233581042E-002   0.0000000000000000     
  -1.9292264822074211E-002   2.4558192476860127E-002   0.0000000000000000     
  -2.1403364930830521E-002   2.8655474871655057E-002   0.0000000000000000     
  -2.3460793689155462E-002   3.2966992417965822E-002   0.0000000000000000     
  -2.5464551097049037E-002   3.7492745115792425E-002   0.0000000000000000     
  -1.9463575755607341E-002   2.1286182806090407E-002   0.0000000000000000     
  -2.1883338251451168E-002   2.5174837128949697E-002   0.0000000000000000     
  -2.4239694436743012E-002   2.9273378027016277E-002   0.0000000000000000     
  -2.6532644311482875E-002   3.3581805500290170E-002   0.0000000000000000     
  -2.8762187875670753E-002   3.8100119548771343E-002   0.0000000000000000     
  -2.1963408020264089E-002   2.2002599483858066E-002   0.0000000000000000     
  -2.4629822432101000E-002   2.5879738147860040E-002   0.0000000000000000     
  -2.7225979547744521E-002   2.9967495988769327E-002   0.0000000000000000     
  -2.9751879367194662E-002   3.4265873006585922E-002   0.0000000000000000     
  -3.2207521890451417E-002   3.8774869201309820E-002   0.0000000000000000     
  -2.4626990156856807E-002   2.2824395266884026E-002   0.0000000000000000     
  -2.7531717364023711E-002   2.6672895533591170E-002   0.0000000000000000     
  -3.0362220263835046E-002   3.0737828756914189E-002   0.0000000000000000     
  -3.3118498856290812E-002   3.5019194936853078E-002   0.0000000000000000     
  -3.5800553141391023E-002   3.9516994073407842E-002   0.0000000000000000     
  -2.2314611554586271E-002   3.6952745902373060E-002   0.0000000000000000     
  -2.4048455811011133E-002   4.1698790858043039E-002   0.0000000000000000     
  -2.5734472887369551E-002   4.6650636533699691E-002   0.0000000000000000     
  -2.7372662783661527E-002   5.1808282929343044E-002   0.0000000000000000     
  -2.8963025499887059E-002   5.7171730044973064E-002   0.0000000000000000     
  -2.5464551097049037E-002   3.7492745115792425E-002   0.0000000000000000     
  -2.7414801802446809E-002   4.2228236041269372E-002   0.0000000000000000     
  -2.9311710453284345E-002   4.7168968270531152E-002   0.0000000000000000     
  -3.1155277049561642E-002   5.2314941803577771E-002   0.0000000000000000     
  -3.2945501591278702E-002   5.7666156640409236E-002   0.0000000000000000     
  -2.8762187875670753E-002   3.8100119548771343E-002   0.0000000000000000     
  -3.0930053844125834E-002   4.2825180009167803E-002   0.0000000000000000     
  -3.3037970931667340E-002   4.7753846718187540E-002   0.0000000000000000     
  -3.5085939138295247E-002   5.2886119675830512E-002   0.0000000000000000     
  -3.7073958464009557E-002   5.8221998882096775E-002   0.0000000000000000     
  -3.2207521890451417E-002   3.8774869201309820E-002   0.0000000000000000     
  -3.4594211936048225E-002   4.3489622761738338E-002   0.0000000000000000     
  -3.6913254322518539E-002   4.8405271876668821E-002   0.0000000000000000     
  -3.9164649049862346E-002   5.3521816546101268E-002   0.0000000000000000     
  -4.1348396118079653E-002   5.8839256770035660E-002   0.0000000000000000     
  -3.5800553141391023E-002   3.9516994073407842E-002   0.0000000000000000     
  -3.8407276078213960E-002   4.4221564298980991E-002   0.0000000000000000     
  -4.0937560625837921E-002   4.9123243745975056E-002   0.0000000000000000     
  -4.3391406784262919E-002   5.4222032414390019E-002   0.0000000000000000     
  -4.5768814553488947E-002   5.9517930304225898E-002   0.0000000000000000     
  -2.8963025499887059E-002   5.7171730044973064E-002   0.0000000000000000     
  -3.0506764669299184E-002   6.2729153754735562E-002   0.0000000000000000     
  -3.2005083925150939E-002   6.8468729932776279E-002   0.0000000000000000     
  -3.3457983267442308E-002   7.4390458579095278E-002   0.0000000000000000     
  -3.4865462696173313E-002   8.0494339693692504E-002   0.0000000000000000     
  -3.2945501591278702E-002   5.7666156640409236E-002   0.0000000000000000     
  -3.4683237300611895E-002   6.3210412850926004E-002   0.0000000000000000     
  -3.6369337399737592E-002   6.8935510505028538E-002   0.0000000000000000     
  -3.8003801888655792E-002   7.4841449602716825E-002   0.0000000000000000     
  -3.9586630767366494E-002   8.0928230143990892E-002   0.0000000000000000     
  -3.7073958464009557E-002   5.8221998882096775E-002   0.0000000000000000     
  -3.9003374252300320E-002   6.3749835633923141E-002   0.0000000000000000     
  -4.0875531846657542E-002   6.9457981228246507E-002   0.0000000000000000     
  -4.2690431247081231E-002   7.5346435665066810E-002   0.0000000000000000     
  -4.4448072453571366E-002   8.1415198944384121E-002   0.0000000000000000     
  -4.1348396118079653E-002   5.8839256770035660E-002   0.0000000000000000     
  -4.3467175524364451E-002   6.4347422103726959E-002   0.0000000000000000     
  -4.5523667265910776E-002   7.0036142102430143E-002   0.0000000000000000     
  -4.7517871342718607E-002   7.5905416766145220E-002   0.0000000000000000     
  -4.9449787754787949E-002   8.1955246094872189E-002   0.0000000000000000     
  -4.5768814553488947E-002   5.9517930304225898E-002   0.0000000000000000     
  -4.8074641116804304E-002   6.5003172260337458E-002   0.0000000000000000     
  -5.0313743657497301E-002   7.0669993127579517E-002   0.0000000000000000     
  -5.2486122175567945E-002   7.6518392905952068E-002   0.0000000000000000     
  -5.4591776671016223E-002   8.2548371595455111E-002   0.0000000000000000     
  -3.4865462696173313E-002   8.0494339693692504E-002   0.0000000000000000     
  -3.6220434207770276E-002   8.6767844741570316E-002   0.0000000000000000     
  -3.7515809798659566E-002   9.3198445187731002E-002   0.0000000000000000     
  -3.8751589468841177E-002   9.9786141032174605E-002   0.0000000000000000     
  -3.9927773218315102E-002  0.10653093227490107        0.0000000000000000     
  -3.9586630767366494E-002   8.0928230143990892E-002   0.0000000000000000     
  -4.1110123157670694E-002   8.7184233291377353E-002   0.0000000000000000     
  -4.2566578181369372E-002   9.3597840207402916E-002   0.0000000000000000     
  -4.3955995838462547E-002  0.10016905089206754        0.0000000000000000     
  -4.5278376128950207E-002  0.10689786534537124        0.0000000000000000     
  -4.4448072453571366E-002   8.1415198944384121E-002   0.0000000000000000     
  -4.6139942967252753E-002   8.7652967489424180E-002   0.0000000000000000     
  -4.7757530289250137E-002   9.4048437723412745E-002   0.0000000000000000     
  -4.9300834419563504E-002  0.10060160964634984        0.0000000000000000     
  -5.0769855358192860E-002  0.10731248325823549        0.0000000000000000     
  -4.9449787754787949E-002   8.1955246094872189E-002   0.0000000000000000     
  -5.1309893636516467E-002   8.8174047335710729E-002   0.0000000000000000     
  -5.3088666122301828E-002   9.4550237735760490E-002   0.0000000000000000     
  -5.4786105212144019E-002  0.10108381729502151        0.0000000000000000     
  -5.6402210906043068E-002  0.10777478601349380        0.0000000000000000     
  -5.4591776671016223E-002   8.2548371595455111E-002   0.0000000000000000     
  -5.6619975165461828E-002   8.8747472830237012E-002   0.0000000000000000     
  -5.8559985680524465E-002   9.5103240244446163E-002   0.0000000000000000     
  -6.0411808216204128E-002  0.10161567383808257        0.0000000000000000     
  -6.2175442772500811E-002  0.10828477361114619        0.0000000000000000     
  -3.9927773218315102E-002  0.10653093227490107        0.0000000000000000     
  -4.1056714396305274E-002  0.11342238007275716        0.0000000000000000     
  -4.2150766352035615E-002  0.12045004558258969        0.0000000000000000     
  -4.3209929085506145E-002  0.12761392880439856        0.0000000000000000     
  -4.4234202596716829E-002  0.13491402973818387        0.0000000000000000     
  -4.5278376128950207E-002  0.10689786534537124        0.0000000000000000     
  -4.6547961666150120E-002  0.11377245455904289        0.0000000000000000     
  -4.7778995063380035E-002  0.12078098952481137        0.0000000000000000     
  -4.8971476320639938E-002  0.12792347024267672        0.0000000000000000     
  -5.0125405437929843E-002  0.13519989671263893        0.0000000000000000     
  -5.0769855358192860E-002  0.10731248325823549        0.0000000000000000     
  -5.2180808771863693E-002  0.11416869364935650        0.0000000000000000     
  -5.3549910327301428E-002  0.12115787590999975        0.0000000000000000     
  -5.4877160024506079E-002  0.12828003004016525        0.0000000000000000     
  -5.6162557863477645E-002  0.13553515603985297        0.0000000000000000     
  -5.6402210906043068E-002  0.10777478601349380        0.0000000000000000     
  -5.7955255713445980E-002  0.11461109734369801        0.0000000000000000     
  -5.9463512143799802E-002  0.12158070473815476        0.0000000000000000     
  -6.0926980197104540E-002  0.12868360819686414        0.0000000000000000     
  -6.2345659873360201E-002  0.13591980771982609        0.0000000000000000     
  -6.2175442772500811E-002  0.10828477361114619        0.0000000000000000     
  -6.3871302490896995E-002  0.11509966564206739        0.0000000000000000     
  -6.5519800512875176E-002  0.12204947600927644        0.0000000000000000     
  -6.7120936838435355E-002  0.12913420471277340        0.0000000000000000     
  -6.8674711467577518E-002  0.13635385175255818        0.0000000000000000     
  -4.4234202596716829E-002  0.13491402973818387        0.0000000000000000     
  -4.5200850534433179E-002  0.14233599060508043        0.0000000000000000     
  -4.6087136547420721E-002  0.14986545362622308        0.0000000000000000     
  -4.6893060635679433E-002  0.15750241880161181        0.0000000000000000     
  -4.7618622799209309E-002  0.16524688613124663        0.0000000000000000     
  -5.0125405437929843E-002  0.13519989671263893        0.0000000000000000     
  -5.1215830822973422E-002  0.14260131380571608        0.0000000000000000     
  -5.2217800883494321E-002  0.15011876639292646        0.0000000000000000     
  -5.3131315619492553E-002  0.15775225447426999        0.0000000000000000     
  -5.3956375030968104E-002  0.16550177804974664        0.0000000000000000     
  -5.6162557863477645E-002  0.13553515603985297        0.0000000000000000     
  -5.7378347681596401E-002  0.14291616011639846        0.0000000000000000     
  -5.8496773316242659E-002  0.15041594847713718        0.0000000000000000     
  -5.9517834767416393E-002  0.15803452112206920        0.0000000000000000     
  -6.0441532035117609E-002  0.16577187805119450        0.0000000000000000     
  -6.2345659873360201E-002  0.13591980771982609        0.0000000000000000     
  -6.3688401110302120E-002  0.14328052953712750        0.0000000000000000     
  -6.4924053845665700E-002  0.15075699987885532        0.0000000000000000     
  -6.6052618079450925E-002  0.15834921874500957        0.0000000000000000     
  -6.7074093811657826E-002  0.16605718613559020        0.0000000000000000     
  -6.8674711467577518E-002  0.13635385175255818        0.0000000000000000     
  -7.0145991109090575E-002  0.14369442206790320        0.0000000000000000     
  -7.1499642471763478E-002  0.15114192059808082        0.0000000000000000     
  -7.2735665555596199E-002  0.15869634734309102        0.0000000000000000     
  -7.3854060360588752E-002  0.16635770230293376        0.0000000000000000     
   0.0000000000000000        0.0000000000000000        0.0000000000000000     
  -2.8801027115358179E-003   1.7448211895532920E-003   0.0000000000000000     
  -5.8727204358372150E-003   3.8646347293193419E-003   0.0000000000000000     
  -8.9778531729041919E-003   6.3594406192981493E-003   0.0000000000000000     
  -1.2195500922736744E-002   9.2292388594897162E-003   0.0000000000000000     
   0.0000000000000000        0.0000000000000000        0.0000000000000000     
  -3.2832512982536315E-003   1.9993568067846988E-003   0.0000000000000000     
  -6.6770455850379273E-003   4.3309600969518467E-003   0.0000000000000000     
  -1.0181382860352887E-002   6.9948098705014438E-003   0.0000000000000000     
  -1.3796263124198512E-002   9.9909061274334899E-003   0.0000000000000000     
   0.0000000000000000        0.0000000000000000        0.0000000000000000     
  -3.9536022771245781E-003   2.4251513064189063E-003   0.0000000000000000     
  -7.9106989724145056E-003   5.0629573140039356E-003   0.0000000000000000     
  -1.1871290085869781E-002   7.9134180227550914E-003   0.0000000000000000     
  -1.5835375617490405E-002   1.0976533432672367E-002   0.0000000000000000     
   0.0000000000000000        0.0000000000000000        0.0000000000000000     
  -4.8911556481486592E-003   3.0222046884559131E-003   0.0000000000000000     
  -9.5736805979669496E-003   6.0606263804756089E-003   0.0000000000000000     
  -1.4047574849454875E-002   9.1152650760590870E-003   0.0000000000000000     
  -1.8312838402612431E-002   1.2186120775206350E-002   0.0000000000000000     
   0.0000000000000000        0.0000000000000000        0.0000000000000000     
  -6.0959114113258734E-003   3.7905169528957209E-003   0.0000000000000000     
  -1.1665990461695259E-002   7.3239672963668666E-003   0.0000000000000000     
  -1.6710237151108163E-002   1.0600351030413438E-002   0.0000000000000000     
  -2.1228651479564577E-002   1.3619668155035434E-002   0.0000000000000000     
  -1.2195500922736744E-002   9.2292388594897162E-003   0.0000000000000000     
  -1.5427897942030757E-002   1.2371906946425319E-002   0.0000000000000000     
  -1.8577278487482099E-002   1.5685322376636238E-002   0.0000000000000000     
  -2.1643642559090789E-002   1.9169485150122477E-002   0.0000000000000000     
  -2.4626990156856807E-002   2.2824395266884026E-002   0.0000000000000000     
  -1.3796263124198512E-002   9.9909061274334899E-003   0.0000000000000000     
  -1.7404569658426412E-002   1.3221252725567477E-002   0.0000000000000000     
  -2.0889185744888204E-002   1.6587853522722892E-002   0.0000000000000000     
  -2.4250111383583878E-002   2.0090708518899734E-002   0.0000000000000000     
  -2.7487346574513433E-002   2.3729817714098014E-002   0.0000000000000000     
  -1.5835375617490405E-002   1.0976533432672367E-002   0.0000000000000000     
  -1.9731133052072355E-002   1.4211151812532461E-002   0.0000000000000000     
  -2.3486739874411595E-002   1.7576121431112056E-002   0.0000000000000000     
  -2.7102196084508125E-002   2.1071442288411152E-002   0.0000000000000000     
  -3.0577501682361955E-002   2.4697114384429751E-002   0.0000000000000000     
  -1.8312838402612431E-002   1.2186120775206350E-002   0.0000000000000000     
  -2.2407588122968579E-002   1.5341604207320272E-002   0.0000000000000000     
  -2.6369940876052281E-002   1.8650126101803732E-002   0.0000000000000000     
  -3.0199896661863540E-002   2.2111686458656719E-002   0.0000000000000000     
  -3.3897455480402357E-002   2.5726285277879245E-002   0.0000000000000000     
  -2.1228651479564577E-002   1.3619668155035434E-002   0.0000000000000000     
  -2.5433934871115085E-002   1.6612609909930905E-002   0.0000000000000000     
  -2.9538788749810266E-002   1.9809867534797909E-002   0.0000000000000000     
  -3.3543213115650110E-002   2.3211441029636435E-002   0.0000000000000000     
  -3.7447207968634641E-002   2.6817330394446493E-002   0.0000000000000000     
  -2.4626990156856807E-002   2.2824395266884026E-002   0.0000000000000000     
  -2.7531717364023711E-002   2.6672895533591170E-002   0.0000000000000000     
  -3.0362220263835046E-002   3.0737828756914189E-002   0.0000000000000000     
  -3.3118498856290812E-002   3.5019194936853078E-002   0.0000000000000000     
  -3.5800553141391023E-002   3.9516994073407842E-002   0.0000000000000000     
  -2.7487346574513433E-002   2.3729817714098014E-002   0.0000000000000000     
  -3.0624155259237801E-002   2.7547722051979980E-002   0.0000000000000000     
  -3.3683801379317861E-002   3.1586962476207903E-002   0.0000000000000000     
  -3.6666284934753629E-002   3.5847538986781786E-002   0.0000000000000000     
  -3.9571605925545102E-002   4.0329451583701631E-002   0.0000000000000000     
  -3.0577501682361955E-002   2.4697114384429751E-002   0.0000000000000000     
  -3.3942268329761764E-002   2.8497630468863368E-002   0.0000000000000000     
  -3.7226107688496227E-002   3.2517483291407509E-002   0.0000000000000000     
  -4.0429019758565381E-002   3.6756672852062182E-002   0.0000000000000000     
  -4.3551004539969164E-002   4.1215199150827400E-002   0.0000000000000000     
  -3.3897455480402357E-002   2.5726285277879245E-002   0.0000000000000000     
  -3.7486056575595596E-002   2.9522620784241334E-002   0.0000000000000000     
  -4.0989139191370171E-002   3.3529391202513012E-002   0.0000000000000000     
  -4.4406703327726040E-002   3.7746596532694278E-002   0.0000000000000000     
  -4.7738748984663237E-002   4.2174236774785136E-002   0.0000000000000000     
  -3.7447207968634641E-002   2.6817330394446493E-002   0.0000000000000000     
  -4.1255519996739320E-002   3.0622692998113883E-002   0.0000000000000000     
  -4.4972895887939658E-002   3.4622686209524405E-002   0.0000000000000000     
  -4.8599335642235647E-002   3.8817310028678061E-002   0.0000000000000000     
  -5.2134839259627287E-002   4.3206564455574858E-002   0.0000000000000000     
  -3.5800553141391023E-002   3.9516994073407842E-002   0.0000000000000000     
  -3.8407276078213960E-002   4.4221564298980991E-002   0.0000000000000000     
  -4.0937560625837921E-002   4.9123243745975056E-002   0.0000000000000000     
  -4.3391406784262919E-002   5.4222032414390019E-002   0.0000000000000000     
  -4.5768814553488947E-002   5.9517930304225898E-002   0.0000000000000000     
  -3.9571605925545102E-002   4.0329451583701631E-002   0.0000000000000000     
  -4.2395930706791311E-002   4.5019189202032586E-002   0.0000000000000000     
  -4.5135425633591283E-002   4.9903240776839775E-002   0.0000000000000000     
  -4.7790090705945032E-002   5.4981606308123238E-002   0.0000000000000000     
  -5.0359925923852543E-002   6.0254285795882941E-002   0.0000000000000000     
  -4.3551004539969164E-002   4.1215199150827400E-002   0.0000000000000000     
  -4.6586860257948545E-002   4.5880682052029928E-002   0.0000000000000000     
  -4.9531385137744403E-002   5.0740741419996585E-002   0.0000000000000000     
  -5.2384579179356724E-002   5.5795377254727357E-002   0.0000000000000000     
  -5.5146442382785522E-002   6.1044589556222266E-002   0.0000000000000000     
  -4.7738748984663237E-002   4.2174236774785136E-002   0.0000000000000000     
  -5.0980064731685662E-002   4.6806042848973051E-002   0.0000000000000000     
  -5.4125439138297246E-002   5.1635745675445467E-002   0.0000000000000000     
  -5.7174872204497990E-002   5.6663345254202399E-002   0.0000000000000000     
  -6.0128363930287893E-002   6.1888841585243846E-002   0.0000000000000000     
  -5.2134839259627287E-002   4.3206564455574858E-002   0.0000000000000000     
  -5.5575544128002655E-002   4.7795271592861927E-002   0.0000000000000000     
  -5.8917587635249839E-002   5.2588253543186428E-002   0.0000000000000000     
  -6.2160969781368827E-002   5.7585510306548349E-002   0.0000000000000000     
  -6.5305690566359625E-002   6.2787041882947703E-002   0.0000000000000000     
  -4.5768814553488947E-002   5.9517930304225898E-002   0.0000000000000000     
  -4.8074641116804304E-002   6.5003172260337458E-002   0.0000000000000000     
  -5.0313743657497301E-002   7.0669993127579517E-002   0.0000000000000000     
  -5.2486122175567945E-002   7.6518392905952068E-002   0.0000000000000000     
  -5.4591776671016223E-002   8.2548371595455111E-002   0.0000000000000000     
  -5.0359925923852543E-002   6.0254285795882941E-002   0.0000000000000000     
  -5.2851866725465865E-002   6.5715281973820039E-002   0.0000000000000000     
  -5.5272848548937013E-002   7.1358597575635702E-002   0.0000000000000000     
  -5.7622871394266001E-002   7.7184232601329894E-002   0.0000000000000000     
  -5.9901935261452814E-002   8.3192187050902644E-002   0.0000000000000000     
  -5.5146442382785522E-002   6.1044589556222266E-002   0.0000000000000000     
  -5.7824948046195111E-002   6.6481947114240131E-002   0.0000000000000000     
  -6.0428069467749784E-002   7.2101018718539772E-002   0.0000000000000000     
  -6.2955806647449541E-002   7.7901804369121253E-002   0.0000000000000000     
  -6.5408159585294362E-002   8.3884304065984516E-002   0.0000000000000000     
  -6.0128363930287893E-002   6.1888841585243846E-002   0.0000000000000000     
  -6.2993885078992048E-002   6.7303167681597678E-002   0.0000000000000000     
  -6.5779406413935607E-002   7.2897256556291770E-002   0.0000000000000000     
  -6.8484927935118553E-002   7.8671108209326129E-002   0.0000000000000000     
  -7.1110449642540846E-002   8.4624722640700756E-002   0.0000000000000000     
  -6.5305690566359625E-002   6.2787041882947703E-002   0.0000000000000000     
  -6.8358677823856698E-002   6.8178943675892723E-002   0.0000000000000000     
  -7.1326859387494501E-002   7.3747311088891668E-002   0.0000000000000000     
  -7.4210235257273036E-002   7.9492144121944552E-002   0.0000000000000000     
  -7.7008805433192287E-002   8.5413442775051363E-002   0.0000000000000000     
  -5.4591776671016223E-002   8.2548371595455111E-002   0.0000000000000000     
  -5.6619975165461828E-002   8.8747472830237012E-002   0.0000000000000000     
  -5.8559985680524465E-002   9.5103240244446163E-002   0.0000000000000000     
  -6.0411808216204128E-002  0.10161567383808257        0.0000000000000000     
  -6.2175442772500811E-002  0.10828477361114619        0.0000000000000000     
  -5.9901935261452814E-002   8.3192187050902644E-002   0.0000000000000000     
  -6.2098050325707553E-002   8.9369455581982088E-002   0.0000000000000000     
  -6.4199226762240297E-002   9.5703032852196404E-002   0.0000000000000000     
  -6.6205464571051073E-002  0.10219291886154561        0.0000000000000000     
  -6.8116763752139833E-002  0.10883911361002967        0.0000000000000000     
  -6.5408159585294362E-002   8.3884304065984516E-002   0.0000000000000000     
  -6.7771981888872360E-002   9.0036207199924917E-002   0.0000000000000000     
  -7.0034127165771606E-002   9.6345203161737863E-002   0.0000000000000000     
  -7.2194595415992116E-002  0.10281129195142330        0.0000000000000000     
  -7.4253386639533875E-002  0.10943447356898126        0.0000000000000000     
  -7.1110449642540846E-002   8.4624722640700756E-002   0.0000000000000000     
  -7.3641769854956241E-002   9.0747727684065596E-002   0.0000000000000000     
  -7.6064686891118352E-002   9.7029751173070541E-002   0.0000000000000000     
  -7.8379200751027264E-002  0.10347079310771566        0.0000000000000000     
  -8.0585311434682907E-002  0.11007085348800090        0.0000000000000000     
  -7.7008805433192287E-002   8.5413442775051363E-002   0.0000000000000000     
  -7.9707414223959175E-002   9.1504017034404000E-002   0.0000000000000000     
  -8.2290905938280590E-002   9.7756676886194452E-002   0.0000000000000000     
  -8.4759280576156532E-002  0.10417142233042267        0.0000000000000000     
  -8.7112538137586973E-002  0.11074825336708867        0.0000000000000000     
  -6.2175442772500811E-002  0.10828477361114619        0.0000000000000000     
  -6.3871302490896995E-002  0.11509966564206739        0.0000000000000000     
  -6.5519800512875176E-002  0.12204947600927644        0.0000000000000000     
  -6.7120936838435355E-002  0.12913420471277340        0.0000000000000000     
  -6.8674711467577518E-002  0.13635385175255818        0.0000000000000000     
  -6.8116763752139833E-002  0.10883911361002967        0.0000000000000000     
  -6.9955453492163533E-002  0.11563149469288019        0.0000000000000000     
  -7.1743862977779113E-002  0.12255993970532875        0.0000000000000000     
  -7.3481992208986560E-002  0.12962444864737530        0.0000000000000000     
  -7.5169841185785860E-002  0.13682502151901990        0.0000000000000000     
  -7.4253386639533875E-002  0.10943447356898126        0.0000000000000000     
  -7.6234213105192392E-002  0.11620368064455193        0.0000000000000000     
  -7.8160787081763175E-002  0.12310784580827559        0.0000000000000000     
  -8.0033108569246225E-002  0.13014696906015225        0.0000000000000000     
  -8.1851177567641542E-002  0.13732105040018189        0.0000000000000000     
  -8.0585311434682907E-002  0.11007085348800090        0.0000000000000000     
  -8.2707581329983543E-002  0.11681622349708259        0.0000000000000000     
  -8.4770572824827334E-002  0.12369319431811703        0.0000000000000000     
  -8.6774285919214350E-002  0.13070176595110419        0.0000000000000000     
  -8.8718720613144522E-002  0.13784193839604408        0.0000000000000000     
  -8.7112538137586973E-002  0.11074825336708867        0.0000000000000000     
  -8.9375558166537000E-002  0.11746912325047219        0.0000000000000000     
  -9.1573220206971645E-002  0.12431598523485303        0.0000000000000000     
  -9.3705524258890921E-002  0.13128883932023111        0.0000000000000000     
  -9.5772470322294828E-002  0.13838768550660652        0.0000000000000000     
  -6.8674711467577518E-002  0.13635385175255818        0.0000000000000000     
  -7.0145991109090575E-002  0.14369442206790320        0.0000000000000000     
  -7.1499642471763478E-002  0.15114192059808082        0.0000000000000000     
  -7.2735665555596199E-002  0.15869634734309102        0.0000000000000000     
  -7.3854060360588752E-002  0.16635770230293376        0.0000000000000000     
  -7.5169841185785860E-002  0.13682502151901990        0.0000000000000000     
  -7.6768805008791519E-002  0.14414342615849152        0.0000000000000000     
  -7.8240278778617944E-002  0.15156143040401912        0.0000000000000000     
  -7.9584262495265193E-002  0.15907903425560269        0.0000000000000000     
  -8.0800756158733236E-002  0.16669623771324218        0.0000000000000000     
  -8.1851177567641542E-002  0.13732105040018189        0.0000000000000000     
  -8.3574530140234651E-002  0.14461313025865841        0.0000000000000000     
  -8.5162702350311106E-002  0.15200624906587565        0.0000000000000000     
  -8.6615694197870935E-002  0.15950040682183370        0.0000000000000000     
  -8.7933505682914082E-002  0.16709560352653252        0.0000000000000000     
  -8.8718720613144522E-002  0.13784193839604408        0.0000000000000000     
  -9.0563166503420028E-002  0.14510353436840384        0.0000000000000000     
  -9.2266913186842978E-002  0.15247637658365049        0.0000000000000000     
  -9.3829960663413411E-002  0.15996046504178413        0.0000000000000000     
  -9.5252308933131288E-002  0.16755579974280471        0.0000000000000000     
  -9.5772470322294828E-002  0.13838768550660652        0.0000000000000000     
  -9.7734714098347608E-002  0.14561463848772782        0.0000000000000000     
  -9.9552911288213544E-002  0.15297181295734363        0.0000000000000000     
 -0.10122706189189262       0.16045920891545401        0.0000000000000000     
 -0.10275716590938487       0.16807682636205887        0.0000000000000000     
 </DataArray>
 <DataArray  type="Float64" Name="stress" NumberOfComponents="3" format="ascii">
   13415937463.057657        4024781238.9172969        2893964714.3820071     
   11766133675.157711        1890376572.0372145        1715895863.6213312     
   10313606884.627962        413561896.39112425        810824314.92195714     
   9058357091.4684124       -405662788.02097368        178750068.28388527     
   8000384295.6790590       -567297481.19907808       -180326876.29288515     
   10539592695.386393        3161877808.6159177        2225739365.1594491     
   9667342954.6191158        1589538552.6061096        1446765016.0680802     
   8943735305.4932289        512672935.40094090        863204460.20124519     
   8368769748.0087357       -68719042.999588490        475057697.55894262     
   7942446282.1656332       -154637382.59547758        282324728.14117414     
   8337819701.5177917        2501345910.4553375        1712345607.1237485     
   8021456839.7781258        1424571914.8842859        1275725036.3514137     
   7805101163.9510498        681155205.68852210        956934749.96684372     
   7688752674.0365601        271095782.86804676        755974747.97003782     
   7672411370.0346527        194393646.42285776        672845030.36099708     
   6810618481.4518490        2043185544.4355545        1353783440.2749047     
   6828475330.6347446        1395476658.8717451        1202775924.4713306     
   6897704460.0014238        919008707.25387096        1092015184.2187526     
   7018305869.5518808        613781689.58193135        1021501219.5171704     
   7190279559.2861204        479795605.85592771        991234030.36658418     
   5957989035.1885653        1787396710.5565696        1150052864.6129181     
   6088398427.1889715        1502252784.5684860        1227917680.4278316     
   6221545193.6443501        1226233440.0969844        1268445762.9569724     
   6357429334.5547037        959338677.14206636        1271637112.2003400     
   6496050849.9200335        701568495.70373082        1237491728.1579344     
   8000384295.6790590       -567297481.19907808       -180326876.29288515     
   7917414038.2731686       -200126817.97937870       -78531255.083425969     
   7792972010.8923120        28804611.990433693       -9171734.3072467577     
   7627058213.5364895        119496808.71035814        27751686.035652090     
   7419672646.2056999        71949772.180391788        32239005.945271131     
   7942446282.1656332       -154637382.59547758        282324728.14117414     
   7739511417.5525465        16430610.090005398        280975069.52954793     
   7513189242.7787542        109540902.23979855        265035506.69972026     
   7263479757.8442507        124693493.85388660        234506039.65168321     
   6990382962.7490406        61888384.932285309        189386668.38543987     
   7672411370.0346527        194393646.42285776        672845030.36099708     
   7400501030.2574425        184655708.18704796        589448628.37825465     
   7123287840.1337805        157241602.12973356        509308518.39238310     
   6840771799.6636629        112151328.25091457        432424700.40337735     
   6552952908.8470984        49384886.550588369        358797174.41124099     
   7190279559.2861204        479795605.85592771        991234030.36658418     
   6900382876.3878536        304548476.31174374        846889421.46269155     
   6623267802.9573898        171906711.66024756        723647300.77074397     
   6358934338.9947348        81870311.901437044        621507668.29073751     
   6107382484.4998827        34439277.035314083        540470524.02267563     
   6496050849.9200335        701568495.70373082        1237491728.1579344     
   6239156955.9437790        376108914.46409345        1053297448.7828598     
   6013129131.2495871        153536230.83133674        908051853.83480358     
   5817967375.8374567        33850444.805456400        801754943.31376350     
   5653671689.7073936        17051556.386456013        734406717.21974206     
   7419672646.2056999        71949772.180391788        32239005.945271131     
   7219102857.4653406       -18133423.973867893        15364804.526222434     
   7030610843.1825228       -67957371.936309338        2449009.6893265722     
   6854196603.3572474       -77522071.706940651       -6508378.5654055672     
   6689860137.9895229       -46827523.285750389       -11507360.237985512     
   6990382962.7490406        61888384.932285309        189386668.38543987     
   6808744989.0133629        2837487.0931391716        180984700.67291227     
   6634878873.5755005       -30307216.419955730        176025961.38603479     
   6468784616.4354496       -37545725.607026100        174510450.52480948     
   6310462217.5932074       -18878040.468053818        176438168.08923817     
   6552952908.8470984        49384886.550588369        358797174.41124099     
   6388774812.5260916        20924705.749564171        353843871.55221558     
   6228062658.3431616        4017665.4087994099        351818618.96233112     
   6070816446.2983065       -1336234.4717152119        352721416.64158976     
   5917036176.3915310        4863006.1080336571        356552264.58999228     
   6107382484.4998827        34439277.035314083        540470524.02267563     
   5959192328.0035191        36128231.995395660        533942317.16412687     
   5810162197.4854994        35017273.549957037        529826982.41821432     
   5660292092.9458227        31106401.698995113        528124519.78493816     
   5509582014.3844881        24395616.442511797        528834929.26429540     
   5653671689.7073936        17051556.386456013        734406717.21974206     
   5519997535.4456520        48448065.830638647        721280037.50864911     
   5381177491.0025196        62691608.003519297        710051051.75368500     
   5237211556.3779984        59782182.905099869        700719759.95484757     
   5088099731.5720863        39719790.535382032        693286162.11213720     
   6689860137.9895229       -46827523.285750389       -11507360.237985512     
   6511045263.9824114       -8929668.2216444016       -5794911.5999792553     
   6327765909.5186787        14086585.320379496        1792840.6925094435     
   6140022074.5983200        22221237.340328932        11255896.639493395     
   5947813759.2213411        15474287.838197947        22594256.240957223     
   6310462217.5932074       -18878040.468053818        176438168.08923817     
   6132745916.7900620        1399650.9371323586        173540221.57750103     
   5952155456.7140350        12096811.432730198        173678219.33562356     
   5768690837.3651371        13213441.018754959        176852161.36358291     
   5582352058.7433605        4749539.6951749325        183062047.66139647     
   5917036176.3915310        4863006.1080336571        356552264.58999228     
   5743734564.8362350        8515368.6674637794        346899297.64289761     
   5569149115.1918097        7888270.9298062325        341442915.58101153     
   5393279827.4582558        2981712.8950581551        340183118.40433413     
   5216126701.6355743       -6204305.4367866516        343119906.11286771     
   5509582014.3844881        24395616.442511797        528834929.26429540     
   5344011208.1209345        12417484.969361067        514282316.59620738     
   5178746884.9520006        1460963.8116071224        505086929.42868894     
   5013789044.8776855       -8473947.0307419300        501248767.76174515     
   4849137687.8979940       -17387247.557691336        502767831.59537488     
   5088099731.5720863        39719790.535382032        693286162.11213720     
   4933575846.6441641        13105999.842808485        675689278.43742812     
   4780948765.9946089       -7185109.9218702316        664610260.87865627     
   4630218489.6234245       -21153538.758647442        660049109.43581474     
   4481385017.5306044       -28799286.667533875        662005824.10890925     
   5947813759.2213411        15474287.838197947        22594256.240957223     
   5784469156.7945747        13540433.079679489        15458359.980679272     
   5623053198.0278749        18035390.521394253        12013149.338562705     
   5463565882.9212360        28959160.163305521        12258624.314603040     
   5306007211.4746723        46311742.005464792        16194784.908797076     
   5582352058.7433605        4749539.6951749325        183062047.66139647     
   5428704584.6359520        3855588.9373135567        177518942.67234960     
   5276456034.1166410        7624716.8064086437        175504503.69527155     
   5125606407.1854019        16056923.302434206        177018730.73016089     
   4976155703.8422508        29152208.425399065        182061623.77702835     
   5216126701.6355743       -6204305.4367866516        343119906.11286771     
   5071713442.6870012       -6197226.1421554089        338551585.64440686     
   4928169387.2545271       -3292801.7938580513        337349911.58171976     
   4785494535.3381538        2508967.6081087589        339514883.92482030     
   4643688886.9378824        11208082.063749313        345046502.67370450     
   4849137687.8979940       -17387247.557691336        502767831.59537488     
   4713495730.9477119       -16618012.158723831        498556288.89684117     
   4578193257.4415522       -14717165.279367685        497549372.99790758     
   4443230267.3795090       -11684706.919620752        499747083.89857185     
   4308606760.7615776       -7520637.0794849396        505149421.59882969     
   4481385017.5306044       -28799286.667533875        662005824.10890925     
   4354051449.4180822       -27406769.112406731        657533052.42966759     
   4226527644.6777010       -26648373.650146723        656102887.94383657     
   4098813603.3094501       -26524100.280780554        657715330.65141392     
   3970909325.3133326       -27033949.004297972        662370380.55240166     
   5306007211.4746723        46311742.005464792        16194784.908797076     
   5082996414.8400106        45110668.807635546        12089735.862283671     
   4858770369.6110840        39858766.962253094        12369261.066031294     
   4633329075.7878895        30556036.469305277        17033360.520055961     
   4406672533.3704300        17202477.328819036        26082034.224348065     
   4976155703.8422508        29152208.425399065        182061623.77702835     
   4763898741.6214943        24199677.406261206        176006067.41643411     
   4550766412.8595829        16329257.916599512        174703838.15964168     
   4336758717.5565186        5540949.9564371109        178154936.00665331     
   4121875655.7122989       -8165246.4742479324        186359360.95747507     
   4643688886.9378824        11208082.063749313        345046502.67370450     
   4443239338.7125511        2820167.0977518559        337436968.06100321     
   4242254305.9991779       -7352696.1617250443        334949513.40563196     
   4040733788.7977653       -19310507.714659214        337584138.70759535     
   3838677787.1083102       -33053267.561079502        345340843.96690488     
   4308606760.7615776       -7520637.0794849396        505149421.59882969     
   4121018206.1131916       -19027862.117882252        496382437.79597914     
   3933234049.0298786       -31187095.272708178        493106286.80399424     
   3745254289.5116353       -43998336.543968916        495320968.62288225     
   3557078927.5584579       -57461585.931673050        503026483.25263876     
   3970909325.3133326       -27033949.004297972        662370380.55240166     
   3797235343.8234124       -41344410.240634203        652842476.62136662     
   3623705641.9516764       -55173939.416374445        649174158.35473573     
   3450320219.6981244       -68522536.531492472        651365425.75250340     
   3277079077.0627480       -81390201.586014032        659416278.81467414     
   4406672533.3704300        17202477.328819036        26082034.224348065     
   4291830622.7752914        37737209.112087727        21640542.669965923     
   4178430708.9351277        63078596.745250463        21719149.645639427     
   4066472791.8499060        93226640.228230953        26317855.151398044     
   3955956871.5196657        128181339.56114793        35436659.187219992     
   4121875655.7122989       -8165246.4742479324        186359360.95747507     
   4017261292.2260108        10645262.307076931        183224953.80343986     
   3913150490.2509508        31134309.459184647        183835689.66503698     
   3809543249.7871246        53301894.982065439        188191568.54229075     
   3706439570.8345470        77148018.875762939        196292590.43516791     
   3838677787.1083102       -33053267.561079502        345340843.96690488     
   3742076812.1182003       -16631229.365500689        342418680.09553790     
   3645040963.3956046       -1658770.2782251835        342466703.72537285     
   3547570240.9405150        11864109.700744867        345484914.85643029     
   3449664644.7529316        23937410.571402550        351473313.48869866     
   3557078927.5584579       -57461585.931673050        503026483.25263876     
   3466277182.4518814       -44092265.905626774        499221721.54625267     
   3374102128.3690872       -35300642.466983080        497612191.82664812     
   3280553765.3100705       -31086715.615743160        498197894.09382504     
   3185632093.2748394       -31450485.351894140        500978828.34778768     
   3277079077.0627480       -81390201.586014032        659416278.81467414     
   3189862403.2270484       -71737847.313305855        653634078.15559089     
   3100333985.1714005       -69791307.107098699        649272153.96886611     
   3008493822.8958130       -75550580.967359900        646330506.25448811     
   2914341916.4002666       -89015668.894125104        644809135.01246405     
   3955956871.5196657        128181339.56114793        35436659.187219992     
   3678479698.2246284        140232452.14015913        5590898.3148675533     
   3417484564.9673009        207223698.17819226       -22947802.593548544     
   3172971471.7476683        329155077.67521334       -50179443.538043670     
   2944940418.5657449        506026590.63126796       -76104024.518594757     
   3706439570.8345470        77148018.875762939        196292590.43516791     
   3427749191.7875462        65496410.228680015        180795721.42880115     
   3159881588.0343180        89920719.227496147        168528416.00916329     
   2902836759.5748315        150420945.87215459        159490674.17626071     
   2656614706.4091253        246997090.16268277        153682495.93008703     
   3449664644.7529316        23937410.571402550        351473313.48869866     
   3175253927.4476891       -9769059.0536246300        343722860.81370807     
   2906006720.6922626       -26263826.845936656        341124475.34824467     
   2641923024.4866457       -25546892.805535913        343678157.09232283     
   2383002838.8308573       -7618256.9323967695        351383906.04592627     
   3185632093.2748394       -31450485.351894140        500978828.34778768     
   2920993905.2050567       -85563955.706772089        494372316.46958929     
   2655859962.9411478       -141329940.04207957        494840375.42371351     
   2390230266.4831080       -198748438.35781193        502383005.21016520     
   2124104815.8309507       -257819450.65396130        517000205.82894486     
   2914341916.4002666       -89015668.894125104        644809135.01246405     
   2664969125.0596576       -161888279.73073959        632744088.39644444     
   2409441314.7809701       -255277620.36093926        629676116.23554230     
   2147758485.5642047       -369183690.78471029        635605218.52977836     
   1879920637.4093843       -503606491.00203717        650531395.27912855     
   5957989035.1885653        1787396710.5565696        1150052864.6129181     
   6088398427.1889715        1502252784.5684860        1227917680.4278316     
   6221545193.6443501        1226233440.0969844        1268445762.9569724     
   6357429334.5547037        959338677.14206636        1271637112.2003400     
   6496050849.9200335        701568495.70373082        1237491728.1579344     
   5434615560.6866169        1630384668.2059851        1033472489.0863287     
   5489869067.9051208        1372502905.1148162        1113883428.4514649     
   5547325899.9389849        1121965558.0748446        1167527613.6785476     
   5606986056.7882080        878772627.08606970        1194405044.7675765     
   5668849538.4527893        642924112.14849138        1194515721.7185516     
   4895182255.9046726        1468554676.7714019        936360922.64367628     
   4905479818.7633324        1246995058.7037649        1018694927.6461507     
   4917446656.7977343        1030999691.2219388        1084832157.6582901     
   4931082770.0078802        820568574.32592356        1134772612.6800950     
   4946388158.3937693        615701708.01571870        1168516292.7115655     
   4339689120.8427343        1301906736.2528205        858718165.28496063     
   4335230679.7636042        1125729245.3353322        942352178.01188767     
   4331907464.2206001        953335839.53826785        1020359394.8961990     
   4329719474.2137232        784726518.86162865        1092739815.9378946     
   4328666709.7429714        619901283.30541360        1159493441.1369748     
   3768136155.5008030        1130440846.6502409        800544217.01018190     
   3779121650.9059348        1008705465.0095166        884855179.54867649     
   3790708322.2075791        888974003.02383113        974109325.39227450     
   3802896169.4057341        771246460.69318414        1068306654.5409764     
   3815685192.5004005        655522838.01757586        1167447166.9947815     
   6496050849.9200335        701568495.70373082        1237491728.1579344     
   6239156955.9437790        376108914.46409345        1053297448.7828598     
   6013129131.2495871        153536230.83133674        908051853.83480358     
   5817967375.8374567        33850444.805456400        801754943.31376350     
   5653671689.7073936        17051556.386456013        734406717.21974206     
   5668849538.4527893        642924112.14849138        1194515721.7185516     
   5518750298.2621908        383412378.85808730        1073573167.2602806     
   5392772303.5004511        204304796.99721074        980612927.91413641     
   5290915554.1675692        105601366.56585836        915635003.68011940     
   5213180050.2635422        87302087.564030647        878639394.55822778     
   4946388158.3937693        615701708.01571870        1168516292.7115655     
   4871751088.2319975        412738077.54749870        1102956502.0080240     
   4814490439.6458769        267695852.33145213        1054412657.1017199     
   4774606212.6354074        180575032.36757803        1022884757.9926509     
   4752098407.2005901        151375617.65587783        1008372804.6808170     
   4328666709.7429714        619901283.30541360        1159493441.1369748     
   4298159325.8531942        464086010.53232765        1141447453.0260913     
   4278283539.6858649        343709396.83406234        1129451041.3975530     
   4269039351.2409806        258771442.21061778        1123504206.2513585     
   4270426760.5185404        209272146.66199422        1123606947.5875092     
   3815685192.5004005        655522838.01757586        1167447166.9947815     
   3797975011.1257873        537456177.81257498        1189046020.3144810     
   3784151603.6204133        432345430.50504148        1205728080.8016353     
   3774214969.9842801        340190596.09497607        1217493348.4562435     
   3768165110.2173886        260991674.58237994        1224341823.2783048     
   5653671689.7073936        17051556.386456013        734406717.21974206     
   5519997535.4456520        48448065.830638647        721280037.50864911     
   5381177491.0025196        62691608.003519297        710051051.75368500     
   5237211556.3779984        59782182.905099869        700719759.95484757     
   5088099731.5720863        39719790.535382032        693286162.11213720     
   5213180050.2635422        87302087.564030647        878639394.55822778     
   5077162334.4284439        85104666.276704073        855228769.59779966     
   4939168332.2593136        76319623.875938892        835870156.56285453     
   4799198043.7561512        60946960.361734390        820563555.45339346     
   4657251468.9189558        38986675.734097242        809308966.26941693     
   4752098407.2005901        151375617.65587783        1008372804.6808170     
   4619892323.9902954        117430823.89648676        978376105.62630439     
   4488879558.2933264        87463755.181522846        954585736.46663213     
   4359060110.1096849        61474411.510985136        937001697.20179999     
   4230433979.4393735        39462792.884876490        925623987.83180749     
   4270426760.5185404        209272146.66199422        1123606947.5875092     
   4148187504.1312065        145426538.68998790        1090722045.5941648     
   4030311169.1045589        96124001.920273304        1066197791.4650185     
   3916797755.4385996        61364536.352849483        1050034185.2000673     
   3807647263.1333270        41148141.987715006        1042231226.7993124     
   3768165110.2173886        260991674.58237994        1224341823.2783048     
   3662047874.8511767        169091810.65720630        1192266589.5013814     
   3563463164.6930137        102300364.09218991        1170706321.5580127     
   3472410979.7428966        60617334.887326479        1159661019.4481926     
   3388891320.0008268        44042723.042621732        1159130683.1719279     
   5088099731.5720863        39719790.535382032        693286162.11213720     
   4933575846.6441641        13105999.842808485        675689278.43742812     
   4780948765.9946089       -7185109.9218702316        664610260.87865627     
   4630218489.6234245       -21153538.758647442        660049109.43581474     
   4481385017.5306044       -28799286.667533875        662005824.10890925     
   4657251468.9189558        38986675.734097242        809308966.26941693     
   4520486709.2035332        17939102.945795774        794805608.07906640     
   4385275049.4283876        2068529.9584219456        786160737.49679375     
   4251616489.5935216       -8625043.2280197144        783374354.52260017     
   4119511029.6989312       -14141616.613542318        786446459.15648925     
   4230433979.4393735        39462792.884876490        925623987.83180749     
   4109544406.3425779        23416256.422686338        913813166.73137438     
   3989864228.8479710        11401038.634454250        907201454.73116755     
   3871393446.9555511        3417139.5201838017        905788851.83118510     
   3754132060.6653190       -535440.92013192177        909575358.03142762     
   3807647263.1333270        41148141.987715006        1042231226.7993124     
   3700748938.0612936        29537460.273478508        1032711954.3943559     
   3594716304.2533593        20812416.106229544        1027732412.5817716     
   3489549361.7095213        14973009.485972881        1027292601.3615631     
   3385248110.4297781        12019240.412702084        1031392520.7337209     
   3388891320.0008268        44042723.042621732        1159130683.1719279     
   3294100304.3596849        36302714.498170972        1151501971.0680149     
   3199831275.6445503        30302662.373742700        1147753611.0486152     
   3106084233.8554211        26042566.669337869        1147885603.1137354     
   3012859178.9922991        23522427.384951472        1151897947.2633712     
   4481385017.5306044       -28799286.667533875        662005824.10890925     
   4354051449.4180822       -27406769.112406731        657533052.42966759     
   4226527644.6777010       -26648373.650146723        656102887.94383657     
   4098813603.3094501       -26524100.280780554        657715330.65141392     
   3970909325.3133326       -27033949.004297972        662370380.55240166     
   4119511029.6989312       -14141616.613542318        786446459.15648925     
   4000486398.7329574       -13379085.523293495        780861540.10220671     
   3881461320.0006771       -12618046.987417221        778770885.45913804     
   3762435793.5020804       -11858501.005916834        780174495.22729015     
   3643409819.2371731       -11100447.578787565        785072369.40665579     
   3754132060.6653190       -535440.92013192177        909575358.03142762     
   3644706816.0396376       -15761.536647558212        903099711.94057941     
   3535470912.5091925        1135054.8309738636        900569987.47875559     
   3426424350.0739865        2917008.1827244759        901986184.64595854     
   3317567128.7340302        5330098.5186228752        907348303.44218767     
   3385248110.4297781        12019240.412702084        1031392520.7337209     
   3286712701.3381157        12683202.847538710        1024247567.9447864     
   3188556422.2032490        14610931.805027246        1021500194.0026853     
   3090779273.0251770        17802427.285162330        1023150398.9074185     
   2993381253.8038917        22257689.287933707        1029198182.6589866     
   3012859178.9922991        23522427.384951472        1151897947.2633712     
   2926504054.6284008        24717807.629271269        1144305108.1148307     
   2840717849.0828457        27809583.934742451        1141561505.0309303     
   2755500562.3556390        32797756.301369429        1143667138.0116701     
   2670852194.4467778        39682324.729158759        1150622007.0570543     
   3970909325.3133326       -27033949.004297972        662370380.55240166     
   3797235343.8234124       -41344410.240634203        652842476.62136662     
   3623705641.9516764       -55173939.416374445        649174158.35473573     
   3450320219.6981244       -68522536.531492472        651365425.75250340     
   3277079077.0627480       -81390201.586014032        659416278.81467414     
   3643409819.2371731       -11100447.578787565        785072369.40665579     
   3485696751.4520760       -21750856.506162405        776141714.07466865     
   3328114460.4672856       -31965342.765861273        772784471.54915059     
   3170662946.2827945       -41743906.357893944        775000641.83009994     
   3013342208.8986073       -51086547.282238245        782790224.91752696     
   3317567128.7340302        5330098.5186228752        907348303.44218767     
   3174997337.9168224       -1905549.1208631992        898999143.42170906     
   3032544821.0820355       -8750283.4856163263        895937223.34977674     
   2890209578.2296720       -15204104.575619578        898162543.22638702     
   2747991609.3597326       -21267012.390880942        905675103.05154335     
   2993381253.8038917        22257689.287933707        1029198182.6589866     
   2865137103.2176394        18191511.915255785        1021414764.6624956     
   2736996723.7959237        14471238.424378514        1018632413.7566259     
   2608960115.5387535        11096868.815312982        1020851129.9413658     
   2481027278.4461250        8068403.0880540609        1028070913.2167288     
   2670852194.4467778        39682324.729158759        1150622007.0570543     
   2556116047.3545361        38540326.602198839        1143388577.7970307     
   2441470168.6089540        37699222.964111805        1140870042.7696872     
   2326914558.2100363        37159013.814900517        1143066401.9750378     
   2212449216.1577816        36919699.154571652        1149977655.4130771     
   3277079077.0627480       -81390201.586014032        659416278.81467414     
   3189862403.2270484       -71737847.313305855        653634078.15559089     
   3100333985.1714005       -69791307.107098699        649272153.96886611     
   3008493822.8958130       -75550580.967359900        646330506.25448811     
   2914341916.4002666       -89015668.894125104        644809135.01246405     
   3013342208.8986073       -51086547.282238245        782790224.91752696     
   2930927216.2661867       -39731005.079534650        774566285.77099359     
   2847212079.6036901       -32709276.310419083        768222627.70924497     
   2762196798.9111199       -30021360.974869609        763759250.73228204     
   2675881374.1884804       -31667259.072888851        761176154.84010410     
   2747991609.3597326       -21267012.390880942        905675103.05154335     
   2671692596.8232484       -7813992.5903936625        896189625.63907874     
   2595105040.4465618        4677214.4094285965        889044433.92383122     
   2518228940.2296801        16206608.608599782        884239527.90580010     
   2441064296.1726046        26774190.007115483        881774907.58498752     
   2481027278.4461250        8068403.0880540609        1028070913.2167288     
   2412158544.8982415        24013190.154133677        1018504097.7598501     
   2344012867.7000346        42368165.052459717        1011737572.6126245     
   2276590246.8515034        63133327.783049941        1007771337.7750477     
   2209890682.3526530        86308678.345896244        1006605393.2471197     
   2212449216.1577816        36919699.154571652        1149977655.4130771     
   2152325060.4911599        55750543.154030085        1141509702.1333129     
   2093935561.3640943        80363575.618666291        1136302043.7756240     
   2037280718.7765770        110758796.54846811        1134354680.3400216     
   1982360532.7286172        146936205.94346166        1135667611.8265028     
   2914341916.4002666       -89015668.894125104        644809135.01246405     
   2664969125.0596576       -161888279.73073959        632744088.39644444     
   2409441314.7809701       -255277620.36093926        629676116.23554230     
   2147758485.5642047       -369183690.78471029        635605218.52977836     
   1879920637.4093843       -503606491.00203717        650531395.27912855     
   2675881374.1884804       -31667259.072888851        761176154.84010410     
   2456048469.4178848       -79006292.226480246        744804129.03757930     
   2233798417.8809829       -134402481.26774764        736265654.36846399     
   2009131219.5777898       -197855826.19667506        735560730.83277857     
   1782046874.5082779       -269366327.01331151        742689358.43050897     
   2441064296.1726046        26774190.007115483        881774907.58498752     
   2247446925.6243014        3971428.8322510719        865456753.46302247     
   2055150280.4814544       -14428914.324411392        855808627.15276420     
   1864174360.7440729       -28426839.462848783        852830528.65422535     
   1674519166.4121559       -38022346.583083868        856522457.96740520     
   2209890682.3526530        86308678.345896244        1006605393.2471197     
   2039164493.6788952        87044883.445430994        994701961.67277694     
   1873496902.5823669        104643080.46905702        988305034.58843970     
   1712887909.0630727        139103269.41679490        987414611.99410534     
   1557337513.1210048        190425450.28863168        992030693.88978219     
   1982360532.7286172        146936205.94346166        1135667611.8265028     
   1831201173.5816724        170214071.61305958        1132539753.6668477     
   1688838284.1837301        222813503.11265802        1133754876.6754832     
   1555271864.5347893        304734500.44226146        1139312980.8524268     
   1430501914.6348383        415977063.60184270        1149214066.1976602     
   3768136155.5008030        1130440846.6502409        800544217.01018190     
   3779121650.9059348        1008705465.0095166        884855179.54867649     
   3790708322.2075791        888974003.02383113        974109325.39227450     
   3802896169.4057341        771246460.69318414        1068306654.5409764     
   3815685192.5004005        655522838.01757586        1167447166.9947815     
   3207695495.2240663        962308648.56721985        756683510.62223589     
   3235898286.3913398        868209149.80892301        853070396.97771931     
   3263819224.8576469        773170142.04740453        951380662.25687873     
   3291458310.6229873        677191625.28266430        1051614306.4597143     
   3318815543.6873608        580273599.51470149        1153771329.5862255     
   2685539275.3577137        805661782.60731411        721980478.92401826     
   2722331349.7687645        736609762.97593582        829413089.06609929     
   2757958542.8813701        663674805.68307495        935749273.75042892     
   2792420854.6955314        586856910.72873187        1040989032.9770064     
   2825718285.2112484        506156078.11290681        1145132366.7458329     
   2201667495.9017453        660500248.77052355        696435121.91552889     
   2238420841.0382090        613907304.51055431        813883255.81381631     
   2273126276.2787504        560487993.93084216        927215159.87292445     
   2305783801.6233683        500242317.03138745        1036430834.0928538     
   2336393417.0720634        433170273.81218946        1141530278.4736044     
   1756080156.8561618        526824047.05684859        680047439.59676778     
   1784166760.1996741        500101774.41277897        806480897.22087061     
   1809322425.0497854        463609706.79070610        925778320.62436688     
   1831547151.4064953        417347844.19062948        1037939709.8072565     
   1850840939.2698047        361316186.61255008        1142965064.7695391     
   3815685192.5004005        655522838.01757586        1167447166.9947815     
   3797975011.1257873        537456177.81257498        1189046020.3144810     
   3784151603.6204133        432345430.50504148        1205728080.8016353     
   3774214969.9842801        340190596.09497607        1217493348.4562435     
   3768165110.2173886        260991674.58237994        1224341823.2783048     
   3318815543.6873608        580273599.51470149        1153771329.5862255     
   3293903093.8233523        472953310.06641507        1182059188.6820090     
   3272752919.4283466        378173938.84813941        1207243702.3669469     
   3255365020.5023441        295935485.85987437        1229324870.6410401     
   3241739397.0453453        226237951.10162175        1248302693.5042870     
   2825718285.2112484        506156078.11290681        1145132366.7458329     
   2798784845.2055607        411136542.92564899        1179963983.4840910     
   2775489182.2686396        328242931.30094445        1213505702.2332032     
   2755831296.4004841        257475243.23879564        1245757522.9931707     
   2739811187.6010957        198833478.73920166        1276719445.7639928     
   2336393417.0720634        433170273.81218946        1141530278.4736044     
   2312620265.2724109        352005876.39027369        1182760404.7207263     
   2292360392.1412888        282552407.86345732        1224514080.4004025     
   2275613797.6786962        224809868.23173738        1266791305.5126350     
   2262380481.8846331        178778257.49511743        1309592080.0574226     
   1850840939.2698047        361316186.61255008        1142965064.7695391     
   1835409354.0239053        295561310.46029443        1190448452.3919148     
   1823366549.0462978        241102368.53567767        1240268836.8685465     
   1814712524.3369832        197939360.83870322        1292426218.1994340     
   1809447279.8959608        166072287.36937046        1346920596.3845761     
   3768165110.2173886        260991674.58237994        1224341823.2783048     
   3662047874.8511767        169091810.65720630        1192266589.5013814     
   3563463164.6930137        102300364.09218991        1170706321.5580127     
   3472410979.7428966        60617334.887326479        1159661019.4481926     
   3388891320.0008268        44042723.042621732        1159130683.1719279     
   3241739397.0453453        226237951.10162175        1248302693.5042870     
   3165175530.0099926        152400466.49365020        1231438308.6076527     
   3094569073.1476936        98421015.795857906        1222624076.7510800     
   3029920026.4584489        64299599.008247495        1221859997.9345655     
   2971228389.9422565        50036216.130812764        1229146072.1581120     
   2739811187.6010957        198833478.73920166        1276719445.7639928     
   2685758366.6294780        140945676.76829445        1273228275.5401564     
   2636087840.7959213        97665525.257591009        1275322445.5628874     
   2590799610.1004267        68993024.207093835        1283001955.8321865     
   2549893674.5429926        54928173.616798639        1296266806.3480530     
   2262380481.8846331        178778257.49511743        1309592080.0574226     
   2223796384.7096300        134727441.48113942        1317636490.2988915     
   2188019467.6376958        100033892.47738647        1328801427.9934366     
   2155049730.6688323        74697610.483868122        1343086893.1410587     
   2124887173.8030367        58718595.500577092        1360492885.7417552     
   1809447279.8959608        166072287.36937046        1346920596.3845761     
   1779289584.2504528        133745760.63218451        1364662952.8838613     
   1750363953.6730201        105526117.45524919        1383061024.0427284     
   1722670388.1636651        81413357.838571906        1402114809.8611784     
   1696208887.7223842        61407481.782144904        1421824310.3392127     
   3388891320.0008268        44042723.042621732        1159130683.1719279     
   3294100304.3596849        36302714.498170972        1151501971.0680149     
   3199831275.6445503        30302662.373742700        1147753611.0486152     
   3106084233.8554211        26042566.669337869        1147885603.1137354     
   3012859178.9922991        23522427.384951472        1151897947.2633712     
   2971228389.9422565        50036216.130812764        1229146072.1581120     
   2885774435.0944276        38027370.428500175        1221220044.3916905     
   2801143223.4853778        28761002.188783526        1217581135.2643456     
   2717334755.1151042        22237111.411653996        1218229344.7760766     
   2634349029.9836082        18455698.097120523        1223164672.9268844     
   2549893674.5429926        54928173.616798639        1296266806.3480530     
   2474938970.6443596        38999147.803387403        1288394345.2840247     
   2401107766.2972746        26815120.495141864        1285215769.4136341     
   2328400061.5017390        18376091.692057729        1286731078.7368786     
   2256815856.2577543        13682061.394139886        1292940273.2537551     
   2124887173.8030367        58718595.500577092        1360492885.7417552     
   2061593911.0094795        39218046.622830391        1353024873.7450209     
   1999724904.0802438        24465017.292821050        1350657513.4964821     
   1939280153.0153289        14459507.510547757        1353390804.9961364     
   1880259657.8147361        9201517.2760112286        1361224748.2439861     
   1696208887.7223842        61407481.782144904        1421824310.3392127     
   1645739256.1897883        38684066.886830568        1415111629.7746744     
   1596994636.8342845        21710692.581824839        1413906367.5128872     
   1549975029.6558714        10487358.867122531        1418208523.5538547     
   1504680434.6545510        5014065.7427291274        1428018097.8975751     
   3012859178.9922991        23522427.384951472        1151897947.2633712     
   2926504054.6284008        24717807.629271269        1144305108.1148307     
   2840717849.0828457        27809583.934742451        1141561505.0309303     
   2755500562.3556390        32797756.301369429        1143667138.0116701     
   2670852194.4467778        39682324.729158759        1150622007.0570543     
   2634349029.9836082        18455698.097120523        1223164672.9268844     
   2560078925.9220967        19249878.679660916        1216365047.0393684     
   2486278984.7159309        21611268.780016184        1214104939.0879207     
   2412949206.3651066        25539868.398182988        1216384349.0725386     
   2340089590.8696280        31035677.534162402        1223203276.9932265     
   2256815856.2577543        13682061.394139886        1292940273.2537551     
   2193745863.5598536        13809569.633278251        1286818645.3370919     
   2131047277.7542937        15175100.846879959        1284926817.2279263     
   2068720098.8410735        17778655.034947872        1287264788.9262526     
   2006764326.8201895        21620232.197476268        1293832560.4320755     
   1880259657.8147361        9201517.2760112286        1361224748.2439861     
   1827504867.5416648        8396880.4901088476        1355665903.0080056     
   1775022728.1979306        8501080.1353242397        1354027139.4509473     
   1722813239.7835302        9514116.2116557360        1356308457.5728109     
   1670876402.2984650        11435988.719104290        1362509857.3735967     
   1504680434.6545510        5014065.7427291274        1428018097.8975751     
   1461355937.8675301        3011811.2501506805        1422906820.0521061     
   1418205336.0468421        1589206.6453480721        1421405905.7569859     
   1375228629.1924839        746251.92831349373        1423515355.0122154     
   1332425817.3044577        482947.09905081987        1429235167.8177922     
   2670852194.4467778        39682324.729158759        1150622007.0570543     
   2556116047.3545361        38540326.602198839        1143388577.7970307     
   2441470168.6089540        37699222.964111805        1140870042.7696872     
   2326914558.2100363        37159013.814900517        1143066401.9750378     
   2212449216.1577816        36919699.154571652        1149977655.4130771     
   2340089590.8696280        31035677.534162402        1223203276.9932265     
   2237644135.6949768        28458736.472594261        1215338023.5529127     
   2135257969.3394048        26079424.807959318        1212543394.9552724     
   2032931091.8029194        23897742.540282488        1214819391.2003059     
   1930663503.0855124        21913689.669526935        1222166012.2880189     
   2006764326.8201895        21620232.197476268        1293832560.4320755     
   1917625936.7345233        17913260.152723074        1285299340.0292923     
   1828515855.9403574        14300652.412971139        1282192475.0791726     
   1739434084.4376929        10782408.978218436        1284511965.5817184     
   1650380622.2265236        7358529.8484596610        1292257811.5369229     
   1670876402.2984650        11435988.719104290        1362509857.3735967     
   1596061450.4731781        6903897.6425834894        1353272527.2261684     
   1521243828.4118090        2362905.7791224122        1349817283.1413906     
   1446423536.1143556       -2186986.8712791204        1352144125.1192603     
   1371600573.5808241       -6745780.3086156845        1360253053.1597860     
   1332425817.3044577        482947.09905081987        1429235167.8177922     
   1272950676.9109406       -4569351.0578237772        1419257585.1435390     
   1213441886.7537603       -9733815.0935688615        1415417819.1419230     
   1153899446.8329148       -15010445.008202374        1417715869.8129435     
   1094323357.1484060       -20399240.801713467        1426151737.1566057     
   2212449216.1577816        36919699.154571652        1149977655.4130771     
   2152325060.4911599        55750543.154030085        1141509702.1333129     
   2093935561.3640943        80363575.618666291        1136302043.7756240     
   2037280718.7765770        110758796.54846811        1134354680.3400216     
   1982360532.7286172        146936205.94346166        1135667611.8265028     
   1930663503.0855124        21913689.669526935        1222166012.2880189     
   1877693489.1085105        37274479.261738181        1216075948.6026244     
   1826349177.5481453        58054276.909409046        1213029557.6965263     
   1776630568.4044163        84253082.612526596        1213026839.5697293     
   1728537661.6773252        115870896.37111443        1216067794.2222266     
   1650380622.2265236        7358529.8484596610        1292257811.5369229     
   1603945829.5311890        19063588.911038816        1288418524.3024962     
   1559027785.1295774        35824475.619353175        1287406287.7045822     
   1515626489.0216866        57641189.973411024        1289221101.7431846     
   1473741941.2075157        84513731.973196864        1293862966.4183025     
   1371600573.5808241       -6745780.3086156845        1360253053.1597860     
   1331082081.7592068        1117872.1019424200        1358537429.2329199     
   1291971384.1083977        13674171.748527050        1359432233.7997906     
   1254268480.6283906        30923118.631120622        1362937466.8603919     
   1217973371.3191869        52864712.749727607        1369053128.4147270     
   1094323357.1484060       -20399240.801713467        1426151737.1566057     
   1059102245.7925576       -16562671.165554166        1426432663.3939054     
   1025179974.4845984       -8396634.7030943036        1429107395.9821527     
   992556543.22453117        4098868.5856688023        1434175934.9213543     
   961231952.01234710        20923838.700711846        1441638280.2115042     
   1982360532.7286172        146936205.94346166        1135667611.8265028     
   1831201173.5816724        170214071.61305958        1132539753.6668477     
   1688838284.1837301        222813503.11265802        1133754876.6754832     
   1555271864.5347893        304734500.44226146        1139312980.8524268     
   1430501914.6348383        415977063.60184270        1149214066.1976602     
   1728537661.6773252        115870896.37111443        1216067794.2222266     
   1587145610.6490808        126909776.12124741        1220458564.1223533     
   1449014105.0823791        148817140.74319345        1230844048.1576746     
   1314143144.9772234        181592990.23696330        1247224246.3281853     
   1182532730.3336082        225237324.60252872        1269599158.6338940     
   1473741941.2075157        84513731.973196864        1293862966.4183025     
   1346836435.3462420        84729396.918357730        1299313786.0428455     
   1217655550.6590588        77360465.777151048        1312411052.7694809     
   1086199287.1459606        62406938.549557626        1333154766.5982037     
   952467644.80694592        39868815.235585213        1361544927.5290096     
   1217973371.3191869        52864712.749727607        1369053128.4147270     
   1110273647.6731653        43672934.004411638        1369105419.4283247     
   994762620.91376317        8443478.2145062089        1378455890.5108984     
   871440291.04099584       -52823654.619959354        1397104541.6624663     
   740306658.05485511       -140128464.49899021        1425051372.8830142     
   961231952.01234710        20923838.700711846        1441638280.2115042     
   877457247.62983704        3740387.3793734312        1429833464.2787881     
   780335315.84649730       -57933821.944727927        1428978561.3819447     
   669866156.66233325       -164098789.27157864        1439073571.5209794     
   546049770.07734025       -314754514.60118616        1460118494.6958995     
   1756080156.8561618        526824047.05684859        680047439.59676778     
   1784166760.1996741        500101774.41277897        806480897.22087061     
   1809322425.0497854        463609706.79070610        925778320.62436688     
   1831547151.4064953        417347844.19062948        1037939709.8072565     
   1850840939.2698047        361316186.61255008        1142965064.7695391     
   1326499400.0398247        397949820.01194739        669711889.07859933     
   1339706266.4150221        375541160.51994854        791875691.54355371     
   1350718284.2349129        345816339.17692912        908734127.52608645     
   1359535453.4994977        308775355.98288941        1020287197.0261979     
   1366157774.2087760        264418210.93782887        1126534900.0438883     
   890647367.27159643        267194210.18147892        662322927.47188795     
   894204975.93043613        250668307.61713800        781075846.37213755     
   896303825.97206450        229279876.32875949        896354066.52815115     
   896943917.39648211        203028916.31634355        1008157587.9399287     
   896125250.20368779        171915427.57988977        1116486410.6074700     
   448524058.55147624        134557217.56544286        657880554.77663326     
   447662888.74591678        125483215.70434740        774081361.70662260     
   446079050.26124084        114000318.24619716        888638137.63056064     
   443772543.09744841        100108525.19099219        1001550882.5484484     
   440743367.25453991        83807836.538732946        1112819596.4602849     
   129473.87946466950        38842.163839400848        656384770.99283576     
   80004.861463823792       -14115.218423277849        770892237.54700840     
   43957.102441285111       -22335.070757789344        885586340.83331537     
   21330.602397260791        14182.606835928553        1000467080.8517568     
   12125.361331677912        95437.814357437630        1115534457.6023328     
   1850840939.2698047        361316186.61255008        1142965064.7695391     
   1835409354.0239053        295561310.46029443        1190448452.3919148     
   1823366549.0462978        241102368.53567767        1240268836.8685465     
   1814712524.3369832        197939360.83870322        1292426218.1994340     
   1809447279.8959608        166072287.36937046        1346920596.3845761     
   1366157774.2087760        264418210.93782887        1126534900.0438883     
   1360486225.8464797        216887430.07210734        1181915106.3024504     
   1357348773.2268367        177803635.01523235        1238260475.9357121     
   1356745416.3498480        147166825.76720345        1295571008.9436734     
   1358676155.2155130        124977002.32802069        1353846705.3263347     
   896125250.20368779        171915427.57988977        1116486410.6074700     
   896294214.49769104        141432884.73251191        1178766303.5556409     
   898142590.00870955        116548379.27518597        1240639526.3989544     
   901670376.73674405        97261911.207911968        1302106079.1374121     
   906877574.68179357        83573480.530689716        1363165961.7710140     
   440743367.25453991        83807836.538732946        1112819596.4602849     
   442833319.97753948        69197674.441507697        1181002044.1514852     
   445747999.39191628        57336601.315540001        1247405988.2582736     
   449487405.49767059        48224617.160830632        1312031428.7806494     
   454051538.29480165        41861721.977377638        1374878365.7186127     
   12125.361331677912        95437.814357437630        1115534457.6023328     
   103542.28602468764        181799.19909400900        1188622328.0899851     
   165001.37645739675        168301.13629585467        1258559861.5136693     
   196502.63262803238        54943.625957824013        1325347057.8733847     
   198046.05453765820       -158273.33191725280        1388983917.1691320     
   1809447279.8959608        166072287.36937046        1346920596.3845761     
   1779289584.2504528        133745760.63218451        1364662952.8838613     
   1750363953.6730201        105526117.45524919        1383061024.0427284     
   1722670388.1636651        81413357.838571906        1402114809.8611784     
   1696208887.7223842        61407481.782144904        1421824310.3392127     
   1358676155.2155130        124977002.32802069        1353846705.3263347     
   1333222704.6322422        99858707.376848638        1372825204.6658576     
   1308720950.8267720        77912735.018345416        1393103201.2892060     
   1285170893.7991030        59139085.252513945        1414680695.1963816     
   1262572533.5492344        43537758.079348743        1437557686.3873832     
   906877574.68179357        83573480.530689716        1363165961.7710140     
   887967748.08716965        66215231.043455064        1383053507.6121194     
   869729249.98007035        51094743.181304008        1404884333.3612957     
   852162080.36049795        38212016.944242179        1428658439.0185421     
   835266239.22845113        27567052.332264900        1454375824.5838573     
   454051538.29480165        41861721.977377638        1374878365.7186127     
   443524714.61523354        32815331.632001221        1395347861.7226481     
   433388851.13291556        25072141.944125399        1418404420.2589970     
   423643947.84785008        18632152.913757980        1444048041.3276598     
   414290004.76003432        13495364.540889844        1472278724.9286358     
   198046.05453765820       -158273.33191725280        1388983917.1691320     
  -106395.78356420921       -340990.85750950867        1409708266.9974430     
  -300245.71469116746       -155068.69318540068        1433663461.9823108     
  -383503.73884156661        399493.16106048424        1460849502.1237350     
  -356169.85601658205        1322694.7052244889        1491266387.4217162     
   1696208887.7223842        61407481.782144904        1421824310.3392127     
   1645739256.1897883        38684066.886830568        1415111629.7746744     
   1596994636.8342845        21710692.581824839        1413906367.5128872     
   1549975029.6558714        10487358.867122531        1418208523.5538547     
   1504680434.6545510        5014065.7427291274        1428018097.8975751     
   1262572533.5492344        43537758.079348743        1437557686.3873832     
   1227591742.9651515        27532724.356111705        1434459728.0207305     
   1193842347.3946028        15632340.677989244        1436218448.7335470     
   1161324346.8375847        7836607.0449671745        1442833848.5258350     
   1130037741.2941022        4145523.4570668936        1454305927.3975914     
   835266239.22845113        27567052.332264900        1454375824.5838573     
   813915034.66921794        17722623.304007053        1454316701.7242703     
   793301607.95995820        10337453.775661469        1458463518.7208707     
   773425959.10067236        5411543.7472291589        1466816275.5736587     
   754288088.09136128        2944893.2187111974        1479374972.2826352     
   414290004.76003432        13495364.540889844        1472278724.9286358     
   404709131.30198634        9253763.7305105329        1474682550.8852942     
   395372418.53035313        5826031.8748471886        1480641577.4748595     
   386279866.44513535        3212168.9739012420        1490155804.6973312     
   377431475.04633170        1412175.0276693702        1503225232.5527062     
  -356169.85601658205        1322694.7052244889        1491266387.4217162     
  -25967.136543212342        2126145.6356242229        1495557275.5038033     
   54779.105786810513        2098074.9755457882        1502752624.9955139     
  -113931.12902713078        1238482.7249876463        1512852435.8968480     
  -532097.84098666068       -452631.11605579080        1525856708.2078054     
   1504680434.6545510        5014065.7427291274        1428018097.8975751     
   1461355937.8675301        3011811.2501506805        1422906820.0521061     
   1418205336.0468421        1589206.6453480721        1421405905.7569859     
   1375228629.1924839        746251.92831349373        1423515355.0122154     
   1332425817.3044577        482947.09905081987        1429235167.8177922     
   1130037741.2941022        4145523.4570668936        1454305927.3975914     
   1096303260.1147122        1825454.2650967836        1449114873.9156535     
   1062725544.6383005        27937.416387021542        1447763733.8198647     
   1029304594.8648677       -1247027.0890586972        1450252507.1102259     
   996040410.79441285       -1999439.2512440681        1456581193.7867365     
   754288088.09136128        2944893.2187111974        1479374972.2826352     
   730799479.19332027        503766.32946506143        1474084159.0236483     
   707450506.73490477       -1471905.7610287368        1472862808.9866118     
   684241170.71611524       -2982123.0527701080        1475710922.1715276     
   661171471.13695073       -4026885.5457610190        1482628498.5783935     
   377431475.04633170        1412175.0276693702        1503225232.5527062     
   364844595.10335588       -953252.55674138665        1497814675.3760929     
   352380222.33665532       -2910322.8869029731        1496703131.2572312     
   340038356.74622506       -4459035.9628285766        1499890600.1961217     
   327818998.33206892       -5599391.7845087647        1507377082.1927652     
  -532097.84098666068       -452631.11605579080        1525856708.2078054     
  -1561392.1551758687       -2545602.3935063803        1520306422.9729869     
  -2485308.5564477025       -4287313.9612320419        1519284700.6317203     
  -3303847.0447965227       -5677765.8192153666        1522791541.1840091     
  -4017007.6202275343       -6716957.9674709272        1530826944.6298513     
   1332425817.3044577        482947.09905081987        1429235167.8177922     
   1272950676.9109406       -4569351.0578237772        1419257585.1435390     
   1213441886.7537603       -9733815.0935688615        1415417819.1419230     
   1153899446.8329148       -15010445.008202374        1417715869.8129435     
   1094323357.1484060       -20399240.801713467        1426151737.1566057     
   996040410.79441285       -1999439.2512440681        1456581193.7867365     
   952748911.14572906       -5357667.0462878346        1447069250.8712559     
   909565950.65601206       -8354097.6447752714        1443477506.3879733     
   866491529.32525575       -10988731.046726763        1445805960.3368852     
   823525647.15346706       -13261567.252122939        1454054612.7179964     
   661171471.13695073       -4026885.5457610190        1482628498.5783935     
   633441845.83183718       -5877572.8993593454        1473748082.4980888     
   605962948.60831892       -6892499.9809722006        1470570246.6095383     
   578734779.46639121       -7071666.7906162441        1473094990.9127424     
   551757338.40605855       -6415073.3282783628        1481322315.4077010     
   327818998.33206892       -5599391.7845087647        1507377082.1927652     
   315029480.96926475       -6129068.6170333326        1499294080.0240350     
   302632880.61068135       -5349022.1021588892        1496696039.8066187     
   290629197.25632203       -3259252.2398687005        1499582961.5405126     
   279018430.90618414        140240.96982727945        1507954845.2257254     
  -4017007.6202275343       -6716957.9674709272        1530826944.6298513     
  -2488183.4419856877       -6112154.1993090734        1523707243.4490957     
  -424253.33689209900       -3723664.0083063454        1521854885.9792125     
   2174782.6950487709        448512.60551926552        1525269872.2201991     
   5308924.6538438071        6404375.6421931386        1533952202.1720569     
   1094323357.1484060       -20399240.801713467        1426151737.1566057     
   1059102245.7925576       -16562671.165554166        1426432663.3939054     
   1025179974.4845984       -8396634.7030943036        1429107395.9821527     
   992556543.22453117        4098868.5856688023        1434175934.9213543     
   961231952.01234710        20923838.700711846        1441638280.2115042     
   823525647.15346706       -13261567.252122939        1454054612.7179964     
   794754763.43158078       -10677402.649977714        1455151923.0787818     
   766269956.77440691       -7139647.8321256042        1459106157.1995142     
   738071227.18194890       -2648302.7985548079        1465917315.0801942     
   710158574.65420163        2796632.4507205784        1475585396.7208188     
   551757338.40605855       -6415073.3282783628        1481322315.4077010     
   530759874.91527200       -4686355.9810025394        1482054453.0782669     
   509035725.50602180       -5379925.0286054313        1486106631.9177775     
   486584890.17830676       -8495780.4710898697        1493478851.9262309     
   463407368.93212539       -14033922.308463186        1504171113.1036313     
   279018430.90618414        140240.96982727945        1507954845.2257254     
   267117580.24362987        1410468.8413684815        1507140253.3923590     
   253477280.67943785       -3117466.2925497144        1510108820.1369393     
   238097532.21360126       -13443564.431950510        1516860545.4594610     
   220978334.84612373       -29567825.576817989        1527395429.3599217     
   5308924.6538438071        6404375.6421931386        1533952202.1720569     
   3827879.4166585011        7613071.8171473714        1530409324.0210631     
  -405377.70534248569       -352271.62395205349        1531112721.8570056     
  -7390846.7121645510       -17491654.681120701        1536062395.6798875     
  -17128527.603804860       -43805077.354350850        1545258345.4897101     
   961231952.01234710        20923838.700711846        1441638280.2115042     
   877457247.62983704        3740387.3793734312        1429833464.2787881     
   780335315.84649730       -57933821.944727927        1428978561.3819447     
   669866156.66233325       -164098789.27157864        1439073571.5209794     
   546049770.07734025       -314754514.60118616        1460118494.6958995     
   710158574.65420163        2796632.4507205784        1475585396.7208188     
   654367076.29699111       -9668758.8469590247        1452937249.6635840     
   591994991.33787036       -44069438.817673802        1439775949.5844684     
   523042319.77682060       -100405407.46147716        1436101496.4834697     
   447509061.61386108       -178676664.77832299        1441913890.3606098     
   463407368.93212539       -14033922.308463186        1504171113.1036313     
   431418887.86377895       -23035310.203386426        1478574049.1872616     
   399616460.99241936       -31416517.441684335        1461000766.1912627     
   368000088.31805080       -39177544.023349732        1451451264.1156321     
   336569769.84067333       -46318389.948372334        1449925542.9603603     
   220978334.84612373       -29567825.576817989        1527395429.3599217     
   208612682.33019307       -36359266.689933404        1506743862.8498242     
   203199724.81015855       -19975057.816729128        1492653011.2023358     
   204739462.28602359        19584801.042808898        1485122874.4174538     
   213231894.75778648        82320309.888668582        1484153452.4951973     
  -17128527.603804860       -43805077.354350850        1545258345.4897101     
  -14051540.303763999       -49640628.306591749        1537446690.6512694     
   2744782.7910793382       -9745059.9428244065        1534732684.6176832     
   33260441.680729471        75881627.736964554        1537116327.3889513     
   77495436.365192100        207239434.73279727        1544597618.9650788     
   129473.87946466950        38842.163839400848        656384770.99283576     
   80004.861463823792       -14115.218423277849        770892237.54700840     
   43957.102441285111       -22335.070757789344        885586340.83331537     
   21330.602397260791        14182.606835928553        1000467080.8517568     
   12125.361331677912        95437.814357437630        1115534457.6023328     
  -448276566.99407351       -134482970.09822205        657844527.02506959     
  -447497268.43650568       -125480279.70436977        774064640.25260055     
  -445979707.98488063       -114016716.33032671        888645865.39625418     
  -443723885.63919842       -100092279.97609305        1001588202.4560299     
  -440729801.39945877       -83706970.641668156        1112891651.4319293     
  -890434244.31877339       -267130273.29563200        662268773.77790904     
  -894041963.37424195       -250636670.68224639        781047181.08639014     
  -896186579.90057445       -229266059.63840741        896361175.49498212     
  -896868093.89777112       -203018440.16411495        1008210757.0036848     
  -896086505.36583185       -171893812.25936937        1116595925.6124988     
  -1326343558.0946350       -397903067.42839050        669657511.25135410     
  -1339554079.9517453       -375483288.15205300        791839860.04837728     
  -1350576658.6446407       -345770364.99499941        908732271.12949944     
  -1359411294.1733210       -308764297.95723015        1020334744.4947209     
  -1366057986.5377870       -264465087.03874442        1126647280.1440415     
  -1756004508.3216581       -526801352.49649745        680010739.44540501     
  -1784033618.1690152       -500020132.11378962        806442677.13856220     
  -1809149944.2170782       -463529632.40010339        925759152.29980707     
  -1831353486.4658482       -417329853.35543829        1037960164.9291390     
  -1850644244.9153244       -361420794.97979492        1143045715.0265577     
   12125.361331677912        95437.814357437630        1115534457.6023328     
   103542.28602468764        181799.19909400900        1188622328.0899851     
   165001.37645739675        168301.13629585467        1258559861.5136693     
   196502.63262803238        54943.625957824013        1325347057.8733847     
   198046.05453765820       -158273.33191725280        1388983917.1691320     
  -440729801.39945877       -83706970.641668156        1112891651.4319293     
  -442665854.95817208       -68983574.317759708        1181027538.5420754     
  -445460745.13906091       -57122966.734436586        1247376392.7429917     
  -449114471.94212615       -48125147.891701922        1311938214.0346780     
  -453627035.36736751       -41990117.789553121        1374713002.4171343     
  -896086505.36583185       -171893812.25936937        1116595925.6124988     
  -896154874.68012714       -141364834.57794219        1178812804.0925715     
  -897910959.40451324       -116461574.93014967        1240605953.8181527     
  -901354759.53899026       -97184033.315994620        1301975374.7892427     
  -906486275.08355808       -83532209.735473990        1362921067.0058410     
  -1366057986.5377870       -264465087.03874442        1126647280.1440415     
  -1360363516.8798401       -216961981.58145145        1181978124.7414737     
  -1357185641.4198992       -177847523.45084262        1238248544.7391529     
  -1356524360.1579640       -147121712.64692038        1295458540.1370790     
  -1358379673.0940335       -124784549.16968095        1353608110.9352522     
  -1850644244.9153244       -361420794.97979492        1143045715.0265577     
  -1835291781.5573115       -295775015.32828820        1190523500.4887822     
  -1823284791.1852190       -241280812.29651576        1240304165.5059917     
  -1814623273.7990472       -197938185.88447893        1292387710.0781870     
  -1809307229.3987954       -165747136.09217399        1346774134.2053678     
   198046.05453765820       -158273.33191725280        1388983917.1691320     
  -106395.78356420921       -340990.85750950867        1409708266.9974430     
  -300245.71469116746       -155068.69318540068        1433663461.9823108     
  -383503.73884156661        399493.16106048424        1460849502.1237350     
  -356169.85601658205        1322694.7052244889        1491266387.4217162     
  -453627035.36736751       -41990117.789553121        1374713002.4171343     
  -443630848.34484577       -33200057.623142570        1395383590.3085177     
  -433895118.15293914       -25278186.892115876        1418676252.6995161     
  -424419844.79164904       -18224505.596477047        1444590989.5901282     
  -415205028.26097447       -12039013.736224011        1473127800.9803555     
  -906486275.08355808       -83532209.735473990        1362921067.0058410     
  -887928803.93453205       -66291175.297294527        1383105002.7664402     
  -870002838.35371363       -51155159.419806033        1405302242.3697109     
  -852708378.34110200       -38124162.103008270        1429512785.8156564     
  -836045423.89669847       -27198183.346902370        1455736633.1042721     
  -1358379673.0940335       -124784549.16968095        1353608110.9352522     
  -1333000262.5526242       -99614343.879969060        1372872504.3712101     
  -1308623406.3170140       -77785986.276253879        1393541430.9928985     
  -1285249104.3872018       -59299476.358533502        1415614890.8003173     
  -1262877356.7631891       -44154814.126809835        1439092883.7934659     
  -1809307229.3987954       -165747136.09217399        1346774134.2053678     
  -1778845224.1991217       -133169563.37116551        1364686095.1228275     
  -1749756822.0428391       -105170667.46145695        1383393818.5690758     
  -1722042022.9299479       -81750448.363053203        1402897304.5441117     
  -1695700826.8604462       -62908906.075948894        1423196553.0479372     
  -356169.85601658205        1322694.7052244889        1491266387.4217162     
  -25967.136543212342        2126145.6356242229        1495557275.5038033     
   54779.105786810513        2098074.9755457882        1502752624.9955139     
  -113931.12902713078        1238482.7249876463        1512852435.8968480     
  -532097.84098666068       -452631.11605579080        1525856708.2078054     
  -415205028.26097447       -12039013.736224011        1473127800.9803555     
  -405158640.05734974       -6869115.2640630901        1475170216.6224658     
  -395685903.74177444       -3611389.7520668209        1480774517.9485099     
  -386786819.31425053       -2265837.2002401501        1489940704.9584839     
  -378461386.77477568       -2832457.6085792631        1502668777.6523936     
  -836045423.89669847       -27198183.346902370        1455736633.1042721     
  -814404495.13946807       -17098330.812146276        1455152348.3270159     
  -793661413.68119240       -9991302.6072395444        1458787373.5080020     
  -773816179.52187204       -5877098.7321831584        1466641708.6472297     
  -754868792.66150784       -4755719.1869814992        1478715353.7446985     
  -1262877356.7631891       -44154814.126809835        1439092883.7934659     
  -1227763532.3828962       -28561501.008619487        1435503670.6174536     
  -1193871750.7124641       -17041663.589963555        1436791191.6739917     
  -1161202011.7518952       -9595301.8708503842        1442955446.9630816     
  -1129754315.5011847       -6222415.8512675166        1453996436.4847252     
  -1695700826.8604462       -62908906.075948894        1423196553.0479372     
  -1645235751.7876370       -41258625.853490710        1416224183.4937780     
  -1596316914.8355937       -24762472.700252473        1414785972.4464803     
  -1548944316.0043175       -13420446.616236806        1418881919.9060438     
  -1503117955.2938066       -7232547.6014404893        1428512025.8724668     
  -532097.84098666068       -452631.11605579080        1525856708.2078054     
  -1561392.1551758687       -2545602.3935063803        1520306422.9729869     
  -2485308.5564477025       -4287313.9612320419        1519284700.6317203     
  -3303847.0447965227       -5677765.8192153666        1522791541.1840091     
  -4017007.6202275343       -6716957.9674709272        1530826944.6298513     
  -378461386.77477568       -2832457.6085792631        1502668777.6523936     
  -367517780.12708783       -3425283.6628654599        1497638381.4294581     
  -356535680.63206470       -3889800.2260336429        1496943158.7706058     
  -345515088.28970349       -4226007.2980729938        1500583109.6758347     
  -334456003.10000479       -4433904.8789903373        1508558234.1451497     
  -754868792.66150784       -4755719.1869814992        1478715353.7446985     
  -732504825.99328899       -4014162.3005079627        1474126813.9571338     
  -710169251.54331720       -3367246.1415256858        1473680058.4041820     
  -687862069.31158972       -2814970.7100243568        1477375087.0858405     
  -665583279.29810834       -2357336.0060092807        1485211900.0021114     
  -1129754315.5011847       -6222415.8512675166        1453996436.4847252     
  -1096522529.7537799       -4312238.3064391613        1449771720.5560160     
  -1063386021.2902051       -2719651.7077085376        1449495399.5324504     
  -1030344790.1104579       -1444656.0550686121        1453167473.4140241     
  -997398836.21453834       -487251.34852367640        1460787942.2007403     
  -1503117955.2938066       -7232547.6014404893        1428512025.8724668     
  -1459570891.4085608       -4319511.6806563139        1424573101.2261043     
  -1416185989.8727288       -1947016.9245811701        1424389182.1554112     
  -1372963250.6863067       -115063.33320778608        1427960268.6603885     
  -1329902673.8492944        1176349.0934640169        1435286360.7410345     
  -4017007.6202275343       -6716957.9674709272        1530826944.6298513     
  -2488183.4419856877       -6112154.1993090734        1523707243.4490957     
  -424253.33689209900       -3723664.0083063454        1521854885.9792125     
   2174782.6950487709        448512.60551926552        1525269872.2201991     
   5308924.6538438071        6404375.6421931386        1533952202.1720569     
  -334456003.10000479       -4433904.8789903373        1508558234.1451497     
  -318902158.11576974       -2933039.6059602946        1501649419.3767447     
  -303149222.51804405       -768538.95462594926        1500054955.0163360     
  -287197196.30682862        2059597.0750070959        1503774841.0639317     
  -271046079.48211896        5551368.4829530120        1512809077.5195241     
  -665583279.29810834       -2357336.0060092807        1485211900.0021114     
  -635870108.65894043        79882.226571589708        1478121953.7804685     
  -606293862.71964228        2060684.7929205894        1476393364.6639552     
  -576854541.48021221        3585071.6930429935        1480026132.6525695     
  -547552144.94065261        4653042.9269299805        1489020257.7463164     
  -997398836.21453834       -487251.34852367640        1460787942.2007403     
  -953392035.07149923        2926611.2982841730        1453124846.6602762     
  -909858173.94168830        4764007.2343311310        1450870114.9220681     
  -866797252.82510436        5024936.4596214294        1454023746.9861157     
  -824209271.72175050        3709398.9741468430        1462585742.8524275     
  -1329902673.8492944        1176349.0934640169        1435286360.7410345     
  -1271467937.3534424        5607147.6091864109        1426658098.0161595     
  -1213842156.1841793        7341428.3696122169        1423485205.7906711     
  -1157025330.3415015        6379191.3747551441        1425767684.0645704     
  -1101017459.8254168        2720436.6245865226        1433505532.8378558     
   5308924.6538438071        6404375.6421931386        1533952202.1720569     
   3827879.4166585011        7613071.8171473714        1530409324.0210631     
  -405377.70534248569       -352271.62395205349        1531112721.8570056     
  -7390846.7121645510       -17491654.681120701        1536062395.6798875     
  -17128527.603804860       -43805077.354350850        1545258345.4897101     
  -271046079.48211896        5551368.4829530120        1512809077.5195241     
  -262446644.92695379        4828719.1115559489        1506595830.8553643     
  -255331300.61065236       -840897.72271837294        1504336218.5552263     
  -249700046.53320697       -11457482.019847050        1506030240.6191158     
  -245552882.69462457       -27021033.779852360        1511677897.0470343     
  -547552144.94065261        4653042.9269299805        1489020257.7463164     
  -529708349.51574844        1748212.3323881924        1481616117.8226042     
  -512080522.68374395       -1876513.5718196034        1477872970.6400051     
  -494668664.44464314       -6221134.7857049704        1477790816.1985197     
  -477472774.79844326       -11285651.309260249        1481369654.4981515     
  -824209271.72175050        3709398.9741468430        1462585742.8524275     
  -797957234.34971166       -1628448.5203143656        1455470184.9227836     
  -770653043.92461324       -3459119.1712423563        1451722978.1113417     
  -742296700.44646430       -1782612.9786683321        1451344122.4180992     
  -712888203.91525424        3401070.0574408770        1454333617.8430631     
  -1101017459.8254168        2720436.6245865226        1433505532.8378558     
  -1067193299.4288522       -5301263.4465800524        1428158032.1558995     
  -1031048864.3332727       -5588714.5210287571        1425886240.9692354     
  -992584154.53867507        1858083.4012506008        1426690159.2778590     
  -951799170.04506540        17039130.320235252        1430569787.0817692     
  -17128527.603804860       -43805077.354350850        1545258345.4897101     
  -14051540.303763999       -49640628.306591749        1537446690.6512694     
   2744782.7910793382       -9745059.9428244065        1534732684.6176832     
   33260441.680729471        75881627.736964554        1537116327.3889513     
   77495436.365192100        207239434.73279727        1544597618.9650788     
  -245552882.69462457       -27021033.779852360        1511677897.0470343     
  -226727221.25656119       -28752184.321295470        1515623899.8483763     
  -200200644.12553900       -4813615.8862123638        1525639449.2408435     
  -165973151.30156130        44794671.525395535        1541724545.2244556     
  -124044742.78461906        120072677.91354218        1563879187.7991800     
  -477472774.79844326       -11285651.309260249        1481369654.4981515     
  -440121588.40442604       -8079346.1945127845        1490051824.8204541     
  -401087906.41930407        735277.55725149810        1505775439.5201604     
  -360371728.84307218        15158219.946053579        1528540498.5972729     
  -317973055.67572814        35189480.971891090        1558347002.0517910     
  -712888203.91525424        3401070.0574408770        1454333617.8430631     
  -654234641.74736607        12377886.073737323        1460730465.5675058     
  -599917004.09021664        6901620.3875698745        1475140655.4556243     
  -549935290.94380474       -13027727.001058042        1497564187.5074191     
  -504289502.30813128       -47410156.092144921        1528001061.7228930     
  -951799170.04506540        17039130.320235252        1430569787.0817692     
  -869066381.28537154        32619512.483481109        1427659822.0895259     
  -796687937.13827109        13685412.604748964        1433735097.0472324     
  -734663837.60375655       -39763169.315929621        1448795611.9548962     
  -682994082.68182659       -127726233.27856857        1472841366.8125076     
  -1756004508.3216581       -526801352.49649745        680010739.44540501     
  -1784033618.1690152       -500020132.11378962        806442677.13856220     
  -1809149944.2170782       -463529632.40010339        925759152.29980707     
  -1831353486.4658482       -417329853.35543829        1037960164.9291390     
  -1850644244.9153244       -361420794.97979492        1143045715.0265577     
  -2201667415.2791266       -660500224.58373809        696419566.56025457     
  -2238324928.4413142       -613855742.31330633        813854980.09254885     
  -2272946353.8255754       -560424300.78311729        927184793.17125750     
  -2305531691.4319081       -500205899.99317038        1036409005.7963804     
  -2336080941.2603149       -433200539.94346666        1141527617.9679172     
  -2685582599.2463241       -805674779.77389717        721975100.79609597     
  -2722268909.7852664       -736587153.83431876        829391178.14260018     
  -2757795828.5676475       -663634888.70620394        935711517.11384547     
  -2792163355.5934687       -586817984.38955259        1040936117.7098316     
  -2825371490.8627272       -506136440.88436478        1145064979.9305589     
  -3207750060.2232504       -962325018.06697512        756677342.15292931     
  -3235865562.2008700       -868214366.67682672        853051271.28871560     
  -3263698368.4432955       -773161396.16936314        951339324.12757027     
  -3291248478.9505258       -677166106.54458404        1051541500.6694925     
  -3318515893.7225618       -580228497.80248988        1153657800.9144824     
  -3768169798.2099051       -1130450939.4629717        800526290.63075435     
  -3779114885.6881256       -1008737380.8408302        884835259.53089595     
  -3790653973.4525185       -889003823.17259502        974068214.21243227     
  -3802787061.5030832       -771250266.45826507        1068225154.6753634     
  -3815514149.8398194       -655476710.69784176        1167306080.9196889     
  -1850644244.9153244       -361420794.97979492        1143045715.0265577     
  -1835291781.5573115       -295775015.32828820        1190523500.4887822     
  -1823284791.1852190       -241280812.29651576        1240304165.5059917     
  -1814623273.7990472       -197938185.88447893        1292387710.0781870     
  -1809307229.3987954       -165747136.09217399        1346774134.2053678     
  -2336080941.2603149       -433200539.94346666        1141527617.9679172     
  -2312453934.2469153       -352132217.29779196        1182775149.2640569     
  -2292306914.6531391       -282663852.71752614        1224525786.2030082     
  -2275639882.4789844       -224795446.20266998        1266779528.7847722     
  -2262452837.7244525       -178526997.75322020        1309536377.0093472     
  -2825371490.8627272       -506136440.88436478        1145064979.9305589     
  -2798612151.3715801       -411188238.59781361        1179925323.5546281     
  -2775467313.7337580       -328288375.82234633        1213488998.9093351     
  -2755936977.9492602       -257436852.55796218        1245756005.9946811     
  -2740021144.0180874       -198633668.80466020        1276726344.8106639     
  -3318515893.7225618       -580228497.80248988        1153657800.9144824     
  -3293766432.9313059       -472943079.22835481        1181974023.3604951     
  -3272765988.4270773       -378154381.61097717        1207193803.6249719     
  -3255514560.2098761       -295862404.95035708        1229317141.7079134     
  -3242012148.2797008       -226067149.24649441        1248344037.6093190     
  -3815514149.8398194       -655476710.69784176        1167306080.9196889     
  -3797916778.9260931       -537396739.18941236        1188921248.6816587     
  -3784202938.7330971       -432261870.08341694        1205640200.3499188     
  -3774372629.2608309       -340072103.37985313        1217462935.9244704     
  -3768425850.5092921       -260827439.07872033        1224389455.4053128     
  -1809307229.3987954       -165747136.09217399        1346774134.2053678     
  -1778845224.1991217       -133169563.37116551        1364686095.1228275     
  -1749756822.0428391       -105170667.46145695        1383393818.5690758     
  -1722042022.9299479       -81750448.363053203        1402897304.5441117     
  -1695700826.8604462       -62908906.075948894        1423196553.0479372     
  -2262452837.7244525       -178526997.75322020        1309536377.0093472     
  -2223273262.0638666       -134174126.81070459        1317591680.0270462     
  -2187018096.8597546       -99569290.723100066        1328839667.4347723     
  -2153687342.1121182       -74712489.490415573        1343280339.2325261     
  -2123280997.8209553       -59603723.112642169        1360913695.4203069     
  -2740021144.0180874       -198633668.80466020        1276726344.8106639     
  -2685275649.7216196       -140450995.18814433        1273115714.6133378     
  -2635005373.2947121       -97185714.470156670        1275094690.6672766     
  -2589210314.7373633       -68837826.650700331        1282663272.9724829     
  -2547890474.0495706       -55407331.729768753        1295821461.5289550     
  -3242012148.2797008       -226067149.24649441        1248344037.6093190     
  -3164852387.1723828       -152000168.50348711        1231258198.8817022     
  -3093718651.3477106       -98019938.702625990        1222158888.2665913     
  -3028610940.8056793       -64126459.843905687        1221046105.7639844     
  -2969529255.5462909       -50319731.927329302        1227919851.3738828     
  -3768425850.5092921       -260827439.07872033        1224389455.4053128     
  -3662003474.4161568       -168821646.75673485        1192019132.8321407     
  -3563157931.0187502       -102071963.42050648        1170032260.2327118     
  -3471889220.3170691       -60578389.070034266        1158428837.6070285     
  -3388197342.3111143       -44340923.705314994        1157208864.9550886     
  -1695700826.8604462       -62908906.075948894        1423196553.0479372     
  -1645235751.7876370       -41258625.853490710        1416224183.4937780     
  -1596316914.8355937       -24762472.700252473        1414785972.4464803     
  -1548944316.0043175       -13420446.616236806        1418881919.9060438     
  -1503117955.2938066       -7232547.6014404893        1428512025.8724668     
  -2123280997.8209553       -59603723.112642169        1360913695.4203069     
  -2059886513.5228434       -40797899.667417049        1353167521.8101935     
  -1997655125.3185656       -25869063.201636791        1350489302.1997368     
  -1936586833.2081156       -14817213.715285897        1352879036.5889361     
  -1876681637.1915002       -7642351.2083796263        1360336724.9777915     
  -2547890474.0495706       -55407331.729768753        1295821461.5289550     
  -2472898593.4038854       -39845568.925096989        1287748482.8943100     
  -2398686666.8250952       -26883653.010081649        1284277253.7521183     
  -2325254694.3132038       -16521583.984725118        1285407774.1023781     
  -2252602675.8682103       -8759361.8490285873        1291140043.9450881     
  -2969529255.5462909       -50319731.927329302        1227919851.3738828     
  -2884271991.4307561       -38401633.626523376        1219967066.7461309     
  -2799411539.3551855       -27806242.125598311        1216149827.1036255     
  -2714947899.3195777       -18533557.424553514        1216468132.4463670     
  -2630881071.3239341       -10583579.523380995        1220921982.7743573     
  -3388197342.3111143       -44340923.705314994        1157208864.9550886     
  -3294006707.6034603       -36466093.771701932        1149823273.3656526     
  -3199829742.9088345       -28636830.548182368        1146107022.2542589     
  -3105666448.2272387       -20853134.034762144        1146060111.6209078     
  -3011516823.5586715       -13115004.231435537        1149682541.4655983     
  -1503117955.2938066       -7232547.6014404893        1428512025.8724668     
  -1459570891.4085608       -4319511.6806563139        1424573101.2261043     
  -1416185989.8727288       -1947016.9245811701        1424389182.1554112     
  -1372963250.6863067       -115063.33320778608        1427960268.6603885     
  -1329902673.8492944        1176349.0934640169        1435286360.7410345     
  -1876681637.1915002       -7642351.2083796263        1360336724.9777915     
  -1823019264.6661670       -4696881.2555979490        1355381995.1790464     
  -1769747562.3151832       -3053645.2173166275        1354445781.6742380     
  -1716866530.1385467       -2712643.0935225487        1357528084.4633665     
  -1664376168.1362605       -3673874.8842332363        1364628903.5464313     
  -2252602675.8682103       -8759361.8490285873        1291140043.9450881     
  -2188072106.9363122       -5555591.5343033075        1284902916.5315349     
  -2124160716.0037000       -4415747.8838660717        1282947816.1301842     
  -2060868503.0703771       -5339830.8977197409        1285274742.7410350     
  -1998195468.1363385       -8327840.5758559704        1291883696.3640909     
  -2630881071.3239341       -10583579.523380995        1220921982.7743573     
  -2554729418.2189960       -6895642.5167744160        1213135865.2835674     
  -2479425450.9382820       -6033324.9242373705        1209895285.5232482     
  -2404969169.4817915       -7996626.7457859516        1211200243.4933968     
  -2331360573.8495255       -12785547.981412053        1217050739.1940153     
  -3011516823.5586715       -13115004.231435537        1149682541.4655983     
  -2922991198.5142183       -8717034.2029957771        1140080841.4351461     
  -2835541767.1189270       -7906376.3384287357        1135288189.8534296     
  -2749168529.3727965       -10683030.637733221        1135304586.7204497     
  -2663871485.2758269       -17046997.100906134        1140130032.0362039     
  -1329902673.8492944        1176349.0934640169        1435286360.7410345     
  -1271467937.3534424        5607147.6091864109        1426658098.0161595     
  -1213842156.1841793        7341428.3696122169        1423485205.7906711     
  -1157025330.3415015        6379191.3747551441        1425767684.0645704     
  -1101017459.8254168        2720436.6245865226        1433505532.8378558     
  -1664376168.1362605       -3673874.8842332363        1364628903.5464313     
  -1591946550.3819492        5229.8266730904579        1355483680.6411726     
  -1520010728.5350440        2038348.1795537472        1351821848.3133783     
  -1448568702.5955455        2425480.1744114161        1353643406.5630476     
  -1377620472.5634587        1166625.8112313747        1360948355.3901808     
  -1998195468.1363385       -8327840.5758559704        1291883696.3640909     
  -1911690911.7576332       -5376412.4599909782        1282589199.2674940     
  -1825364991.8671567       -3020439.3048828840        1278806112.8264375     
  -1739217708.4649057       -1259921.1105340719        1280534437.0409217     
  -1653249061.5508890       -94857.876950263977        1287774171.9109409     
  -2331360573.8495255       -12785547.981412053        1217050739.1940153     
  -2230701021.4804974       -10537779.250803828        1207974653.8951232     
  -2129904946.1805172       -7834934.0836920738        1204437999.3298481     
  -2028972347.9495833       -4677012.4800696373        1206440775.4981883     
  -1927903226.7877007       -1064014.4399430752        1213982982.4001453     
  -2663871485.2758269       -17046997.100906134        1140130032.0362039     
  -2548976879.5505452       -15478870.545784950        1131640044.5240600     
  -2433630591.4751234       -12405136.156872392        1128717507.8236094     
  -2317832621.0495753       -7825793.9342005253        1131362421.9348495     
  -2201582968.2738934       -1740843.8777501583        1139574786.8577828     
  -1101017459.8254168        2720436.6245865226        1433505532.8378558     
  -1067193299.4288522       -5301263.4465800524        1428158032.1558995     
  -1031048864.3332727       -5588714.5210287571        1425886240.9692354     
  -992584154.53867507        1858083.4012506008        1426690159.2778590     
  -951799170.04506540        17039130.320235252        1430569787.0817692     
  -1377620472.5634587        1166625.8112313747        1360948355.3901808     
  -1336143108.3867476       -7744139.2790181637        1358011300.9878933     
  -1293387762.1292975       -12394964.100144267        1358090785.7717571     
  -1249354433.7911172       -12785848.652171135        1361186809.7417729     
  -1204043123.3722064       -8916792.9350892901        1367299372.8979421     
  -1653249061.5508890       -94857.876950263977        1287774171.9109409     
  -1604287551.6201310       -9945405.3941059709        1286031555.7336602     
  -1555090352.2269206       -19010321.369755983        1287246308.4333928     
  -1505657463.3712637       -27289605.803914189        1291418430.0101411     
  -1455988885.0531542       -34783258.696562588        1298547920.4639053     
  -1927903226.7877007       -1064014.4399430752        1213982982.4001453     
  -1871626629.1290019       -11905061.791831732        1212218796.3932018     
  -1816156634.6261375       -25434786.329842448        1213352808.9541388     
  -1761493243.2791052       -41653188.053954124        1217385020.0829544     
  -1707636455.0879068       -60560266.964177310        1224315429.7796485     
  -2201582968.2738934       -1740843.8777501583        1139574786.8577828     
  -2138160340.9133635       -13623108.472219825        1136573022.9665172     
  -2076586609.3269458       -31668358.980398178        1136410287.3339970     
  -2016861773.5146503       -55876595.402317166        1139086579.9602177     
  -1958985833.4764628       -86247817.737929702        1144601900.8451772     
  -951799170.04506540        17039130.320235252        1430569787.0817692     
  -869066381.28537154        32619512.483481109        1427659822.0895259     
  -796687937.13827109        13685412.604748964        1433735097.0472324     
  -734663837.60375655       -39763169.315929621        1448795611.9548962     
  -682994082.68182659       -127726233.27856857        1472841366.8125076     
  -1204043123.3722064       -8916792.9350892901        1367299372.8979421     
  -1099319979.8124053        5678166.1020268202        1354564678.4796727     
  -1000554585.3370186        413961.52442747355        1349987806.9867911     
  -907746939.94603634       -24709406.667849004        1353568758.4193022     
  -820897043.63946366       -69691938.474831581        1365307532.7772088     
  -1455988885.0531542       -34783258.696562588        1298547920.4639053     
  -1331639435.3348508       -21882937.378054380        1281117858.0691450     
  -1208851139.1727757       -14186461.246983588        1271018201.5752180     
  -1087623996.5669365       -11693830.303351223        1268248950.9821167     
  -967958007.51732612       -14405044.547162235        1272810106.2898502     
  -1707636455.0879068       -60560266.964177310        1224315429.7796485     
  -1566024747.8527002       -50063797.956751645        1207319360.8579445     
  -1421577598.6455491       -30115855.709509492        1196826280.8125143     
  -1274295007.4664519       -716440.22244298458        1192836189.6433432     
  -1124176974.3154047        38134448.504442275        1195349087.3504484     
  -1958985833.4764628       -86247817.737929702        1144601900.8451772     
  -1802475917.3659644       -78864415.634083390        1133169186.8460717     
  -1638733963.7553315       -47374221.863127351        1127412044.6986725     
  -1467759972.6445818        8222763.5748903155        1127330474.4029768     
  -1289553944.0337090        87926540.679978967        1132924475.9589868     
  -3768169798.2099051       -1130450939.4629717        800526290.63075435     
  -3779114885.6881256       -1008737380.8408302        884835259.53089595     
  -3790653973.4525185       -889003823.17259502        974068214.21243227     
  -3802787061.5030832       -771250266.45826507        1068225154.6753634     
  -3815514149.8398194       -655476710.69784176        1167306080.9196889     
  -4339693785.0787373       -1301908135.5236211        858686663.12339199     
  -4335239008.9121180       -1125748924.5300269        942322389.73990655     
  -4331913797.7027340       -953354930.06054723        1020315798.2161063     
  -4329718151.4505825       -784726152.11518323        1092666888.5519917     
  -4328652070.1556673       -619862590.69393528        1159375660.7475624     
  -4895173992.7021942       -1468552197.8106582        936323176.52466297     
  -4905508792.6670456       -1247004166.3785038        1018660835.4079767     
  -4917508722.2601967       -1031006567.0406747        1084789872.2292674     
  -4931173781.4816437       -820559399.79716980        1134710286.9885337     
  -4946503970.3313904       -615662664.64799082        1168422079.6857762     
  -5434610421.0802765       -1630383126.3240831        1033435830.8345672     
  -5489924236.9529133       -1372503106.3862627        1113850596.5351074     
  -5547438747.1249104       -1121958734.1129768        1167490436.2519147     
  -5607153951.5962696       -878750009.50422537        1194355349.9849889     
  -5669069850.3669844       -642876932.56000757        1194445337.7343299     
  -5958003070.2129850       -1787400921.0638955        1150024626.0531049     
  -6088485341.7697172       -1502245744.5533025        1227891673.1212981     
  -6221703872.2968740       -1226211431.2774534        1268417490.2840490     
  -6357658661.7944527       -959297981.23634911        1271602077.5413573     
  -6496349710.2624540       -701505394.42998743        1237445434.8932238     
  -3815514149.8398194       -655476710.69784176        1167306080.9196889     
  -3797916778.9260931       -537396739.18941236        1188921248.6816587     
  -3784202938.7330971       -432261870.08341694        1205640200.3499188     
  -3774372629.2608309       -340072103.37985313        1217462935.9244704     
  -3768425850.5092921       -260827439.07872033        1224389455.4053128     
  -4328652070.1556673       -619862590.69393528        1159375660.7475624     
  -4298198158.1660519       -464022546.47274792        1141357076.5672693     
  -4278377230.4995108       -343625783.32847726        1129410492.5284252     
  -4269189287.1560469       -258672301.26112652        1123535908.6310301     
  -4270634328.1356554       -209162100.27069235        1123733324.8750837     
  -4946503970.3313904       -615662664.64799082        1168422079.6857762     
  -4871855756.5940046       -412661219.51247859        1102895381.0271497     
  -4814589980.7820387       -267601234.12837243        1054408898.7451308     
  -4774706642.8954935       -180482708.49566770        1022962632.8397186     
  -4752205742.9343729       -151305642.61437273        1008556583.3109146     
  -5669069850.3669844       -642876932.56000757        1194445337.7343299     
  -5518889574.2099476       -383312758.30860734        1073536162.0612996     
  -5392841189.5806770       -204188222.48310018        980635419.00003576     
  -5290924696.4791727       -105503325.08348155        915743108.55053651     
  -5213140094.9054375       -87258066.109756470        878859230.71280432     
  -6496349710.2624540       -701505394.42998743        1237445434.8932238     
  -6239299611.0138826       -375977162.86113429        1053279419.6697196     
  -6013130856.8954277       -153386748.39266205        908090053.29314017     
  -5817843447.9070835       -33734151.024561405        801877335.76348400     
  -5653437384.0488539       -17019370.756844521        734641267.08075261     
  -3768425850.5092921       -260827439.07872033        1224389455.4053128     
  -3662003474.4161568       -168821646.75673485        1192019132.8321407     
  -3563157931.0187502       -102071963.42050648        1170032260.2327118     
  -3471889220.3170691       -60578389.070034266        1158428837.6070285     
  -3388197342.3111143       -44340923.705314994        1157208864.9550886     
  -4270634328.1356554       -209162100.27069235        1123733324.8750837     
  -4148425515.6780448       -145296034.83939934        1090557611.2958679     
  -4030577317.7481079       -95965351.167023182        1065635643.4595882     
  -3917089734.3458462       -61170049.253563643        1048967421.3662462     
  -3807962765.4712563       -40910129.099018335        1040552945.0158404     
  -4752205742.9343729       -151305642.61437273        1008556583.3109146     
  -4620295363.3431578       -117404764.84303188        978327733.25504792     
  -4489529380.1115685       -87318541.603770971        954222924.71131110     
  -4359907793.2396040       -61046972.896587133        936242157.67970490     
  -4231430602.7272601       -38590058.721481562        924385432.16022742     
  -5213140094.9054375       -87258066.109756470        878859230.71280432     
  -5077613017.4115019       -85147836.767633677        855329498.70968163     
  -4940014118.1091375       -76131534.730751753        835794103.98788011     
  -4800343396.9983482       -60209159.999109268        820253046.54740250     
  -4658600854.0791245       -37380712.572702408        808706326.38824642     
  -5653437384.0488539       -17019370.756844521        734641267.08075261     
  -5520378477.8830738       -48525250.613203287        721562907.65976572     
  -5382031531.7408123       -62404330.547962904        710349181.28929675     
  -5238396545.6220713       -58656610.561120987        701000087.96933937     
  -5089473519.5268507       -37282090.652680635        693515627.69990182     
  -3388197342.3111143       -44340923.705314994        1157208864.9550886     
  -3294006707.6034603       -36466093.771701932        1149823273.3656526     
  -3199829742.9088345       -28636830.548182368        1146107022.2542589     
  -3105666448.2272387       -20853134.034762144        1146060111.6209078     
  -3011516823.5586715       -13115004.231435537        1149682541.4655983     
  -3807962765.4712563       -40910129.099018335        1040552945.0158404     
  -3702058138.9691887       -29283856.610979319        1031861583.3688698     
  -3596848026.4810376       -19972630.835993528        1027645926.6500770     
  -3492332428.0068016       -12976451.774057865        1027905974.8594600     
  -3388511343.5464840       -8295319.4251828194        1032641727.9970217     
  -4231430602.7272601       -38590058.721481562        924385432.16022742     
  -4111508086.0018210       -22521174.150326252        913593982.45468581     
  -3992960927.2911859       -11036816.295185328        908084602.12745702     
  -3875789126.5953536       -4136985.1560568810        907857291.17854095     
  -3759992683.9143267       -1821680.7329385281        912912049.60793746     
  -4658600854.0791245       -37380712.572702408        808706326.38824642     
  -4522356548.7013578       -16178046.389748573        795020470.62309885     
  -4388168445.3392792       -1829386.9257628918        787423048.68640077     
  -4256036543.9928942        5665265.8192522526        785914060.57814991     
  -4125960844.6622014        6305911.8452942371        790493506.29834414     
  -5089473519.5268507       -37282090.652680635        693515627.69990182     
  -4934603527.0677938       -10254473.329233646        676141047.87411320     
  -4782470580.6253195        7649657.2722775936        665661266.32690644     
  -4633074680.1994238        16430301.151861668        662076283.05828488     
  -4486415825.7901030        16087458.309522629        665386098.06824553     
  -3011516823.5586715       -13115004.231435537        1149682541.4655983     
  -2922991198.5142183       -8717034.2029957771        1140080841.4351461     
  -2835541767.1189270       -7906376.3384287357        1135288189.8534296     
  -2749168529.3727965       -10683030.637733221        1135304586.7204497     
  -2663871485.2758269       -17046997.100906134        1140130032.0362039     
  -3388511343.5464840       -8295319.4251828194        1032641727.9970217     
  -3288929664.7412133       -6824295.4022719860        1023782503.9820920     
  -3189931463.1062832       -7298195.2804833651        1019294337.3357135     
  -3091516738.6416912       -9717019.0598249435        1019177228.0578856     
  -2993685491.3474336       -14080766.740285039        1023431176.1486093     
  -3759992683.9143267       -1821680.7329385281        912912049.60793746     
  -3650606354.4344845       -3653023.6414279938        905370137.50049067     
  -3541310785.6461549       -5786902.1882896423        901761291.68141150     
  -3432105977.5493422       -8223316.3735389709        902085512.15069783     
  -3322991930.1440430       -10962266.197163343        906342798.90835202     
  -4125960844.6622014        6305911.8452942371        790493506.29834414     
  -4008021267.5940228        796781.07954072952        784843741.99034357     
  -3889679734.7385416       -3372497.0618550777        782689052.89052343     
  -3770936246.0957494       -6201922.5788786411        784029438.99888480     
  -3651790801.6656404       -7691495.4715354443        788864900.31542933     
  -4486415825.7901030        16087458.309522629        665386098.06824553     
  -4361174404.2198410        6525118.7606177330        662203317.45164907     
  -4235038310.3834438       -54979.901166677475        662077620.96304941     
  -4108007544.2809153       -3652837.6758539677        665009008.60244834     
  -3980082105.9122505       -4268454.5634181499        670997480.36984229     
  -2663871485.2758269       -17046997.100906134        1140130032.0362039     
  -2548976879.5505452       -15478870.545784950        1131640044.5240600     
  -2433630591.4751234       -12405136.156872392        1128717507.8236094     
  -2317832621.0495753       -7825793.9342005253        1131362421.9348495     
  -2201582968.2738934       -1740843.8777501583        1139574786.8577828     
  -2993685491.3474336       -14080766.740285039        1023431176.1486093     
  -2863554028.6383047       -9348370.6517958641        1015422019.9124507     
  -2733230684.9273038       -3976371.2237213850        1012835856.0367800     
  -2602715460.2144284        2035231.5439217091        1015672684.5215986     
  -2472008354.4996877        8686437.6511298418        1023932505.3669050     
  -3322991930.1440430       -10962266.197163343        906342798.90835202     
  -3178036348.8830786       -3189422.1049095392        898511372.37520683     
  -3033148687.9685001        4357020.8327252865        895958479.75134826     
  -2888328947.4003139        11677062.615727901        898684121.03677201     
  -2743577127.1785078        18770703.244110703        906688296.23148441     
  -3651790801.6656404       -7691495.4715354443        788864900.31542933     
  -3492423840.2848587        2997975.0948677063        780908101.91232872     
  -3333384600.5987196        12595040.012459755        778085378.96731186     
  -3174673082.6072240        21099699.281233191        780396731.48037362     
  -3016289286.3103800        28511952.901173472        787842159.45151961     
  -3980082105.9122505       -4268454.5634181499        670997480.36984229     
  -3806716502.8436460        9213820.9475557804        662612208.52381432     
  -3633938422.8179526        20737686.315502405        659216553.68467236     
  -3461747865.8351650        30303141.540424824        660810515.85240078     
  -3290144831.8952847        37910186.622323036        667394095.02700949     
  -2201582968.2738934       -1740843.8777501583        1139574786.8577828     
  -2138160340.9133635       -13623108.472219825        1136573022.9665172     
  -2076586609.3269458       -31668358.980398178        1136410287.3339970     
  -2016861773.5146503       -55876595.402317166        1139086579.9602177     
  -1958985833.4764628       -86247817.737929702        1144601900.8451772     
  -2472008354.4996877        8686437.6511298418        1023932505.3669050     
  -2401819634.0571671       -4084856.6818056107        1018718696.8178720     
  -2332658169.2484932       -20280336.460889935        1016075707.7051212     
  -2264523960.0736585       -39900001.686104536        1016003538.0286473     
  -2197417006.5326681       -62943852.357465267        1018502187.7884550     
  -2743577127.1785078        18770703.244110703        906688296.23148441     
  -2667388624.5753255        4880485.8963025808        900221023.18833661     
  -2591405737.4657106       -9695116.4300653934        896056360.75900137     
  -2515628465.8496661       -24956103.734998345        894194308.94348979     
  -2440056809.7271862       -40902476.018493176        894634867.74179530     
  -3016289286.3103800        28511952.901173472        787842159.45151961     
  -2934867312.4678421        13272919.262106419        781080002.07790446     
  -2852829313.9786072        87301.112050175667        776352246.49564707     
  -2770175290.8426628       -11044901.548982143        773658892.70474577     
  -2686905243.0600119       -20123688.721007466        772999940.70520222     
  -3290144831.8952847        37910186.622323036        667394095.02700949     
  -3204255697.7347217        21092443.415591478        661295633.48658264     
  -3116928898.7871790        9066916.1654622555        656963364.91504765     
  -3028164435.0526571        1833604.8719260693        654397289.31241179     
  -2937962306.5311646       -607490.46503663063        653597406.67866790     
  -1958985833.4764628       -86247817.737929702        1144601900.8451772     
  -1802475917.3659644       -78864415.634083390        1133169186.8460717     
  -1638733963.7553315       -47374221.863127351        1127412044.6986725     
  -1467759972.6445818        8222763.5748903155        1127330474.4029768     
  -1289553944.0337090        87926540.679978967        1132924475.9589868     
  -2197417006.5326681       -62943852.357465267        1018502187.7884550     
  -2023748141.1893351       -50161711.491470218        1012199089.1535969     
  -1846508667.6869056       -25477543.428479075        1012173747.5933287     
  -1665698586.0253661        11108651.831537604        1018426163.1076534     
  -1481317896.2047338        59596874.288535297        1030956335.6965765     
  -2440056809.7271862       -40902476.018493176        894634867.74179530     
  -2247508465.9427776       -22205437.627897143        889189716.90666246     
  -2055050943.3402901       -3811136.5103578568        890624508.36900330     
  -1862684241.9197252        14280427.334102511        898939242.12882733     
  -1670408361.6810794        32069253.905495405        914133918.18612659     
  -2686905243.0600119       -20123688.721007466        772999940.70520222     
  -2473756891.6262884        5004405.9566617012        764141070.10526443     
  -2264360790.7155013        17624998.891200781        762764327.02569127     
  -2058716940.3276594        17738090.082602978        768869711.46648169     
  -1856825340.4627581        5343679.5308489799        782457223.42764163     
  -2937962306.5311646       -607490.46503663063        653597406.67866790     
  -2702493418.2398658        31467819.262196779        637053148.74940491     
  -2474438209.8125277        38830862.776233792        628593203.56338978     
  -2253796681.2491584        21481640.077032447        628217571.12062407     
  -2040568832.5497553       -20579848.835379958        635926251.42112100     
  -5958003070.2129850       -1787400921.0638955        1150024626.0531049     
  -6088485341.7697172       -1502245744.5533025        1227891673.1212981     
  -6221703872.2968740       -1226211431.2774534        1268417490.2840490     
  -6357658661.7944527       -959297981.23634911        1271602077.5413573     
  -6496349710.2624540       -701505394.42998743        1237445434.8932238     
  -6810682663.3599281       -2043204799.0079784        1353772478.8382578     
  -6828602953.8232021       -1395463973.9559712        1202754657.7340629     
  -6897900434.3144207       -918980448.99711561        1091990594.6361063     
  -7018575104.8335848       -613754224.13141298        1021480289.5443884     
  -7190626965.3806934       -479785299.35886073        991223742.45890939     
  -8337979923.7807207       -2501393977.1342163        1712362305.8480077     
  -8021638267.6885881       -1424557513.9022107        1275711863.6709814     
  -7805314732.6819239       -681114787.62176561        956910167.41187501     
  -7689009318.7607307       -271065798.29288054        755957217.07068801     
  -7672722025.9250021       -194410545.91555643        672853012.64742088     
  -10539894851.475361       -3161968455.4426079        2225794107.0823545     
  -9667591283.3658791       -1589526364.3920209        1446763290.9320545     
  -8943946767.3993874       -512614447.15140247        863176208.61135542     
  -8368961303.5758820        68767296.279249191        475032860.12025595     
  -7942634891.8953743        154618865.89993143        282333245.45875770     
  -13416427446.443850       -4024928233.9331546        2894067882.5412984     
  -11766462000.855070       -1890370525.4254019        1715908939.5172818     
  -10313796538.466805       -413479427.58602667        810788718.23454690     
  -9058431059.2790527        405745059.58497477        178707218.69309255     
  -8000365563.2918139        567302936.08759689       -180335559.10707924     
  -6496349710.2624540       -701505394.42998743        1237445434.8932238     
  -6239299611.0138826       -375977162.86113429        1053279419.6697196     
  -6013130856.8954277       -153386748.39266205        908090053.29314017     
  -5817843447.9070835       -33734151.024561405        801877335.76348400     
  -5653437384.0488539       -17019370.756844521        734641267.08075261     
  -7190626965.3806934       -479785299.35886073        991223742.45890939     
  -6900552960.9046631       -304490816.80854297        846909151.47611248     
  -6623263657.6506910       -171812004.99842238        723690242.36409950     
  -6358759055.6187792       -81748863.928503513        621567015.12287211     
  -6107039154.8089275       -34301393.598780632        540539469.75242984     
  -7672722025.9250021       -194410545.91555643        672853012.64742088     
  -7400712593.2961912       -184676355.50617552        589502597.13139319     
  -7123391217.9813862       -157235689.47681379        509366896.51000971     
  -6840757899.9805908       -112088547.82747674        432445910.78327411     
  -6552812639.2937946       -49234930.558152676        358739639.95118189     
  -7942634891.8953743        154618865.89993143        282333245.45875770     
  -7739778508.1884651       -16533778.954031944        281059756.63556182     
  -7513513537.8875170       -109657801.82783461        265120015.73087129     
  -7263839980.9925137       -124753202.72148275        234514022.74468660     
  -6990757837.5034657       -61819981.634966850        189241777.67700949     
  -8000365563.2918139        567302936.08759689       -180335559.10707924     
  -7917750705.5814972        199936912.84788418       -78419370.011379927     
  -7793630617.3690758       -29078342.051486015       -9050399.9733177852     
  -7628005298.6545582       -119742828.61052561        27771351.007114794     
  -7420874749.4379339       -72056546.829221249        32045882.929916561     
  -5653437384.0488539       -17019370.756844521        734641267.08075261     
  -5520378477.8830738       -48525250.613203287        721562907.65976572     
  -5382031531.7408123       -62404330.547962904        710349181.28929675     
  -5238396545.6220713       -58656610.561120987        701000087.96933937     
  -5089473519.5268507       -37282090.652680635        693515627.69990182     
  -6107039154.8089275       -34301393.598780632        540539469.75242984     
  -5959420825.5536823       -36080709.804795027        534126940.19883478     
  -5810883497.3199120       -34796696.082378626        530189357.59038442     
  -5661427170.1076107       -30449352.431538343        528726721.92707920     
  -5511051843.9167824       -23038678.852262974        529739033.20892012     
  -6552812639.2937946       -49234930.558152676        358739639.95118189     
  -6388891132.9644346       -20764556.918427706        353895725.76736778     
  -6228419668.6544971       -3794323.3434464931        352137072.42332906     
  -6071398246.3639822        1675770.1667962074        353463679.91906422     
  -5917826866.0928860       -4354276.3876972198        357875548.25457472     
  -6990757837.5034657       -61819981.634966850        189241777.67700949     
  -6808789400.1153278       -2576791.9540996552        180869264.36536905     
  -6634640045.7445669        30602787.668848515        176192325.78812990     
  -6468309774.3911791        37718757.233886480        175210961.94529667     
  -6309798586.0551624        18771116.741014481        177925172.83686662     
  -7420874749.4379339       -72056546.829221249        32045882.929916561     
  -7219115627.0063667        18482585.088174820        15047555.992834656     
  -7029544628.5901232        68394636.954493523        2355117.6847893028     
  -6852161754.1892080        77679608.769720554       -6031431.9942258997     
  -6686967003.8036098        46337500.533878803       -10112093.044200704     
  -5089473519.5268507       -37282090.652680635        693515627.69990182     
  -4934603527.0677938       -10254473.329233646        676141047.87411320     
  -4782470580.6253195        7649657.2722775936        665661266.32690644     
  -4633074680.1994238        16430301.151861668        662076283.05828488     
  -4486415825.7901030        16087458.309522629        665386098.06824553     
  -5511051843.9167824       -23038678.852262974        529739033.20892012     
  -5344440666.8640070       -10579157.132226706        514783389.56439167     
  -5178631064.9113998       -791552.41275596619        505326496.31416011     
  -5013623038.0589628        6324135.3061547279        501368353.45822418     
  -4849416586.3066921        10767906.024500608        502908960.99658698     
  -5917826866.0928860       -4354276.3876972198        357875548.25457472     
  -5743463212.6872072       -7659462.7433142662        347596890.19378614     
  -5567965663.4652901       -7184996.3781270981        341420934.64300519     
  -5391334218.4271297       -2930877.2921404839        339347681.60223597     
  -5213568877.5727329        5102894.5146515369        341377131.07147413     
  -6309798586.0551624        18771116.741014481        177925172.83686662     
  -6131671164.5374012       -1495390.1625015736        174581549.76229388     
  -5950474376.2869873       -11530674.623845339        173944581.31344131     
  -5766208221.3039274       -11334736.643033504        176014267.49031723     
  -5578872699.5882149       -907576.22004437447        180790608.29291219     
  -6686967003.8036098        46337500.533878803       -10112093.044200704     
  -6509064522.4145813        7913060.6102182865       -4262631.7300827373     
  -6326157203.3764944       -13828587.149900675        2897436.3254721160     
  -6138245046.6893473       -18887442.746495962        11368111.122464657     
  -5945328052.3531408       -7263506.1795563698        21149392.660893764     
  -4486415825.7901030        16087458.309522629        665386098.06824553     
  -4361174404.2198410        6525118.7606177330        662203317.45164907     
  -4235038310.3834438       -54979.901166677475        662077620.96304941     
  -4108007544.2809153       -3652837.6758539677        665009008.60244834     
  -3980082105.9122505       -4268454.5634181499        670997480.36984229     
  -4849416586.3066921        10767906.024500608        502908960.99658698     
  -4714855562.8100243        5167190.9035437107        499940252.44133633     
  -4580251771.2654696       -290964.05779957771        500169163.29502887     
  -4445605211.6730185       -5606558.8594992161        503595693.55766737     
  -4310915884.0326881       -10779593.501580715        510219843.22925073     
  -5213568877.5727329        5102894.5146515369        341377131.07147413     
  -5069286722.7755232        3584262.6338691711        337628606.32295179     
  -4925813704.1486721       -631489.81477499008        337218236.26431721     
  -4783149821.6921740       -7544362.8312604427        340146020.89557642     
  -4641295075.4060335       -17154356.415606260        346411960.21672672     
  -5578872699.5882149       -907576.22004437447        180790608.29291219     
  -5424467884.1163292        1776333.9516019821        175268379.09649482     
  -5271724109.0330486       -1076557.1720962524        173224839.87091893     
  -5120641374.3383694       -9466249.5911366940        174659990.61617544     
  -4971219680.0322924       -23392743.305510521        179573831.33227605     
  -5945328052.3531408       -7263506.1795563698        21149392.660893764     
  -5780399046.8324509       -256595.14325618744        12859570.761968352     
  -5617982985.9186134       -1626166.1297910213        8188974.1148271542     
  -5458079869.6116142       -11372219.139122725        7137602.7194673726     
  -5300689697.9114666       -29494754.171295881        9705456.5758967716     
  -3980082105.9122505       -4268454.5634181499        670997480.36984229     
  -3806716502.8436460        9213820.9475557804        662612208.52381432     
  -3633938422.8179526        20737686.315502405        659216553.68467236     
  -3461747865.8351650        30303141.540424824        660810515.85240078     
  -3290144831.8952847        37910186.622323036        667394095.02700949     
  -4310915884.0326881       -10779593.501580715        510219843.22925073     
  -4125543233.2811751       -477975.08395123482        501725197.98766023     
  -3940035555.3294058        10273734.001210690        498211124.05527866     
  -3754392850.1773734        21475533.753905296        499677621.43210173     
  -3568615117.8250890        33127424.174116135        506124690.11813664     
  -4641295075.4060335       -17154356.415606260        346411960.21672672     
  -4443941221.8221025       -10041148.546479702        338650916.86326474     
  -4245729790.7947378       -69349.199244976044        335861399.12134355     
  -4046660782.3239508        12761041.626068592        338043406.99095881     
  -3846734196.4097328        28450023.929473639        345196940.47211593     
  -4971219680.0322924       -23392743.305510521        179573831.33227605     
  -4761910468.4664154       -19475699.439997911        173389365.15063909     
  -4551021129.2139511       -10291563.285865068        172167378.88287175     
  -4338551662.2748861        4159665.1569442749        175907872.52896839     
  -4124502067.6492352        23877985.888362169        184610846.08893484     
  -5300689697.9114666       -29494754.171295881        9705456.5758967716     
  -5079450973.2141380       -28781627.764582157        5940542.8497783821     
  -4855909570.5870447       -20392908.258650303        7129063.3398497673     
  -4630065490.0301905       -4328595.6535210609        13271018.046132386     
  -4401918731.5435801        19411310.050798178        24366406.968607984     
  -3290144831.8952847        37910186.622323036        667394095.02700949     
  -3204255697.7347217        21092443.415591478        661295633.48658264     
  -3116928898.7871790        9066916.1654622555        656963364.91504765     
  -3028164435.0526571        1833604.8719260693        654397289.31241179     
  -2937962306.5311646       -607490.46503663063        653597406.67866790     
  -3568615117.8250890        33127424.174116135        506124690.11813664     
  -3476987841.6463323        16758049.891262054        501384177.60136098     
  -3385347984.6575179        430611.64193415642        499187957.76263660     
  -3293695546.8586516       -15854890.573873639        499536030.60196030     
  -3202030528.2497182       -32098456.756149888        502428396.11933655     
  -3846734196.4097328        28450023.929473639        345196940.47211593     
  -3747145636.1866369        13195961.178313255        340151779.00591552     
  -3648969579.1303906       -6766445.4623568058        338429009.92692614     
  -3552206025.2410154       -31437195.992590666        340028633.23513961     
  -3456854974.5184979       -60816290.412343025        344950648.93056202     
  -4124502067.6492352        23877985.888362169        184610846.08893484     
  -4014729081.3556261        10406177.276774645        177598437.70024949     
  -3907793682.2058029       -12524255.147431612        174686521.40791613     
  -3803695870.1997504       -44913311.384205580        175875097.21195221     
  -3702435645.3374848       -86760991.433605671        181164165.11234519     
  -4401918731.5435801        19411310.050798178        24366406.968607984     
  -4279738177.1533127        8388698.1866104603        13724153.684346020     
  -4161820293.8837276       -16842817.413201809        7960492.2056087675     
  -4048165081.7348661       -56283236.748755455        7075422.5323814955     
  -3938772540.7066903       -109932559.81992030        11068944.664675092     
  -2937962306.5311646       -607490.46503663063        653597406.67866790     
  -2702493418.2398658        31467819.262196779        637053148.74940491     
  -2474438209.8125277        38830862.776233792        628593203.56338978     
  -2253796681.2491584        21481640.077032447        628217571.12062407     
  -2040568832.5497553       -20579848.835379958        635926251.42112100     
  -3202030528.2497182       -32098456.756149888        502428396.11933655     
  -2948386956.2431946       -2556223.7479674816        482905792.19265074     
  -2696607239.8789148        20773157.119394779        469863957.62343872     
  -2446691379.1568832        37889685.845948339        463302892.41169769     
  -2198639374.0770879        48793362.431673408        463222596.55742985     
  -3456854974.5184979       -60816290.412343025        344950648.93056202     
  -3189618271.3275414       -35181599.882448912        328924493.93179607     
  -2918695599.5571132        2739652.5790194273        317775564.90471864     
  -2644086959.2071981        52947466.972087026        311503861.84933770     
  -2365792350.2778325        115441843.29670310        310109384.76565212     
  -3702435645.3374848       -86760991.433605671        181164165.11234519     
  -3426187363.4928904       -66408309.141225219        175109253.96682790     
  -3140703288.8471060       -15269650.844861150        172328025.40723383     
  -2845983421.4001331        66654983.455433249        172820479.43354964     
  -2542027761.1519837        179365593.75969744        176586616.04578078     
  -3938772540.7066903       -109932559.81992030        11068944.664675092     
  -3658094232.7392597       -96236351.524307489        21460072.297759302     
  -3362630307.7489276       -33254753.152346969        33521339.130974829     
  -3052380765.7356672        79012235.296020508        47252745.164321199     
  -2727345606.6995225        240564613.82070231        62654290.397816502     
 </DataArray>
 <DataArray  type="Float64" Name="VM" NumberOfComponents="1" format="ascii">
   12935034748.089268     
   11340454031.792095     
   10210216148.542528     
   9273019392.1661854     
   8304464252.2697983     
   10130021143.646667     
   9321852032.7222672     
   8826289681.4707146     
   8443527858.5585327     
   8035775415.3548803     
   7982266592.9529314     
   7734885645.4260159     
   7669045811.0561657     
   7669453412.0269327     
   7666184083.5172901     
   6491684130.3627462     
   6586840083.1069536     
   6757317874.0103483     
   6961036692.2507524     
   7171338378.2621517     
   5657826006.1193647     
   5890873520.6126842     
   6116295467.1386099     
   6331626444.1971884     
   6536635809.6420965     
   8304464252.2697983     
   8020503983.4725723     
   7778625925.9156713     
   7568170045.1188412     
   7384171805.3235559     
   8035775415.3548803     
   7746611066.9167213     
   7473134666.1325655     
   7213387362.3547649     
   6967371280.2566566     
   7666184083.5172901     
   7380875119.3349276     
   7100990274.8240232     
   6826602995.3751698     
   6557912784.8507528     
   7171338378.2621517     
   6910730612.6599360     
   6658050793.3247700     
   6409442727.9721880     
   6161760965.8640928     
   6536635809.6420965     
   6328526007.9585142     
   6142616433.4674692     
   5965013195.5236235     
   5786704598.2889891     
   7384171805.3235559     
   7228235619.5830412     
   7064835940.1780252     
   6893293795.1772623     
   6713425975.0299873     
   6967371280.2566566     
   6814540559.4474058     
   6657069649.7462683     
   6494676358.3407326     
   6327306711.6013279     
   6557912784.8507528     
   6407715245.8369551     
   6255804294.2473230     
   6102144159.0352898     
   5946760019.5938644     
   6161760965.8640928     
   6012758648.2851286     
   5864972704.5735340     
   5718439419.2217388     
   5573210799.6180334     
   5786704598.2889891     
   5636135331.9408503     
   5489641540.7394762     
   5347138618.2190571     
   5208663493.8678331     
   6713425975.0299873     
   6515522418.4701538     
   6320735152.3390198     
   6128972675.5612612     
   5940220642.9638510     
   6327306711.6013279     
   6139408714.2715778     
   5953720784.7844296     
   5770231743.7799673     
   5588980104.0145111     
   5946760019.5938644     
   5770846264.9394684     
   5596543837.8335104     
   5423888700.7398710     
   5252958453.4896336     
   5573210799.6180334     
   5411627270.1557045     
   5251399231.6206570     
   5092581855.8616600     
   4935289076.3816957     
   5208663493.8678331     
   5064123908.4897823     
   4921076586.2644377     
   4779572231.9821606     
   4639769056.6999273     
   5940220642.9638510     
   5777772878.4018984     
   5614095789.1796665     
   5449185382.4330692     
   5283078049.9427214     
   5588980104.0145111     
   5435481248.6564169     
   5281403262.9333143     
   5126773282.5136023     
   4971654535.1079235     
   5252958453.4896336     
   5108580794.4969864     
   4964323390.5082865     
   4820245705.4709673     
   4676440582.3951921     
   4935289076.3816957     
   4800137728.5400019     
   4665845503.2287169     
   4532503836.5542812     
   4400236364.2255917     
   4639769056.6999273     
   4513855866.4475603     
   4389565941.3734522     
   4267020294.5543165     
   4146372466.0912657     
   5283078049.9427214     
   5060635201.5370646     
   4839011533.9691954     
   4618221110.9694529     
   4398328531.9271698     
   4971654535.1079235     
   4761613848.1998186     
   4552690989.2726450     
   4344961985.6878328     
   4138571149.2395787     
   4676440582.3951921     
   4480116540.8142385     
   4285386936.4917569     
   4092410074.8535023     
   3901435814.0623822     
   4400236364.2255917     
   4219093961.3288074     
   4040226515.2628937     
   3863894290.9025273     
   3690476209.8895049     
   4146372466.0912657     
   3981998238.3620524     
   3820798623.6232977     
   3663148973.6792383     
   3509570237.9678149     
   4398328531.9271698     
   4273251387.5407724     
   4147421815.7075086     
   4020928557.6641922     
   3893932799.1814251     
   4138571149.2395787     
   4024481452.6226840     
   3910661011.7263784     
   3797190170.2691636     
   3684195160.7198095     
   3901435814.0623822     
   3797025475.3930330     
   3693808737.7996922     
   3591849953.4607768     
   3491243845.9999189     
   3690476209.8895049     
   3594095801.5224543     
   3499681837.1485705     
   3407284029.5432920     
   3316982062.2933335     
   3509570237.9678149     
   3419197984.4212985     
   3331363234.0542336     
   3246115493.7538514     
   3163553563.9305000     
   3893932799.1814251     
   3610419584.6308594     
   3318966469.8198733     
   3023118470.0737352     
   2730548349.2062225     
   3684195160.7198095     
   3409884208.1495314     
   3129537352.7220569     
   2844073150.9677930     
   2556029750.8748870     
   3491243845.9999189     
   3235396173.0446763     
   2978419955.2244854     
   2720707051.9147859     
   2463194438.9137726     
   3316982062.2933335     
   3085882424.8115025     
   2860685200.3457370     
   2642900348.6913133     
   2434706412.0756388     
   3163553563.9305000     
   2959863301.5780983     
   2770401882.7851748     
   2598857921.4601369     
   2450313168.7677336     
   5657826006.1193647     
   5890873520.6126842     
   6116295467.1386099     
   6331626444.1971884     
   6536635809.6420965     
   5151396192.1149101     
   5311287437.0934467     
   5467822687.3772850     
   5618102734.6314259     
   5760657069.7693472     
   4643375355.7079878     
   4755506061.5031309     
   4868771758.0372105     
   4980536633.6206989     
   5088873720.9835491     
   4134027452.4928021     
   4224367207.2031384     
   4320637539.3652563     
   4421183287.3282986     
   4524551044.7809782     
   3624873059.6277862     
   3719695225.6339254     
   3825777064.0833178     
   3943058139.5389452     
   4071448582.0445232     
   6536635809.6420965     
   6328526007.9585142     
   6142616433.4674692     
   5965013195.5236235     
   5786704598.2889891     
   5760657069.7693472     
   5652020060.3884945     
   5559385708.8653069     
   5473698339.9655037     
   5389412579.0045624     
   5088873720.9835491     
   5054017544.8711863     
   5029663835.2262974     
   5010606434.4611187     
   4993640871.8936882     
   4524551044.7809782     
   4539112321.3115492     
   4558326327.2006512     
   4579709518.7759180     
   4601536253.3599157     
   4071448582.0445232     
   4112629269.7706904     
   4151145130.0573325     
   4186089583.5494189     
   4216724312.8437667     
   5786704598.2889891     
   5636135331.9408503     
   5489641540.7394762     
   5347138618.2190571     
   5208663493.8678331     
   5389412579.0045624     
   5248521574.0530272     
   5110801286.0901833     
   4976293149.3074465     
   4845088591.7033443     
   4993640871.8936882     
   4866861076.0866909     
   4743287585.5681429     
   4622891955.6363459     
   4505721199.4333096     
   4601536253.3599157     
   4493815265.3684072     
   4390395369.0494061     
   4290971120.3114138     
   4195465531.9952292     
   4216724312.8437667     
   4133335606.2126336     
   4056581243.5408983     
   3985632348.1205869     
   3920206622.1582603     
   5208663493.8678331     
   5064123908.4897823     
   4921076586.2644377     
   4779572231.9821606     
   4639769056.6999273     
   4845088591.7033443     
   4716903251.8126326     
   4590829617.9104910     
   4466991569.2708702     
   4345609480.1659517     
   4505721199.4333096     
   4392930333.4154930     
   4282838006.5678735     
   4175623323.3772511     
   4071547608.3856707     
   4195465531.9952292     
   4097143685.7435360     
   4002037664.5946984     
   3910360616.3066816     
   3822390968.4762697     
   3920206622.1582603     
   3835453074.6061239     
   3754316195.0169535     
   3677019329.6813846     
   3603832767.8317714     
   4639769056.6999273     
   4513855866.4475603     
   4389565941.3734522     
   4267020294.5543165     
   4146372466.0912657     
   4345609480.1659517     
   4229282150.7287283     
   4115134254.3352351     
   4003335771.8186908     
   3894100369.2989378     
   4071547608.3856707     
   3966196224.3988566     
   3863757473.6584463     
   3764456754.9284644     
   3668574646.2688646     
   3822390968.4762697     
   3729370515.5430107     
   3640179349.3594618     
   3555097788.2570257     
   3474470849.3604012     
   3603832767.8317714     
   3524344297.7233315     
   3449773919.9696770     
   3380444996.4067798     
   3316750445.3554335     
   4146372466.0912657     
   3981998238.3620524     
   3820798623.6232977     
   3663148973.6792383     
   3509570237.9678149     
   3894100369.2989378     
   3746139307.8324561     
   3602129853.7122374     
   3462525077.7838392     
   3327921868.2467470     
   3668574646.2688646     
   3537125983.0406480     
   3410432642.7523799     
   3289007978.3612599     
   3173498687.4735098     
   3474470849.3604012     
   3359625684.5070891     
   3250321327.7645812     
   3147102766.8842754     
   3050628285.3166580     
   3316750445.3554335     
   3218495514.4492536     
   3126485191.2076664     
   3041257749.8915415     
   2963436765.4221354     
   3509570237.9678149     
   3419197984.4212985     
   3331363234.0542336     
   3246115493.7538514     
   3163553563.9305000     
   3327921868.2467470     
   3241638532.7625475     
   3157738872.4841595     
   3076287035.4456153     
   2997373715.2451081     
   3173498687.4735098     
   3093274399.7041512     
   3015568636.4381528     
   2940504434.0869398     
   2868228582.0613074     
   3050628285.3166580     
   2978793992.3175688     
   2909934468.1277113     
   2844280130.1167412     
   2782102896.1860285     
   2963436765.4221354     
   2902542195.7496648     
   2845398969.3312016     
   2792385199.0541201     
   2743954403.5025582     
   3163553563.9305000     
   2959863301.5780983     
   2770401882.7851748     
   2598857921.4601369     
   2450313168.7677336     
   2997373715.2451081     
   2810099452.5697522     
   2633326563.5164866     
   2469093410.3550954     
   2320136882.0832477     
   2868228582.0613074     
   2699843339.2643323     
   2539828670.4381728     
   2389750290.2092066     
   2251670812.6709514     
   2782102896.1860285     
   2637530243.6187162     
   2501026360.3806520     
   2374874575.2607956     
   2262162677.0774965     
   2743954403.5025582     
   2630306682.0261345     
   2526207630.8491654     
   2435547350.9457636     
   2363555704.6809402     
   3624873059.6277862     
   3719695225.6339254     
   3825777064.0833178     
   3943058139.5389452     
   4071448582.0445232     
   3137875876.1153350     
   3255545369.7016015     
   3382631508.3013034     
   3518666829.0211039     
   3663195035.0178294     
   2694687956.5987310     
   2830576670.4847732     
   2973767321.4115782     
   3123177594.6146092     
   3277896845.5093460     
   2298796217.4789653     
   2449580575.8386264     
   2605066934.0347233     
   2763330835.3607163     
   2922941778.2881293     
   1955405175.1431181     
   2119509887.4727142     
   2284941718.2645249     
   2448736094.2508974     
   2608932769.7035279     
   4071448582.0445232     
   4112629269.7706904     
   4151145130.0573325     
   4186089583.5494189     
   4216724312.8437667     
   3663195035.0178294     
   3702352202.3684864     
   3740129597.7476072     
   3775621817.9576163     
   3808074617.6397080     
   3277896845.5093460     
   3320917365.4262443     
   3364199338.0171242     
   3406916013.0560441     
   3448386801.9739461     
   2922941778.2881293     
   2975706845.4490280     
   3030733291.0458798     
   3087338308.3498926     
   3144989176.1770205     
   2608932769.7035279     
   2676772411.8011947     
   2749177748.6609526     
   2825642420.3797197     
   2905815839.5884838     
   4216724312.8437667     
   4133335606.2126336     
   4056581243.5408983     
   3985632348.1205869     
   3920206622.1582603     
   3808074617.6397080     
   3756129488.4991837     
   3710242945.1933622     
   3669952687.1740761     
   3635166150.5817761     
   3448386801.9739461     
   3423148898.6025858     
   3402996440.7987518     
   3387703885.0640450     
   3377252841.1404009     
   3144989176.1770205     
   3142023744.1098819     
   3142562580.3400979     
   3146504285.2179375     
   3153830315.8015809     
   2905815839.5884838     
   2921078882.7417569     
   2937477490.6876574     
   2954953610.5389490     
   2973464084.4729300     
   3920206622.1582603     
   3835453074.6061239     
   3754316195.0169535     
   3677019329.6813846     
   3603832767.8317714     
   3635166150.5817761     
   3562799032.8114161     
   3494878872.0352006     
   3431650505.8366289     
   3373412534.1376510     
   3377252841.1404009     
   3318162638.8865547     
   3264504600.0631723     
   3216524248.4836550     
   3174525281.8908706     
   3153830315.8015809     
   3108518095.4742966     
   3069756029.5574255     
   3037758312.7107553     
   3012799072.7389555     
   2973464084.4729300     
   2941753396.0379648     
   2917804827.7626762     
   2901762168.3597813     
   2893829789.1264009     
   3603832767.8317714     
   3524344297.7233315     
   3449773919.9696770     
   3380444996.4067798     
   3316750445.3554335     
   3373412534.1376510     
   3308130172.6235795     
   3248148857.8466673     
   3193763047.9106617     
   3145319540.3923607     
   3174525281.8908706     
   3122518792.5456018     
   3076095691.4983602     
   3035505193.1022558     
   3001031800.9693861     
   3012799072.7389555     
   2972875599.5261788     
   2938682838.7285013     
   2910412827.8402438     
   2888278024.0532246     
   2893829789.1264009     
   2864465111.5951719     
   2840816665.3600678     
   2823015403.8355570     
   2811201663.9607420     
   3316750445.3554335     
   3218495514.4492536     
   3126485191.2076664     
   3041257749.8915415     
   2963436765.4221354     
   3145319540.3923607     
   3061914464.4152045     
   2985817289.5068016     
   2917559926.0327687     
   2857744407.0200629     
   3001031800.9693861     
   2932446481.4016852     
   2872207931.8611822     
   2820798623.4266596     
   2778750929.0231390     
   2888278024.0532246     
   2833810221.4931693     
   2788658083.4825816     
   2753214547.2709737     
   2727902355.4796319     
   2811201663.9607420     
   2769317089.5189342     
   2737621264.3224931     
   2716391844.6370630     
   2705921180.8342953     
   2963436765.4221354     
   2902542195.7496648     
   2845398969.3312016     
   2792385199.0541201     
   2743954403.5025582     
   2857744407.0200629     
   2809564791.4106498     
   2765360077.8285456     
   2725459685.4506164     
   2690249792.2361250     
   2778750929.0231390     
   2742716821.3033533     
   2710764564.4439597     
   2683161715.9916124     
   2660216264.9595938     
   2727902355.4796319     
   2703176764.1747437     
   2682513447.6101255     
   2666112410.1315465     
   2654201462.5780730     
   2705921180.8342953     
   2691401843.0806336     
   2680805176.2599092     
   2674266024.5962090     
   2671938398.0906286     
   2743954403.5025582     
   2630306682.0261345     
   2526207630.8491654     
   2435547350.9457636     
   2363555704.6809402     
   2690249792.2361250     
   2608116237.2059422     
   2539897929.9860191     
   2487571908.1435089     
   2453245008.7752695     
   2660216264.9595938     
   2602245138.1771746     
   2561589271.4202733     
   2539260136.4020510     
   2536182988.1385975     
   2654201462.5780730     
   2609497066.2302704     
   2584888127.9517431     
   2581459757.8297753     
   2600719557.3229518     
   2671938398.0906286     
   2626772618.3694210     
   2604501204.9902081     
   2607368700.1486192     
   2639119254.9506330     
   1955405175.1431181     
   2119509887.4727142     
   2284941718.2645249     
   2448736094.2508974     
   2608932769.7035279     
   1653972963.2558782     
   1820420426.7266798     
   1988547589.3441856     
   2155654359.9115109     
   2319980539.3240323     
   1393802224.0256248     
   1571154583.3561187     
   1749507707.1891632     
   1926854625.1941679     
   2101942753.2528453     
   1207206610.1658936     
   1399135370.2116337     
   1590648501.9965899     
   1780966839.3920417     
   1969630189.6457283     
   1136891778.4983344     
   1335224525.4862580     
   1533880537.9248054     
   1732859815.4373956     
   1932162360.2566569     
   2608932769.7035279     
   2676772411.8011947     
   2749177748.6609526     
   2825642420.3797197     
   2905815839.5884838     
   2319980539.3240323     
   2407002393.5149579     
   2496504616.0052338     
   2588099882.2959461     
   2681514418.6480942     
   2101942753.2528453     
   2205686083.4432020     
   2309356160.6789799     
   2412718775.0575566     
   2515608249.4638624     
   1969630189.6457283     
   2086754445.6386681     
   2201019352.0529938     
   2312351096.5416069     
   2420698119.4478874     
   1932162360.2566569     
   2058754269.3216734     
   2179889630.8805928     
   2295568448.6149459     
   2405790735.3054662     
   2905815839.5884838     
   2921078882.7417569     
   2937477490.6876574     
   2954953610.5389490     
   2973464084.4729300     
   2681514418.6480942     
   2703380804.3546891     
   2727464845.0682087     
   2753746944.5656052     
   2782217041.5700049     
   2515608249.4638624     
   2544127591.8516684     
   2575985446.1465220     
   2611182173.5999184     
   2649722800.9818063     
   2420698119.4478874     
   2454429378.3911271     
   2492629499.1486707     
   2535301202.9815664     
   2582448696.4702215     
   2405790735.3054662     
   2441686360.9885769     
   2483177970.7271070     
   2530265650.7652545     
   2582949605.0530448     
   2973464084.4729300     
   2941753396.0379648     
   2917804827.7626762     
   2901762168.3597813     
   2893829789.1264009     
   2782217041.5700049     
   2765314580.1455779     
   2755904872.7532730     
   2754077586.3735971     
   2759952006.0213380     
   2649722800.9818063     
   2644514751.7491636     
   2646239046.6016040     
   2654935315.4958305     
   2670653257.2023945     
   2582448696.4702215     
   2585381192.0253487     
   2594407115.7994604     
   2609535327.1928706     
   2630775895.5562248     
   2582949605.0530448     
   2590382070.1426549     
   2602844721.7960210     
   2620337605.4086194     
   2642861390.4454541     
   2893829789.1264009     
   2864465111.5951719     
   2840816665.3600678     
   2823015403.8355570     
   2811201663.9607420     
   2759952006.0213380     
   2738555216.2354045     
   2723493231.3287168     
   2714857285.0037012     
   2712743692.6966715     
   2670653257.2023945     
   2655649130.4485059     
   2647546835.9880524     
   2646394441.7978835     
   2652242105.5181694     
   2630775895.5562248     
   2619886768.8557906     
   2616403374.9872932     
   2620339223.8395224     
   2631708426.0270524     
   2642861390.4454541     
   2633248906.3041797     
   2631480934.2350173     
   2637556943.0184588     
   2651476508.4792876     
   2811201663.9607420     
   2769317089.5189342     
   2737621264.3224931     
   2716391844.6370630     
   2705921180.8342953     
   2712743692.6966715     
   2682329575.9808259     
   2661927975.4813991     
   2651700320.5131326     
   2651813728.7031569     
   2652242105.5181694     
   2630742566.3756604     
   2618997088.9433122     
   2617079121.7906222     
   2625064624.6922250     
   2631708426.0270524     
   2616268371.5269880     
   2610274155.9364681     
   2613746422.7642646     
   2626708133.8353438     
   2651476508.4792876     
   2639143730.9367313     
   2635932348.8709011     
   2641845662.5499043     
   2656889774.9071407     
   2705921180.8342953     
   2691401843.0806336     
   2680805176.2599092     
   2674266024.5962090     
   2671938398.0906286     
   2651813728.7031569     
   2644359358.1927013     
   2641905345.1618066     
   2644513473.2033105     
   2652245041.2509255     
   2625064624.6922250     
   2621768781.2112846     
   2624390148.5421071     
   2632946675.3992248     
   2647458965.8869066     
   2626708133.8353438     
   2624003098.3709607     
   2627990982.3401809     
   2638687133.1972961     
   2656134394.6665111     
   2656889774.9071407     
   2650754905.0702968     
   2651965053.8271470     
   2660581582.0466061     
   2676739064.1786571     
   2671938398.0906286     
   2626772618.3694210     
   2604501204.9902081     
   2607368700.1486192     
   2639119254.9506330     
   2652245041.2509255     
   2601479699.5704498     
   2568531375.5653319     
   2554081697.1992097     
   2559198339.1278353     
   2647458965.8869066     
   2599064140.6131887     
   2564528141.2796764     
   2543915997.2229962     
   2537295058.4133911     
   2656134394.6665111     
   2619781948.2471824     
   2594183319.0627322     
   2579740662.6574798     
   2577367954.0119596     
   2676739064.1786571     
   2663304543.2803679     
   2658259296.5698609     
   2663178595.9135218     
   2681462106.5897760     
   1136891778.4983344     
   1335224525.4862580     
   1533880537.9248054     
   1732859815.4373956     
   1932162360.2566569     
   1207075080.8537743     
   1399062266.4165561     
   1590636033.7739770     
   1781020156.4556720     
   1969756569.1500103     
   1393617440.1512656     
   1571036017.7486067     
   1749467981.1375866     
   1926908117.9589837     
   2102105174.7126255     
   1653808169.6691399     
   1820286723.0421054     
   1988468781.1850975     
   2155654368.6332860     
   2320082723.1166339     
   1955313214.1801708     
   2119384989.1785209     
   2284814796.9528284     
   2448637422.9115062     
   2608890246.4422841     
   1932162360.2566569     
   2058754269.3216734     
   2179889630.8805928     
   2295568448.6149459     
   2405790735.3054662     
   1969756569.1500103     
   2086780597.0327406     
   2200930681.5481195     
   2312131434.5682073     
   2420330622.3747120     
   2102105174.7126255     
   2205717949.2243800     
   2309230318.2926121     
   2412406988.3764129     
   2515081648.7721758     
   2320082723.1166339     
   2407017053.8070951     
   2496395176.5155811     
   2587830643.3309550     
   2681049510.7042208     
   2608890246.4422841     
   2676748763.7001820     
   2749131407.1173978     
   2825535682.2819090     
   2905611635.7124605     
   2405790735.3054662     
   2441686360.9885769     
   2483177970.7271070     
   2530265650.7652545     
   2582949605.0530448     
   2420330622.3747120     
   2454479190.3798575     
   2493163213.3339934     
   2536386973.0456157     
   2584155190.4578037     
   2515081648.7721758     
   2544187214.5772662     
   2576749858.3322225     
   2612771833.1721992     
   2652259453.7781911     
   2681049510.7042208     
   2703398511.2634487     
   2728117753.4297085     
   2755188495.6406970     
   2784602617.1498685     
   2905611635.7124605     
   2920999972.1187577     
   2937689923.1327405     
   2955621203.4631720     
   2974751994.1083474     
   2582949605.0530448     
   2590382070.1426549     
   2602844721.7960210     
   2620337605.4086194     
   2642861390.4454541     
   2584155190.4578037     
   2586464600.7608080     
   2594846993.4766870     
   2609310770.0169101     
   2629868710.4597225     
   2652259453.7781911     
   2646134378.2340360     
   2646932254.0748119     
   2654692436.1444812     
   2669467523.5333433     
   2784602617.1498685     
   2766796820.6012597     
   2756516170.8428016     
   2753852095.4909911     
   2758925631.9485312     
   2974751994.1083474     
   2942396234.4629269     
   2917905098.2021141     
   2901430472.3487320     
   2893178934.8908195     
   2642861390.4454541     
   2633248906.3041797     
   2631480934.2350173     
   2637556943.0184588     
   2651476508.4792876     
   2629868710.4597225     
   2619653481.5165105     
   2616918499.1720347     
   2621676447.0891547     
   2633940274.3493543     
   2669467523.5333433     
   2655708687.1920309     
   2648992097.5960922     
   2649365449.0662017     
   2656878021.1008234     
   2758925631.9485312     
   2739190740.4144049     
   2725988981.4467854     
   2719413741.4274673     
   2719563003.1689377     
   2893178934.8908195     
   2865708773.3970866     
   2844201616.8725019     
   2828795098.6002207     
   2819636101.9644361     
   2651476508.4792876     
   2639143730.9367313     
   2635932348.8709011     
   2641845662.5499043     
   2656889774.9071407     
   2633940274.3493543     
   2620233724.8145614     
   2615752599.9195786     
   2620514128.9187198     
   2634535136.7241521     
   2656878021.1008234     
   2637975573.6038499     
   2628318469.4034953     
   2627979098.0250621     
   2637029914.4699612     
   2719563003.1689377     
   2691926931.6676025     
   2673438129.9177713     
   2664258527.0594563     
   2664556843.0501566     
   2819636101.9644361     
   2780261039.9263725     
   2749783337.8753195     
   2728473870.4834046     
   2716625928.2183285     
   2656889774.9071407     
   2650754905.0702968     
   2651965053.8271470     
   2660581582.0466061     
   2676739064.1786571     
   2634535136.7241521     
   2622910946.2092094     
   2618026441.4330115     
   2619923989.4159575     
   2628669141.4078288     
   2637029914.4699612     
   2620511208.9509225     
   2610286307.8615537     
   2606387438.3881907     
   2608847865.4680262     
   2664556843.0501566     
   2643977939.5856462     
   2629401284.4042053     
   2620855514.2363701     
   2618378230.3649659     
   2716625928.2183285     
   2692986866.5378795     
   2675216902.0789828     
   2663344794.0884266     
   2657446061.4076762     
   2676739064.1786571     
   2663304543.2803679     
   2658259296.5698609     
   2663178595.9135218     
   2681462106.5897760     
   2628669141.4078288     
   2633829993.6557307     
   2649880557.1279812     
   2677262049.6296754     
   2716956619.5902624     
   2608847865.4680262     
   2617437624.0297422     
   2638796313.2897124     
   2672988648.6974502     
   2720086507.2476134     
   2618378230.3649659     
   2614856535.1655889     
   2625301564.3390346     
   2650194261.9687080     
   2690168937.9846888     
   2657446061.4076762     
   2626656930.8104386     
   2610094049.7138929     
   2609430144.1140523     
   2627421496.7332187     
   1955313214.1801708     
   2119384989.1785209     
   2284814796.9528284     
   2448637422.9115062     
   2608890246.4422841     
   2298782018.8070021     
   2449487402.0967007     
   2604910953.4264455     
   2763127331.4483542     
   2922704441.8777452     
   2694717743.5558195     
   2830510470.4432964     
   2973608531.6641417     
   3122928734.7239795     
   3277559475.0362139     
   3137915479.2607231     
   3255500970.3186841     
   3382496049.7211528     
   3518432484.8966384     
   3662853303.0187788     
   3624888811.0126510     
   3719667495.9701552     
   3825690281.1336112     
   3942896247.3570766     
   4071194878.7786264     
   2608890246.4422841     
   2676748763.7001820     
   2749131407.1173978     
   2825535682.2819090     
   2905611635.7124605     
   2922704441.8777452     
   2975570857.2234612     
   3030677769.6946130     
   3087346353.7848287     
   3145045689.2244515     
   3277559475.0362139     
   3320725921.8161020     
   3364149976.1682491     
   3407008467.4751182     
   3448623091.9326525     
   3662853303.0187788     
   3702161018.5866413     
   3740098633.9075532     
   3775763121.8016915     
   3808401920.7643661     
   4071194878.7786264     
   4112490757.3066216     
   4151142065.1275797     
   4186242580.4159908     
   4217053959.2634821     
   2905611635.7124605     
   2920999972.1187577     
   2937689923.1327405     
   2955621203.4631720     
   2974751994.1083474     
   3145045689.2244515     
   3141780458.8073936     
   3142076852.0500455     
   3145830572.3691754     
   3153026737.2763672     
   3448623091.9326525     
   3422828220.6481824     
   3402089491.9235101     
   3386176059.3639693     
   3375070933.7630649     
   3808401920.7643661     
   3755839033.3741927     
   3709241692.5860710     
   3668138916.8004203     
   3632433295.0614896     
   4217053959.2634821     
   4133191693.7378440     
   4055828037.6586123     
   3984122884.4977250     
   3917781083.6616564     
   2974751994.1083474     
   2942396234.4629269     
   2917905098.2021141     
   2901430472.3487320     
   2893178934.8908195     
   3153026737.2763672     
   3107079802.6686440     
   3067748654.5540724     
   3035249306.7813873     
   3009850183.7626300     
   3375070933.7630649     
   3315594899.3903675     
   3261600709.7571073     
   3213329255.2450137     
   3171071115.4189172     
   3632433295.0614896     
   3560154179.4644842     
   3492377162.4204831     
   3429336976.4061599     
   3371313475.2846980     
   3917781083.6616564     
   3833793302.7443442     
   3753502549.4754524     
   3677118083.5644779     
   3604888259.6387482     
   2893178934.8908195     
   2865708773.3970866     
   2844201616.8725019     
   2828795098.6002207     
   2819636101.9644361     
   3009850183.7626300     
   2970865169.2042999     
   2937717090.5952702     
   2910606173.1067944     
   2889754825.2053461     
   3171071115.4189172     
   3119048074.2704177     
   3072550045.9383354     
   3031830520.3980021     
   2997182724.3772211     
   3371313475.2846980     
   3305173116.8451819     
   3244097346.5963311     
   3188373739.2170906     
   3138349148.5773764     
   3604888259.6387482     
   3523893683.7036943     
   3447401715.1458559     
   3375710561.0960317     
   3309196330.0085020     
   2819636101.9644361     
   2780261039.9263725     
   2749783337.8753195     
   2728473870.4834046     
   2716625928.2183285     
   2889754825.2053461     
   2836601870.2592883     
   2792096346.7542706     
   2756614238.5465679     
   2730565504.2794409     
   2997182724.3772211     
   2929064384.9705553     
   2869231307.3412843     
   2818154339.4703465     
   2776357793.6468477     
   3138349148.5773764     
   3054544114.9942322     
   2978570375.8325963     
   2910972203.3284202     
   2852371769.5602894     
   3309196330.0085020     
   3209344951.2143593     
   3116814377.1688538     
   3032196103.6655936     
   2956185053.2443495     
   2716625928.2183285     
   2692986866.5378795     
   2675216902.0789828     
   2663344794.0884266     
   2657446061.4076762     
   2730565504.2794409     
   2703252703.7417378     
   2681455908.7697420     
   2665251304.3802948     
   2654728964.3768597     
   2776357793.6468477     
   2742173163.0825949     
   2712952967.5759549     
   2688855705.5091243     
   2670046736.6057763     
   2852371769.5602894     
   2808784322.3852181     
   2769395856.6625390     
   2734465301.7074561     
   2704278037.4568844     
   2956185053.2443495     
   2901410269.4878707     
   2849866271.2966118     
   2801912373.3646159     
   2757978691.5355854     
   2657446061.4076762     
   2626656930.8104386     
   2610094049.7138929     
   2609430144.1140523     
   2627421496.7332187     
   2654728964.3768597     
   2592164189.5497088     
   2543408161.8457375     
   2509707218.9351015     
   2492732034.0260134     
   2670046736.6057763     
   2582322823.5649881     
   2508153667.2878094     
   2448613978.9945269     
   2404858297.5776324     
   2704278037.4568844     
   2597960520.3868098     
   2505225987.2566042     
   2427239141.3106494     
   2365306808.1264291     
   2757978691.5355854     
   2639167489.3557191     
   2534409858.3464622     
   2445215325.8825893     
   2373735468.2290916     
   3624888811.0126510     
   3719667495.9701552     
   3825690281.1336112     
   3942896247.3570766     
   4071194878.7786264     
   4134011690.0410743     
   4224349856.7502413     
   4320606946.0237846     
   4421128151.0601730     
   4524460703.5078688     
   4643345639.0372000     
   4755507932.4946022     
   4868797591.7396297     
   4980579675.0511026     
   5088928639.6029654     
   5151369845.7983503     
   5311316624.8760490     
   5467903844.8093348     
   5618233221.7487869     
   5760835744.6980896     
   5657820462.2869539     
   5890937847.3453922     
   6116430162.0709486     
   6331832490.5091610     
   6536915069.3276472     
   4071194878.7786264     
   4112490757.3066216     
   4151142065.1275797     
   4186242580.4159908     
   4217053959.2634821     
   4524460703.5078688     
   4539102488.8837833     
   4558413524.4753256     
   4579908986.5989418     
   4601862803.2117376     
   5088928639.6029654     
   5054104917.9667568     
   5029794355.6504583     
   5010788679.5546827     
   4993883901.5454035     
   5760835744.6980896     
   5652172121.5187969     
   5559515423.5415831     
   5473806835.2605782     
   5389502364.6342821     
   6536915069.3276472     
   6328710524.6409292     
   6142704472.9175653     
   5964998084.8802633     
   5786580971.6400251     
   4217053959.2634821     
   4133191693.7378440     
   4055828037.6586123     
   3984122884.4977250     
   3917781083.6616564     
   4601862803.2117376     
   4493967415.2445898     
   4390296694.8830681     
   4290538794.0357780     
   4194606192.2047138     
   4993883901.5454035     
   4867221372.9876060     
   4743743626.5852280     
   4623419909.4410620     
   4506292074.9174643     
   5389502364.6342821     
   5248982948.9536400     
   5111663133.8613796     
   4977583993.2163658     
   4846837647.6629620     
   5786580971.6400251     
   5636578268.6869478     
   5490727047.7116508     
   5348941554.2708597     
   5211264359.5111370     
   3917781083.6616564     
   3833793302.7443442     
   3753502549.4754524     
   3677118083.5644779     
   3604888259.6387482     
   4194606192.2047138     
   4097791655.3378448     
   4004253309.3522511     
   3914205944.0112305     
   3827925805.0410295     
   4506292074.9174643     
   4395039459.3507786     
   4286448662.4503736     
   4180710342.7329593     
   4078102993.5914779     
   4846837647.6629620     
   4719637722.8406515     
   4594355576.8087521     
   4471126644.2856731     
   4350201208.2285290     
   5211264359.5111370     
   5066686837.8828602     
   4923208546.9867535     
   4780879497.8665276     
   4639889737.2975130     
   3604888259.6387482     
   3523893683.7036943     
   3447401715.1458559     
   3375710561.0960317     
   3309196330.0085020     
   3827925805.0410295     
   3733504001.5262508     
   3642707523.0650334     
   3555797590.5924797     
   3473101181.7880368     
   4078102993.5914779     
   3971484559.4479957     
   3867808504.9754772     
   3767289554.1062093     
   3670196156.1165123     
   4350201208.2285290     
   4232654926.8612385     
   4117560969.7537150     
   4005086524.0297771     
   3895442334.1473532     
   4639889737.2975130     
   4512635775.5808668     
   4387522875.1529913     
   4264674007.1110706     
   4144248526.0741210     
   3309196330.0085020     
   3209344951.2143593     
   3116814377.1688538     
   3032196103.6655936     
   2956185053.2443495     
   3473101181.7880368     
   3356561505.1854177     
   3246106415.7747846     
   3142324305.9654193     
   3045929584.2157273     
   3670196156.1165123     
   3537196229.6028833     
   3409024821.1611547     
   3286214708.1964159     
   3169434912.3666205     
   3895442334.1473532     
   3746592566.4042454     
   3601367270.0588555     
   3460207537.3618274     
   3323687724.9320998     
   4144248526.0741210     
   3980378706.6594982     
   3819030947.9662890     
   3660536848.0785098     
   3505348033.4938750     
   2956185053.2443495     
   2901410269.4878707     
   2849866271.2966118     
   2801912373.3646159     
   2757978691.5355854     
   3045929584.2157273     
   2978641720.8779669     
   2914039784.4664860     
   2852384236.7249999     
   2793980969.3538041     
   3169434912.3666205     
   3091795225.7530570     
   3016472230.2849936     
   2943633721.5752730     
   2873475338.6509113     
   3323687724.9320998     
   3237720568.2392344     
   3153894828.5263491     
   3072302241.8486233     
   2993055466.9580846     
   3505348033.4938750     
   3412802483.9175038     
   3322407484.1301341     
   3234198989.1878958     
   3148238683.7096658     
   2757978691.5355854     
   2639167489.3557191     
   2534409858.3464622     
   2445215325.8825893     
   2373735468.2290916     
   2793980969.3538041     
   2658984590.8029284     
   2537062464.0007062     
   2429970040.2242389     
   2339818221.9611826     
   2873475338.6509113     
   2715484401.5099206     
   2568083501.2762132     
   2433243047.0015669     
   2313392258.7472482     
   2993055466.9580846     
   2807777165.6127162     
   2629254275.1301465     
   2459396203.6251140     
   2300971338.1400566     
   3148238683.7096658     
   2933771057.3110433     
   2721364567.1530170     
   2512458584.8084369     
   2309882396.1793060     
   5657820462.2869539     
   5890937847.3453922     
   6116430162.0709486     
   6331832490.5091610     
   6536915069.3276472     
   6491730467.5073280     
   6586951107.2396231     
   6757503252.3419104     
   6961298483.5903130     
   7171675292.4557667     
   7982409553.1906843     
   7735055385.5387869     
   7669261460.4768496     
   7669714953.2460470     
   7666485126.8130417     
   10130305581.308567     
   9322091831.7831612     
   8826515763.5002441     
   8443738611.4139481     
   8035955039.9042139     
   12935505471.861847     
   11340775381.434681     
   10210433713.697571     
   9273134570.8461304     
   8304449131.8247042     
   6536915069.3276472     
   6328710524.6409292     
   6142704472.9175653     
   5964998084.8802633     
   5786580971.6400251     
   7171675292.4557667     
   6910930194.1805449     
   6658105386.3575087     
   6409345905.6476107     
   6161507333.8656845     
   7666485126.8130417     
   7381087694.3070698     
   7101108229.1898575     
   6826623635.9500809     
   6557837500.0175371     
   8035955039.9042139     
   7746835527.8174801     
   7473410266.2155313     
   7213718722.6811867     
   6967767625.4932308     
   8304449131.8247042     
   8020738770.8619156     
   7779148001.0521326     
   7568997159.0692892     
   7385318706.7132101     
   5786580971.6400251     
   5636578268.6869478     
   5490727047.7116508     
   5348941554.2708597     
   5211264359.5111370     
   6161507333.8656845     
   6013056878.5759878     
   5865891283.2717171     
   5720048410.0894938     
   5575583035.2894049     
   6557837500.0175371     
   6407918939.5831747     
   6256324390.6430311     
   6103020847.1932211     
   5948037545.8717175     
   6967767625.4932308     
   6814705861.1221409     
   6656992921.3414097     
   6494345793.9797888     
   6326715152.3255453     
   7385318706.7132101     
   7228421629.0764790     
   7063991456.9788485     
   6891337838.6203003     
   6710278606.3098698     
   5211264359.5111370     
   5066686837.8828602     
   4923208546.9867535     
   4780879497.8665276     
   4639889737.2975130     
   5575583035.2894049     
   5413097458.6747484     
   5251684089.7694740     
   5091392095.5331984     
   4932334894.0003662     
   5948037545.8717175     
   5771127038.5066700     
   5595711947.9484816     
   5421822797.9911222     
   5249528151.1399031     
   6326715152.3255453     
   6138376040.7801886     
   5952347052.0055971     
   5768610781.0417280     
   5587200900.4374685     
   6710278606.3098698     
   6513028842.6855497     
   6319256250.6085939     
   6128854781.9856186     
   5941812549.3826571     
   4639889737.2975130     
   4512635775.5808668     
   4387522875.1529913     
   4264674007.1110706     
   4144248526.0741210     
   4932334894.0003662     
   4796256144.6227474     
   4661317545.4943199     
   4527619512.7219658     
   4395294632.1340799     
   5249528151.1399031     
   5104687023.4178295     
   4960007949.8103876     
   4815557212.1018934     
   4671434421.8368731     
   5587200900.4374685     
   5433842807.9745789     
   5279717934.1117897     
   5124851486.8352242     
   4969308014.6422291     
   5941812549.3826571     
   5780313667.0791168     
   5617187986.7714071     
   5452416670.2655230     
   5286030766.2888422     
   4144248526.0741210     
   3980378706.6594982     
   3819030947.9662890     
   3660536848.0785098     
   3505348033.4938750     
   4395294632.1340799     
   4215841530.9575229     
   4038453612.0300140     
   3863364807.8420615     
   3690910039.2675624     
   4671434421.8368731     
   4477515545.9485235     
   4285362955.6373954     
   4095129542.8962994     
   3907057184.7314610     
   4969308014.6422291     
   4761682548.3600559     
   4555654391.1840229     
   4351313076.5409851     
   4148833060.0184155     
   5286030766.2888422     
   5065131940.4701977     
   4845761032.1468725     
   4627959794.2412071     
   4411858281.1276045     
   3505348033.4938750     
   3412802483.9175038     
   3322407484.1301341     
   3234198989.1878958     
   3148238683.7096658     
   3690910039.2675624     
   3591956444.5523529     
   3494224489.7016835     
   3397803597.6320362     
   3302809781.9898057     
   3907057184.7314610     
   3799714652.2878857     
   3692416120.2162185     
   3585295379.7822790     
   3478546347.3384943     
   4148833060.0184155     
   4031694368.7446871     
   3913261077.0046911     
   3793689371.9627304     
   3673253537.9897342     
   4411858281.1276045     
   4284004636.3548360     
   4153447383.5686030     
   4020337632.9401836     
   3885020271.7351770     
   3148238683.7096658     
   2933771057.3110433     
   2721364567.1530170     
   2512458584.8084369     
   2309882396.1793060     
   3302809781.9898057     
   3063502807.8441100     
   2826739392.3260899     
   2593142381.5910101     
   2363768266.8103471     
   3478546347.3384943     
   3222927327.1487293     
   2971486437.7022738     
   2724903843.6050234     
   2484333952.0179963     
   3673253537.9897342     
   3406997557.4022975     
   3147281956.4198914     
   2895403988.0311418     
   2653973996.1658058     
   3885020271.7351770     
   3611129298.7891035     
   3346630553.9906077     
   3093726743.8174915     
   2857300284.3161077     
 </DataArray>
 <DataArray  type="Float64" Name="strain" NumberOfComponents="3" format="ascii">
  0.20347505152304113        0.0000000000000000       0.12540513762322031     
  0.18665034505910910       -2.7324392175168310E-002   7.4355487423591021E-002
  0.16982563859517708       -4.4675336149954406E-002   3.5135720313284810E-002
  0.15300093213124505       -5.2052831924358278E-002   7.7458362923016957E-003
  0.13617622566731305       -4.9456879498379930E-002  -7.8141646393583564E-003
  0.15985048921336029        0.0000000000000000        9.6448705823576134E-002
  0.15317468981395471       -2.1844405562993753E-002   6.2693150696283478E-002
  0.14649889041454911       -3.6174127604117132E-002   3.7405526608720624E-002
  0.13982309101514354       -4.2989166123370157E-002   2.0585833560887515E-002
  0.13314729161573793       -4.2289521120752786E-002   1.2234071552784213E-002
  0.12645693213968651        0.0000000000000000        7.4201642975362442E-002
  0.12656808775521400       -1.6364418950819200E-002   5.5281418241894593E-002
  0.12667924337074155       -2.7672919058279875E-002   4.1467172498563229E-002
  0.12679039898626909       -3.3925500322382014E-002   3.2758905745368307E-002
  0.12690155460179658       -3.5122162743125629E-002   2.9156617982309875E-002
  0.10329438030201971        0.0000000000000000        5.8663949078579206E-002
  0.10683053888288703       -1.0884432338644643E-002   5.2120290060424325E-002
  0.11036669746375438       -1.9171710512442607E-002   4.7320657982812611E-002
  0.11390285604462171       -2.4861834521393886E-002   4.4265052845744050E-002
  0.11743901462548904       -2.7954804365498478E-002   4.2953474649218649E-002
   9.0362833700359912E-002   0.0000000000000000        4.9835624133226453E-002
   9.3962043196973752E-002  -5.4044457264700897E-003   5.3209766151872701E-002
   9.7561252693587577E-002  -1.0670501966605343E-002   5.4965983061468798E-002
  0.10116046219020140       -1.5798168720405747E-002   5.5104274862014732E-002
  0.10475967168681524       -2.0787445987871321E-002   5.3624641553510495E-002
  0.13617622566731305       -4.9456879498379930E-002  -7.8141646393583564E-003
  0.13295753472778304       -4.2922517157688821E-002  -3.4030210536151254E-003
  0.12973884378825304       -3.8484783187954334E-002  -3.9744181998069283E-004
  0.12652015284872303       -3.6143677589176477E-002   1.2025730615449239E-003
  0.12330146190919303       -3.5899200361355299E-002   1.3970235909617490E-003
  0.13314729161573793       -4.2289521120752786E-002   1.2234071552784213E-002
  0.12890970390875908       -3.8423713586262641E-002   1.2175586346280409E-002
  0.12467211620178024       -3.5740264509897132E-002   1.1484871956987878E-002
  0.12043452849480141       -3.4239173891656476E-002   1.0161928384906272E-002
  0.11619694078782258       -3.3920441731540449E-002   8.2067556300357281E-003
  0.12690155460179658       -3.5122162743125629E-002   2.9156617982309875E-002
  0.12241840529668881       -3.3924910014836412E-002   2.5542773896391036E-002
  0.11793525599158100       -3.2995745831840007E-002   2.2070035797003267E-002
  0.11345210668647315       -3.2334670194136411E-002   1.8738403684146351E-002
  0.10896895738136536       -3.1941683101725682E-002   1.5547877557820444E-002
  0.11743901462548904       -2.7954804365498478E-002   4.2953474649218649E-002
  0.11348363889157217       -2.9426106443410205E-002   3.6698541596716636E-002
  0.10952826315765526       -3.0251227153782825E-002   3.1358049700065574E-002
  0.10557288742373840       -3.0430166496616388E-002   2.6931998959265291E-002
  0.10161751168982147       -2.9962924471910846E-002   2.3420389374315943E-002
  0.10475967168681524       -2.0787445987871321E-002   5.3624641553510495E-002
  0.10210540469340917       -2.4927302871984001E-002   4.5642889447257258E-002
   9.9451137700003106E-002  -2.7506708475725658E-002   3.9348913666174823E-002
   9.6796870706596996E-002  -2.8525662799096345E-002   3.4742714210263086E-002
   9.4142603713190956E-002  -2.7984165842096037E-002   3.1824291079522157E-002
  0.12330146190919303       -3.5899200361355299E-002   1.3970235909617490E-003
  0.12040904807762501       -3.6397738020224502E-002   6.6580819613630549E-004
  0.11751663424605692       -3.6285677081517767E-002   1.0612375320415146E-004
  0.11462422041448883       -3.5563017545235248E-002  -2.8202973783424123E-004
  0.11173180658292081       -3.4229759411376792E-002  -4.9865227697937220E-004
  0.11619694078782258       -3.3920441731540449E-002   8.2067556300357281E-003
  0.11346489571475701       -3.3996433493514500E-002   7.8426703624928651E-003
  0.11073285064169146       -3.3679514641543437E-002   7.6277916600615073E-003
  0.10800080556862596       -3.2969685175627685E-002   7.5621195227417448E-003
  0.10526876049556039       -3.1866945095766930E-002   7.6456539505336540E-003
  0.10896895738136536       -3.1941683101725682E-002   1.5547877557820444E-002
  0.10637495668002037       -3.1595128966804387E-002   1.5333234433929342E-002
  0.10378095597867537       -3.1073352201569156E-002   1.5245473488367682E-002
  0.10118695527733035       -3.0376352806020121E-002   1.5284594721135556E-002
   9.8592954575985353E-002  -2.9504130780157095E-002   1.5450598132232998E-002
  0.10161751168982147       -2.9962924471910846E-002   2.3420389374315943E-002
   9.9139230973414996E-002  -2.9193824440094329E-002   2.3137500410445499E-002
   9.6660950257008535E-002  -2.8467189761594878E-002   2.2959169238122620E-002
   9.4182669540602074E-002  -2.7783020436412530E-002   2.2885395857347321E-002
   9.1704388824195585E-002  -2.7141316464547247E-002   2.2916180268119469E-002
   9.4142603713190956E-002  -2.7984165842096037E-002   3.1824291079522157E-002
   9.1757718594941015E-002  -2.6792519913384286E-002   3.1255468292041462E-002
   8.9372833476691060E-002  -2.5861027321620607E-002   3.0768878909326350E-002
   8.6987948358441133E-002  -2.5189688066804994E-002   3.0364522931376731E-002
   8.4603063240191206E-002  -2.4778502148937398E-002   3.0042400358192611E-002
  0.11173180658292081       -3.4229759411376792E-002  -4.9865227697937220E-004
  0.10856206940748175       -3.2704054123606136E-002  -2.5111283599910106E-004
  0.10539233223204275       -3.1404053125587070E-002   7.7689763342075890E-005
  0.10222259505660369       -3.0329756417319453E-002   4.8775552104471376E-004
   9.9052857881164691E-002  -2.9481163998803406E-002   9.7908443710814641E-004
  0.10526876049556039       -3.1866945095766930E-002   7.6456539505336540E-003
  0.10220543369181537       -3.0640402068331435E-002   7.5200762683583777E-003
   9.9142106888070264E-002  -2.9559163759691337E-002   7.5260561712103546E-003
   9.6078780084325174E-002  -2.8623230169846435E-002   7.6635936590885925E-003
   9.3015453280580140E-002  -2.7832601298797222E-002   7.9326887319938477E-003
   9.8592954575985353E-002  -2.9504130780157095E-002   1.5450598132232998E-002
   9.5686332570599927E-002  -2.8576750013056776E-002   1.5032302897858896E-002
   9.2779710565214474E-002  -2.7714274393795611E-002   1.4795859675177166E-002
   8.9873088559828979E-002  -2.6916703922373643E-002   1.4741268464187812E-002
   8.6966466554443511E-002  -2.6184038598790982E-002   1.4868529264890934E-002
   9.1704388824195585E-002  -2.7141316464547247E-002   2.2916180268119469E-002
   8.9004766043835434E-002  -2.6513097957781985E-002   2.2285567052502321E-002
   8.6305143263475298E-002  -2.5869385027899882E-002   2.1887100275243189E-002
   8.3605520483115134E-002  -2.5210177674900792E-002   2.1720779936342291E-002
   8.0905897702755025E-002  -2.4535475898784825E-002   2.1786606035799579E-002
   8.4603063240191206E-002  -2.4778502148937398E-002   3.0042400358192611E-002
   8.2160734111522027E-002  -2.4449445902507347E-002   2.9279868732288550E-002
   7.9718404982852833E-002  -2.4024495662004215E-002   2.8799777971408438E-002
   7.7276075854183640E-002  -2.3503651427427913E-002   2.8602128075551972E-002
   7.4833746725514405E-002  -2.2886913198778586E-002   2.8686919044719400E-002
   9.9052857881164691E-002  -2.9481163998803406E-002   9.7908443710814641E-004
   9.6340117114511181E-002  -2.8696671899311549E-002   6.6986226582943509E-004
   9.3627376347857616E-002  -2.7814676148116141E-002   5.2056980467105052E-004
   9.0914635581204079E-002  -2.6835176745217758E-002   5.3120705363279841E-004
   8.8201894814550541E-002  -2.5758173690615616E-002   7.0177401271453999E-004
   9.3015453280580140E-002  -2.7832601298797222E-002   7.9326887319938477E-003
   9.0459131799245973E-002  -2.7079263107557872E-002   7.6924875158018158E-003
   8.7902810317911972E-002  -2.6255201557143060E-002   7.6051951601284334E-003
   8.5346488836577861E-002  -2.5360416647553105E-002   7.6708116649736383E-003
   8.2790167355243860E-002  -2.4394908378787938E-002   7.8893370303378951E-003
   8.6966466554443511E-002  -2.6184038598790982E-002   1.4868529264890934E-002
   8.4559543508827467E-002  -2.5461854315804264E-002   1.4670568711257631E-002
   8.2152620463211409E-002  -2.4695726966170270E-002   1.4618496168541190E-002
   7.9745697417595351E-002  -2.3885656549888955E-002   1.4712311636742213E-002
   7.7338774371979307E-002  -2.3031643066960261E-002   1.4952015115860529E-002
   8.0905897702755025E-002  -2.4535475898784825E-002   2.1786606035799579E-002
   7.8641352243255483E-002  -2.3844445524050621E-002   2.1604105852196451E-002
   7.6376806783756038E-002  -2.3136252375197223E-002   2.1560472829909329E-002
   7.4112261324256579E-002  -2.2410896452224556E-002   2.1655706968938114E-002
   7.1847715864757050E-002  -2.1668377755132640E-002   2.1889808269282621E-002
   7.4833746725514405E-002  -2.2886913198778586E-002   2.8686919044719400E-002
   7.2704558002530062E-002  -2.2227036732297187E-002   2.8493098938618927E-002
   7.0575369279545747E-002  -2.1576777784224281E-002   2.8431125144232919E-002
   6.8446180556561417E-002  -2.0936136354560264E-002   2.8500997661561271E-002
   6.6316991833577033E-002  -2.0305112443304962E-002   2.8702716490604074E-002
   8.8201894814550541E-002  -2.5758173690615616E-002   7.0177401271453999E-004
   8.4491053569962005E-002  -2.4663137594072793E-002   5.2388855403229240E-004
   8.0780212325373468E-002  -2.3629539065351202E-002   5.3600131286135611E-004
   7.7069371080784960E-002  -2.2657378104451023E-002   7.3811228920242500E-004
   7.3358529836196396E-002  -2.1746654711371827E-002   1.1302214830550827E-003
   8.2790167355243860E-002  -2.4394908378787938E-002   7.8893370303378951E-003
   7.9277313973326935E-002  -2.3416165751336454E-002   7.6269295880454779E-003
   7.5764460591410038E-002  -2.2481677765687921E-002   7.5704996535844726E-003
   7.2251607209493127E-002  -2.1591444421841976E-002   7.7200472269549764E-003
   6.8738753827576216E-002  -2.0745465719798961E-002   8.0755723081572528E-003
   7.7338774371979307E-002  -2.3031643066960261E-002   1.4952015115860529E-002
   7.4039888143053761E-002  -2.2169193908600227E-002   1.4622268615976805E-002
   7.0741001914128257E-002  -2.1333816466024641E-002   1.4514478914244053E-002
   6.7442115685202725E-002  -2.0525510739233151E-002   1.4628646010662466E-002
   6.4143229456277234E-002  -1.9744276728226207E-002   1.4964769905232544E-002
   7.1847715864757050E-002  -2.1668377755132640E-002   2.1889808269282621E-002
   6.8778776079142609E-002  -2.0922222065863999E-002   2.1509905637825764E-002
   6.5709836293528182E-002  -2.0185955166361194E-002   2.1367939094839750E-002
   6.2640896507913768E-002  -1.9459577056624325E-002   2.1463908640324898E-002
   5.9571956722299327E-002  -1.8743087736653508E-002   2.1797814274281013E-002
   6.6316991833577033E-002  -2.0305112443304962E-002   2.8702716490604074E-002
   6.3493977781593380E-002  -1.9675250223127633E-002   2.8289840653592552E-002
   6.0670963729609811E-002  -1.9038093866697955E-002   2.8130880195371882E-002
   5.7847949677626201E-002  -1.8393643374015497E-002   2.8225835115941816E-002
   5.5024935625642535E-002  -1.7741898745080642E-002   2.8574705415302548E-002
   7.3358529836196396E-002  -2.1746654711371827E-002   1.1302214830550827E-003
   7.1341824334027748E-002  -2.0830199628674995E-002   9.3775684903185663E-004
   6.9325118831859212E-002  -1.9840843598921465E-002   9.4116315131104189E-004
   6.7308413329690620E-002  -1.8778586622112348E-002   1.1404403898939153E-003
   6.5291707827522028E-002  -1.7643428698245867E-002   1.5355885647795331E-003
   6.8738753827576216E-002  -2.0745465719798961E-002   8.0755723081572528E-003
   6.6901128558898126E-002  -1.9908885422678768E-002   7.9397479981490604E-003
   6.5063503290219926E-002  -1.9046847293601676E-002   7.9662132188182688E-003
   6.3225878021541754E-002  -1.8159351332567866E-002   8.1549679701659328E-003
   6.1388252752863637E-002  -1.7246397539576686E-002   8.5060122521906090E-003
   6.4143229456277234E-002  -1.9744276728226207E-002   1.4964769905232544E-002
   6.2451103015464179E-002  -1.8987571216682680E-002   1.4838142804139975E-002
   6.0758976574651208E-002  -1.8252850988281777E-002   1.4840223828099491E-002
   5.9066850133838195E-002  -1.7540116043023496E-002   1.4971012977111980E-002
   5.7374723693025181E-002  -1.6849366380907949E-002   1.5230510251176943E-002
   5.9571956722299327E-002  -1.8743087736653508E-002   2.1797814274281013E-002
   5.7991747703726157E-002  -1.8066257010686523E-002   2.1632941267004283E-002
   5.6411538685153036E-002  -1.7458854682961822E-002   2.1563194979154751E-002
   5.4831329666579887E-002  -1.6920880753479403E-002   2.1588575410732419E-002
   5.3251120648006793E-002  -1.6452335222239101E-002   2.1709082561737467E-002
   5.5024935625642535E-002  -1.7741898745080642E-002   2.8574705415302548E-002
   5.3523062623684003E-002  -1.7144942804690338E-002   2.8324143386742273E-002
   5.2021189621725500E-002  -1.6664858377641978E-002   2.8135126671984201E-002
   5.0519316619767010E-002  -1.6301645463935061E-002   2.8007655271027818E-002
   4.9017443617808409E-002  -1.6055304063570086E-002   2.7941729183873443E-002
   6.5291707827522028E-002  -1.7643428698245867E-002   1.5355885647795331E-003
   6.0606832709709679E-002  -1.6055190955453824E-002   2.4227226031092730E-004
   5.5921957591897387E-002  -1.3633694521866635E-002  -9.9440477905377023E-004
   5.1237082474085066E-002  -1.0378939397484785E-002  -2.1744425533152256E-003
   4.6552207356272746E-002  -6.2909255823075938E-003  -3.2978410624724397E-003
   6.1388252752863637E-002  -1.7246397539576686E-002   8.5060122521906090E-003
   5.6801671145315702E-002  -1.6047139121793064E-002   7.8344812619147164E-003
   5.2215089537767823E-002  -1.4300729286379987E-002   7.3028980270637422E-003
   4.7628507930219749E-002  -1.2007168033338247E-002   6.9112625476379641E-003
   4.3041926322672008E-002  -9.1664553626675804E-003   6.6595748236371044E-003
   5.7374723693025181E-002  -1.6849366380907949E-002   1.5230510251176943E-002
   5.2969744086062948E-002  -1.6039087288132192E-002   1.4894657301927350E-002
   4.8564764479100728E-002  -1.4967764050893589E-002   1.4782060598423935E-002
   4.4159784872138445E-002  -1.3635396669192161E-002   1.4892720140667323E-002
   3.9754805265176274E-002  -1.2041985143027567E-002   1.5226635928656806E-002
   5.3251120648006793E-002  -1.6452335222239101E-002   2.1709082561737467E-002
   4.9111051531951479E-002  -1.6031035454471487E-002   2.1422800380348869E-002
   4.4970982415896199E-002  -1.5634798815407067E-002   2.1443082935027585E-002
   4.0830913299840857E-002  -1.5263625305045738E-002   2.1769930225773827E-002
   3.6690844183785654E-002  -1.4917514923387443E-002   2.2403342252587610E-002
   4.9017443617808409E-002  -1.6055304063570086E-002   2.7941729183873443E-002
   4.5225593482981330E-002  -1.6022983620810616E-002   2.7418910497179261E-002
   4.1433743348154195E-002  -1.6301833579920502E-002   2.7285965036873500E-002
   3.7641893213326963E-002  -1.6891853940899527E-002   2.7542892802957061E-002
   3.3850043078499925E-002  -1.7793044703747540E-002   2.8189693795428905E-002
   9.0362833700359912E-002   0.0000000000000000        4.9835624133226453E-002
   9.3962043196973752E-002  -5.4044457264700897E-003   5.3209766151872701E-002
   9.7561252693587577E-002  -1.0670501966605343E-002   5.4965983061468798E-002
  0.10116046219020140       -1.5798168720405747E-002   5.5104274862014732E-002
  0.10475967168681524       -2.0787445987871321E-002   5.3624641553510495E-002
   8.2425002670413694E-002   0.0000000000000000        4.4783807860407580E-002
   8.4635303272844603E-002  -4.5742969209453359E-003   4.8268281899563482E-002
   8.6845603875275526E-002  -9.0372035317808474E-003   5.0592863259403729E-002
   8.9055904477706463E-002  -1.3388719832506548E-002   5.1757551939928315E-002
   9.1266205080137372E-002  -1.7628845823122428E-002   5.1762347941137238E-002
   7.4243597547887535E-002   0.0000000000000000        4.0575639981225972E-002
   7.5523021685870051E-002  -3.7441481154205786E-003   4.4143446864666529E-002
   7.6802445823852553E-002  -7.4039050969563602E-003   4.7009393498525905E-002
   7.8081869961835054E-002  -1.0979270944607341E-002   4.9173479882804114E-002
   7.9361294099817556E-002  -1.4470245658373532E-002   5.0635706017501170E-002
   6.5818618332781478E-002   0.0000000000000000        3.7211120495681628E-002
   6.6625198436050082E-002  -2.9139993098958213E-003   4.0835261047181798E-002
   6.7431778539318657E-002  -5.7706066621318677E-003   4.4215573778835289E-002
   6.8238358642587246E-002  -8.5698220567081394E-003   4.7352058690642095E-002
   6.9044938745855794E-002  -1.1311645493624631E-002   5.0244715782602242E-002
   5.7150065025095516E-002   0.0000000000000000        3.4690249403774548E-002
   5.7941833523384667E-002  -2.0838505043710666E-003   3.8343724447109317E-002
   5.8733602021673825E-002  -4.1373082273073770E-003   4.2211404100331897E-002
   5.9525370519962977E-002  -6.1603731688089323E-003   4.6293288363442313E-002
   6.0317139018252128E-002  -8.1530453288757385E-003   5.0589377236440532E-002
  0.10475967168681524       -2.0787445987871321E-002   5.3624641553510495E-002
  0.10210540469340917       -2.4927302871984001E-002   4.5642889447257258E-002
   9.9451137700003106E-002  -2.7506708475725658E-002   3.9348913666174823E-002
   9.6796870706596996E-002  -2.8525662799096345E-002   3.4742714210263086E-002
   9.4142603713190956E-002  -2.7984165842096037E-002   3.1824291079522157E-002
   9.1266205080137372E-002  -1.7628845823122428E-002   5.1762347941137238E-002
   9.0062109743412735E-002  -2.1203545177009495E-002   4.6521503914612163E-002
   8.8858014406688141E-002  -2.3558781567548745E-002   4.2493226876279246E-002
   8.7653919069963532E-002  -2.4694554994740207E-002   3.9677516826138508E-002
   8.6449823733238895E-002  -2.4610865458583868E-002   3.8074373764189873E-002
   7.9361294099817556E-002  -1.4470245658373532E-002   5.0635706017501170E-002
   7.9132161082795791E-002  -1.7479787482035006E-002   4.7794781753681043E-002
   7.8903028065774025E-002  -1.9610854659371853E-002   4.5691215141074527E-002
   7.8673895048752246E-002  -2.0863447190384073E-002   4.4325006179681541E-002
   7.8444762031730453E-002  -2.1237565075071657E-002   4.3696154869502069E-002
   6.9044938745855794E-002  -1.1311645493624631E-002   5.0244715782602242E-002
   6.9315558711558270E-002  -1.3756029787060513E-002   4.9462722964463961E-002
   6.9586178677260774E-002  -1.5662927751194954E-002   4.8942878460560633E-002
   6.9856798642963250E-002  -1.7032339386027936E-002   4.8685182270892205E-002
   7.0127418608665712E-002  -1.7864264691559467E-002   4.8689634395458731E-002
   6.0317139018252128E-002  -8.1530453288757385E-003   5.0589377236440532E-002
   6.0612302629700243E-002  -1.0032272092086018E-002   5.1525327546960847E-002
   6.0907466241148345E-002  -1.1715000843018042E-002   5.2248216834737529E-002
   6.1202629852596453E-002  -1.3201231581671800E-002   5.2758045099770556E-002
   6.1497793464044576E-002  -1.4490964308047277E-002   5.3054812342059873E-002
   9.4142603713190956E-002  -2.7984165842096037E-002   3.1824291079522157E-002
   9.1757718594941015E-002  -2.6792519913384286E-002   3.1255468292041462E-002
   8.9372833476691060E-002  -2.5861027321620607E-002   3.0768878909326350E-002
   8.6987948358441133E-002  -2.5189688066804994E-002   3.0364522931376731E-002
   8.4603063240191206E-002  -2.4778502148937398E-002   3.0042400358192611E-002
   8.6449823733238895E-002  -2.4610865458583868E-002   3.8074373764189873E-002
   8.4193848909090541E-002  -2.3967400567530484E-002   3.7059913349237986E-002
   8.1937874084942200E-002  -2.3423847930030918E-002   3.6221040117723695E-002
   7.9681899260793859E-002  -2.2980207546085187E-002   3.5557754069647049E-002
   7.7425924436645449E-002  -2.2636479415693161E-002   3.5070055205008069E-002
   7.8444762031730453E-002  -2.1237565075071657E-002   4.3696154869502069E-002
   7.6411051280355816E-002  -2.1142281221676697E-002   4.2396297910473189E-002
   7.4377340528981165E-002  -2.0986668538441253E-002   4.1365381913554058E-002
   7.2343629777606486E-002  -2.0770727025365338E-002   4.0603406878744669E-002
   7.0309919026231849E-002  -2.0494456682448925E-002   4.0110372806044993E-002
   7.0127418608665712E-002  -1.7864264691559467E-002   4.8689634395458731E-002
   6.8409325708736840E-002  -1.8317161875822902E-002   4.7264621975747143E-002
   6.6691232808807954E-002  -1.8549489146851575E-002   4.6201904296817468E-002
   6.4973139908879082E-002  -1.8561246504645506E-002   4.5501481358669583E-002
   6.3255047008950210E-002  -1.8352433949204716E-002   4.5163353161303536E-002
   6.1497793464044576E-002  -1.4490964308047277E-002   5.3054812342059873E-002
   6.0188672194233586E-002  -1.5492042529969115E-002   5.1664885545059866E-002
   5.8879550924422611E-002  -1.6112309755261903E-002   5.0730607267513890E-002
   5.7570429654611649E-002  -1.6351765983925709E-002   5.0251977509421675E-002
   5.6261308384800673E-002  -1.6210411215960438E-002   5.0228996270783546E-002
   8.4603063240191206E-002  -2.4778502148937398E-002   3.0042400358192611E-002
   8.2160734111522027E-002  -2.4449445902507347E-002   2.9279868732288550E-002
   7.9718404982852833E-002  -2.4024495662004215E-002   2.8799777971408438E-002
   7.7276075854183640E-002  -2.3503651427427913E-002   2.8602128075551972E-002
   7.4833746725514405E-002  -2.2886913198778586E-002   2.8686919044719400E-002
   7.7425924436645449E-002  -2.2636479415693161E-002   3.5070055205008069E-002
   7.5251749638663254E-002  -2.2303448496921070E-002   3.4441576350092880E-002
   7.3077574840681017E-002  -2.1891899747834904E-002   3.4066965291527730E-002
   7.0903400042698794E-002  -2.1401833168434602E-002   3.3946222029312675E-002
   6.8729225244716571E-002  -2.0833248758720363E-002   3.4079346563447868E-002
   7.0309919026231849E-002  -2.0494456682448925E-002   4.0110372806044993E-002
   6.8375325490262873E-002  -2.0157451091334787E-002   3.9598570558359560E-002
   6.6440731954293911E-002  -1.9759303833665618E-002   3.9312063038350595E-002
   6.4506138418324935E-002  -1.9300014909441360E-002   3.9250850246018022E-002
   6.2571544882355973E-002  -1.8779584318662126E-002   3.9414932181361863E-002
   6.3255047008950210E-002  -1.8352433949204716E-002   4.5163353161303536E-002
   6.1531461666320834E-002  -1.8011453685748493E-002   4.4750851357088756E-002
   5.9807876323691507E-002  -1.7626707919496304E-002   4.4535071211876769E-002
   5.8084290981062152E-002  -1.7198196650448055E-002   4.4516012725667735E-002
   5.6360705638432790E-002  -1.6725919878603855E-002   4.4693675898461238E-002
   5.6261308384800673E-002  -1.6210411215960438E-002   5.0228996270783546E-002
   5.4720158166837229E-002  -1.5865456280162241E-002   4.9898418746280648E-002
   5.3179007948873785E-002  -1.5494112005327038E-002   4.9735989812106661E-002
   5.1637857730910335E-002  -1.5096378391454810E-002   4.9741709468261869E-002
   5.0096707512946898E-002  -1.4672255438545639E-002   4.9915577714746084E-002
   7.4833746725514405E-002  -2.2886913198778586E-002   2.8686919044719400E-002
   7.2704558002530062E-002  -2.2227036732297187E-002   2.8493098938618927E-002
   7.0575369279545747E-002  -2.1576777784224281E-002   2.8431125144232919E-002
   6.8446180556561417E-002  -2.0936136354560264E-002   2.8500997661561271E-002
   6.6316991833577033E-002  -2.0305112443304962E-002   2.8702716490604074E-002
   6.8729225244716571E-002  -2.0833248758720363E-002   3.4079346563447868E-002
   6.6741668739832422E-002  -2.0225416752386344E-002   3.3837333404428960E-002
   6.4754112234948369E-002  -1.9617607383127005E-002   3.3746738369895980E-002
   6.2766555730064261E-002  -1.9009820650942352E-002   3.3807561459849242E-002
   6.0778999225180153E-002  -1.8402056555832325E-002   3.4019802674288419E-002
   6.2571544882355973E-002  -1.8779584318662126E-002   3.9414932181361863E-002
   6.0745192408343862E-002  -1.8223796772475646E-002   3.9134320850758443E-002
   5.8918839934331675E-002  -1.7658436982029731E-002   3.9024699457412743E-002
   5.7092487460319488E-002  -1.7083504947324524E-002   3.9086068001324872E-002
   5.5266134986307391E-002  -1.6499000668359770E-002   3.9318426482494798E-002
   5.6360705638432790E-002  -1.6725919878603855E-002   4.4693675898461238E-002
   5.4715129008064231E-002  -1.6222176792564932E-002   4.4384061277607412E-002
   5.3069552377695686E-002  -1.5699266580932458E-002   4.4265008406783032E-002
   5.1423975747327141E-002  -1.5157189243706515E-002   4.4336517285988135E-002
   4.9778399116958527E-002  -1.4595944780887229E-002   4.4598587915222754E-002
   5.0096707512946898E-002  -1.4672255438545639E-002   4.9915577714746084E-002
   4.8651478538993653E-002  -1.4220556812654148E-002   4.9586554684975997E-002
   4.7206249565040381E-002  -1.3740096179835189E-002   4.9467665218006981E-002
   4.5761020591087130E-002  -1.3230873540088702E-002   4.9558909313839043E-002
   4.4315791617133837E-002  -1.2692888893414578E-002   4.9860286972472356E-002
   6.6316991833577033E-002  -2.0305112443304962E-002   2.8702716490604074E-002
   6.3493977781593380E-002  -1.9675250223127633E-002   2.8289840653592552E-002
   6.0670963729609811E-002  -1.9038093866697955E-002   2.8130880195371882E-002
   5.7847949677626201E-002  -1.8393643374015497E-002   2.8225835115941816E-002
   5.5024935625642535E-002  -1.7741898745080642E-002   2.8574705415302548E-002
   6.0778999225180153E-002  -1.8402056555832325E-002   3.4019802674288419E-002
   5.8203700140065415E-002  -1.7790998032363087E-002   3.3632807609902310E-002
   5.5628401054950732E-002  -1.7173328015100783E-002   3.3487327100463191E-002
   5.3053101969836043E-002  -1.6549046504045536E-002   3.3583361145970998E-002
   5.0477802884721312E-002  -1.5918153499197008E-002   3.3920909746426170E-002
   5.5266134986307391E-002  -1.6499000668359770E-002   3.9318426482494798E-002
   5.2926150044218023E-002  -1.5906745841598499E-002   3.8956629548274058E-002
   5.0586165102128676E-002  -1.5308562163503785E-002   3.8823946345156991E-002
   4.8246180160039301E-002  -1.4704449634075354E-002   3.8920376873143439E-002
   4.5906195217949947E-002  -1.4094408253313345E-002   3.9245921132233547E-002
   4.9778399116958527E-002  -1.4595944780887229E-002   4.4598587915222754E-002
   4.7661327494051040E-002  -1.4022493650833932E-002   4.4261306468708142E-002
   4.5544255871143503E-002  -1.3443796311906644E-002   4.4140737929453791E-002
   4.3427184248235988E-002  -1.2859852764105215E-002   4.4236882297459187E-002
   4.1310112625328479E-002  -1.2270663007429725E-002   4.4549739572724914E-002
   4.4315791617133837E-002  -1.2692888893414578E-002   4.9860286972472356E-002
   4.2409232489564602E-002  -1.2138241460069366E-002   4.9546838371204660E-002
   4.0502673361995339E-002  -1.1579030460309572E-002   4.9437701853353111E-002
   3.8596114234426104E-002  -1.1015255894135174E-002   4.9532877418918306E-002
   3.6689555106856842E-002  -1.0446917761546048E-002   4.9832365067900009E-002
   5.5024935625642535E-002  -1.7741898745080642E-002   2.8574705415302548E-002
   5.3523062623684003E-002  -1.7144942804690338E-002   2.8324143386742273E-002
   5.2021189621725500E-002  -1.6664858377641978E-002   2.8135126671984201E-002
   5.0519316619767010E-002  -1.6301645463935061E-002   2.8007655271027818E-002
   4.9017443617808409E-002  -1.6055304063570086E-002   2.7941729183873443E-002
   5.0477802884721312E-002  -1.5918153499197008E-002   3.3920909746426170E-002
   4.9047441963167446E-002  -1.5316819499323175E-002   3.3564539050076392E-002
   4.7617081041613593E-002  -1.4781215003192100E-002   3.3289647200733949E-002
   4.6186720120059678E-002  -1.4311340010803426E-002   3.3096234198398890E-002
   4.4756359198505791E-002  -1.3907194522157218E-002   3.2984300043071180E-002
   4.5906195217949947E-002  -1.4094408253313345E-002   3.9245921132233547E-002
   4.4567279910006113E-002  -1.3488696193956137E-002   3.8834883777693410E-002
   4.3228364602062218E-002  -1.2897571628742333E-002   3.8525258803366019E-002
   4.1889449294118336E-002  -1.2321034557671737E-002   3.8317046209251339E-002
   4.0550533986174503E-002  -1.1759084980744433E-002   3.8210245995349459E-002
   4.1310112625328479E-002  -1.2270663007429725E-002   4.4549739572724914E-002
   4.0082576464200027E-002  -1.1660572888588981E-002   4.4135177569593509E-002
   3.8855040303071610E-002  -1.1013928254292510E-002   4.3841961479880398E-002
   3.7627504141943144E-002  -1.0330729104540019E-002   4.3670091303585401E-002
   3.6399967980814740E-002  -9.6109754393316621E-003   4.3619567040708518E-002
   3.6689555106856842E-002  -1.0446917761546048E-002   4.9832365067900009E-002
   3.5593331625749181E-002  -9.8324495832219638E-003   4.9465420425776896E-002
   3.4497108144641575E-002  -9.1302848798427011E-003   4.9239755230277044E-002
   3.3400884663533942E-002  -8.3404236514084164E-003   4.9155369481400937E-002
   3.2304661182426309E-002  -7.4628658979187246E-003   4.9212263179148452E-002
   4.9017443617808409E-002  -1.6055304063570086E-002   2.7941729183873443E-002
   4.5225593482981330E-002  -1.6022983620810616E-002   2.7418910497179261E-002
   4.1433743348154195E-002  -1.6301833579920502E-002   2.7285965036873500E-002
   3.7641893213326963E-002  -1.6891853940899527E-002   2.7542892802957061E-002
   3.3850043078499925E-002  -1.7793044703747540E-002   2.8189693795428905E-002
   4.4756359198505791E-002  -1.3907194522157218E-002   3.2984300043071180E-002
   4.1329172618097154E-002  -1.3597013884197429E-002   3.2274845591628437E-002
   3.7901986037688448E-002  -1.3409033443867374E-002   3.1904845022633438E-002
   3.4474799457279874E-002  -1.3343253201166867E-002   3.1874298336087070E-002
   3.1047612876871189E-002  -1.3399673156096581E-002   3.2183205531988723E-002
   4.0550533986174503E-002  -1.1759084980744433E-002   3.8210245995349459E-002
   3.7437591616243771E-002  -1.1171044147583992E-002   3.7503125983397639E-002
   3.4324649246312962E-002  -1.0516233307814128E-002   3.7085040509953114E-002
   3.1211706876382129E-002  -9.7946524614345113E-003   3.6955989575016432E-002
   2.8098764506451351E-002  -9.0063016084455105E-003   3.7115973178587558E-002
   3.6399967980814740E-002  -9.6109754393316621E-003   4.3619567040708518E-002
   3.3550850477421096E-002  -8.7450744109706241E-003   4.3103751672486999E-002
   3.0701732974027500E-002  -7.6234331717608857E-003   4.2826551498832389E-002
   2.7852615470633904E-002  -6.2460517217021146E-003   4.2787966519744564E-002
   2.5003497967240253E-002  -4.6129300607944956E-003   4.2987996735223896E-002
   3.2304661182426309E-002  -7.4628658979187246E-003   4.9212263179148452E-002
   2.9668949201629241E-002  -6.3191046743573676E-003   4.9076722658896732E-002
   2.7033237220832215E-002  -4.7306330357076848E-003   4.9129377989270945E-002
   2.4397525240035182E-002  -2.6974509819695895E-003   4.9370229170271826E-002
   2.1761813259238094E-002  -2.1955851314348074E-004   4.9799276201898612E-002
   5.7150065025095516E-002   0.0000000000000000        3.4690249403774548E-002
   5.7941833523384667E-002  -2.0838505043710666E-003   3.8343724447109317E-002
   5.8733602021673825E-002  -4.1373082273073770E-003   4.2211404100331897E-002
   5.9525370519962977E-002  -6.1603731688089323E-003   4.6293288363442313E-002
   6.0317139018252128E-002  -8.1530453288757385E-003   5.0589377236440532E-002
   4.8650048344231672E-002   0.0000000000000000        3.2789618793630224E-002
   4.9590592357477710E-002  -1.7093389351413137E-003   3.6966383869034503E-002
   5.0531136370723762E-002  -3.4329270901648258E-003   4.1226495364464745E-002
   5.1471680383969799E-002  -5.1707644650705303E-003   4.5569953279920951E-002
   5.2412224397215837E-002  -6.9228510598584453E-003   4.9996757615403106E-002
   4.0730679009591993E-002   0.0000000000000000        3.1285820753374126E-002
   4.1689140347933064E-002  -1.3348273659115604E-003   3.5941233859530970E-002
   4.2647601686274128E-002  -2.7285459530222676E-003   4.0549135195851918E-002
   4.3606063024615199E-002  -4.1811557613321264E-003   4.5109524762336949E-002
   4.4564524362956277E-002  -5.6926567908411304E-003   4.9622402558986096E-002
   3.3391957021176470E-002   0.0000000000000000        3.0178855283006251E-002
   3.4237477494750715E-002  -9.6031579668180863E-004   3.5268274418598707E-002
   3.5082997968324960E-002  -2.0241648158797155E-003   4.0179323594493395E-002
   3.5928518441899204E-002  -3.1915470575937183E-003   4.4912002810690334E-002
   3.6774038915473442E-002  -4.4624625218238258E-003   4.9466312067189523E-002
   2.6633882378985122E-002   0.0000000000000000        2.9468722382526603E-002
   2.7235603797930674E-002  -5.8580422745205425E-004   3.4947505546237725E-002
   2.7837325216876225E-002  -1.3197836787371582E-003   4.0117060560389231E-002
   2.8439046635821773E-002  -2.2019383538553171E-003   4.4977387424981113E-002
   2.9040768054767331E-002  -3.2322682528065222E-003   4.9528486140013359E-002
   6.0317139018252128E-002  -8.1530453288757385E-003   5.0589377236440532E-002
   6.0612302629700243E-002  -1.0032272092086018E-002   5.1525327546960847E-002
   6.0907466241148345E-002  -1.1715000843018042E-002   5.2248216834737529E-002
   6.1202629852596453E-002  -1.3201231581671800E-002   5.2758045099770556E-002
   6.1497793464044576E-002  -1.4490964308047277E-002   5.3054812342059873E-002
   5.2412224397215837E-002  -6.9228510598584453E-003   4.9996757615403106E-002
   5.2533618346723800E-002  -8.5869603013431772E-003   5.1222564842887057E-002
   5.2655012296231749E-002  -1.0060865616339409E-002   5.2313893769234371E-002
   5.2776406245739704E-002  -1.1344567004847150E-002   5.3270744394445069E-002
   5.2897800195247646E-002  -1.2438064466866364E-002   5.4093116718519109E-002
   4.4564524362956277E-002  -5.6926567908411304E-003   4.9622402558986096E-002
   4.4590731372131105E-002  -7.1416485106003211E-003   5.1131772617643942E-002
   4.4616938381305933E-002  -8.4067303896607892E-003   5.2585247096772141E-002
   4.4643145390480754E-002  -9.4879024280224919E-003   5.3982825996370734E-002
   4.4669352399655589E-002  -1.0385164625685450E-002   5.5324509316439688E-002
   3.6774038915473442E-002  -4.4624625218238258E-003   4.9466312067189523E-002
   3.6783641705922153E-002  -5.6963367198574954E-003   5.1252950871231467E-002
   3.6793244496370857E-002  -6.7525951629821548E-003   5.3062276817350783E-002
   3.6802847286819582E-002  -7.6312378511978578E-003   5.4894289905547518E-002
   3.6812450077268299E-002  -8.3322647845045436E-003   5.6748990135821645E-002
   2.9040768054767331E-002  -3.2322682528065222E-003   4.9528486140013359E-002
   2.9112349348096950E-002  -4.2510249291146194E-003   5.1586099603649641E-002
   2.9183930641426579E-002  -5.0984599363035291E-003   5.3744982930970353E-002
   2.9255511934756201E-002  -5.7745732743731942E-003   5.6005136121975475E-002
   2.9327093228085827E-002  -6.2793649433236301E-003   5.8366559176664966E-002
   6.1497793464044576E-002  -1.4490964308047277E-002   5.3054812342059873E-002
   6.0188672194233586E-002  -1.5492042529969115E-002   5.1664885545059866E-002
   5.8879550924422611E-002  -1.6112309755261903E-002   5.0730607267513890E-002
   5.7570429654611649E-002  -1.6351765983925709E-002   5.0251977509421675E-002
   5.6261308384800673E-002  -1.6210411215960438E-002   5.0228996270783546E-002
   5.2897800195247646E-002  -1.2438064466866364E-002   5.4093116718519109E-002
   5.1990923167698294E-002  -1.3285869875155794E-002   5.3362326706331613E-002
   5.1084046140148942E-002  -1.3832495102474172E-002   5.2980376659213471E-002
   5.0177169112599576E-002  -1.4077940148821452E-002   5.2947266577164503E-002
   4.9270292085050210E-002  -1.4022205014197736E-002   5.3262996460184855E-002
   4.4669352399655589E-002  -1.0385164625685450E-002   5.5324509316439688E-002
   4.4057911059983162E-002  -1.1079697220342483E-002   5.5173225273406776E-002
   4.3446469720310736E-002  -1.1552680449686424E-002   5.5263972641058458E-002
   4.2835028380638310E-002  -1.1804114313717237E-002   5.5596751419394748E-002
   4.2223587040965883E-002  -1.1833998812434986E-002   5.6171561608415632E-002
   3.6812450077268299E-002  -8.3322647845045436E-003   5.6748990135821645E-002
   3.6389635871088143E-002  -8.8735245655291606E-003   5.7097581246285299E-002
   3.5966821664908000E-002  -9.2728657968987049E-003   5.7581395213048919E-002
   3.5544007458727864E-002  -9.5302884786130256E-003   5.8200432036112540E-002
   3.5121193252547728E-002  -9.6457926106722318E-003   5.8954691715476064E-002
   2.9327093228085827E-002  -6.2793649433236301E-003   5.8366559176664966E-002
   2.8986097601013290E-002  -6.6673519107158553E-003   5.9135394624967329E-002
   2.8645101973940757E-002  -6.9930511441109473E-003   5.9932644375184904E-002
   2.8304106346868224E-002  -7.2564626435087931E-003   6.0758308427317734E-002
   2.7963110719795681E-002  -7.4575864089095056E-003   6.1612386781365880E-002
   5.6261308384800673E-002  -1.6210411215960438E-002   5.0228996270783546E-002
   5.4720158166837229E-002  -1.5865456280162241E-002   4.9898418746280648E-002
   5.3179007948873785E-002  -1.5494112005327038E-002   4.9735989812106661E-002
   5.1637857730910335E-002  -1.5096378391454810E-002   4.9741709468261869E-002
   5.0096707512946898E-002  -1.4672255438545639E-002   4.9915577714746084E-002
   4.9270292085050210E-002  -1.4022205014197736E-002   5.3262996460184855E-002
   4.7906103732764625E-002  -1.3795082668330468E-002   5.2919535256973259E-002
   4.6541915380479047E-002  -1.3526366080947164E-002   5.2761849194788317E-002
   4.5177727028193462E-002  -1.3216055252047953E-002   5.2789938273629988E-002
   4.3813538675907870E-002  -1.2864150181632700E-002   5.3003802493498328E-002
   4.2223587040965883E-002  -1.1833998812434986E-002   5.6171561608415632E-002
   4.1053987105055721E-002  -1.1724709056498674E-002   5.5830421628974405E-002
   3.9884387169145538E-002  -1.1558620156567343E-002   5.5692683341257480E-002
   3.8714787233235362E-002  -1.1335732112641066E-002   5.5758346745264746E-002
   3.7545187297325207E-002  -1.1056044924719774E-002   5.6027411840996057E-002
   3.5121193252547728E-002  -9.6457926106722318E-003   5.8954691715476064E-002
   3.4163808283710503E-002  -9.6543354446668901E-003   5.8631077862284234E-002
   3.3206423314873293E-002  -9.5908742321875358E-003   5.8528492251514228E-002
   3.2249038346036075E-002  -9.4554089732341810E-003   5.8646934883165913E-002
   3.1291653377198879E-002  -9.2479396678068274E-003   5.8986405757239402E-002
   2.7963110719795681E-002  -7.4575864089095056E-003   6.1612386781365880E-002
   2.7235567268728986E-002  -7.5839618328350997E-003   6.1321503956902557E-002
   2.6508023817662284E-002  -7.6231283078076750E-003   6.1269275925558447E-002
   2.5780480366595578E-002  -7.5750858338273150E-003   6.1455702687333705E-002
   2.5052936915528873E-002  -7.4398344108939363E-003   6.1880784242228259E-002
   5.0096707512946898E-002  -1.4672255438545639E-002   4.9915577714746084E-002
   4.8651478538993653E-002  -1.4220556812654148E-002   4.9586554684975997E-002
   4.7206249565040381E-002  -1.3740096179835189E-002   4.9467665218006981E-002
   4.5761020591087130E-002  -1.3230873540088702E-002   4.9558909313839043E-002
   4.4315791617133837E-002  -1.2692888893414578E-002   4.9860286972472356E-002
   4.3813538675907870E-002  -1.2864150181632700E-002   5.3003802493498328E-002
   4.2571732705303310E-002  -1.2479563318282802E-002   5.2709152038372634E-002
   4.1329926734698770E-002  -1.2071207110579386E-002   5.2611214027143229E-002
   4.0088120764094196E-002  -1.1639081558522483E-002   5.2709988459810009E-002
   3.8846314793489656E-002  -1.1183186662112099E-002   5.3005475336373148E-002
   3.7545187297325207E-002  -1.1056044924719774E-002   5.6027411840996057E-002
   3.6493383211164500E-002  -1.0738569823911297E-002   5.5762141297940652E-002
   3.5441579125003828E-002  -1.0402318041323470E-002   5.5680162079876805E-002
   3.4389775038843148E-002  -1.0047289576956234E-002   5.5781474186804278E-002
   3.3337970952682441E-002  -9.6734844308096757E-003   5.6066077618723273E-002
   3.1291653377198879E-002  -9.2479396678068274E-003   5.8986405757239402E-002
   3.0416430056577203E-002  -8.9975763295398435E-003   5.8745522463680248E-002
   2.9541206735955554E-002  -8.7334289720675824E-003   5.8674509376207717E-002
   2.8665983415333895E-002  -8.4554975953900560E-003   5.8773366494821802E-002
   2.7790760094712229E-002  -8.1637821995072524E-003   5.9042093819522523E-002
   2.5052936915528873E-002  -7.4398344108939363E-003   6.1880784242228259E-002
   2.4340873241541418E-002  -7.2565828351684736E-003   6.1659295535591269E-002
   2.3628809567553963E-002  -7.0645399028117437E-003   6.1594255916136056E-002
   2.2916745893566501E-002  -6.8637056138238627E-003   6.1685665383862671E-002
   2.2204682219579039E-002  -6.6540799682047735E-003   6.1933523938770996E-002
   4.4315791617133837E-002  -1.2692888893414578E-002   4.9860286972472356E-002
   4.2409232489564602E-002  -1.2138241460069366E-002   4.9546838371204660E-002
   4.0502673361995339E-002  -1.1579030460309572E-002   4.9437701853353111E-002
   3.8596114234426104E-002  -1.1015255894135174E-002   4.9532877418918306E-002
   3.6689555106856842E-002  -1.0446917761546048E-002   4.9832365067900009E-002
   3.8846314793489656E-002  -1.1183186662112099E-002   5.3005475336373148E-002
   3.7151775245886642E-002  -1.0713908403931646E-002   5.2664647687292884E-002
   3.5457235698283615E-002  -1.0241632766564368E-002   5.2543547114728473E-002
   3.3762696150680581E-002  -9.7663597500098898E-003   5.2642173618679927E-002
   3.2068156603077574E-002  -9.2880893542687804E-003   5.2960527199147484E-002
   3.3337970952682441E-002  -9.6734844308096757E-003   5.6066077618723273E-002
   3.1870865978145105E-002  -9.2895753477938992E-003   5.5696304734602672E-002
   3.0403761003607768E-002  -8.9042350728189348E-003   5.5561673920097483E-002
   2.8936656029070459E-002  -8.5174636058848261E-003   5.5662185175207796E-002
   2.7469551054533095E-002  -8.1292609469916233E-003   5.5997838499933325E-002
   2.7790760094712229E-002  -8.1637821995072524E-003   5.9042093819522523E-002
   2.6566504686340052E-002  -7.8652422916561660E-003   5.8641809513133969E-002
   2.5342249277967872E-002  -7.5668373790736716E-003   5.8492082269460254E-002
   2.4117993869595657E-002  -7.2685674617597633E-003   5.8592912088501280E-002
   2.2893738461223483E-002  -6.9704325397143829E-003   5.8944298970257394E-002
   2.2204682219579039E-002  -6.6540799682047735E-003   6.1933523938770996E-002
   2.1238691370471463E-002  -6.4409092355184328E-003   6.1501162022886691E-002
   2.0272700521363853E-002  -6.2294396853282835E-003   6.1334772162816659E-002
   1.9306709672256259E-002  -6.0196713176346138E-003   6.1434354358560886E-002
   1.8340718823148666E-002  -5.8116041324372536E-003   6.1799908610119580E-002
   3.6689555106856842E-002  -1.0446917761546048E-002   4.9832365067900009E-002
   3.5593331625749181E-002  -9.8324495832219638E-003   4.9465420425776896E-002
   3.4497108144641575E-002  -9.1302848798427011E-003   4.9239755230277044E-002
   3.3400884663533942E-002  -8.3404236514084164E-003   4.9155369481400937E-002
   3.2304661182426309E-002  -7.4628658979187246E-003   4.9212263179148452E-002
   3.2068156603077574E-002  -9.2880893542687804E-003   5.2960527199147484E-002
   3.1108519088833150E-002  -8.7672261245135830E-003   5.2696624439447060E-002
   3.0148881574588712E-002  -8.1641746059172432E-003   5.2564614166849474E-002
   2.9189244060344309E-002  -7.4789347984799727E-003   5.2564496381354943E-002
   2.8229606546099850E-002  -6.7115067022013863E-003   5.2696271082963153E-002
   2.7469551054533095E-002  -8.1292609469916233E-003   5.5997838499933325E-002
   2.6637112547631292E-002  -7.7020026658052992E-003   5.5831469386441498E-002
   2.5804674040729524E-002  -7.1980643319920004E-003   5.5787605800531902E-002
   2.4972235533827724E-002  -6.6174459455515828E-003   5.5866247742204667E-002
   2.4139797026925945E-002  -5.9601475064842979E-003   5.6067395211459772E-002
   2.2893738461223483E-002  -6.9704325397143829E-003   5.8944298970257394E-002
   2.2179112002143737E-002  -6.6367792070969947E-003   5.8869955266759866E-002
   2.1464485543063995E-002  -6.2319540580665390E-003   5.8908730131324263E-002
   2.0749859083984242E-002  -5.7559570926232770E-003   5.9060623563950310E-002
   2.0035232624904475E-002  -5.2087883107671401E-003   5.9325635564638171E-002
   1.8340718823148666E-002  -5.8116041324372536E-003   6.1799908610119580E-002
   1.7734517452370396E-002  -5.5715557483886902E-003   6.1812082080402564E-002
   1.7128316081592113E-002  -5.2658437841412303E-003   6.1927987159226622E-002
   1.6522114710813843E-002  -4.8944682396948429E-003   6.2147623846592018E-002
   1.5915913340035559E-002  -4.4574291150498713E-003   6.2470992142498516E-002
   3.2304661182426309E-002  -7.4628658979187246E-003   4.9212263179148452E-002
   2.9668949201629241E-002  -6.3191046743573676E-003   4.9076722658896732E-002
   2.7033237220832215E-002  -4.7306330357076848E-003   4.9129377989270945E-002
   2.4397525240035182E-002  -2.6974509819695895E-003   4.9370229170271826E-002
   2.1761813259238094E-002  -2.1955851314348074E-004   4.9799276201898612E-002
   2.8229606546099850E-002  -6.7115067022013863E-003   5.2696271082963153E-002
   2.5817877963545108E-002  -5.8205651178912798E-003   5.2886537778635306E-002
   2.3406149380990351E-002  -4.7647848463586717E-003   5.3336575420165899E-002
   2.0994420798435574E-002  -3.5441658876033955E-003   5.4046384007554696E-002
   1.8582692215880825E-002  -2.1587082416258951E-003   5.5015963540802071E-002
   2.4139797026925945E-002  -5.9601475064842979E-003   5.6067395211459772E-002
   2.2023626937845577E-002  -5.3220255614252476E-003   5.6303597395189975E-002
   1.9907456848765225E-002  -4.7989366570094436E-003   5.6871145620010839E-002
   1.7791286759684888E-002  -4.3908807932371754E-003   5.7770039885922164E-002
   1.5675116670604505E-002  -4.0978579701083095E-003   5.9000280192923749E-002
   2.0035232624904475E-002  -5.2087883107671401E-003   5.9325635564638171E-002
   1.8286196124530696E-002  -4.8234860049589656E-003   5.9327901508560738E-002
   1.6537159624156854E-002  -4.8330884676603784E-003   5.9733088588805598E-002
   1.4788123123783060E-002  -5.2375956988709683E-003   6.0541196805373544E-002
   1.3039086623409205E-002  -6.0370076985907795E-003   6.1752226158263951E-002
   1.5915913340035559E-002  -4.4574291150498713E-003   6.2470992142498516E-002
   1.4605585523600417E-002  -4.3249464484929612E-003   6.1959450118747483E-002
   1.3295257707165262E-002  -4.8672402783112856E-003   6.1922404326550939E-002
   1.1984929890730113E-002  -6.0843106045046433E-003   6.2359854765909106E-002
   1.0674602074294937E-002  -7.9761574270731384E-003   6.3271801436822317E-002
   2.6633882378985122E-002   0.0000000000000000        2.9468722382526603E-002
   2.7235603797930674E-002  -5.8580422745205425E-004   3.4947505546237725E-002
   2.7837325216876225E-002  -1.3197836787371582E-003   4.0117060560389231E-002
   2.8439046635821773E-002  -2.2019383538553171E-003   4.4977387424981113E-002
   2.9040768054767331E-002  -3.2322682528065222E-003   4.9528486140013359E-002
   2.0118574233937342E-002   0.0000000000000000        2.9020848526739303E-002
   2.0450731970983960E-002  -4.3951199007596833E-004   3.4314613300220662E-002
   2.0782889708030571E-002  -9.8998576822574569E-004   3.9378478859463745E-002
   2.1115047445077181E-002  -1.6514213344493312E-003   4.4212445204468577E-002
   2.1447205182123792E-002  -2.4238186887467327E-003   4.8816512335235165E-002
   1.3508151736952545E-002   0.0000000000000000        2.8700660190448476E-002
   1.3650074727421579E-002  -2.9321975269988067E-004   3.3846620009459295E-002
   1.3791997717890612E-002  -6.6018785771433143E-004   3.8842009549553219E-002
   1.3933920708359649E-002  -1.1009043150433506E-003   4.3686828810730244E-002
   1.4075843698828682E-002  -1.6153691246869432E-003   4.8381077792990369E-002
   6.8026148880307230E-003   0.0000000000000000        2.8508157373654110E-002
   6.8336320672435433E-003  -1.4692751532379388E-004   3.3543525673953647E-002
   6.8646492464563618E-003  -3.3038994720291804E-004   3.8507652630657627E-002
   6.8956664256691795E-003  -5.5038729563737249E-004   4.3400538243766100E-002
   6.9266836048819998E-003  -8.0691956062715030E-004   4.8222182513279012E-002
   1.9636871718808208E-006   0.0000000000000000        2.8443340076356217E-002
   1.4039904498467856E-006  -6.3527794770708301E-007   3.3405330293703697E-002
   8.4429372781036523E-007  -5.9203669150291460E-007   3.8375408102777002E-002
   2.8459700577470378E-007   1.2972376861250523E-007   4.3353573503576132E-002
  -2.7509971625922294E-007   1.5300034326322376E-006   4.8339826496101093E-002
   2.9040768054767331E-002  -3.2322682528065222E-003   4.9528486140013359E-002
   2.9112349348096950E-002  -4.2510249291146194E-003   5.1586099603649641E-002
   2.9183930641426579E-002  -5.0984599363035291E-003   5.3744982930970353E-002
   2.9255511934756201E-002  -5.7745732743731942E-003   5.6005136121975475E-002
   2.9327093228085827E-002  -6.2793649433236301E-003   5.8366559176664966E-002
   2.1447205182123792E-002  -2.4238186887467327E-003   4.8816512335235165E-002
   2.1590333280414122E-002  -3.1876406280306087E-003   5.1216321273106186E-002
   2.1733461378704452E-002  -3.8233499492136449E-003   5.3657953957214191E-002
   2.1876589476994782E-002  -4.3309466522958489E-003   5.6141410387559182E-002
   2.2019717575285112E-002  -4.7104307372772200E-003   5.8666690564141172E-002
   1.4075843698828682E-002  -1.6153691246869432E-003   4.8381077792990369E-002
   1.4231072484632292E-002  -2.1242563269465902E-003   5.1079873154077776E-002
   1.4386301270435897E-002  -2.5482399621237816E-003   5.3761046143954688E-002
   1.4541530056239507E-002  -2.8873200302185200E-003   5.6424596762621189E-002
   1.4696758842043111E-002  -3.1414965312308064E-003   5.9070525010077271E-002
   6.9266836048819998E-003  -8.0691956062715030E-004   4.8222182513279012E-002
   7.0345669607514523E-003  -1.0608720258625686E-003   5.1176755246564357E-002
   7.1424503166209047E-003  -1.2731299750339147E-003   5.4054259491191858E-002
   7.2503336724903571E-003  -1.4436934081411760E-003   5.6854695247161476E-002
   7.3582170283598061E-003  -1.5725623251843807E-003   5.9578062514473215E-002
  -2.7509971625922294E-007   1.5300034326322376E-006   4.8339826496101093E-002
   8.1670877160808231E-007   2.5122752214433788E-006   5.1506967550566024E-002
   1.9085172594773391E-006   1.9800120559772608E-006   5.4537593998925667E-002
   3.0003257473447528E-006  -6.6786063843094975E-008   5.7431705841180007E-002
   4.0921342352139012E-006  -3.6281191379758382E-006   6.0189303077329052E-002
   2.9327093228085827E-002  -6.2793649433236301E-003   5.8366559176664966E-002
   2.8986097601013290E-002  -6.6673519107158553E-003   5.9135394624967329E-002
   2.8645101973940757E-002  -6.9930511441109473E-003   5.9932644375184904E-002
   2.8304106346868224E-002  -7.2564626435087931E-003   6.0758308427317734E-002
   2.7963110719795681E-002  -7.4575864089095056E-003   6.1612386781365880E-002
   2.2019717575285112E-002  -4.7104307372772200E-003   5.8666690564141172E-002
   2.1721084873653127E-002  -5.0018017335470670E-003   5.9489092202187163E-002
   2.1422452172021138E-002  -5.2450591704947692E-003   6.0367805389198934E-002
   2.1123819470389146E-002  -5.4402030481202832E-003   6.1302830125176531E-002
   2.0825186768757165E-002  -5.5872333664236939E-003   6.2294166410119943E-002
   1.4696758842043111E-002  -3.1414965312308064E-003   5.9070525010077271E-002
   1.4468386312902218E-002  -3.3362515563782631E-003   5.9932318663191847E-002
   1.4240013783761319E-002  -3.4970671968786180E-003   6.0878321112322817E-002
   1.4011641254620422E-002  -3.6239434527317871E-003   6.1908532357470153E-002
   1.3783268725479528E-002  -3.7168803239378406E-003   6.3022952398633814E-002
   7.3582170283598061E-003  -1.5725623251843807E-003   5.9578062514473215E-002
   7.2280019187605533E-003  -1.6707013792094808E-003   6.0465074007981422E-002
   7.0977868091612996E-003  -1.7490752232624880E-003   6.1464191544556540E-002
   6.9675716995620451E-003  -1.8076838573432841E-003   6.2575415124198591E-002
   6.8373565899627906E-003  -1.8465272814520081E-003   6.3798744746907554E-002
   4.0921342352139012E-006  -3.6281191379758382E-006   6.0189303077329052E-002
  -6.8308771855943307E-008  -5.1512020406707659E-006   6.1087358236555860E-002
  -4.2287517789257878E-006  -1.0832496463008406E-006   6.2125416685900131E-002
  -8.3891947859951986E-006   8.5757380452159034E-006   6.3303478425361853E-002
  -1.2549637793065477E-005   2.3825761033824389E-005   6.4621543454941033E-002
   2.7963110719795681E-002  -7.4575864089095056E-003   6.1612386781365880E-002
   2.7235567268728986E-002  -7.5839618328350997E-003   6.1321503956902557E-002
   2.6508023817662284E-002  -7.6231283078076750E-003   6.1269275925558447E-002
   2.5780480366595578E-002  -7.5750858338273150E-003   6.1455702687333705E-002
   2.5052936915528873E-002  -7.4398344108939363E-003   6.1880784242228259E-002
   2.0825186768757165E-002  -5.5872333664236939E-003   6.2294166410119943E-002
   2.0322198760971966E-002  -5.6790799755572288E-003   6.2159921547564993E-002
   1.9819210753186767E-002  -5.7086727256731931E-003   6.2236132778453704E-002
   1.9316222745401575E-002  -5.6760116167718037E-003   6.2522800102786186E-002
   1.8813234737616369E-002  -5.5810966488527292E-003   6.3019923520562293E-002
   1.3783268725479528E-002  -3.7168803239378406E-003   6.3022952398633814E-002
   1.3476637461300265E-002  -3.7741981182793059E-003   6.3020390408051713E-002
   1.3170006197120996E-002  -3.7942171435387667E-003   6.3200085811237733E-002
   1.2863374932941728E-002  -3.7769373997162091E-003   6.3562038608191873E-002
   1.2556743668762464E-002  -3.7223588868116192E-003   6.4106248798914189E-002
   6.8373565899627906E-003  -1.8465272814520081E-003   6.3798744746907554E-002
   6.6988833697138863E-003  -1.8693162610014229E-003   6.3902910538362750E-002
   6.5604101494649830E-003  -1.8797615614043126E-003   6.4161135023910576E-002
   6.4219369292160830E-003  -1.8778631826606561E-003   6.4573418203551017E-002
   6.2834637089671814E-003  -1.8636211247705023E-003   6.5139760077283934E-002
  -1.2549637793065477E-005   2.3825761033824389E-005   6.4621543454941033E-002
  -1.1063513787174656E-005   3.5565596276453115E-005   6.4807481938498140E-002
  -9.5773897812821002E-006   3.4694020730162423E-005   6.5119280416472275E-002
  -8.0912657753904119E-006   2.1211034394929759E-005   6.5556938888863409E-002
  -6.6051417694987236E-006  -4.8833627293298765E-006   6.6120457355671569E-002
   2.5052936915528873E-002  -7.4398344108939363E-003   6.1880784242228259E-002
   2.4340873241541418E-002  -7.2565828351684736E-003   6.1659295535591269E-002
   2.3628809567553963E-002  -7.0645399028117437E-003   6.1594255916136056E-002
   2.2916745893566501E-002  -6.8637056138238627E-003   6.1685665383862671E-002
   2.2204682219579039E-002  -6.6540799682047735E-003   6.1933523938770996E-002
   1.8813234737616369E-002  -5.5810966488527292E-003   6.3019923520562293E-002
   1.8262593730586384E-002  -5.4510920628219467E-003   6.2794977869678317E-002
   1.7711952723556405E-002  -5.3131620995850518E-003   6.2736428465527475E-002
   1.7161311716526420E-002  -5.1673067591419836E-003   6.2844275308109793E-002
   1.6610670709496435E-002  -5.0135260414927996E-003   6.3118518397425244E-002
   1.2556743668762464E-002  -3.7223588868116192E-003   6.4106248798914189E-002
   1.2177472488241347E-002  -3.6456012904755170E-003   6.3876980224358088E-002
   1.1798201307720222E-002  -3.5617842963583356E-003   6.3824055056086515E-002
   1.1418930127199104E-002  -3.4709079044600777E-003   6.3947473294099527E-002
   1.1039658946677983E-002  -3.3729721147807701E-003   6.4247234938397055E-002
   6.2834637089671814E-003  -1.8636211247705023E-003   6.5139760077283934E-002
   6.0855095145063050E-003  -1.8401105181291358E-003   6.4905302599630690E-002
   5.8875553200454364E-003  -1.8104064931316593E-003   6.4857135687813358E-002
   5.6896011255845608E-003  -1.7745090497782684E-003   6.4995259341831937E-002
   5.4916469311236922E-003  -1.7324181880688239E-003   6.5319673561686498E-002
  -6.6051417694987236E-006  -4.8833627293298765E-006   6.6120457355671569E-002
  -1.3295190618732577E-005  -3.4619745782560329E-005   6.5879944995496098E-002
  -1.9985239467968166E-005  -5.9028689904962184E-005   6.5835670360707879E-002
  -2.6675288317198551E-005  -7.8110195096273496E-005   6.5987633451307065E-002
  -3.3365337166437609E-005  -9.1864261356711108E-005   6.6335834267293559E-002
   2.2204682219579039E-002  -6.6540799682047735E-003   6.1933523938770996E-002
   2.1238691370471463E-002  -6.4409092355184328E-003   6.1501162022886691E-002
   2.0272700521363853E-002  -6.2294396853282835E-003   6.1334772162816659E-002
   1.9306709672256259E-002  -6.0196713176346138E-003   6.1434354358560886E-002
   1.8340718823148666E-002  -5.8116041324372536E-003   6.1799908610119580E-002
   1.6610670709496435E-002  -5.0135260414927996E-003   6.3118518397425244E-002
   1.5905936854326924E-002  -4.8530390065001094E-003   6.2706334204421094E-002
   1.5201202999157410E-002  -4.6870647140263150E-003   6.2550691943478842E-002
   1.4496469143987898E-002  -4.5156031640717249E-003   6.2651591614598365E-002
   1.3791735288818399E-002  -4.3386543566360514E-003   6.3009033217779842E-002
   1.1039658946677983E-002  -3.3729721147807701E-003   6.4247234938397055E-002
   1.0586751961694084E-002  -3.2651687774818416E-003   6.3862416908250522E-002
   1.0133844976710176E-002  -3.1446897427244644E-003   6.3724710686413333E-002
   9.6809379917262676E-003  -3.0115350105088933E-003   6.3834116272885502E-002
   9.2280310067423682E-003  -2.8657045808349324E-003   6.4190633667667044E-002
   5.4916469311236922E-003  -1.7324181880688239E-003   6.5319673561686498E-002
   5.2811366925729127E-003  -1.6772985484635461E-003   6.4969410134374850E-002
   5.0706264540221497E-003  -1.6023147714227214E-003   6.4856828391620144E-002
   4.8601162154713771E-003  -1.5074668569460886E-003   6.4981928333422215E-002
   4.6496059769205993E-003  -1.3927548050337996E-003   6.5344709959781436E-002
  -3.3365337166437609E-005  -9.1864261356711108E-005   6.6335834267293559E-002
  -1.0908953036549429E-005  -8.9428319445222781E-005   6.6027313882794147E-002
   1.1547431093330077E-005  -5.9939800120645259E-005   6.5947045059099207E-002
   3.4003815223216521E-005  -3.3987033832560964E-006   6.6095027796208627E-002
   5.6460199353097762E-005   8.0194970767333285E-005   6.6471262094122463E-002
   1.8340718823148666E-002  -5.8116041324372536E-003   6.1799908610119580E-002
   1.7734517452370396E-002  -5.5715557483886902E-003   6.1812082080402564E-002
   1.7128316081592113E-002  -5.2658437841412303E-003   6.1927987159226622E-002
   1.6522114710813843E-002  -4.8944682396948429E-003   6.2147623846592018E-002
   1.5915913340035559E-002  -4.4574291150498713E-003   6.2470992142498516E-002
   1.3791735288818399E-002  -4.3386543566360514E-003   6.3009033217779842E-002
   1.3299299737109568E-002  -4.1517305279908656E-003   6.3056583333413879E-002
   1.2806864185400745E-002  -3.9503439144074615E-003   6.3227933478645609E-002
   1.2314428633691924E-002  -3.7344945158856585E-003   6.3523083653475088E-002
   1.1821993081983090E-002  -3.5041823324256649E-003   6.3942033857902147E-002
   9.2280310067423682E-003  -2.8657045808349324E-003   6.4190633667667044E-002
   8.8694296951595461E-003  -2.7319053075930688E-003   6.4222359633391568E-002
   8.5108283835767240E-003  -2.6348440446735330E-003   6.4397954049770362E-002
   8.1522270719938950E-003  -2.5745207920763648E-003   6.4717416916803341E-002
   7.7936257604110729E-003  -2.5509355498016806E-003   6.5180748234490687E-002
   4.6496059769205993E-003  -1.3927548050337996E-003   6.5344709959781436E-002
   4.4449073265203226E-003  -1.3120800871953414E-003   6.5309410980335561E-002
   4.2402086761200459E-003  -1.3193441749396843E-003   6.5438048872600699E-002
   4.0355100257197735E-003  -1.4145470682671813E-003   6.5730623636576641E-002
   3.8308113753194855E-003  -1.5976887671775852E-003   6.6187135272263276E-002
   5.6460199353097762E-005   8.0194970767333285E-005   6.6471262094122463E-002
   2.5732631191904831E-005   1.0774513320249701E-004   6.6317737374246066E-002
  -4.9949369692811607E-006  -3.8443052058217964E-006   6.6348217947136912E-002
  -3.5722505130472357E-005  -2.5457334445785559E-004   6.6562703812795124E-002
  -6.6450073291660083E-005  -6.4444198455348989E-004   6.6961194971220772E-002
   1.5915913340035559E-002  -4.4574291150498713E-003   6.2470992142498516E-002
   1.4605585523600417E-002  -4.3249464484929612E-003   6.1959450118747483E-002
   1.3295257707165262E-002  -4.8672402783112856E-003   6.1922404326550939E-002
   1.1984929890730113E-002  -6.0843106045046433E-003   6.2359854765909106E-002
   1.0674602074294937E-002  -7.9761574270731384E-003   6.3271801436822317E-002
   1.1821993081983090E-002  -3.5041823324256649E-003   6.3942033857902147E-002
   1.0954461732517982E-002  -3.4329813622676064E-003   6.2960614152088645E-002
   1.0086930383052875E-002  -3.6944656036505819E-003   6.2390291148660293E-002
   9.2193990335877295E-003  -4.2886350565753892E-003   6.2231064847617021E-002
   8.3518676841226325E-003  -5.2154897210413553E-003   6.2482935248959759E-002
   7.7936257604110729E-003  -2.5509355498016806E-003   6.5180748234490687E-002
   7.3054913487465810E-003  -2.5410162760420019E-003   6.4071542131448000E-002
   6.8173569370820787E-003  -2.5216909289901696E-003   6.3310033201621388E-002
   6.3292225254175955E-003  -2.4929595086460830E-003   6.2896221445010725E-002
   5.8410881137530846E-003  -2.4548220150095723E-003   6.2830106861615609E-002
   3.8308113753194855E-003  -1.5976887671775852E-003   6.6187135272263276E-002
   3.6586743722862181E-003  -1.6490511898165222E-003   6.5292234056825715E-002
   3.4865373692529551E-003  -1.3489162543296115E-003   6.4681630485434558E-002
   3.3144003662196821E-003  -6.9728396071663638E-004   6.4355324558089663E-002
   3.1422633631864316E-003   3.0584569102221071E-004   6.4313316274791879E-002
  -6.6450073291660083E-005  -6.4444198455348989E-004   6.6961194971220772E-002
   1.4010803136892125E-005  -7.5708610359104256E-004   6.6622689928221679E-002
   9.4471679565444333E-005  -1.7614157966913679E-004   6.6505083000099607E-002
   1.7493255599400175E-004   1.0983915872124286E-003   6.6608374186854558E-002
   2.5539343242254875E-004   3.0665133970539937E-003   6.6932563488486752E-002
   1.9636871718808208E-006   0.0000000000000000        2.8443340076356217E-002
   1.4039904498467856E-006  -6.3527794770708301E-007   3.3405330293703697E-002
   8.4429372781036523E-007  -5.9203669150291460E-007   3.8375408102777002E-002
   2.8459700577470378E-007   1.2972376861250523E-007   4.3353573503576132E-002
  -2.7509971625922294E-007   1.5300034326322376E-006   4.8339826496101093E-002
  -6.7988612660767819E-003   0.0000000000000000        2.8506596171086349E-002
  -6.8308864087532461E-003   1.4614834710969908E-004   3.3542801077612691E-002
  -6.8629115514297102E-003   3.2961993441895775E-004   3.8507987500504347E-002
  -6.8949366941061744E-003   5.5041476192777428E-004   4.3402155439761295E-002
  -6.9269618367826394E-003   8.0853282963615821E-004   4.8225304895383604E-002
  -1.3504919372168063E-002   0.0000000000000000        2.8698313530376059E-002
  -1.3647516036159468E-002   2.9293197216710351E-004   3.3845377847076905E-002
  -1.3790112700150872E-002   6.5983190552941582E-004   3.8842317604782559E-002
  -1.3932709364142279E-002   1.1006998000869395E-003   4.3689132803493007E-002
  -1.4075306028133684E-002   1.6155356558396703E-003   4.8385823443208277E-002
  -2.0116210631101965E-002   0.0000000000000000        2.9018492154225344E-002
  -2.0448484891768821E-002   4.3971559722450967E-004   3.4313060602096351E-002
  -2.0780759152435678E-002   9.9004387663987866E-004   3.9378398415611644E-002
  -2.1113033413102535E-002   1.6509848382461030E-003   4.4214505594771240E-002
  -2.1445307673769395E-002   2.4225384820431945E-003   4.8821382139575133E-002
  -2.6632735042878483E-002   0.0000000000000000        2.9467132042634216E-002
  -2.7233792975581303E-002   5.8649922228191410E-004   3.4945849342671031E-002
  -2.7834850908284119E-002   1.3202558477503346E-003   4.0116229932991639E-002
  -2.8435908840986946E-002   2.2012698764052700E-003   4.4978273813596023E-002
  -2.9036966773689766E-002   3.2295413082467075E-003   4.9531980984484171E-002
  -2.7509971625922294E-007   1.5300034326322376E-006   4.8339826496101093E-002
   8.1670877160808231E-007   2.5122752214433788E-006   5.1506967550566024E-002
   1.9085172594773391E-006   1.9800120559772608E-006   5.4537593998925667E-002
   3.0003257473447528E-006  -6.6786063843094975E-008   5.7431705841180007E-002
   4.0921342352139012E-006  -3.6281191379758382E-006   6.0189303077329052E-002
  -6.9269618367826394E-003   8.0853282963615821E-004   4.8225304895383604E-002
  -7.0328463777140689E-003   1.0636030361615319E-003   5.1177860003489936E-002
  -7.1387309186454993E-003   1.2752542801213616E-003   5.4052977018862969E-002
  -7.2446154595769271E-003   1.4434865615155991E-003   5.6850655941502716E-002
  -7.3505000005083601E-003   1.5682998803442857E-003   5.9570896771409157E-002
  -1.4075306028133684E-002   1.6155356558396703E-003   4.8385823443208277E-002
  -1.4229090405112409E-002   2.1246937971015991E-003   5.1081888177344763E-002
  -1.4382874782091140E-002   2.5485285481867390E-003   5.3759591332119952E-002
  -1.4536659159069865E-002   2.8870399090950411E-003   5.6418932907533852E-002
  -1.4690443536048599E-002   3.1402278798265577E-003   5.9059912903586448E-002
  -2.1445307673769395E-002   2.4225384820431945E-003   4.8821382139575133E-002
  -2.1587915373423413E-002   3.1857845580416768E-003   5.1219052072130525E-002
  -2.1730523073077442E-002   3.8218028162521197E-003   5.3657436938696630E-002
  -2.1873130772731463E-002   4.3305932566744801E-003   5.6136536739273428E-002
  -2.2015738472385485E-002   4.7121558793088176E-003   5.8656351473860932E-002
  -2.9036966773689766E-002   3.2295413082467075E-003   4.9531980984484171E-002
  -2.9109321282647087E-002   4.2468753189817540E-003   5.1589351687847229E-002
  -2.9181675791604404E-002   5.0950770843174991E-003   5.3746513838592976E-002
  -2.9254030300561729E-002   5.7741466042539212E-003   5.6003467436721438E-002
  -2.9326384809519053E-002   6.2840838787910774E-003   5.8360212482232610E-002
   4.0921342352139012E-006  -3.6281191379758382E-006   6.0189303077329052E-002
  -6.8308771855943307E-008  -5.1512020406707659E-006   6.1087358236555860E-002
  -4.2287517789257878E-006  -1.0832496463008406E-006   6.2125416685900131E-002
  -8.3891947859951986E-006   8.5757380452159034E-006   6.3303478425361853E-002
  -1.2549637793065477E-005   2.3825761033824389E-005   6.4621543454941033E-002
  -7.3505000005083601E-003   1.5682998803442857E-003   5.9570896771409157E-002
  -7.2278471842983829E-003   1.6648199480051862E-003   6.0466622246702434E-002
  -7.1051943680884065E-003   1.7481724758960978E-003   6.1475970950312361E-002
  -6.9825415518784319E-003   1.8183574640169612E-003   6.2598942882238884E-002
  -6.8598887356684547E-003   1.8753749123678054E-003   6.3835538042482071E-002
  -1.4690443536048599E-002   3.1402278798265577E-003   5.9059912903586448E-002
  -1.4467357522422395E-002   3.3347910980510848E-003   5.9934550119879075E-002
  -1.4244271508796197E-002   3.4974282014384678E-003   6.0896430502687469E-002
  -1.4021185495169992E-002   3.6281391899887060E-003   6.1945554052011784E-002
  -1.3798099481543796E-002   3.7269240637017864E-003   6.3081920767851796E-002
  -2.2015738472385485E-002   4.7121558793088176E-003   5.8656351473860932E-002
  -2.1718599323143892E-002   5.0047622480969695E-003   5.9491141856085769E-002
  -2.1421460173902295E-002   5.2466839269808378E-003   6.0386795343025601E-002
  -2.1124321024660699E-002   5.4379209159604513E-003   6.1343311934680421E-002
  -2.0827181875419102E-002   5.5784732150357813E-003   6.2360691631050187E-002
  -2.9326384809519053E-002   6.2840838787910774E-003   5.8360212482232610E-002
  -2.8981572586462868E-002   6.6747333981428507E-003   5.9136397455322523E-002
  -2.8636760363406701E-002   6.9959396525232469E-003   5.9947065471326617E-002
  -2.8291948140350531E-002   7.2477026419321853E-003   6.0792216530244844E-002
  -2.7947135917294360E-002   7.4300223663697484E-003   6.1671850632077280E-002
  -1.2549637793065477E-005   2.3825761033824389E-005   6.4621543454941033E-002
  -1.1063513787174656E-005   3.5565596276453115E-005   6.4807481938498140E-002
  -9.5773897812821002E-006   3.4694020730162423E-005   6.5119280416472275E-002
  -8.0912657753904119E-006   2.1211034394929759E-005   6.5556938888863409E-002
  -6.6051417694987236E-006  -4.8833627293298765E-006   6.6120457355671569E-002
  -6.8598887356684547E-003   1.8753749123678054E-003   6.3835538042482071E-002
  -6.7182984246355135E-003   1.9113079458856971E-003   6.3924042720306856E-002
  -6.5767081136025732E-003   1.9182396895077586E-003   6.4166895777768768E-002
  -6.4351178025696416E-003   1.8961701432339169E-003   6.4564097214867638E-002
  -6.2935274915366986E-003   1.8450993070642241E-003   6.5115647031603718E-002
  -1.3798099481543796E-002   3.7269240637017864E-003   6.3081920767851796E-002
  -1.3487916598263738E-002   3.7870502954949030E-003   6.3056601760837355E-002
  -1.3177733714983675E-002   3.8017853582853027E-003   6.3214119518680084E-002
  -1.2867550831703618E-002   3.7711292520729743E-003   6.3554474041379955E-002
  -1.2557367948423557E-002   3.6950819768578475E-003   6.4077665328936939E-002
  -2.0827181875419102E-002   5.5784732150357813E-003   6.2360691631050187E-002
  -2.0319918034671838E-002   5.6627926451041557E-003   6.2205159060089651E-002
  -1.9812654193924584E-002   5.6853310270629284E-003   6.2260951639206308E-002
  -1.9305390353177333E-002   5.6460883609119692E-003   6.2528069368400205E-002
  -1.8798126512430072E-002   5.5450646466514639E-003   6.3006512247671426E-002
  -2.7947135917294360E-002   7.4300223663697484E-003   6.1671850632077280E-002
  -2.7214302733859830E-002   7.5385349947133390E-003   6.1369714618063717E-002
  -2.6481469550425303E-002   7.5688766958404291E-003   6.1307392139347480E-002
  -2.5748636366990773E-002   7.5210474697509737E-003   6.1484883195928569E-002
  -2.5015803183556239E-002   7.3950473164450248E-003   6.1902187787806900E-002
  -6.6051417694987236E-006  -4.8833627293298765E-006   6.6120457355671569E-002
  -1.3295190618732577E-005  -3.4619745782560329E-005   6.5879944995496098E-002
  -1.9985239467968166E-005  -5.9028689904962184E-005   6.5835670360707879E-002
  -2.6675288317198551E-005  -7.8110195096273496E-005   6.5987633451307065E-002
  -3.3365337166437609E-005  -9.1864261356711108E-005   6.6335834267293559E-002
  -6.2935274915366986E-003   1.8450993070642241E-003   6.5115647031603718E-002
  -6.1081699171371363E-003   1.7805008395876815E-003   6.4897663195276525E-002
  -5.9228123427375766E-003   1.7178483993930960E-003   6.4867536880059584E-002
  -5.7374547683380264E-003   1.6571419864806342E-003   6.5025268085952839E-002
  -5.5520971939384614E-003   1.5983816008501850E-003   6.5370856812956485E-002
  -1.2557367948423557E-002   3.6950819768578475E-003   6.4077665328936939E-002
  -1.2188342955052276E-002   3.5956214249579788E-003   6.3878828604809132E-002
  -1.1819317961680991E-002   3.4947254886911576E-003   6.3859469197514548E-002
  -1.1450292968309708E-002   3.3923941680575427E-003   6.4019587107053091E-002
  -1.1081267974938426E-002   3.2886274630570533E-003   6.4359182333424830E-002
  -1.8798126512430072E-002   5.5450646466514639E-003   6.3006512247671426E-002
  -1.8253814304364138E-002   5.4107420103282483E-003   6.2823441224094029E-002
  -1.7709502096298211E-002   5.2716025779892175E-003   6.2811467313072855E-002
  -1.7165189888232287E-002   5.1276463496344789E-003   6.2970590514607711E-002
  -1.6620877680166353E-002   4.9788733252639633E-003   6.3300810828698748E-002
  -2.5015803183556239E-002   7.3950473164450248E-003   6.1902187787806900E-002
  -2.4304583965072731E-002   7.2258625956985317E-003   6.1731501053131188E-002
  -2.3593364746589240E-002   7.0484796672872913E-003   6.1723531226734490E-002
  -2.2882145528105739E-002   6.8628985312114039E-003   6.1878278308616835E-002
  -2.2170926309622228E-002   6.6691191874708733E-003   6.2195742298778167E-002
  -3.3365337166437609E-005  -9.1864261356711108E-005   6.6335834267293559E-002
  -1.0908953036549429E-005  -8.9428319445222781E-005   6.6027313882794147E-002
   1.1547431093330077E-005  -5.9939800120645259E-005   6.5947045059099207E-002
   3.4003815223216521E-005  -3.3987033832560964E-006   6.6095027796208627E-002
   5.6460199353097762E-005   8.0194970767333285E-005   6.6471262094122463E-002
  -5.5520971939384614E-003   1.5983816008501850E-003   6.5370856812956485E-002
  -5.3003707705663603E-003   1.5456267971461768E-003   6.5071474839658944E-002
  -5.0486443471942713E-003   1.5029371300131211E-003   6.5002381384041227E-002
  -4.7969179238221788E-003   1.4703125994509278E-003   6.5163576446103710E-002
  -4.5451915004500812E-003   1.4477532054598119E-003   6.5555060025846046E-002
  -1.1081267974938426E-002   3.2886274630570533E-003   6.4359182333424830E-002
  -1.0598234555448532E-002   3.1806819137375625E-003   6.4051951330486967E-002
  -1.0115201135958641E-002   3.0658140601468875E-003   6.3977045802104726E-002
  -9.6321677164687529E-003   2.9440239022851117E-003   6.4134465748278011E-002
  -9.1491342969788614E-003   2.8153114401520962E-003   6.4524211169007042E-002
  -1.6620877680166353E-002   4.9788733252639633E-003   6.3300810828698748E-002
  -1.5904500307683075E-002   4.8157370303288996E-003   6.2968743355278634E-002
  -1.5188122935199793E-002   4.6286909902806261E-003   6.2871038313289621E-002
  -1.4471745562716513E-002   4.4177352051192123E-003   6.3007695702731681E-002
  -1.3755368190233243E-002   4.1828696748445332E-003   6.3378715523605189E-002
  -2.2170926309622228E-002   6.6691191874708733E-003   6.2195742298778167E-002
  -2.1219168027269975E-002   6.4507921469203200E-003   6.1821850914033583E-002
  -2.0267409744917718E-002   6.1915679204144342E-003   6.1684358917595744E-002
  -1.9315651462565468E-002   5.8914465079534274E-003   6.1783266309464721E-002
  -1.8363893180213212E-002   5.5504279095368592E-003   6.2118573089640416E-002
   5.6460199353097762E-005   8.0194970767333285E-005   6.6471262094122463E-002
   2.5732631191904831E-005   1.0774513320249701E-004   6.6317737374246066E-002
  -4.9949369692811607E-006  -3.8443052058217964E-006   6.6348217947136912E-002
  -3.5722505130472357E-005  -2.5457334445785559E-004   6.6562703812795124E-002
  -6.6450073291660083E-005  -6.4444198455348989E-004   6.6961194971220772E-002
  -4.5451915004500812E-003   1.4477532054598119E-003   6.5555060025846046E-002
  -4.3982543443403434E-003   1.3927118764940349E-003   6.5285819337065787E-002
  -4.2513171882306144E-003   1.2626415410079556E-003   6.5187902804059811E-002
  -4.1043800321208810E-003   1.0575421990019172E-003   6.5261310426828353E-002
  -3.9574428760111476E-003   7.7741385047558342E-004   6.5506042205371484E-002
  -9.1491342969788614E-003   2.8153114401520962E-003   6.4524211169007042E-002
  -8.8372135535910827E-003   2.6776786197852120E-003   6.4203365105646185E-002
  -8.5252928102033006E-003   2.5291273872217260E-003   6.4041162061066886E-002
  -8.2133720668155271E-003   2.3696577424614663E-003   6.4037602035269189E-002
  -7.9014513234277536E-003   2.1992696855045457E-003   6.4192685028253232E-002
  -1.3755368190233243E-002   4.1828696748445332E-003   6.3378715523605189E-002
  -1.3291144996560290E-002   3.9626453630766528E-003   6.3070374679987287E-002
  -1.2826921802887343E-002   3.7956132334356942E-003   6.2907995718158138E-002
  -1.2362698609214396E-002   3.6817732859211827E-003   6.2891578638117632E-002
  -1.1898475415541442E-002   3.6211255205336190E-003   6.3021123439866072E-002
  -1.8363893180213212E-002   5.5504279095368592E-003   6.2118573089640416E-002
  -1.7760048673247972E-002   5.2476121063679271E-003   6.1886848060088984E-002
  -1.7156204166282735E-002   5.0620990796492182E-003   6.1788403775333539E-002
  -1.6552359659317506E-002   4.9938888293808853E-003   6.1823240235373889E-002
  -1.5948515152352266E-002   5.0429813555625813E-003   6.1991357440210004E-002
  -6.6450073291660083E-005  -6.4444198455348989E-004   6.6961194971220772E-002
   1.4010803136892125E-005  -7.5708610359104256E-004   6.6622689928221679E-002
   9.4471679565444333E-005  -1.7614157966913679E-004   6.6505083000099607E-002
   1.7493255599400175E-004   1.0983915872124286E-003   6.6608374186854558E-002
   2.5539343242254875E-004   3.0665133970539937E-003   6.6932563488486752E-002
  -3.9574428760111476E-003   7.7741385047558342E-004   6.5506042205371484E-002
  -3.6350260993362089E-003   6.5443303426121480E-004   6.5677035660096306E-002
  -3.3126093226612547E-003   9.2077628919082222E-004   6.6111042800436559E-002
  -2.9901925459863326E-003   1.5764436152643987E-003   6.6808063626393077E-002
  -2.6677757693113618E-003   2.6214350124821317E-003   6.7768098137964472E-002
  -7.9014513234277536E-003   2.1992696855045457E-003   6.4192685028253232E-002
  -7.2949630757678692E-003   2.0659521721135832E-003   6.4568912408886348E-002
  -6.6884748281079917E-003   2.0176941580507118E-003   6.5250269045873624E-002
  -6.0819865804481385E-003   2.0544956433162544E-003   6.6236754939215159E-002
  -5.4754983327882575E-003   2.1763566279101587E-003   6.7528370088910938E-002
  -1.1898475415541442E-002   3.6211255205336190E-003   6.3021123439866072E-002
  -1.0965800126158120E-002   3.4774713099657850E-003   6.3298320174591916E-002
  -1.0033124836774793E-002   3.1146120269105806E-003   6.3922761736410386E-002
  -9.1004495473914551E-003   2.5325476713680562E-003   6.4894448125321497E-002
  -8.1677742580081297E-003   1.7312782433382412E-003   6.6213379341325360E-002
  -1.5948515152352266E-002   5.0429813555625813E-003   6.1991357440210004E-002
  -1.4647537250506930E-002   4.8889904478182089E-003   6.1865258957212788E-002
  -1.3346559348661597E-002   4.2115298957705050E-003   6.2128520872046733E-002
  -1.2045581446816294E-002   3.0105996994199552E-003   6.2781143184712174E-002
  -1.0744603544970935E-002   1.2861998587663237E-003   6.3823125895208666E-002
  -2.6632735042878483E-002   0.0000000000000000        2.9467132042634216E-002
  -2.7233792975581303E-002   5.8649922228191410E-004   3.4945849342671031E-002
  -2.7834850908284119E-002   1.3202558477503346E-003   4.0116229932991639E-002
  -2.8435908840986946E-002   2.2012698764052700E-003   4.4978273813596023E-002
  -2.9036966773689766E-002   3.2295413082467075E-003   4.9531980984484171E-002
  -3.3391955798400090E-002   0.0000000000000000        3.0178181217611032E-002
  -3.4236136762455377E-002   9.6069560365146661E-004   3.5267049137343784E-002
  -3.5080317726510664E-002   2.0243267560759205E-003   4.0178007704087824E-002
  -3.5924498690565951E-002   3.1908934572733669E-003   4.4911056917843153E-002
  -3.6768679654621252E-002   4.4603957072437981E-003   4.9466196778609743E-002
  -4.0731336088569249E-002   0.0000000000000000        3.1285587701164158E-002
  -4.1688212727249513E-002   1.3348919850210196E-003   3.5940284386179341E-002
  -4.2645089365929777E-002   2.7283976644015065E-003   4.0547499074933303E-002
  -4.3601966004610047E-002   4.1805170381414656E-003   4.5107231767426037E-002
  -4.4558842643290297E-002   5.6912501062408895E-003   4.9619482463657556E-002
  -4.8650875913385967E-002   0.0000000000000000        3.2789351493293602E-002
  -4.9590020869963697E-002   1.7090883663905710E-003   3.6965555089177676E-002
  -5.0529165826541447E-002   3.4324685727270925E-003   4.1224704045528048E-002
  -5.1468310783119177E-002   5.1701406190095634E-003   4.5566798362344674E-002
  -5.2407455739696920E-002   6.9221045052379800E-003   4.9991838039627569E-002
  -5.7150575272850231E-002   0.0000000000000000        3.4689472593999356E-002
  -5.7941561190597943E-002   2.0832847477601250E-003   3.8342861246338823E-002
  -5.8732547108345669E-002   4.1365394810526767E-003   4.2209622615872064E-002
  -5.9523533026093395E-002   6.1597641998776629E-003   4.6289756702599084E-002
  -6.0314518943841114E-002   8.1529589042350671E-003   5.0583263506519850E-002
  -2.9036966773689766E-002   3.2295413082467075E-003   4.9531980984484171E-002
  -2.9109321282647087E-002   4.2468753189817540E-003   5.1589351687847229E-002
  -2.9181675791604404E-002   5.0950770843174991E-003   5.3746513838592976E-002
  -2.9254030300561729E-002   5.7741466042539212E-003   5.6003467436721438E-002
  -2.9326384809519053E-002   6.2840838787910774E-003   5.8360212482232610E-002
  -3.6768679654621252E-002   4.4603957072437981E-003   4.9466196778609743E-002
  -3.6780237817626293E-002   5.6933993829380433E-003   5.1253589801442463E-002
  -3.6791795980631349E-002   6.7504703613069251E-003   5.3062784068797025E-002
  -3.6803354143636391E-002   7.6316086423504235E-003   5.4893779580673457E-002
  -3.6814912306641440E-002   8.3368142260685923E-003   5.6746576337071711E-002
  -4.4558842643290297E-002   5.6912501062408895E-003   4.9619482463657556E-002
  -4.4587594663203937E-002   7.1399234468943404E-003   5.1130097354033885E-002
  -4.4616346683117571E-002   8.4058636382963511E-003   5.2584523286071189E-002
  -4.4645098703031197E-002   9.4890706804469319E-003   5.3982760259769516E-002
  -4.4673850722944823E-002   1.0389544573346100E-002   5.5324808275128770E-002
  -5.2407455739696920E-002   6.9221045052379800E-003   4.9991838039627569E-002
  -5.2531391819379998E-002   8.5864475108506193E-003   5.1218874345621460E-002
  -5.2655327899063069E-002   1.0061256915285768E-002   5.2311731490415445E-002
  -5.2779263978746147E-002   1.1346532718543429E-002   5.3270409474009586E-002
  -5.2903200058429210E-002   1.2442274920623598E-002   5.4094908296403822E-002
  -6.0314518943841114E-002   8.1529589042350671E-003   5.0583263506519850E-002
  -6.0611629286154496E-002   1.0032971574806928E-002   5.1519920776205215E-002
  -6.0908739628467864E-002   1.1716650192275203E-002   5.2244408681829821E-002
  -6.1205849970781247E-002   1.3203994756639935E-002   5.2756727223393723E-002
  -6.1502960313094601E-002   1.4495005267901123E-002   5.3056876400896888E-002
  -2.9326384809519053E-002   6.2840838787910774E-003   5.8360212482232610E-002
  -2.8981572586462868E-002   6.6747333981428507E-003   5.9136397455322523E-002
  -2.8636760363406701E-002   6.9959396525232469E-003   5.9947065471326617E-002
  -2.8291948140350531E-002   7.2477026419321853E-003   6.0792216530244844E-002
  -2.7947135917294360E-002   7.4300223663697484E-003   6.1671850632077280E-002
  -3.6814912306641440E-002   8.3368142260685923E-003   5.6746576337071711E-002
  -3.6383683733677591E-002   8.8801308634742573E-003   5.7095639467838667E-002
  -3.5952455160713742E-002   9.2756023055804368E-003   5.7583052255506799E-002
  -3.5521226587749893E-002   9.5232285523869972E-003   5.8208814700076134E-002
  -3.5089998014786045E-002   9.6230096038940754E-003   5.8972926801546630E-002
  -4.4673850722944823E-002   1.0389544573346100E-002   5.5324808275128770E-002
  -4.4052339186086274E-002   1.1085528328805693E-002   5.5168347633244637E-002
  -4.3430827649227746E-002   1.1555264958637615E-002   5.5254103262248659E-002
  -4.2809316112369218E-002   1.1798754462841810E-002   5.5582075162140927E-002
  -4.2187804575510669E-002   1.1815996841418375E-002   5.6152263332921379E-002
  -5.2903200058429210E-002   1.2442274920623598E-002   5.4094908296403822E-002
  -5.1987538943688946E-002   1.3290925794137130E-002   5.3354521951540425E-002
  -5.1071877828948710E-002   1.3834927611694785E-002   5.2960218491552288E-002
  -5.0156216714208460E-002   1.4074280373296635E-002   5.2911997916439323E-002
  -4.9240555599468203E-002   1.4008984078942632E-002   5.3209860226201583E-002
  -6.1502960313094601E-002   1.4495005267901123E-002   5.3056876400896888E-002
  -6.0189283006485607E-002   1.5496323259468536E-002   5.1654162422726094E-002
  -5.8875605699876640E-002   1.6114590264751979E-002   5.0701397943417513E-002
  -5.7561928393267646E-002   1.6349806283751440E-002   5.0198582962971236E-002
  -5.6248251086658659E-002   1.6201971316466987E-002   5.0145717481387173E-002
  -2.7947135917294360E-002   7.4300223663697484E-003   6.1671850632077280E-002
  -2.7214302733859830E-002   7.5385349947133390E-003   6.1369714618063717E-002
  -2.6481469550425303E-002   7.5688766958404291E-003   6.1307392139347480E-002
  -2.5748636366990773E-002   7.5210474697509737E-003   6.1484883195928569E-002
  -2.5015803183556239E-002   7.3950473164450248E-003   6.1902187787806900E-002
  -3.5089998014786045E-002   9.6230096038940754E-003   5.8972926801546630E-002
  -3.4127452393710303E-002   9.6194675731572643E-003   5.8637259278441725E-002
  -3.3164906772634575E-002   9.5571245732322153E-003   5.8521203095321932E-002
  -3.2202361151558834E-002   9.4359806041191471E-003   5.8624758252187228E-002
  -3.1239815530483106E-002   9.2560356658178411E-003   5.8947924749037636E-002
  -4.2187804575510669E-002   1.1815996841418375E-002   5.6152263332921379E-002
  -4.1015748712105934E-002   1.1700400151601141E-002   5.5802434258753433E-002
  -3.9843692848701172E-002   1.1545372450624113E-002   5.5652014329258460E-002
  -3.8671636985296437E-002   1.1350913738487267E-002   5.5701003544436384E-002
  -3.7499581121891695E-002   1.1117024015190574E-002   5.5949401904287155E-002
  -4.9240555599468203E-002   1.4008984078942632E-002   5.3209860226201583E-002
  -4.7879191689046648E-002   1.3781332730045056E-002   5.2865239558999008E-002
  -4.6517827778625100E-002   1.3533620328015954E-002   5.2699825841157108E-002
  -4.5156463868203531E-002   1.3265846872855331E-002   5.2713619072675910E-002
  -4.3795099957781997E-002   1.2978012364563321E-002   5.2906619253555484E-002
  -5.6248251086658659E-002   1.6201971316466987E-002   5.0145717481387173E-002
  -5.4717781324532491E-002   1.5862265308488936E-002   4.9825675179178283E-002
  -5.3187311562406331E-002   1.5521868205407800E-002   4.9664637631017881E-002
  -5.1656841800280164E-002   1.5180780007223491E-002   4.9662604836906002E-002
  -5.0126372038154010E-002   1.4839000713936096E-002   4.9819576796842596E-002
  -2.5015803183556239E-002   7.3950473164450248E-003   6.1902187787806900E-002
  -2.4304583965072731E-002   7.2258625956985317E-003   6.1731501053131188E-002
  -2.3593364746589240E-002   7.0484796672872913E-003   6.1723531226734490E-002
  -2.2882145528105739E-002   6.8628985312114039E-003   6.1878278308616835E-002
  -2.2170926309622228E-002   6.6691191874708733E-003   6.2195742298778167E-002
  -3.1239815530483106E-002   9.2560356658178411E-003   5.8947924749037636E-002
  -3.0360170004824792E-002   9.0368149690708693E-003   5.8733219791092015E-002
  -2.9480524479166471E-002   8.7978437246206409E-003   5.8692650539216983E-002
  -2.8600878953508165E-002   8.5391219324673570E-003   5.8826216993412547E-002
  -2.7721233427849840E-002   8.2606495926107470E-003   5.9133919153678688E-002
  -3.7499581121891695E-002   1.1117024015190574E-002   5.5949401904287155E-002
  -3.6440090491267021E-002   1.0847767342443172E-002   5.5679126383033184E-002
  -3.5380599860642341E-002   1.0547207781954067E-002   5.5594405365641315E-002
  -3.4321109230017688E-002   1.0215345333723225E-002   5.5695238852111514E-002
  -3.3261618599393028E-002   9.8521799977507596E-003   5.5981626842443941E-002
  -4.3795099957781997E-002   1.2978012364563321E-002   5.2906619253555484E-002
  -4.2544345424399402E-002   1.2658719715815409E-002   5.2569220828954592E-002
  -4.1293590891016849E-002   1.2296571839287455E-002   5.2428795706007419E-002
  -4.0042836357634261E-002   1.1891568734979190E-002   5.2485343884713861E-002
  -3.8792081824251694E-002   1.1443710402890758E-002   5.2738865365073995E-002
  -5.0126372038154010E-002   1.4839000713936096E-002   4.9819576796842596E-002
  -4.8672934804221989E-002   1.4469672089187827E-002   4.9403503128856330E-002
  -4.7219497570289967E-002   1.4045935896620822E-002   4.9195821560315281E-002
  -4.5766060336357946E-002   1.3567792136235097E-002   4.9196532091219485E-002
  -4.4312623102425924E-002   1.3035240808030701E-002   4.9405634721568836E-002
  -2.2170926309622228E-002   6.6691191874708733E-003   6.2195742298778167E-002
  -2.1219168027269975E-002   6.4507921469203200E-003   6.1821850914033583E-002
  -2.0267409744917718E-002   6.1915679204144342E-003   6.1684358917595744E-002
  -1.9315651462565468E-002   5.8914465079534274E-003   6.1783266309464721E-002
  -1.8363893180213212E-002   5.5504279095368592E-003   6.2118573089640416E-002
  -2.7721233427849840E-002   8.2606495926107470E-003   5.9133919153678688E-002
  -2.6532468655499183E-002   7.9598199156876298E-003   5.8737626161117482E-002
  -2.5343703883148501E-002   7.6340261123344494E-003   5.8578946760246400E-002
  -2.4154939110797816E-002   7.2832681825512509E-003   5.8657880951065396E-002
  -2.2966174338447134E-002   6.9075461263378157E-003   5.8974428733574502E-002
  -3.3261618599393028E-002   9.8521799977507596E-003   5.5981626842443941E-002
  -3.1834633133660598E-002   9.4688476844549813E-003   5.5578865301591410E-002
  -3.0407647667928198E-002   9.0764843042544022E-003   5.5414931555812293E-002
  -2.8980662202195761E-002   8.6750898571489616E-003   5.5489825605106610E-002
  -2.7553676736463396E-002   8.2646643431386058E-003   5.5803547449474106E-002
  -3.8792081824251694E-002   1.1443710402890758E-002   5.2738865365073995E-002
  -3.7125661461754271E-002   1.0977875453222423E-002   5.2345568335455339E-002
  -3.5459241099256827E-002   1.0518942496174386E-002   5.2192313304293421E-002
  -3.3792820736759370E-002   1.0066911531746756E-002   5.2279100271588164E-002
  -3.2126400374261961E-002   9.6217825599394513E-003   5.2605929237339630E-002
  -4.4312623102425924E-002   1.3035240808030701E-002   4.9405634721568836E-002
  -4.2405553639780158E-002   1.2486903221989643E-002   4.9037735262709270E-002
  -4.0498484177134364E-002   1.1961400688094412E-002   4.8911092005689744E-002
  -3.8591414714488584E-002   1.1458733206344534E-002   4.9025704950510146E-002
  -3.6684345251842804E-002   1.0978900776740297E-002   4.9381574097170589E-002
  -1.8363893180213212E-002   5.5504279095368592E-003   6.2118573089640416E-002
  -1.7760048673247972E-002   5.2476121063679271E-003   6.1886848060088984E-002
  -1.7156204166282735E-002   5.0620990796492182E-003   6.1788403775333539E-002
  -1.6552359659317506E-002   4.9938888293808853E-003   6.1823240235373889E-002
  -1.5948515152352266E-002   5.0429813555625813E-003   6.1991357440210004E-002
  -2.2966174338447134E-002   6.9075461263378157E-003   5.8974428733574502E-002
  -2.2230331110050704E-002   6.5516465539501023E-003   5.8847156376142046E-002
  -2.1494487881654235E-002   6.2603560756440829E-003   5.8850600716776141E-002
  -2.0758644653257764E-002   6.0336746914194002E-003   5.8984761755476831E-002
  -2.0022801424861326E-002   5.8716024012762102E-003   5.9249639492244155E-002
  -2.7553676736463396E-002   8.2646643431386058E-003   5.5803547449474106E-002
  -2.6688398833364987E-002   7.8556810015322220E-003   5.5728034081791944E-002
  -2.5823120930266563E-002   7.4586130716386700E-003   5.5780673365447023E-002
  -2.4957843027168157E-002   7.0734605534577485E-003   5.5961465300439453E-002
  -2.4092565124069758E-002   6.7002234469897282E-003   5.6270409886769235E-002
  -3.2126400374261961E-002   9.6217825599394513E-003   5.2605929237339630E-002
  -3.1134251843190873E-002   9.1597154491144805E-003   5.2529481177038748E-002
  -3.0142103312119747E-002   8.6568700676333127E-003   5.2578621721346010E-002
  -2.9149954781048652E-002   8.1132464154962912E-003   5.2753350870261354E-002
  -2.8157806249977560E-002   7.5288444927032461E-003   5.3053668623784772E-002
  -3.6684345251842804E-002   1.0978900776740297E-002   4.9381574097170589E-002
  -3.5567890139528296E-002   1.0463749896696489E-002   4.9251497661882415E-002
  -3.4451435027213775E-002   9.8551270636280941E-003   4.9244445784473206E-002
  -3.3334979914899254E-002   9.1530322775346326E-003   4.9360418464942768E-002
  -3.2218524802584733E-002   8.3574655384168195E-003   4.9599415703291017E-002
  -1.5948515152352266E-002   5.0429813555625813E-003   6.1991357440210004E-002
  -1.4647537250506930E-002   4.8889904478182089E-003   6.1865258957212788E-002
  -1.3346559348661597E-002   4.2115298957705050E-003   6.2128520872046733E-002
  -1.2045581446816294E-002   3.0105996994199552E-003   6.2781143184712174E-002
  -1.0744603544970935E-002   1.2861998587663237E-003   6.3823125895208666E-002
  -2.0022801424861326E-002   5.8716024012762102E-003   5.9249639492244155E-002
  -1.8350390494050222E-002   5.5912360007624728E-003   5.8697802734119148E-002
  -1.6677979563239114E-002   5.0096722854255510E-003   5.8499471636094286E-002
  -1.5005568632428027E-002   4.1269112552660310E-003   5.8654646198169763E-002
  -1.3333157701616902E-002   2.9429529102834584E-003   5.9163326420345719E-002
  -2.4092565124069758E-002   6.7002234469897282E-003   5.6270409886769235E-002
  -2.2084575902023909E-002   6.2934815537066813E-003   5.5515107182996279E-002
  -2.0076586679978012E-002   5.8078146750808191E-003   5.5077455401592784E-002
  -1.8068597457932184E-002   5.2432228111121623E-003   5.4957454542558390E-002
  -1.6060608235886290E-002   4.5997059618005931E-003   5.5155104605893512E-002
  -2.8157806249977560E-002   7.5288444927032461E-003   5.3053668623784772E-002
  -2.5850093474427911E-002   6.9957271066509730E-003   5.2317172303844264E-002
  -2.3542380698878273E-002   6.6059570647359206E-003   5.1862472168542291E-002
  -2.1234667923328652E-002   6.3595343669582104E-003   5.1689568217878207E-002
  -1.8926955147778955E-002   6.2564590133177278E-003   5.1798460451852768E-002
  -3.2218524802584733E-002   8.3574655384168195E-003   4.9599415703291017E-002
  -2.9646943211262322E-002   7.6979726595950981E-003   4.9103998096663104E-002
  -2.7075361619939890E-002   7.4040994543912025E-003   4.8854521936942480E-002
  -2.4503780028617483E-002   7.4758459228044145E-003   4.8850987224128992E-002
  -2.1932198437295047E-002   7.9132120648348625E-003   4.9093393958222764E-002
  -5.7150575272850231E-002   0.0000000000000000        3.4689472593999356E-002
  -5.7941561190597943E-002   2.0832847477601250E-003   3.8342861246338823E-002
  -5.8732547108345669E-002   4.1365394810526767E-003   4.2209622615872064E-002
  -5.9523533026093395E-002   6.1597641998776629E-003   4.6289756702599084E-002
  -6.0314518943841114E-002   8.1529589042350671E-003   5.0583263506519850E-002
  -6.5818689073694175E-002   0.0000000000000000        3.7209755402013656E-002
  -6.6625238859218505E-002   2.9137129690601452E-003   4.0833970222062616E-002
  -6.7431788644742821E-002   5.7703201541712112E-003   4.4213684589364609E-002
  -6.8238338430267137E-002   8.5698215553331944E-003   4.7348898503919642E-002
  -6.9044888215791439E-002   1.1312217172546081E-002   5.0239611965727703E-002
  -7.4243472222649945E-002   0.0000000000000000        4.0574004316068731E-002
  -7.5523459045891583E-002   3.7441411903601676E-003   4.4141969534345661E-002
  -7.6803445869133249E-002   7.4041008272897431E-003   4.7007561129934920E-002
  -7.8083432692374874E-002   1.0979878910788721E-002   4.9170779102836466E-002
  -7.9363419515616554E-002   1.4471475440857107E-002   5.0631623453050306E-002
  -8.2424924719717532E-002   0.0000000000000000        4.4782219336164580E-002
  -8.4636221750617247E-002   4.5745694116601900E-003   4.8266859183187988E-002
  -8.6847518781516961E-002   9.0378815004082749E-003   5.0591252237582977E-002
  -8.9058815812416689E-002   1.3389936266244256E-002   5.1755398499349521E-002
  -9.1270112843316376E-002   1.7630733709168130E-002   5.1759297968487633E-002
  -9.0363046564896937E-002   0.0000000000000000        4.9834400462301212E-002
  -9.3963526973395439E-002   5.4049976329602102E-003   5.3208639168589582E-002
  -9.7564007381893955E-002   1.0671662173526811E-002   5.4964757912308787E-002
 -0.10116448779039247        1.5799993621699780E-002   5.5102756693458821E-002
 -0.10476496819889097        2.0789991977479147E-002   5.3622635512039697E-002
  -6.0314518943841114E-002   8.1529589042350671E-003   5.0583263506519850E-002
  -6.0611629286154496E-002   1.0032971574806928E-002   5.1519920776205215E-002
  -6.0908739628467864E-002   1.1716650192275203E-002   5.2244408681829821E-002
  -6.1205849970781247E-002   1.3203994756639935E-002   5.2756727223393723E-002
  -6.1502960313094601E-002   1.4495005267901123E-002   5.3056876400896888E-002
  -6.9044888215791439E-002   1.1312217172546081E-002   5.0239611965727703E-002
  -6.9316523237070465E-002   1.3757281682951128E-002   4.9458806651248334E-002
  -6.9588158258349464E-002   1.5664789763689603E-002   4.8941121342898422E-002
  -6.9859793279628490E-002   1.7034741414761460E-002   4.8686556040677974E-002
  -7.0131428300907461E-002   1.7867136636166736E-002   4.8695110744586961E-002
  -7.9363419515616554E-002   1.4471475440857107E-002   5.0631623453050306E-002
  -7.9134289845671016E-002   1.7481591791095381E-002   4.7792133177843150E-002
  -7.8905160175725450E-002   1.9612929335103987E-002   4.5691052278955667E-002
  -7.8676030505779884E-002   2.0865488072883003E-002   4.4328380756387807E-002
  -7.8446900835834360E-002   2.1239268004432321E-002   4.3704118610139633E-002
  -9.1270112843316376E-002   1.7630733709168130E-002   5.1759297968487633E-002
  -9.0064929111956085E-002   2.1205901899239616E-002   4.6519900355989650E-002
  -8.8859745380595795E-002   2.3561068906518386E-002   4.2494201490001549E-002
  -8.7654561649235477E-002   2.4696234731004508E-002   3.9682201370523251E-002
  -8.6449377917875186E-002   2.4611399372697917E-002   3.8083899997554856E-002
 -0.10476496819889097        2.0789991977479147E-002   5.3622635512039697E-002
 -0.10210844103592571        2.4930212007383844E-002   4.5642108185687848E-002
  -9.9451913872960485E-002   2.7509208477932770E-002   3.9350568976036074E-002
  -9.6795386709995254E-002   2.8526981389126061E-002   3.4748017883084306E-002
  -9.4138859547030010E-002   2.7983530740963526E-002   3.1834454906832614E-002
  -6.1502960313094601E-002   1.4495005267901123E-002   5.3056876400896888E-002
  -6.0189283006485607E-002   1.5496323259468536E-002   5.1654162422726094E-002
  -5.8875605699876640E-002   1.6114590264751979E-002   5.0701397943417513E-002
  -5.7561928393267646E-002   1.6349806283751440E-002   5.0198582962971236E-002
  -5.6248251086658659E-002   1.6201971316466987E-002   5.0145717481387173E-002
  -7.0131428300907461E-002   1.7867136636166736E-002   4.8695110744586961E-002
  -6.8413945087103745E-002   1.8320526997733566E-002   4.7257496489487613E-002
  -6.6696461873300014E-002   1.8553464069290152E-002   4.6177544549915489E-002
  -6.4978978659496284E-002   1.8565947850836501E-002   4.5455254925870672E-002
  -6.3261495445692512E-002   1.8357978342372641E-002   4.5090627617353086E-002
  -7.8446900835834360E-002   2.1239268004432321E-002   4.3704118610139633E-002
  -7.6417898898170813E-002   2.1144730735998596E-002   4.2394201774385409E-002
  -7.4388896960507295E-002   2.0992337873828329E-002   4.1349660070823482E-002
  -7.2359895022843790E-002   2.0782089417921566E-002   4.0570493499453880E-002
  -7.0330893085180257E-002   2.0513985368278274E-002   4.0056702060276519E-002
  -8.6449377917875186E-002   2.4611399372697917E-002   3.8083899997554856E-002
  -8.4201144439686862E-002   2.3968934474263612E-002   3.7064278277419538E-002
  -8.1952910961498537E-002   2.3431211678366495E-002   3.6217744506141472E-002
  -7.9704677483310254E-002   2.2998230985006585E-002   3.5544298683720776E-002
  -7.7456444005121902E-002   2.2669992394183918E-002   3.5043940810157347E-002
  -9.4138859547030010E-002   2.7983530740963526E-002   3.1834454906832614E-002
  -9.1763681711651876E-002   2.6793138212528645E-002   3.1267725998589846E-002
  -8.9388503876273728E-002   2.5870085482904683E-002   3.0781797855869524E-002
  -8.7013326040895581E-002   2.5214372552091670E-002   3.0376670478671375E-002
  -8.4638148205517433E-002   2.4825999420089576E-002   3.0052343866995748E-002
  -5.6248251086658659E-002   1.6201971316466987E-002   5.0145717481387173E-002
  -5.4717781324532491E-002   1.5862265308488936E-002   4.9825675179178283E-002
  -5.3187311562406331E-002   1.5521868205407800E-002   4.9664637631017881E-002
  -5.1656841800280164E-002   1.5180780007223491E-002   4.9662604836906002E-002
  -5.0126372038154010E-002   1.4839000713936096E-002   4.9819576796842596E-002
  -6.3261495445692512E-002   1.8357978342372641E-002   4.5090627617353086E-002
  -6.1554549699764913E-002   1.8022226417996286E-002   4.4714001945984357E-002
  -5.9847603953837328E-002   1.7651362951805295E-002   4.4531323488170002E-002
  -5.8140658207909736E-002   1.7245387943799709E-002   4.4542592243909933E-002
  -5.6433712461982151E-002   1.6804301393979371E-002   4.4747808213204274E-002
  -7.0330893085180257E-002   2.0513985368278274E-002   4.0056702060276519E-002
  -6.8412528895945388E-002   2.0182187527503666E-002   3.9589072573036385E-002
  -6.6494164706710504E-002   1.9780857698202842E-002   3.9350332758856472E-002
  -6.4575800517475607E-002   1.9309995880375817E-002   3.9340482617736774E-002
  -6.2657436328240751E-002   1.8769602074022659E-002   3.9559522149677291E-002
  -7.7456444005121902E-002   2.2669992394183918E-002   3.5043940810157347E-002
  -7.5291718913073888E-002   2.2342148637010978E-002   3.4450887060334286E-002
  -7.3126993821025846E-002   2.1910352444600351E-002   3.4121665443077369E-002
  -7.0962268728977831E-002   2.1374603816952008E-002   3.4056275958386499E-002
  -6.8797543636929831E-002   2.0734902754065913E-002   3.4254718606261579E-002
  -8.4638148205517433E-002   2.4825999420089576E-002   3.0052343866995748E-002
  -8.2192119751150400E-002   2.4502109746518411E-002   2.9299445407878238E-002
  -7.9746091296783381E-002   2.4039847190997891E-002   2.8845321540832615E-002
  -7.7300062842416362E-002   2.3439211753528144E-002   2.8689972265859013E-002
  -7.4854034388049329E-002   2.2700203434109223E-002   2.8833397582957304E-002
  -5.0126372038154010E-002   1.4839000713936096E-002   4.9819576796842596E-002
  -4.8672934804221989E-002   1.4469672089187827E-002   4.9403503128856330E-002
  -4.7219497570289967E-002   1.4045935896620822E-002   4.9195821560315281E-002
  -4.5766060336357946E-002   1.3567792136235097E-002   4.9196532091219485E-002
  -4.4312623102425924E-002   1.3035240808030701E-002   4.9405634721568836E-002
  -5.6433712461982151E-002   1.6804301393979371E-002   4.4747808213204274E-002
  -5.4781372935342194E-002   1.6330910067001533E-002   4.4363908505890656E-002
  -5.3129033408702300E-002   1.5828020727523359E-002   4.4169421284547587E-002
  -5.1476693882062392E-002   1.5295633375544706E-002   4.4164346549175046E-002
  -4.9824354355422470E-002   1.4733748011065750E-002   4.4348684299773067E-002
  -6.2657436328240751E-002   1.8769602074022659E-002   3.9559522149677291E-002
  -6.0825174122367598E-002   1.8192148044815289E-002   3.9232705958354597E-002
  -5.8992911916494473E-002   1.7610105558425949E-002   3.9076322639527830E-002
  -5.7160649710621347E-002   1.7023474614854397E-002   3.9090372193196908E-002
  -5.5328387504748236E-002   1.6432255214100827E-002   3.9274854619361921E-002
  -6.8797543636929831E-002   2.0734902754065913E-002   3.4254718606261579E-002
  -6.6804338365298088E-002   2.0053386022629131E-002   3.4009895486248221E-002
  -6.4811133093666415E-002   1.9392190389328455E-002   3.3916525625256017E-002
  -6.2817927822034769E-002   1.8751315854164105E-002   3.3974609023285009E-002
  -6.0824722550402999E-002   1.8130762417135945E-002   3.4184145680335273E-002
  -7.4854034388049329E-002   2.2700203434109223E-002   2.8833397582957304E-002
  -7.2718865664133769E-002   2.1914624000442834E-002   2.8695477089571458E-002
  -7.0583696940218224E-002   2.1174275220231104E-002   2.8690030241732140E-002
  -6.8448528216302651E-002   2.0479157093473678E-002   2.8817057039439431E-002
  -6.6313359492387092E-002   1.9829269620170953E-002   2.9076557482693166E-002
  -4.4312623102425924E-002   1.3035240808030701E-002   4.9405634721568836E-002
  -4.2405553639780158E-002   1.2486903221989643E-002   4.9037735262709270E-002
  -4.0498484177134364E-002   1.1961400688094412E-002   4.8911092005689744E-002
  -3.8591414714488584E-002   1.1458733206344534E-002   4.9025704950510146E-002
  -3.6684345251842804E-002   1.0978900776740297E-002   4.9381574097170589E-002
  -4.9824354355422470E-002   1.4733748011065750E-002   4.4348684299773067E-002
  -4.7679158624046099E-002   1.4161963965661592E-002   4.4001620862872862E-002
  -4.5533962892669790E-002   1.3599880570907830E-002   4.3889553761593800E-002
  -4.3388767161293418E-002   1.3047497826804172E-002   4.4012482995935936E-002
  -4.1243571429917116E-002   1.2504815733350605E-002   4.4370408565899216E-002
  -5.5328387504748236E-002   1.6432255214100827E-002   3.9274854619361921E-002
  -5.2951325370860100E-002   1.5837024709333569E-002   3.8935492802925631E-002
  -5.0574263236971964E-002   1.5238360453721254E-002   3.8824867455891761E-002
  -4.8197201103083870E-002   1.4636262447263701E-002   3.8942978578260123E-002
  -4.5820138969195685E-002   1.4030730689961052E-002   3.9289826170030989E-002
  -6.0824722550402999E-002   1.8130762417135945E-002   3.4184145680335273E-002
  -5.8222053880221988E-002   1.7512085453005422E-002   3.3839351082867578E-002
  -5.5619385210040957E-002   1.6876840336534592E-002   3.3717033088583516E-002
  -5.3016716539859898E-002   1.6225027067723340E-002   3.3817191697482860E-002
  -5.0414047869678867E-002   1.5556645646571457E-002   3.4139826909565851E-002
  -6.6313359492387092E-002   1.9829269620170953E-002   2.9076557482693166E-002
  -6.3491344152131882E-002   1.9187146196677496E-002   2.8713195702698618E-002
  -6.0669328811876727E-002   1.8515320219348139E-002   2.8566050659669134E-002
  -5.7847313471621545E-002   1.7813791688182905E-002   2.8635122353604034E-002
  -5.5025298131366362E-002   1.7082560603181807E-002   2.8920410784503747E-002
  -3.6684345251842804E-002   1.0978900776740297E-002   4.9381574097170589E-002
  -3.5567890139528296E-002   1.0463749896696489E-002   4.9251497661882415E-002
  -3.4451435027213775E-002   9.8551270636280941E-003   4.9244445784473206E-002
  -3.3334979914899254E-002   9.1530322775346326E-003   4.9360418464942768E-002
  -3.2218524802584733E-002   8.3574655384168195E-003   4.9599415703291017E-002
  -4.1243571429917116E-002   1.2504815733350605E-002   4.4370408565899216E-002
  -4.0009902950877085E-002   1.1941017225589073E-002   4.4144476862107790E-002
  -3.8776234471837104E-002   1.1325285238560967E-002   4.4029947333888583E-002
  -3.7542565992797115E-002   1.0657619772266549E-002   4.4026819981241382E-002
  -3.6308897513757141E-002   9.9380208267055847E-003   4.4135094804166386E-002
  -4.5820138969195685E-002   1.4030730689961052E-002   3.9289826170030989E-002
  -4.4480879505736939E-002   1.3418284554481671E-002   3.9009577671494586E-002
  -4.3141620042278186E-002   1.2795443413494131E-002   3.8829108966223394E-002
  -4.1802360578819447E-002   1.2162207266998359E-002   3.8748420054217893E-002
  -4.0463101115360639E-002   1.1518576114994378E-002   3.8767510935477797E-002
  -5.0414047869678867E-002   1.5556645646571457E-002   3.4139826909565851E-002
  -4.8980819804107900E-002   1.4895551883374318E-002   3.3846800090042525E-002
  -4.7547591738537037E-002   1.4265601588427206E-002   3.3641930681478041E-002
  -4.6114363672966133E-002   1.3666794761730277E-002   3.3525218683872315E-002
  -4.4681135607395159E-002   1.3099131403283268E-002   3.3496664097225431E-002
  -5.5025298131366362E-002   1.7082560603181807E-002   2.8920410784503747E-002
  -5.3509723845989982E-002   1.6372819212266798E-002   2.8656144117751914E-002
  -5.1994149560613628E-002   1.5735759763360266E-002   2.8468412479652067E-002
  -5.0478575275237247E-002   1.5171382256462054E-002   2.8357215870204511E-002
  -4.8963000989860894E-002   1.4679686691571880E-002   2.8322554289408941E-002
  -3.2218524802584733E-002   8.3574655384168195E-003   4.9599415703291017E-002
  -2.9646943211262322E-002   7.6979726595950981E-003   4.9103998096663104E-002
  -2.7075361619939890E-002   7.4040994543912025E-003   4.8854521936942480E-002
  -2.4503780028617483E-002   7.4758459228044145E-003   4.8850987224128992E-002
  -2.1932198437295047E-002   7.9132120648348625E-003   4.9093393958222764E-002
  -3.6308897513757141E-002   9.9380208267055847E-003   4.4135094804166386E-002
  -3.3478327129031565E-002   9.2827121810888369E-003   4.3861960529989197E-002
  -3.0647756744306032E-002   8.8079176146265425E-003   4.3860862395710909E-002
  -2.7817186359580456E-002   8.5136371273191250E-003   4.4131800401331647E-002
  -2.4986615974854909E-002   8.3998707191659250E-003   4.4674774546851648E-002
  -4.0463101115360639E-002   1.1518576114994378E-002   3.8767510935477797E-002
  -3.7347447244240141E-002   1.0867451702582270E-002   3.8531554399288709E-002
  -3.4231793373119712E-002   1.0211735774862153E-002   3.8593728695990141E-002
  -3.1116139501999266E-002   9.5514283318336671E-003   3.8954033825582518E-002
  -2.8000485630878799E-002   8.8865293734969875E-003   3.9612469788065485E-002
  -4.4681135607395159E-002   1.3099131403283268E-002   3.3496664097225431E-002
  -4.1254303556888111E-002   1.2452191224075801E-002   3.3112779704561460E-002
  -3.7827471506381022E-002   1.1615553935097517E-002   3.3053120837779955E-002
  -3.4400639455874009E-002   1.0589219536348348E-002   3.3317687496880875E-002
  -3.0973807405366878E-002   9.3731880278279389E-003   3.3906479681864471E-002
  -4.8963000989860894E-002   1.4679686691571880E-002   2.8322554289408941E-002
  -4.5198896066975414E-002   1.4036930745569276E-002   2.7605636445807546E-002
  -4.1434791144089961E-002   1.3019372095333201E-002   2.7239038821080225E-002
  -3.7670686221204466E-002   1.1627010740863000E-002   2.7222761415227045E-002
  -3.3906581298319027E-002   9.8598466821591124E-003   2.7556804228248577E-002
  -9.0363046564896937E-002   0.0000000000000000        4.9834400462301212E-002
  -9.3963526973395439E-002   5.4049976329602102E-003   5.3208639168589582E-002
  -9.7564007381893955E-002   1.0671662173526811E-002   5.4964757912308787E-002
 -0.10116448779039247        1.5799993621699780E-002   5.5102756693458821E-002
 -0.10476496819889097        2.0789991977479147E-002   5.3622635512039697E-002
 -0.10329535372762558        0.0000000000000000        5.8663474082991170E-002
 -0.10683272936060684        1.0885281869849821E-002   5.2119368501809392E-002
 -0.11037010499358810        1.9173161354953505E-002   4.7319592434231270E-002
 -0.11390748062656934        2.4863638455311039E-002   4.4264145880256831E-002
 -0.11744485625955059        2.7956713170922458E-002   4.2953028839886075E-002
 -0.12645936217734094        0.0000000000000000        7.4202366586747004E-002
 -0.12657118355863209        1.6365566106739431E-002   5.5280847425742533E-002
 -0.12668300493992324        2.7674660536380190E-002   4.1466107254514585E-002
 -0.12679482632121444        3.3927283288922312E-002   3.2758146073063148E-002
 -0.12690664770250559        3.5123434364365741E-002   2.9156963881388241E-002
 -0.15985507191404297        0.0000000000000000        9.6451077973568694E-002
 -0.15317888956747119        2.1845850343629042E-002   6.2693075940389031E-002
 -0.14650270722089945        3.6176159717806897E-002   3.7404302373158733E-002
 -0.13982652487432762        4.2990928122533571E-002   2.0584757271877759E-002
 -0.13315034252775590        4.2290155557809066E-002   1.2234440636546167E-002
 -0.20348248293773172        0.0000000000000000       0.12540960824345626     
 -0.18665584738712415        2.7326134580518649E-002   7.4356054045748882E-002
 -0.16982921183651661        4.4677658899233585E-002   3.5134177790163701E-002
 -0.15300257628590908        5.2054572956144837E-002   7.7439794767006770E-003
 -0.13617594073530154        4.9456876751252349E-002  -7.8145408946400999E-003
 -0.10476496819889097        2.0789991977479147E-002   5.3622635512039697E-002
 -0.10210844103592571        2.4930212007383844E-002   4.5642108185687848E-002
  -9.9451913872960485E-002   2.7509208477932770E-002   3.9350568976036074E-002
  -9.6795386709995254E-002   2.8526981389126061E-002   3.4748017883084306E-002
  -9.4138859547030010E-002   2.7983530740963526E-002   3.1834454906832614E-002
 -0.11744485625955059        2.7956713170922458E-002   4.2953028839886075E-002
 -0.11348676193103500        2.9427917857714266E-002   3.6699396563964877E-002
 -0.10952866760251941        3.0252784871613082E-002   3.1359910502444313E-002
 -0.10557057327400381        3.0431314212618840E-002   2.6934570655324459E-002
 -0.10161247894548822        2.9963505880731628E-002   2.3423377022605291E-002
 -0.12690664770250559        3.5123434364365741E-002   2.9156963881388241E-002
 -0.12242182811073897        3.3925623708044694E-002   2.5545112542360370E-002
 -0.11793700851897237        3.2996361265293365E-002   2.2072565515433754E-002
 -0.11345218892720579        3.2335647036111678E-002   1.8739322800608544E-002
 -0.10896736933543916        3.1943481020499764E-002   1.5545384397884549E-002
 -0.13315034252775590        4.2290155557809066E-002   1.2234440636546167E-002
 -0.12891363957503760        3.8423329558375130E-002   1.2179256120874345E-002
 -0.12467693662231943        3.5739937658973667E-002   1.1488534015004423E-002
 -0.12044023366960115        3.4239979859604523E-002   1.0162274318936420E-002
 -0.11620353071688293        3.3923456160267880E-002   8.2004770326704109E-003
 -0.13617594073530154        4.9456876751252349E-002  -7.8145408946400999E-003
 -0.13296219632393103        4.2921035408705545E-002  -3.3981727004931302E-003
 -0.12974845191256049        3.8483514052653940E-002  -3.9218399884377066E-004
 -0.12653470750119000        3.6144312683097361E-002   1.2034252103083078E-003
 -0.12332096308981946        3.5903431300035982E-002   1.3886549269630510E-003
  -9.4138859547030010E-002   2.7983530740963526E-002   3.1834454906832614E-002
  -9.1763681711651876E-002   2.6793138212528645E-002   3.1267725998589846E-002
  -8.9388503876273728E-002   2.5870085482904683E-002   3.0781797855869524E-002
  -8.7013326040895581E-002   2.5214372552091670E-002   3.0376670478671375E-002
  -8.4638148205517433E-002   2.4825999420089576E-002   3.0052343866995748E-002
 -0.10161247894548822        2.9963505880731628E-002   2.3423377022605291E-002
  -9.9143276876870731E-002   2.9195758964355160E-002   2.3145500741949508E-002
  -9.6674074808253310E-002   2.8474472551893251E-002   2.2974872162249992E-002
  -9.4204872739635820E-002   2.7799646643345749E-002   2.2911491283506766E-002
  -9.1735670671018385E-002   2.7171281238712860E-002   2.2955358105719872E-002
 -0.10896736933543916        3.1943481020499764E-002   1.5545384397884549E-002
 -0.10637769609814844        3.1598379716181714E-002   1.5335481449919270E-002
 -0.10378802286085773        3.1078859620881711E-002   1.5259273138344260E-002
 -0.10119834962356702        3.0384920734599852E-002   1.5316759463159449E-002
  -9.8608676386276267E-002   2.9516563057336138E-002   1.5507940424364906E-002
 -0.11620353071688293        3.3923456160267880E-002   8.2004770326704109E-003
 -0.11346693937548497        3.4001000468008309E-002   7.8376681224993257E-003
 -0.11073034803408703        3.3683246689870314E-002   7.6350007841522955E-003
 -0.10799375669268908        3.2970194825854005E-002   7.5924750176295224E-003
 -0.10525716535129112        3.1861844875959389E-002   7.7100908229308868E-003
 -0.12332096308981946        3.5903431300035982E-002   1.3886549269630510E-003
 -0.12041100670888033        3.6403621219834745E-002   6.5206075968950172E-004
 -0.11750105032794118        3.6287633758858837E-002   1.0205509967420312E-004
 -0.11459109394700207        3.5555468917108049E-002  -2.6136205308312233E-004
 -0.11168113756606290        3.4207126694582701E-002  -4.3819069858203052E-004
  -8.4638148205517433E-002   2.4825999420089576E-002   3.0052343866995748E-002
  -8.2192119751150400E-002   2.4502109746518411E-002   2.9299445407878238E-002
  -7.9746091296783381E-002   2.4039847190997891E-002   2.8845321540832615E-002
  -7.7300062842416362E-002   2.3439211753528144E-002   2.8689972265859013E-002
  -7.4854034388049329E-002   2.2700203434109223E-002   2.8833397582957304E-002
  -9.1735670671018385E-002   2.7171281238712860E-002   2.2955358105719872E-002
  -8.9021115328738978E-002   2.6545884048782921E-002   2.2307280214456972E-002
  -8.6306559986459558E-002   2.5879962784344405E-002   2.1897481506946939E-002
  -8.3592004644180151E-002   2.5173517445397392E-002   2.1725961983189716E-002
  -8.0877449301900703E-002   2.4426548031941803E-002   2.1792721643185436E-002
  -9.8608676386276267E-002   2.9516563057336138E-002   1.5507940424364906E-002
  -9.5686089564403554E-002   2.8589658351047466E-002   1.5062531908397399E-002
  -9.2763502742530868E-002   2.7720078377690999E-002   1.4794907167863558E-002
  -8.9840915920658126E-002   2.6907823137266640E-002   1.4705066202763559E-002
  -8.6918329098785468E-002   2.6152892629774521E-002   1.4793009013097214E-002
 -0.10525716535129112        3.1861844875959389E-002   7.7100908229308868E-003
 -0.10218704245814418        3.0633432653311980E-002   7.5652004896994010E-003
  -9.9116919564997227E-002   2.9560193971037513E-002   7.5375985235824564E-003
  -9.6046796671850301E-002   2.8642128829135749E-002   7.6272849245804138E-003
  -9.2976673778703361E-002   2.7879237227607004E-002   7.8342596926928611E-003
 -0.11168113756606290        3.4207126694582701E-002  -4.3819069858203052E-004
 -0.10852397400996078        3.2677206955576549E-002  -1.8471404163691862E-004
 -0.10536681045385873        3.1400309564384124E-002   1.2555557410379170E-004
 -0.10220964689775665        3.0376434521005139E-002   4.9261814864013515E-004
  -9.9052483341654562E-002   2.9605581825439764E-002   9.1647368197206314E-004
  -7.4854034388049329E-002   2.2700203434109223E-002   2.8833397582957304E-002
  -7.2718865664133769E-002   2.1914624000442834E-002   2.8695477089571458E-002
  -7.0583696940218224E-002   2.1174275220231104E-002   2.8690030241732140E-002
  -6.8448528216302651E-002   2.0479157093473678E-002   2.8817057039439431E-002
  -6.6313359492387092E-002   1.9829269620170953E-002   2.9076557482693166E-002
  -8.0877449301900703E-002   2.4426548031941803E-002   2.1792721643185436E-002
  -7.8606762001351457E-002   2.3660397662442517E-002   2.1664077605791240E-002
  -7.6336074700802170E-002   2.2896409455364024E-002   2.1673997076117918E-002
  -7.4065387400252813E-002   2.2134583410706773E-002   2.1822480054165587E-002
  -7.1794700099703568E-002   2.1374919528470426E-002   2.2109526539934199E-002
  -8.6918329098785468E-002   2.6152892629774521E-002   1.4793009013097214E-002
  -8.4506033359428065E-002   2.5406171324442103E-002   1.4630572940661245E-002
  -8.2093737620070661E-002   2.4618543690497111E-002   1.4612790238120413E-002
  -7.9681441880713272E-002   2.3790009727939865E-002   1.4739660905474978E-002
  -7.7269146141355868E-002   2.2920569436770066E-002   1.5011184942724826E-002
  -9.2976673778703361E-002   2.7879237227607004E-002   7.8342596926928611E-003
  -9.0416679738363509E-002   2.7151944986441683E-002   7.5949630941814419E-003
  -8.7856685698023670E-002   2.6340677925630308E-002   7.5064097277398201E-003
  -8.5296691657683804E-002   2.5445436045172902E-002   7.5685995933676021E-003
  -8.2736697617343993E-002   2.4466219345069623E-002   7.7815326910652960E-003
  -9.9052483341654562E-002   2.9605581825439764E-002   9.1647368197206314E-004
  -9.6338701138157901E-002   2.8897718648441317E-002   5.5724806635196189E-004
  -9.3624918934661266E-002   2.8062812160763215E-002   3.5485554497584337E-004
  -9.0911136731164618E-002   2.7100862362406022E-002   3.0929611784358615E-004
  -8.8197354527667970E-002   2.6011869253369069E-002   4.2056978495552677E-004
  -6.6313359492387092E-002   1.9829269620170953E-002   2.9076557482693166E-002
  -6.3491344152131882E-002   1.9187146196677496E-002   2.8713195702698618E-002
  -6.0669328811876727E-002   1.8515320219348139E-002   2.8566050659669134E-002
  -5.7847313471621545E-002   1.7813791688182905E-002   2.8635122353604034E-002
  -5.5025298131366362E-002   1.7082560603181807E-002   2.8920410784503747E-002
  -7.1794700099703568E-002   2.1374919528470426E-002   2.2109526539934199E-002
  -6.8756664012599833E-002   2.0619749915006688E-002   2.1741425246131943E-002
  -6.5718627925496140E-002   1.9871406676667203E-002   2.1589148709062075E-002
  -6.2680591838392419E-002   1.9129889813451956E-002   2.1652696928724409E-002
  -5.9642555751288726E-002   1.8395199325360712E-002   2.1932069905119256E-002
  -7.7269146141355868E-002   2.2920569436770066E-002   1.5011184942724826E-002
  -7.4015481287635979E-002   2.2052353633335853E-002   1.4674873064074806E-002
  -7.0761816433916075E-002   2.1227493133986274E-002   1.4553993961924888E-002
  -6.7508151580196199E-002   2.0445987938720898E-002   1.4648547636274881E-002
  -6.4254486726476254E-002   1.9707838047539894E-002   1.4958534087125025E-002
  -8.2736697617343993E-002   2.4466219345069623E-002   7.7815326910652960E-003
  -7.9267795977240277E-002   2.3484957351665448E-002   7.5135391565276932E-003
  -7.5798894337136533E-002   2.2583579591305341E-002   7.4605864182577756E-003
  -7.2329992697032830E-002   2.1762086063990171E-002   7.6226744762552976E-003
  -6.8861091056929072E-002   2.1020476769718882E-002   7.9998033305205100E-003
  -8.8197354527667970E-002   2.6011869253369069E-002   4.2056978495552677E-004
  -8.4513608081412728E-002   2.4917561069994321E-002   2.5742352349039654E-004
  -8.0829861635157485E-002   2.3939666048624381E-002   3.0892607806015659E-004
  -7.7146115188902242E-002   2.3078184189258936E-002   5.7507744866573673E-004
  -7.3462368742647000E-002   2.2333115491897870E-002   1.0558776353063459E-003
  -5.5025298131366362E-002   1.7082560603181807E-002   2.8920410784503747E-002
  -5.3509723845989982E-002   1.6372819212266798E-002   2.8656144117751914E-002
  -5.1994149560613628E-002   1.5735759763360266E-002   2.8468412479652067E-002
  -5.0478575275237247E-002   1.5171382256462054E-002   2.8357215870204511E-002
  -4.8963000989860894E-002   1.4679686691571880E-002   2.8322554289408941E-002
  -5.9642555751288726E-002   1.8395199325360712E-002   2.1932069905119256E-002
  -5.8033587610228518E-002   1.7664240039752699E-002   2.1726647696058976E-002
  -5.6424619469168304E-002   1.6933916783986494E-002   2.1631478169714252E-002
  -5.4815651328108159E-002   1.6204229558062031E-002   2.1646561326084945E-002
  -5.3206683187047882E-002   1.5475178361979425E-002   2.1771897165171250E-002
  -6.4254486726476254E-002   1.9707838047539894E-002   1.4958534087125025E-002
  -6.2518407075668844E-002   1.8955660867238405E-002   1.4739910423589672E-002
  -6.0782327424861393E-002   1.8132073804612674E-002   1.4665257096833466E-002
  -5.9046247774053970E-002   1.7237076859661901E-002   1.4734574106856049E-002
  -5.7310168123246588E-002   1.6270670032386775E-002   1.4947861453657688E-002
  -6.8861091056929072E-002   2.1020476769718882E-002   7.9998033305205100E-003
  -6.6964182242310974E-002   2.0247081694724375E-002   7.6959323003441445E-003
  -6.5067273427692890E-002   1.9330230825238489E-002   7.5697492610096988E-003
  -6.3170364613074806E-002   1.8269924161261990E-002   7.6212542125179287E-003
  -6.1273455798456722E-002   1.7066161702794000E-002   7.8504471548682918E-003
  -7.3462368742647000E-002   2.2333115491897870E-002   1.0558776353063459E-003
  -7.1370913110154921E-002   2.1538502522210068E-002   5.9471332632166085E-004
  -6.9279457477662787E-002   2.0528387845865276E-002   3.4495466224304661E-004
  -6.7188001845170653E-002   1.9302771462861738E-002   3.0660164306986482E-004
  -6.5096546212678574E-002   1.7861653373201447E-002   4.7965426880258732E-004
  -4.8963000989860894E-002   1.4679686691571880E-002   2.8322554289408941E-002
  -4.5198896066975414E-002   1.4036930745569276E-002   2.7605636445807546E-002
  -4.1434791144089961E-002   1.3019372095333201E-002   2.7239038821080225E-002
  -3.7670686221204466E-002   1.1627010740863000E-002   2.7222761415227045E-002
  -3.3906581298319027E-002   9.8598466821591124E-003   2.7556804228248577E-002
  -5.3206683187047882E-002   1.5475178361979425E-002   2.1771897165171250E-002
  -4.9127001485313404E-002   1.4699331052083181E-002   2.0925917661681531E-002
  -4.5047319783578885E-002   1.3829255484717820E-002   2.0360771497015678E-002
  -4.0967638081844455E-002   1.2864951659883554E-002   2.0076458671173567E-002
  -3.6887956380109832E-002   1.1806419577579996E-002   2.0072979184155293E-002
  -5.7310168123246588E-002   1.6270670032386775E-002   1.4947861453657688E-002
  -5.2984396522713445E-002   1.5361731358596892E-002   1.4253394737044497E-002
  -4.8658624922180323E-002   1.4639138874102557E-002   1.3770274479204474E-002
  -4.4332853321647075E-002   1.4102892578904109E-002   1.3498500680137967E-002
  -4.0007081721114057E-002   1.3752992473000880E-002   1.3438073339844925E-002
  -6.1273455798456722E-002   1.7066161702794000E-002   7.8504471548682918E-003
  -5.6771081179175384E-002   1.6024131665110700E-002   7.5880676718958762E-003
  -5.2268706559894129E-002   1.5449022263487846E-002   7.4675477676468000E-003
  -4.7766331940612722E-002   1.5340833497924554E-002   7.4888874421204848E-003
  -4.3263957321331550E-002   1.5699565368421542E-002   7.6520866953171673E-003
  -6.5096546212678574E-002   1.7861653373201447E-002   4.7965426880258732E-004
  -6.0487055454699457E-002   1.6686531971624508E-002   9.2993646623623638E-004
  -5.5877564696720394E-002   1.6258905652872191E-002   1.4525913623422426E-003
  -5.1268073938741221E-002   1.6578774416945344E-002   2.0476189571205852E-003
  -4.6658583180762214E-002   1.7646138263842648E-002   2.7150192505720483E-003
 </DataArray>
 </PointData>
 </Piece>
 <Piece  NumberOfPoints="          1600 "  NumberOfCells="         1024 ">
 <Points>
 <DataArray  type="Float64" NumberOfComponents="3"  format="ascii" >
  0.50000000000000000        0.0000000000000000        0.0000000000000000     
  0.53125000000000000        0.0000000000000000        0.0000000000000000     
  0.56250000000000000        0.0000000000000000        0.0000000000000000     
  0.59375000000000000        0.0000000000000000        0.0000000000000000     
  0.62500000000000000        0.0000000000000000        0.0000000000000000     
  0.50000000000000000        3.1250000000000000E-002   0.0000000000000000     
  0.53125000000000000        3.1250000000000000E-002   0.0000000000000000     
  0.56250000000000000        3.1250000000000000E-002   0.0000000000000000     
  0.59375000000000000        3.1250000000000000E-002   0.0000000000000000     
  0.62500000000000000        3.1250000000000000E-002   0.0000000000000000     
  0.50000000000000000        6.2500000000000000E-002   0.0000000000000000     
  0.53125000000000000        6.2500000000000000E-002   0.0000000000000000     
  0.56250000000000000        6.2500000000000000E-002   0.0000000000000000     
  0.59375000000000000        6.2500000000000000E-002   0.0000000000000000     
  0.62500000000000000        6.2500000000000000E-002   0.0000000000000000     
  0.50000000000000000        9.3750000000000000E-002   0.0000000000000000     
  0.53125000000000000        9.3750000000000000E-002   0.0000000000000000     
  0.56250000000000000        9.3750000000000000E-002   0.0000000000000000     
  0.59375000000000000        9.3750000000000000E-002   0.0000000000000000     
  0.62500000000000000        9.3750000000000000E-002   0.0000000000000000     
  0.50000000000000000       0.12500000000000000        0.0000000000000000     
  0.53125000000000000       0.12500000000000000        0.0000000000000000     
  0.56250000000000000       0.12500000000000000        0.0000000000000000     
  0.59375000000000000       0.12500000000000000        0.0000000000000000     
  0.62500000000000000       0.12500000000000000        0.0000000000000000     
  0.62500000000000000        0.0000000000000000        0.0000000000000000     
  0.65625000000000000        0.0000000000000000        0.0000000000000000     
  0.68750000000000000        0.0000000000000000        0.0000000000000000     
  0.71875000000000000        0.0000000000000000        0.0000000000000000     
  0.75000000000000000        0.0000000000000000        0.0000000000000000     
  0.62500000000000000        3.1250000000000000E-002   0.0000000000000000     
  0.65625000000000000        3.1250000000000000E-002   0.0000000000000000     
  0.68750000000000000        3.1250000000000000E-002   0.0000000000000000     
  0.71875000000000000        3.1250000000000000E-002   0.0000000000000000     
  0.75000000000000000        3.1250000000000000E-002   0.0000000000000000     
  0.62500000000000000        6.2500000000000000E-002   0.0000000000000000     
  0.65625000000000000        6.2500000000000000E-002   0.0000000000000000     
  0.68750000000000000        6.2500000000000000E-002   0.0000000000000000     
  0.71875000000000000        6.2500000000000000E-002   0.0000000000000000     
  0.75000000000000000        6.2500000000000000E-002   0.0000000000000000     
  0.62500000000000000        9.3750000000000000E-002   0.0000000000000000     
  0.65625000000000000        9.3750000000000000E-002   0.0000000000000000     
  0.68750000000000000        9.3750000000000000E-002   0.0000000000000000     
  0.71875000000000000        9.3750000000000000E-002   0.0000000000000000     
  0.75000000000000000        9.3750000000000000E-002   0.0000000000000000     
  0.62500000000000000       0.12500000000000000        0.0000000000000000     
  0.65625000000000000       0.12500000000000000        0.0000000000000000     
  0.68750000000000000       0.12500000000000000        0.0000000000000000     
  0.71875000000000000       0.12500000000000000        0.0000000000000000     
  0.75000000000000000       0.12500000000000000        0.0000000000000000     
  0.75000000000000000        0.0000000000000000        0.0000000000000000     
  0.78125000000000000        0.0000000000000000        0.0000000000000000     
  0.81250000000000000        0.0000000000000000        0.0000000000000000     
  0.84375000000000000        0.0000000000000000        0.0000000000000000     
  0.87500000000000000        0.0000000000000000        0.0000000000000000     
  0.75000000000000000        3.1250000000000000E-002   0.0000000000000000     
  0.78125000000000000        3.1250000000000000E-002   0.0000000000000000     
  0.81250000000000000        3.1250000000000000E-002   0.0000000000000000     
  0.84375000000000000        3.1250000000000000E-002   0.0000000000000000     
  0.87500000000000000        3.1250000000000000E-002   0.0000000000000000     
  0.75000000000000000        6.2500000000000000E-002   0.0000000000000000     
  0.78125000000000000        6.2500000000000000E-002   0.0000000000000000     
  0.81250000000000000        6.2500000000000000E-002   0.0000000000000000     
  0.84375000000000000        6.2500000000000000E-002   0.0000000000000000     
  0.87500000000000000        6.2500000000000000E-002   0.0000000000000000     
  0.75000000000000000        9.3750000000000000E-002   0.0000000000000000     
  0.78125000000000000        9.3750000000000000E-002   0.0000000000000000     
  0.81250000000000000        9.3750000000000000E-002   0.0000000000000000     
  0.84375000000000000        9.3750000000000000E-002   0.0000000000000000     
  0.87500000000000000        9.3750000000000000E-002   0.0000000000000000     
  0.75000000000000000       0.12500000000000000        0.0000000000000000     
  0.78125000000000000       0.12500000000000000        0.0000000000000000     
  0.81250000000000000       0.12500000000000000        0.0000000000000000     
  0.84375000000000000       0.12500000000000000        0.0000000000000000     
  0.87500000000000000       0.12500000000000000        0.0000000000000000     
  0.87500000000000000        0.0000000000000000        0.0000000000000000     
  0.90625000000000000        0.0000000000000000        0.0000000000000000     
  0.93750000000000000        0.0000000000000000        0.0000000000000000     
  0.96875000000000000        0.0000000000000000        0.0000000000000000     
   1.0000000000000000        0.0000000000000000        0.0000000000000000     
  0.87500000000000000        3.1250000000000000E-002   0.0000000000000000     
  0.90625000000000000        3.1250000000000000E-002   0.0000000000000000     
  0.93750000000000000        3.1250000000000000E-002   0.0000000000000000     
  0.96875000000000000        3.1250000000000000E-002   0.0000000000000000     
   1.0000000000000000        3.1250000000000000E-002   0.0000000000000000     
  0.87500000000000000        6.2500000000000000E-002   0.0000000000000000     
  0.90625000000000000        6.2500000000000000E-002   0.0000000000000000     
  0.93750000000000000        6.2500000000000000E-002   0.0000000000000000     
  0.96875000000000000        6.2500000000000000E-002   0.0000000000000000     
   1.0000000000000000        6.2500000000000000E-002   0.0000000000000000     
  0.87500000000000000        9.3750000000000000E-002   0.0000000000000000     
  0.90625000000000000        9.3750000000000000E-002   0.0000000000000000     
  0.93750000000000000        9.3750000000000000E-002   0.0000000000000000     
  0.96875000000000000        9.3750000000000000E-002   0.0000000000000000     
   1.0000000000000000        9.3750000000000000E-002   0.0000000000000000     
  0.87500000000000000       0.12500000000000000        0.0000000000000000     
  0.90625000000000000       0.12500000000000000        0.0000000000000000     
  0.93750000000000000       0.12500000000000000        0.0000000000000000     
  0.96875000000000000       0.12500000000000000        0.0000000000000000     
   1.0000000000000000       0.12500000000000000        0.0000000000000000     
   1.0000000000000000        0.0000000000000000        0.0000000000000000     
   1.0312500000000000        0.0000000000000000        0.0000000000000000     
   1.0625000000000000        0.0000000000000000        0.0000000000000000     
   1.0937500000000000        0.0000000000000000        0.0000000000000000     
   1.1250000000000000        0.0000000000000000        0.0000000000000000     
   1.0000000000000000        3.1250000000000000E-002   0.0000000000000000     
   1.0312500000000000        3.1250000000000000E-002   0.0000000000000000     
   1.0625000000000000        3.1250000000000000E-002   0.0000000000000000     
   1.0937500000000000        3.1250000000000000E-002   0.0000000000000000     
   1.1250000000000000        3.1250000000000000E-002   0.0000000000000000     
   1.0000000000000000        6.2500000000000000E-002   0.0000000000000000     
   1.0312500000000000        6.2500000000000000E-002   0.0000000000000000     
   1.0625000000000000        6.2500000000000000E-002   0.0000000000000000     
   1.0937500000000000        6.2500000000000000E-002   0.0000000000000000     
   1.1250000000000000        6.2500000000000000E-002   0.0000000000000000     
   1.0000000000000000        9.3750000000000000E-002   0.0000000000000000     
   1.0312500000000000        9.3750000000000000E-002   0.0000000000000000     
   1.0625000000000000        9.3750000000000000E-002   0.0000000000000000     
   1.0937500000000000        9.3750000000000000E-002   0.0000000000000000     
   1.1250000000000000        9.3750000000000000E-002   0.0000000000000000     
   1.0000000000000000       0.12500000000000000        0.0000000000000000     
   1.0312500000000000       0.12500000000000000        0.0000000000000000     
   1.0625000000000000       0.12500000000000000        0.0000000000000000     
   1.0937500000000000       0.12500000000000000        0.0000000000000000     
   1.1250000000000000       0.12500000000000000        0.0000000000000000     
   1.1250000000000000        0.0000000000000000        0.0000000000000000     
   1.1562500000000000        0.0000000000000000        0.0000000000000000     
   1.1875000000000000        0.0000000000000000        0.0000000000000000     
   1.2187500000000000        0.0000000000000000        0.0000000000000000     
   1.2500000000000000        0.0000000000000000        0.0000000000000000     
   1.1250000000000000        3.1250000000000000E-002   0.0000000000000000     
   1.1562500000000000        3.1250000000000000E-002   0.0000000000000000     
   1.1875000000000000        3.1250000000000000E-002   0.0000000000000000     
   1.2187500000000000        3.1250000000000000E-002   0.0000000000000000     
   1.2500000000000000        3.1250000000000000E-002   0.0000000000000000     
   1.1250000000000000        6.2500000000000000E-002   0.0000000000000000     
   1.1562500000000000        6.2500000000000000E-002   0.0000000000000000     
   1.1875000000000000        6.2500000000000000E-002   0.0000000000000000     
   1.2187500000000000        6.2500000000000000E-002   0.0000000000000000     
   1.2500000000000000        6.2500000000000000E-002   0.0000000000000000     
   1.1250000000000000        9.3750000000000000E-002   0.0000000000000000     
   1.1562500000000000        9.3750000000000000E-002   0.0000000000000000     
   1.1875000000000000        9.3750000000000000E-002   0.0000000000000000     
   1.2187500000000000        9.3750000000000000E-002   0.0000000000000000     
   1.2500000000000000        9.3750000000000000E-002   0.0000000000000000     
   1.1250000000000000       0.12500000000000000        0.0000000000000000     
   1.1562500000000000       0.12500000000000000        0.0000000000000000     
   1.1875000000000000       0.12500000000000000        0.0000000000000000     
   1.2187500000000000       0.12500000000000000        0.0000000000000000     
   1.2500000000000000       0.12500000000000000        0.0000000000000000     
   1.2500000000000000        0.0000000000000000        0.0000000000000000     
   1.2812500000000000        0.0000000000000000        0.0000000000000000     
   1.3125000000000000        0.0000000000000000        0.0000000000000000     
   1.3437500000000000        0.0000000000000000        0.0000000000000000     
   1.3750000000000000        0.0000000000000000        0.0000000000000000     
   1.2500000000000000        3.1250000000000000E-002   0.0000000000000000     
   1.2812500000000000        3.1250000000000000E-002   0.0000000000000000     
   1.3125000000000000        3.1250000000000000E-002   0.0000000000000000     
   1.3437500000000000        3.1250000000000000E-002   0.0000000000000000     
   1.3750000000000000        3.1250000000000000E-002   0.0000000000000000     
   1.2500000000000000        6.2500000000000000E-002   0.0000000000000000     
   1.2812500000000000        6.2500000000000000E-002   0.0000000000000000     
   1.3125000000000000        6.2500000000000000E-002   0.0000000000000000     
   1.3437500000000000        6.2500000000000000E-002   0.0000000000000000     
   1.3750000000000000        6.2500000000000000E-002   0.0000000000000000     
   1.2500000000000000        9.3750000000000000E-002   0.0000000000000000     
   1.2812500000000000        9.3750000000000000E-002   0.0000000000000000     
   1.3125000000000000        9.3750000000000000E-002   0.0000000000000000     
   1.3437500000000000        9.3750000000000000E-002   0.0000000000000000     
   1.3750000000000000        9.3750000000000000E-002   0.0000000000000000     
   1.2500000000000000       0.12500000000000000        0.0000000000000000     
   1.2812500000000000       0.12500000000000000        0.0000000000000000     
   1.3125000000000000       0.12500000000000000        0.0000000000000000     
   1.3437500000000000       0.12500000000000000        0.0000000000000000     
   1.3750000000000000       0.12500000000000000        0.0000000000000000     
   1.3750000000000000        0.0000000000000000        0.0000000000000000     
   1.4062500000000000        0.0000000000000000        0.0000000000000000     
   1.4375000000000000        0.0000000000000000        0.0000000000000000     
   1.4687500000000000        0.0000000000000000        0.0000000000000000     
   1.5000000000000000        0.0000000000000000        0.0000000000000000     
   1.3750000000000000        3.1250000000000000E-002   0.0000000000000000     
   1.4062500000000000        3.1250000000000000E-002   0.0000000000000000     
   1.4375000000000000        3.1250000000000000E-002   0.0000000000000000     
   1.4687500000000000        3.1250000000000000E-002   0.0000000000000000     
   1.5000000000000000        3.1250000000000000E-002   0.0000000000000000     
   1.3750000000000000        6.2500000000000000E-002   0.0000000000000000     
   1.4062500000000000        6.2500000000000000E-002   0.0000000000000000     
   1.4375000000000000        6.2500000000000000E-002   0.0000000000000000     
   1.4687500000000000        6.2500000000000000E-002   0.0000000000000000     
   1.5000000000000000        6.2500000000000000E-002   0.0000000000000000     
   1.3750000000000000        9.3750000000000000E-002   0.0000000000000000     
   1.4062500000000000        9.3750000000000000E-002   0.0000000000000000     
   1.4375000000000000        9.3750000000000000E-002   0.0000000000000000     
   1.4687500000000000        9.3750000000000000E-002   0.0000000000000000     
   1.5000000000000000        9.3750000000000000E-002   0.0000000000000000     
   1.3750000000000000       0.12500000000000000        0.0000000000000000     
   1.4062500000000000       0.12500000000000000        0.0000000000000000     
   1.4375000000000000       0.12500000000000000        0.0000000000000000     
   1.4687500000000000       0.12500000000000000        0.0000000000000000     
   1.5000000000000000       0.12500000000000000        0.0000000000000000     
  0.50000000000000000       0.12500000000000000        0.0000000000000000     
  0.53125000000000000       0.12500000000000000        0.0000000000000000     
  0.56250000000000000       0.12500000000000000        0.0000000000000000     
  0.59375000000000000       0.12500000000000000        0.0000000000000000     
  0.62500000000000000       0.12500000000000000        0.0000000000000000     
  0.50000000000000000       0.15625000000000000        0.0000000000000000     
  0.53125000000000000       0.15625000000000000        0.0000000000000000     
  0.56250000000000000       0.15625000000000000        0.0000000000000000     
  0.59375000000000000       0.15625000000000000        0.0000000000000000     
  0.62500000000000000       0.15625000000000000        0.0000000000000000     
  0.50000000000000000       0.18750000000000000        0.0000000000000000     
  0.53125000000000000       0.18750000000000000        0.0000000000000000     
  0.56250000000000000       0.18750000000000000        0.0000000000000000     
  0.59375000000000000       0.18750000000000000        0.0000000000000000     
  0.62500000000000000       0.18750000000000000        0.0000000000000000     
  0.50000000000000000       0.21875000000000000        0.0000000000000000     
  0.53125000000000000       0.21875000000000000        0.0000000000000000     
  0.56250000000000000       0.21875000000000000        0.0000000000000000     
  0.59375000000000000       0.21875000000000000        0.0000000000000000     
  0.62500000000000000       0.21875000000000000        0.0000000000000000     
  0.50000000000000000       0.25000000000000000        0.0000000000000000     
  0.53125000000000000       0.25000000000000000        0.0000000000000000     
  0.56250000000000000       0.25000000000000000        0.0000000000000000     
  0.59375000000000000       0.25000000000000000        0.0000000000000000     
  0.62500000000000000       0.25000000000000000        0.0000000000000000     
  0.62500000000000000       0.12500000000000000        0.0000000000000000     
  0.65625000000000000       0.12500000000000000        0.0000000000000000     
  0.68750000000000000       0.12500000000000000        0.0000000000000000     
  0.71875000000000000       0.12500000000000000        0.0000000000000000     
  0.75000000000000000       0.12500000000000000        0.0000000000000000     
  0.62500000000000000       0.15625000000000000        0.0000000000000000     
  0.65625000000000000       0.15625000000000000        0.0000000000000000     
  0.68750000000000000       0.15625000000000000        0.0000000000000000     
  0.71875000000000000       0.15625000000000000        0.0000000000000000     
  0.75000000000000000       0.15625000000000000        0.0000000000000000     
  0.62500000000000000       0.18750000000000000        0.0000000000000000     
  0.65625000000000000       0.18750000000000000        0.0000000000000000     
  0.68750000000000000       0.18750000000000000        0.0000000000000000     
  0.71875000000000000       0.18750000000000000        0.0000000000000000     
  0.75000000000000000       0.18750000000000000        0.0000000000000000     
  0.62500000000000000       0.21875000000000000        0.0000000000000000     
  0.65625000000000000       0.21875000000000000        0.0000000000000000     
  0.68750000000000000       0.21875000000000000        0.0000000000000000     
  0.71875000000000000       0.21875000000000000        0.0000000000000000     
  0.75000000000000000       0.21875000000000000        0.0000000000000000     
  0.62500000000000000       0.25000000000000000        0.0000000000000000     
  0.65625000000000000       0.25000000000000000        0.0000000000000000     
  0.68750000000000000       0.25000000000000000        0.0000000000000000     
  0.71875000000000000       0.25000000000000000        0.0000000000000000     
  0.75000000000000000       0.25000000000000000        0.0000000000000000     
  0.75000000000000000       0.12500000000000000        0.0000000000000000     
  0.78125000000000000       0.12500000000000000        0.0000000000000000     
  0.81250000000000000       0.12500000000000000        0.0000000000000000     
  0.84375000000000000       0.12500000000000000        0.0000000000000000     
  0.87500000000000000       0.12500000000000000        0.0000000000000000     
  0.75000000000000000       0.15625000000000000        0.0000000000000000     
  0.78125000000000000       0.15625000000000000        0.0000000000000000     
  0.81250000000000000       0.15625000000000000        0.0000000000000000     
  0.84375000000000000       0.15625000000000000        0.0000000000000000     
  0.87500000000000000       0.15625000000000000        0.0000000000000000     
  0.75000000000000000       0.18750000000000000        0.0000000000000000     
  0.78125000000000000       0.18750000000000000        0.0000000000000000     
  0.81250000000000000       0.18750000000000000        0.0000000000000000     
  0.84375000000000000       0.18750000000000000        0.0000000000000000     
  0.87500000000000000       0.18750000000000000        0.0000000000000000     
  0.75000000000000000       0.21875000000000000        0.0000000000000000     
  0.78125000000000000       0.21875000000000000        0.0000000000000000     
  0.81250000000000000       0.21875000000000000        0.0000000000000000     
  0.84375000000000000       0.21875000000000000        0.0000000000000000     
  0.87500000000000000       0.21875000000000000        0.0000000000000000     
  0.75000000000000000       0.25000000000000000        0.0000000000000000     
  0.78125000000000000       0.25000000000000000        0.0000000000000000     
  0.81250000000000000       0.25000000000000000        0.0000000000000000     
  0.84375000000000000       0.25000000000000000        0.0000000000000000     
  0.87500000000000000       0.25000000000000000        0.0000000000000000     
  0.87500000000000000       0.12500000000000000        0.0000000000000000     
  0.90625000000000000       0.12500000000000000        0.0000000000000000     
  0.93750000000000000       0.12500000000000000        0.0000000000000000     
  0.96875000000000000       0.12500000000000000        0.0000000000000000     
   1.0000000000000000       0.12500000000000000        0.0000000000000000     
  0.87500000000000000       0.15625000000000000        0.0000000000000000     
  0.90625000000000000       0.15625000000000000        0.0000000000000000     
  0.93750000000000000       0.15625000000000000        0.0000000000000000     
  0.96875000000000000       0.15625000000000000        0.0000000000000000     
   1.0000000000000000       0.15625000000000000        0.0000000000000000     
  0.87500000000000000       0.18750000000000000        0.0000000000000000     
  0.90625000000000000       0.18750000000000000        0.0000000000000000     
  0.93750000000000000       0.18750000000000000        0.0000000000000000     
  0.96875000000000000       0.18750000000000000        0.0000000000000000     
   1.0000000000000000       0.18750000000000000        0.0000000000000000     
  0.87500000000000000       0.21875000000000000        0.0000000000000000     
  0.90625000000000000       0.21875000000000000        0.0000000000000000     
  0.93750000000000000       0.21875000000000000        0.0000000000000000     
  0.96875000000000000       0.21875000000000000        0.0000000000000000     
   1.0000000000000000       0.21875000000000000        0.0000000000000000     
  0.87500000000000000       0.25000000000000000        0.0000000000000000     
  0.90625000000000000       0.25000000000000000        0.0000000000000000     
  0.93750000000000000       0.25000000000000000        0.0000000000000000     
  0.96875000000000000       0.25000000000000000        0.0000000000000000     
   1.0000000000000000       0.25000000000000000        0.0000000000000000     
   1.0000000000000000       0.12500000000000000        0.0000000000000000     
   1.0312500000000000       0.12500000000000000        0.0000000000000000     
   1.0625000000000000       0.12500000000000000        0.0000000000000000     
   1.0937500000000000       0.12500000000000000        0.0000000000000000     
   1.1250000000000000       0.12500000000000000        0.0000000000000000     
   1.0000000000000000       0.15625000000000000        0.0000000000000000     
   1.0312500000000000       0.15625000000000000        0.0000000000000000     
   1.0625000000000000       0.15625000000000000        0.0000000000000000     
   1.0937500000000000       0.15625000000000000        0.0000000000000000     
   1.1250000000000000       0.15625000000000000        0.0000000000000000     
   1.0000000000000000       0.18750000000000000        0.0000000000000000     
   1.0312500000000000       0.18750000000000000        0.0000000000000000     
   1.0625000000000000       0.18750000000000000        0.0000000000000000     
   1.0937500000000000       0.18750000000000000        0.0000000000000000     
   1.1250000000000000       0.18750000000000000        0.0000000000000000     
   1.0000000000000000       0.21875000000000000        0.0000000000000000     
   1.0312500000000000       0.21875000000000000        0.0000000000000000     
   1.0625000000000000       0.21875000000000000        0.0000000000000000     
   1.0937500000000000       0.21875000000000000        0.0000000000000000     
   1.1250000000000000       0.21875000000000000        0.0000000000000000     
   1.0000000000000000       0.25000000000000000        0.0000000000000000     
   1.0312500000000000       0.25000000000000000        0.0000000000000000     
   1.0625000000000000       0.25000000000000000        0.0000000000000000     
   1.0937500000000000       0.25000000000000000        0.0000000000000000     
   1.1250000000000000       0.25000000000000000        0.0000000000000000     
   1.1250000000000000       0.12500000000000000        0.0000000000000000     
   1.1562500000000000       0.12500000000000000        0.0000000000000000     
   1.1875000000000000       0.12500000000000000        0.0000000000000000     
   1.2187500000000000       0.12500000000000000        0.0000000000000000     
   1.2500000000000000       0.12500000000000000        0.0000000000000000     
   1.1250000000000000       0.15625000000000000        0.0000000000000000     
   1.1562500000000000       0.15625000000000000        0.0000000000000000     
   1.1875000000000000       0.15625000000000000        0.0000000000000000     
   1.2187500000000000       0.15625000000000000        0.0000000000000000     
   1.2500000000000000       0.15625000000000000        0.0000000000000000     
   1.1250000000000000       0.18750000000000000        0.0000000000000000     
   1.1562500000000000       0.18750000000000000        0.0000000000000000     
   1.1875000000000000       0.18750000000000000        0.0000000000000000     
   1.2187500000000000       0.18750000000000000        0.0000000000000000     
   1.2500000000000000       0.18750000000000000        0.0000000000000000     
   1.1250000000000000       0.21875000000000000        0.0000000000000000     
   1.1562500000000000       0.21875000000000000        0.0000000000000000     
   1.1875000000000000       0.21875000000000000        0.0000000000000000     
   1.2187500000000000       0.21875000000000000        0.0000000000000000     
   1.2500000000000000       0.21875000000000000        0.0000000000000000     
   1.1250000000000000       0.25000000000000000        0.0000000000000000     
   1.1562500000000000       0.25000000000000000        0.0000000000000000     
   1.1875000000000000       0.25000000000000000        0.0000000000000000     
   1.2187500000000000       0.25000000000000000        0.0000000000000000     
   1.2500000000000000       0.25000000000000000        0.0000000000000000     
   1.2500000000000000       0.12500000000000000        0.0000000000000000     
   1.2812500000000000       0.12500000000000000        0.0000000000000000     
   1.3125000000000000       0.12500000000000000        0.0000000000000000     
   1.3437500000000000       0.12500000000000000        0.0000000000000000     
   1.3750000000000000       0.12500000000000000        0.0000000000000000     
   1.2500000000000000       0.15625000000000000        0.0000000000000000     
   1.2812500000000000       0.15625000000000000        0.0000000000000000     
   1.3125000000000000       0.15625000000000000        0.0000000000000000     
   1.3437500000000000       0.15625000000000000        0.0000000000000000     
   1.3750000000000000       0.15625000000000000        0.0000000000000000     
   1.2500000000000000       0.18750000000000000        0.0000000000000000     
   1.2812500000000000       0.18750000000000000        0.0000000000000000     
   1.3125000000000000       0.18750000000000000        0.0000000000000000     
   1.3437500000000000       0.18750000000000000        0.0000000000000000     
   1.3750000000000000       0.18750000000000000        0.0000000000000000     
   1.2500000000000000       0.21875000000000000        0.0000000000000000     
   1.2812500000000000       0.21875000000000000        0.0000000000000000     
   1.3125000000000000       0.21875000000000000        0.0000000000000000     
   1.3437500000000000       0.21875000000000000        0.0000000000000000     
   1.3750000000000000       0.21875000000000000        0.0000000000000000     
   1.2500000000000000       0.25000000000000000        0.0000000000000000     
   1.2812500000000000       0.25000000000000000        0.0000000000000000     
   1.3125000000000000       0.25000000000000000        0.0000000000000000     
   1.3437500000000000       0.25000000000000000        0.0000000000000000     
   1.3750000000000000       0.25000000000000000        0.0000000000000000     
   1.3750000000000000       0.12500000000000000        0.0000000000000000     
   1.4062500000000000       0.12500000000000000        0.0000000000000000     
   1.4375000000000000       0.12500000000000000        0.0000000000000000     
   1.4687500000000000       0.12500000000000000        0.0000000000000000     
   1.5000000000000000       0.12500000000000000        0.0000000000000000     
   1.3750000000000000       0.15625000000000000        0.0000000000000000     
   1.4062500000000000       0.15625000000000000        0.0000000000000000     
   1.4375000000000000       0.15625000000000000        0.0000000000000000     
   1.4687500000000000       0.15625000000000000        0.0000000000000000     
   1.5000000000000000       0.15625000000000000        0.0000000000000000     
   1.3750000000000000       0.18750000000000000        0.0000000000000000     
   1.4062500000000000       0.18750000000000000        0.0000000000000000     
   1.4375000000000000       0.18750000000000000        0.0000000000000000     
   1.4687500000000000       0.18750000000000000        0.0000000000000000     
   1.5000000000000000       0.18750000000000000        0.0000000000000000     
   1.3750000000000000       0.21875000000000000        0.0000000000000000     
   1.4062500000000000       0.21875000000000000        0.0000000000000000     
   1.4375000000000000       0.21875000000000000        0.0000000000000000     
   1.4687500000000000       0.21875000000000000        0.0000000000000000     
   1.5000000000000000       0.21875000000000000        0.0000000000000000     
   1.3750000000000000       0.25000000000000000        0.0000000000000000     
   1.4062500000000000       0.25000000000000000        0.0000000000000000     
   1.4375000000000000       0.25000000000000000        0.0000000000000000     
   1.4687500000000000       0.25000000000000000        0.0000000000000000     
   1.5000000000000000       0.25000000000000000        0.0000000000000000     
  0.50000000000000000       0.25000000000000000        0.0000000000000000     
  0.53125000000000000       0.25000000000000000        0.0000000000000000     
  0.56250000000000000       0.25000000000000000        0.0000000000000000     
  0.59375000000000000       0.25000000000000000        0.0000000000000000     
  0.62500000000000000       0.25000000000000000        0.0000000000000000     
  0.50000000000000000       0.28125000000000000        0.0000000000000000     
  0.53125000000000000       0.28125000000000000        0.0000000000000000     
  0.56250000000000000       0.28125000000000000        0.0000000000000000     
  0.59375000000000000       0.28125000000000000        0.0000000000000000     
  0.62500000000000000       0.28125000000000000        0.0000000000000000     
  0.50000000000000000       0.31250000000000000        0.0000000000000000     
  0.53125000000000000       0.31250000000000000        0.0000000000000000     
  0.56250000000000000       0.31250000000000000        0.0000000000000000     
  0.59375000000000000       0.31250000000000000        0.0000000000000000     
  0.62500000000000000       0.31250000000000000        0.0000000000000000     
  0.50000000000000000       0.34375000000000000        0.0000000000000000     
  0.53125000000000000       0.34375000000000000        0.0000000000000000     
  0.56250000000000000       0.34375000000000000        0.0000000000000000     
  0.59375000000000000       0.34375000000000000        0.0000000000000000     
  0.62500000000000000       0.34375000000000000        0.0000000000000000     
  0.50000000000000000       0.37500000000000000        0.0000000000000000     
  0.53125000000000000       0.37500000000000000        0.0000000000000000     
  0.56250000000000000       0.37500000000000000        0.0000000000000000     
  0.59375000000000000       0.37500000000000000        0.0000000000000000     
  0.62500000000000000       0.37500000000000000        0.0000000000000000     
  0.62500000000000000       0.25000000000000000        0.0000000000000000     
  0.65625000000000000       0.25000000000000000        0.0000000000000000     
  0.68750000000000000       0.25000000000000000        0.0000000000000000     
  0.71875000000000000       0.25000000000000000        0.0000000000000000     
  0.75000000000000000       0.25000000000000000        0.0000000000000000     
  0.62500000000000000       0.28125000000000000        0.0000000000000000     
  0.65625000000000000       0.28125000000000000        0.0000000000000000     
  0.68750000000000000       0.28125000000000000        0.0000000000000000     
  0.71875000000000000       0.28125000000000000        0.0000000000000000     
  0.75000000000000000       0.28125000000000000        0.0000000000000000     
  0.62500000000000000       0.31250000000000000        0.0000000000000000     
  0.65625000000000000       0.31250000000000000        0.0000000000000000     
  0.68750000000000000       0.31250000000000000        0.0000000000000000     
  0.71875000000000000       0.31250000000000000        0.0000000000000000     
  0.75000000000000000       0.31250000000000000        0.0000000000000000     
  0.62500000000000000       0.34375000000000000        0.0000000000000000     
  0.65625000000000000       0.34375000000000000        0.0000000000000000     
  0.68750000000000000       0.34375000000000000        0.0000000000000000     
  0.71875000000000000       0.34375000000000000        0.0000000000000000     
  0.75000000000000000       0.34375000000000000        0.0000000000000000     
  0.62500000000000000       0.37500000000000000        0.0000000000000000     
  0.65625000000000000       0.37500000000000000        0.0000000000000000     
  0.68750000000000000       0.37500000000000000        0.0000000000000000     
  0.71875000000000000       0.37500000000000000        0.0000000000000000     
  0.75000000000000000       0.37500000000000000        0.0000000000000000     
  0.75000000000000000       0.25000000000000000        0.0000000000000000     
  0.78125000000000000       0.25000000000000000        0.0000000000000000     
  0.81250000000000000       0.25000000000000000        0.0000000000000000     
  0.84375000000000000       0.25000000000000000        0.0000000000000000     
  0.87500000000000000       0.25000000000000000        0.0000000000000000     
  0.75000000000000000       0.28125000000000000        0.0000000000000000     
  0.78125000000000000       0.28125000000000000        0.0000000000000000     
  0.81250000000000000       0.28125000000000000        0.0000000000000000     
  0.84375000000000000       0.28125000000000000        0.0000000000000000     
  0.87500000000000000       0.28125000000000000        0.0000000000000000     
  0.75000000000000000       0.31250000000000000        0.0000000000000000     
  0.78125000000000000       0.31250000000000000        0.0000000000000000     
  0.81250000000000000       0.31250000000000000        0.0000000000000000     
  0.84375000000000000       0.31250000000000000        0.0000000000000000     
  0.87500000000000000       0.31250000000000000        0.0000000000000000     
  0.75000000000000000       0.34375000000000000        0.0000000000000000     
  0.78125000000000000       0.34375000000000000        0.0000000000000000     
  0.81250000000000000       0.34375000000000000        0.0000000000000000     
  0.84375000000000000       0.34375000000000000        0.0000000000000000     
  0.87500000000000000       0.34375000000000000        0.0000000000000000     
  0.75000000000000000       0.37500000000000000        0.0000000000000000     
  0.78125000000000000       0.37500000000000000        0.0000000000000000     
  0.81250000000000000       0.37500000000000000        0.0000000000000000     
  0.84375000000000000       0.37500000000000000        0.0000000000000000     
  0.87500000000000000       0.37500000000000000        0.0000000000000000     
  0.87500000000000000       0.25000000000000000        0.0000000000000000     
  0.90625000000000000       0.25000000000000000        0.0000000000000000     
  0.93750000000000000       0.25000000000000000        0.0000000000000000     
  0.96875000000000000       0.25000000000000000        0.0000000000000000     
   1.0000000000000000       0.25000000000000000        0.0000000000000000     
  0.87500000000000000       0.28125000000000000        0.0000000000000000     
  0.90625000000000000       0.28125000000000000        0.0000000000000000     
  0.93750000000000000       0.28125000000000000        0.0000000000000000     
  0.96875000000000000       0.28125000000000000        0.0000000000000000     
   1.0000000000000000       0.28125000000000000        0.0000000000000000     
  0.87500000000000000       0.31250000000000000        0.0000000000000000     
  0.90625000000000000       0.31250000000000000        0.0000000000000000     
  0.93750000000000000       0.31250000000000000        0.0000000000000000     
  0.96875000000000000       0.31250000000000000        0.0000000000000000     
   1.0000000000000000       0.31250000000000000        0.0000000000000000     
  0.87500000000000000       0.34375000000000000        0.0000000000000000     
  0.90625000000000000       0.34375000000000000        0.0000000000000000     
  0.93750000000000000       0.34375000000000000        0.0000000000000000     
  0.96875000000000000       0.34375000000000000        0.0000000000000000     
   1.0000000000000000       0.34375000000000000        0.0000000000000000     
  0.87500000000000000       0.37500000000000000        0.0000000000000000     
  0.90625000000000000       0.37500000000000000        0.0000000000000000     
  0.93750000000000000       0.37500000000000000        0.0000000000000000     
  0.96875000000000000       0.37500000000000000        0.0000000000000000     
   1.0000000000000000       0.37500000000000000        0.0000000000000000     
   1.0000000000000000       0.25000000000000000        0.0000000000000000     
   1.0312500000000000       0.25000000000000000        0.0000000000000000     
   1.0625000000000000       0.25000000000000000        0.0000000000000000     
   1.0937500000000000       0.25000000000000000        0.0000000000000000     
   1.1250000000000000       0.25000000000000000        0.0000000000000000     
   1.0000000000000000       0.28125000000000000        0.0000000000000000     
   1.0312500000000000       0.28125000000000000        0.0000000000000000     
   1.0625000000000000       0.28125000000000000        0.0000000000000000     
   1.0937500000000000       0.28125000000000000        0.0000000000000000     
   1.1250000000000000       0.28125000000000000        0.0000000000000000     
   1.0000000000000000       0.31250000000000000        0.0000000000000000     
   1.0312500000000000       0.31250000000000000        0.0000000000000000     
   1.0625000000000000       0.31250000000000000        0.0000000000000000     
   1.0937500000000000       0.31250000000000000        0.0000000000000000     
   1.1250000000000000       0.31250000000000000        0.0000000000000000     
   1.0000000000000000       0.34375000000000000        0.0000000000000000     
   1.0312500000000000       0.34375000000000000        0.0000000000000000     
   1.0625000000000000       0.34375000000000000        0.0000000000000000     
   1.0937500000000000       0.34375000000000000        0.0000000000000000     
   1.1250000000000000       0.34375000000000000        0.0000000000000000     
   1.0000000000000000       0.37500000000000000        0.0000000000000000     
   1.0312500000000000       0.37500000000000000        0.0000000000000000     
   1.0625000000000000       0.37500000000000000        0.0000000000000000     
   1.0937500000000000       0.37500000000000000        0.0000000000000000     
   1.1250000000000000       0.37500000000000000        0.0000000000000000     
   1.1250000000000000       0.25000000000000000        0.0000000000000000     
   1.1562500000000000       0.25000000000000000        0.0000000000000000     
   1.1875000000000000       0.25000000000000000        0.0000000000000000     
   1.2187500000000000       0.25000000000000000        0.0000000000000000     
   1.2500000000000000       0.25000000000000000        0.0000000000000000     
   1.1250000000000000       0.28125000000000000        0.0000000000000000     
   1.1562500000000000       0.28125000000000000        0.0000000000000000     
   1.1875000000000000       0.28125000000000000        0.0000000000000000     
   1.2187500000000000       0.28125000000000000        0.0000000000000000     
   1.2500000000000000       0.28125000000000000        0.0000000000000000     
   1.1250000000000000       0.31250000000000000        0.0000000000000000     
   1.1562500000000000       0.31250000000000000        0.0000000000000000     
   1.1875000000000000       0.31250000000000000        0.0000000000000000     
   1.2187500000000000       0.31250000000000000        0.0000000000000000     
   1.2500000000000000       0.31250000000000000        0.0000000000000000     
   1.1250000000000000       0.34375000000000000        0.0000000000000000     
   1.1562500000000000       0.34375000000000000        0.0000000000000000     
   1.1875000000000000       0.34375000000000000        0.0000000000000000     
   1.2187500000000000       0.34375000000000000        0.0000000000000000     
   1.2500000000000000       0.34375000000000000        0.0000000000000000     
   1.1250000000000000       0.37500000000000000        0.0000000000000000     
   1.1562500000000000       0.37500000000000000        0.0000000000000000     
   1.1875000000000000       0.37500000000000000        0.0000000000000000     
   1.2187500000000000       0.37500000000000000        0.0000000000000000     
   1.2500000000000000       0.37500000000000000        0.0000000000000000     
   1.2500000000000000       0.25000000000000000        0.0000000000000000     
   1.2812500000000000       0.25000000000000000        0.0000000000000000     
   1.3125000000000000       0.25000000000000000        0.0000000000000000     
   1.3437500000000000       0.25000000000000000        0.0000000000000000     
   1.3750000000000000       0.25000000000000000        0.0000000000000000     
   1.2500000000000000       0.28125000000000000        0.0000000000000000     
   1.2812500000000000       0.28125000000000000        0.0000000000000000     
   1.3125000000000000       0.28125000000000000        0.0000000000000000     
   1.3437500000000000       0.28125000000000000        0.0000000000000000     
   1.3750000000000000       0.28125000000000000        0.0000000000000000     
   1.2500000000000000       0.31250000000000000        0.0000000000000000     
   1.2812500000000000       0.31250000000000000        0.0000000000000000     
   1.3125000000000000       0.31250000000000000        0.0000000000000000     
   1.3437500000000000       0.31250000000000000        0.0000000000000000     
   1.3750000000000000       0.31250000000000000        0.0000000000000000     
   1.2500000000000000       0.34375000000000000        0.0000000000000000     
   1.2812500000000000       0.34375000000000000        0.0000000000000000     
   1.3125000000000000       0.34375000000000000        0.0000000000000000     
   1.3437500000000000       0.34375000000000000        0.0000000000000000     
   1.3750000000000000       0.34375000000000000        0.0000000000000000     
   1.2500000000000000       0.37500000000000000        0.0000000000000000     
   1.2812500000000000       0.37500000000000000        0.0000000000000000     
   1.3125000000000000       0.37500000000000000        0.0000000000000000     
   1.3437500000000000       0.37500000000000000        0.0000000000000000     
   1.3750000000000000       0.37500000000000000        0.0000000000000000     
   1.3750000000000000       0.25000000000000000        0.0000000000000000     
   1.4062500000000000       0.25000000000000000        0.0000000000000000     
   1.4375000000000000       0.25000000000000000        0.0000000000000000     
   1.4687500000000000       0.25000000000000000        0.0000000000000000     
   1.5000000000000000       0.25000000000000000        0.0000000000000000     
   1.3750000000000000       0.28125000000000000        0.0000000000000000     
   1.4062500000000000       0.28125000000000000        0.0000000000000000     
   1.4375000000000000       0.28125000000000000        0.0000000000000000     
   1.4687500000000000       0.28125000000000000        0.0000000000000000     
   1.5000000000000000       0.28125000000000000        0.0000000000000000     
   1.3750000000000000       0.31250000000000000        0.0000000000000000     
   1.4062500000000000       0.31250000000000000        0.0000000000000000     
   1.4375000000000000       0.31250000000000000        0.0000000000000000     
   1.4687500000000000       0.31250000000000000        0.0000000000000000     
   1.5000000000000000       0.31250000000000000        0.0000000000000000     
   1.3750000000000000       0.34375000000000000        0.0000000000000000     
   1.4062500000000000       0.34375000000000000        0.0000000000000000     
   1.4375000000000000       0.34375000000000000        0.0000000000000000     
   1.4687500000000000       0.34375000000000000        0.0000000000000000     
   1.5000000000000000       0.34375000000000000        0.0000000000000000     
   1.3750000000000000       0.37500000000000000        0.0000000000000000     
   1.4062500000000000       0.37500000000000000        0.0000000000000000     
   1.4375000000000000       0.37500000000000000        0.0000000000000000     
   1.4687500000000000       0.37500000000000000        0.0000000000000000     
   1.5000000000000000       0.37500000000000000        0.0000000000000000     
  0.50000000000000000       0.37500000000000000        0.0000000000000000     
  0.53125000000000000       0.37500000000000000        0.0000000000000000     
  0.56250000000000000       0.37500000000000000        0.0000000000000000     
  0.59375000000000000       0.37500000000000000        0.0000000000000000     
  0.62500000000000000       0.37500000000000000        0.0000000000000000     
  0.50000000000000000       0.40625000000000000        0.0000000000000000     
  0.53125000000000000       0.40625000000000000        0.0000000000000000     
  0.56250000000000000       0.40625000000000000        0.0000000000000000     
  0.59375000000000000       0.40625000000000000        0.0000000000000000     
  0.62500000000000000       0.40625000000000000        0.0000000000000000     
  0.50000000000000000       0.43750000000000000        0.0000000000000000     
  0.53125000000000000       0.43750000000000000        0.0000000000000000     
  0.56250000000000000       0.43750000000000000        0.0000000000000000     
  0.59375000000000000       0.43750000000000000        0.0000000000000000     
  0.62500000000000000       0.43750000000000000        0.0000000000000000     
  0.50000000000000000       0.46875000000000000        0.0000000000000000     
  0.53125000000000000       0.46875000000000000        0.0000000000000000     
  0.56250000000000000       0.46875000000000000        0.0000000000000000     
  0.59375000000000000       0.46875000000000000        0.0000000000000000     
  0.62500000000000000       0.46875000000000000        0.0000000000000000     
  0.50000000000000000       0.50000000000000000        0.0000000000000000     
  0.53125000000000000       0.50000000000000000        0.0000000000000000     
  0.56250000000000000       0.50000000000000000        0.0000000000000000     
  0.59375000000000000       0.50000000000000000        0.0000000000000000     
  0.62500000000000000       0.50000000000000000        0.0000000000000000     
  0.62500000000000000       0.37500000000000000        0.0000000000000000     
  0.65625000000000000       0.37500000000000000        0.0000000000000000     
  0.68750000000000000       0.37500000000000000        0.0000000000000000     
  0.71875000000000000       0.37500000000000000        0.0000000000000000     
  0.75000000000000000       0.37500000000000000        0.0000000000000000     
  0.62500000000000000       0.40625000000000000        0.0000000000000000     
  0.65625000000000000       0.40625000000000000        0.0000000000000000     
  0.68750000000000000       0.40625000000000000        0.0000000000000000     
  0.71875000000000000       0.40625000000000000        0.0000000000000000     
  0.75000000000000000       0.40625000000000000        0.0000000000000000     
  0.62500000000000000       0.43750000000000000        0.0000000000000000     
  0.65625000000000000       0.43750000000000000        0.0000000000000000     
  0.68750000000000000       0.43750000000000000        0.0000000000000000     
  0.71875000000000000       0.43750000000000000        0.0000000000000000     
  0.75000000000000000       0.43750000000000000        0.0000000000000000     
  0.62500000000000000       0.46875000000000000        0.0000000000000000     
  0.65625000000000000       0.46875000000000000        0.0000000000000000     
  0.68750000000000000       0.46875000000000000        0.0000000000000000     
  0.71875000000000000       0.46875000000000000        0.0000000000000000     
  0.75000000000000000       0.46875000000000000        0.0000000000000000     
  0.62500000000000000       0.50000000000000000        0.0000000000000000     
  0.65625000000000000       0.50000000000000000        0.0000000000000000     
  0.68750000000000000       0.50000000000000000        0.0000000000000000     
  0.71875000000000000       0.50000000000000000        0.0000000000000000     
  0.75000000000000000       0.50000000000000000        0.0000000000000000     
  0.75000000000000000       0.37500000000000000        0.0000000000000000     
  0.78125000000000000       0.37500000000000000        0.0000000000000000     
  0.81250000000000000       0.37500000000000000        0.0000000000000000     
  0.84375000000000000       0.37500000000000000        0.0000000000000000     
  0.87500000000000000       0.37500000000000000        0.0000000000000000     
  0.75000000000000000       0.40625000000000000        0.0000000000000000     
  0.78125000000000000       0.40625000000000000        0.0000000000000000     
  0.81250000000000000       0.40625000000000000        0.0000000000000000     
  0.84375000000000000       0.40625000000000000        0.0000000000000000     
  0.87500000000000000       0.40625000000000000        0.0000000000000000     
  0.75000000000000000       0.43750000000000000        0.0000000000000000     
  0.78125000000000000       0.43750000000000000        0.0000000000000000     
  0.81250000000000000       0.43750000000000000        0.0000000000000000     
  0.84375000000000000       0.43750000000000000        0.0000000000000000     
  0.87500000000000000       0.43750000000000000        0.0000000000000000     
  0.75000000000000000       0.46875000000000000        0.0000000000000000     
  0.78125000000000000       0.46875000000000000        0.0000000000000000     
  0.81250000000000000       0.46875000000000000        0.0000000000000000     
  0.84375000000000000       0.46875000000000000        0.0000000000000000     
  0.87500000000000000       0.46875000000000000        0.0000000000000000     
  0.75000000000000000       0.50000000000000000        0.0000000000000000     
  0.78125000000000000       0.50000000000000000        0.0000000000000000     
  0.81250000000000000       0.50000000000000000        0.0000000000000000     
  0.84375000000000000       0.50000000000000000        0.0000000000000000     
  0.87500000000000000       0.50000000000000000        0.0000000000000000     
  0.87500000000000000       0.37500000000000000        0.0000000000000000     
  0.90625000000000000       0.37500000000000000        0.0000000000000000     
  0.93750000000000000       0.37500000000000000        0.0000000000000000     
  0.96875000000000000       0.37500000000000000        0.0000000000000000     
   1.0000000000000000       0.37500000000000000        0.0000000000000000     
  0.87500000000000000       0.40625000000000000        0.0000000000000000     
  0.90625000000000000       0.40625000000000000        0.0000000000000000     
  0.93750000000000000       0.40625000000000000        0.0000000000000000     
  0.96875000000000000       0.40625000000000000        0.0000000000000000     
   1.0000000000000000       0.40625000000000000        0.0000000000000000     
  0.87500000000000000       0.43750000000000000        0.0000000000000000     
  0.90625000000000000       0.43750000000000000        0.0000000000000000     
  0.93750000000000000       0.43750000000000000        0.0000000000000000     
  0.96875000000000000       0.43750000000000000        0.0000000000000000     
   1.0000000000000000       0.43750000000000000        0.0000000000000000     
  0.87500000000000000       0.46875000000000000        0.0000000000000000     
  0.90625000000000000       0.46875000000000000        0.0000000000000000     
  0.93750000000000000       0.46875000000000000        0.0000000000000000     
  0.96875000000000000       0.46875000000000000        0.0000000000000000     
   1.0000000000000000       0.46875000000000000        0.0000000000000000     
  0.87500000000000000       0.50000000000000000        0.0000000000000000     
  0.90625000000000000       0.50000000000000000        0.0000000000000000     
  0.93750000000000000       0.50000000000000000        0.0000000000000000     
  0.96875000000000000       0.50000000000000000        0.0000000000000000     
   1.0000000000000000       0.50000000000000000        0.0000000000000000     
   1.0000000000000000       0.37500000000000000        0.0000000000000000     
   1.0312500000000000       0.37500000000000000        0.0000000000000000     
   1.0625000000000000       0.37500000000000000        0.0000000000000000     
   1.0937500000000000       0.37500000000000000        0.0000000000000000     
   1.1250000000000000       0.37500000000000000        0.0000000000000000     
   1.0000000000000000       0.40625000000000000        0.0000000000000000     
   1.0312500000000000       0.40625000000000000        0.0000000000000000     
   1.0625000000000000       0.40625000000000000        0.0000000000000000     
   1.0937500000000000       0.40625000000000000        0.0000000000000000     
   1.1250000000000000       0.40625000000000000        0.0000000000000000     
   1.0000000000000000       0.43750000000000000        0.0000000000000000     
   1.0312500000000000       0.43750000000000000        0.0000000000000000     
   1.0625000000000000       0.43750000000000000        0.0000000000000000     
   1.0937500000000000       0.43750000000000000        0.0000000000000000     
   1.1250000000000000       0.43750000000000000        0.0000000000000000     
   1.0000000000000000       0.46875000000000000        0.0000000000000000     
   1.0312500000000000       0.46875000000000000        0.0000000000000000     
   1.0625000000000000       0.46875000000000000        0.0000000000000000     
   1.0937500000000000       0.46875000000000000        0.0000000000000000     
   1.1250000000000000       0.46875000000000000        0.0000000000000000     
   1.0000000000000000       0.50000000000000000        0.0000000000000000     
   1.0312500000000000       0.50000000000000000        0.0000000000000000     
   1.0625000000000000       0.50000000000000000        0.0000000000000000     
   1.0937500000000000       0.50000000000000000        0.0000000000000000     
   1.1250000000000000       0.50000000000000000        0.0000000000000000     
   1.1250000000000000       0.37500000000000000        0.0000000000000000     
   1.1562500000000000       0.37500000000000000        0.0000000000000000     
   1.1875000000000000       0.37500000000000000        0.0000000000000000     
   1.2187500000000000       0.37500000000000000        0.0000000000000000     
   1.2500000000000000       0.37500000000000000        0.0000000000000000     
   1.1250000000000000       0.40625000000000000        0.0000000000000000     
   1.1562500000000000       0.40625000000000000        0.0000000000000000     
   1.1875000000000000       0.40625000000000000        0.0000000000000000     
   1.2187500000000000       0.40625000000000000        0.0000000000000000     
   1.2500000000000000       0.40625000000000000        0.0000000000000000     
   1.1250000000000000       0.43750000000000000        0.0000000000000000     
   1.1562500000000000       0.43750000000000000        0.0000000000000000     
   1.1875000000000000       0.43750000000000000        0.0000000000000000     
   1.2187500000000000       0.43750000000000000        0.0000000000000000     
   1.2500000000000000       0.43750000000000000        0.0000000000000000     
   1.1250000000000000       0.46875000000000000        0.0000000000000000     
   1.1562500000000000       0.46875000000000000        0.0000000000000000     
   1.1875000000000000       0.46875000000000000        0.0000000000000000     
   1.2187500000000000       0.46875000000000000        0.0000000000000000     
   1.2500000000000000       0.46875000000000000        0.0000000000000000     
   1.1250000000000000       0.50000000000000000        0.0000000000000000     
   1.1562500000000000       0.50000000000000000        0.0000000000000000     
   1.1875000000000000       0.50000000000000000        0.0000000000000000     
   1.2187500000000000       0.50000000000000000        0.0000000000000000     
   1.2500000000000000       0.50000000000000000        0.0000000000000000     
   1.2500000000000000       0.37500000000000000        0.0000000000000000     
   1.2812500000000000       0.37500000000000000        0.0000000000000000     
   1.3125000000000000       0.37500000000000000        0.0000000000000000     
   1.3437500000000000       0.37500000000000000        0.0000000000000000     
   1.3750000000000000       0.37500000000000000        0.0000000000000000     
   1.2500000000000000       0.40625000000000000        0.0000000000000000     
   1.2812500000000000       0.40625000000000000        0.0000000000000000     
   1.3125000000000000       0.40625000000000000        0.0000000000000000     
   1.3437500000000000       0.40625000000000000        0.0000000000000000     
   1.3750000000000000       0.40625000000000000        0.0000000000000000     
   1.2500000000000000       0.43750000000000000        0.0000000000000000     
   1.2812500000000000       0.43750000000000000        0.0000000000000000     
   1.3125000000000000       0.43750000000000000        0.0000000000000000     
   1.3437500000000000       0.43750000000000000        0.0000000000000000     
   1.3750000000000000       0.43750000000000000        0.0000000000000000     
   1.2500000000000000       0.46875000000000000        0.0000000000000000     
   1.2812500000000000       0.46875000000000000        0.0000000000000000     
   1.3125000000000000       0.46875000000000000        0.0000000000000000     
   1.3437500000000000       0.46875000000000000        0.0000000000000000     
   1.3750000000000000       0.46875000000000000        0.0000000000000000     
   1.2500000000000000       0.50000000000000000        0.0000000000000000     
   1.2812500000000000       0.50000000000000000        0.0000000000000000     
   1.3125000000000000       0.50000000000000000        0.0000000000000000     
   1.3437500000000000       0.50000000000000000        0.0000000000000000     
   1.3750000000000000       0.50000000000000000        0.0000000000000000     
   1.3750000000000000       0.37500000000000000        0.0000000000000000     
   1.4062500000000000       0.37500000000000000        0.0000000000000000     
   1.4375000000000000       0.37500000000000000        0.0000000000000000     
   1.4687500000000000       0.37500000000000000        0.0000000000000000     
   1.5000000000000000       0.37500000000000000        0.0000000000000000     
   1.3750000000000000       0.40625000000000000        0.0000000000000000     
   1.4062500000000000       0.40625000000000000        0.0000000000000000     
   1.4375000000000000       0.40625000000000000        0.0000000000000000     
   1.4687500000000000       0.40625000000000000        0.0000000000000000     
   1.5000000000000000       0.40625000000000000        0.0000000000000000     
   1.3750000000000000       0.43750000000000000        0.0000000000000000     
   1.4062500000000000       0.43750000000000000        0.0000000000000000     
   1.4375000000000000       0.43750000000000000        0.0000000000000000     
   1.4687500000000000       0.43750000000000000        0.0000000000000000     
   1.5000000000000000       0.43750000000000000        0.0000000000000000     
   1.3750000000000000       0.46875000000000000        0.0000000000000000     
   1.4062500000000000       0.46875000000000000        0.0000000000000000     
   1.4375000000000000       0.46875000000000000        0.0000000000000000     
   1.4687500000000000       0.46875000000000000        0.0000000000000000     
   1.5000000000000000       0.46875000000000000        0.0000000000000000     
   1.3750000000000000       0.50000000000000000        0.0000000000000000     
   1.4062500000000000       0.50000000000000000        0.0000000000000000     
   1.4375000000000000       0.50000000000000000        0.0000000000000000     
   1.4687500000000000       0.50000000000000000        0.0000000000000000     
   1.5000000000000000       0.50000000000000000        0.0000000000000000     
  0.50000000000000000       0.50000000000000000        0.0000000000000000     
  0.53125000000000000       0.50000000000000000        0.0000000000000000     
  0.56250000000000000       0.50000000000000000        0.0000000000000000     
  0.59375000000000000       0.50000000000000000        0.0000000000000000     
  0.62500000000000000       0.50000000000000000        0.0000000000000000     
  0.50000000000000000       0.53125000000000000        0.0000000000000000     
  0.53125000000000000       0.53125000000000000        0.0000000000000000     
  0.56250000000000000       0.53125000000000000        0.0000000000000000     
  0.59375000000000000       0.53125000000000000        0.0000000000000000     
  0.62500000000000000       0.53125000000000000        0.0000000000000000     
  0.50000000000000000       0.56250000000000000        0.0000000000000000     
  0.53125000000000000       0.56250000000000000        0.0000000000000000     
  0.56250000000000000       0.56250000000000000        0.0000000000000000     
  0.59375000000000000       0.56250000000000000        0.0000000000000000     
  0.62500000000000000       0.56250000000000000        0.0000000000000000     
  0.50000000000000000       0.59375000000000000        0.0000000000000000     
  0.53125000000000000       0.59375000000000000        0.0000000000000000     
  0.56250000000000000       0.59375000000000000        0.0000000000000000     
  0.59375000000000000       0.59375000000000000        0.0000000000000000     
  0.62500000000000000       0.59375000000000000        0.0000000000000000     
  0.50000000000000000       0.62500000000000000        0.0000000000000000     
  0.53125000000000000       0.62500000000000000        0.0000000000000000     
  0.56250000000000000       0.62500000000000000        0.0000000000000000     
  0.59375000000000000       0.62500000000000000        0.0000000000000000     
  0.62500000000000000       0.62500000000000000        0.0000000000000000     
  0.62500000000000000       0.50000000000000000        0.0000000000000000     
  0.65625000000000000       0.50000000000000000        0.0000000000000000     
  0.68750000000000000       0.50000000000000000        0.0000000000000000     
  0.71875000000000000       0.50000000000000000        0.0000000000000000     
  0.75000000000000000       0.50000000000000000        0.0000000000000000     
  0.62500000000000000       0.53125000000000000        0.0000000000000000     
  0.65625000000000000       0.53125000000000000        0.0000000000000000     
  0.68750000000000000       0.53125000000000000        0.0000000000000000     
  0.71875000000000000       0.53125000000000000        0.0000000000000000     
  0.75000000000000000       0.53125000000000000        0.0000000000000000     
  0.62500000000000000       0.56250000000000000        0.0000000000000000     
  0.65625000000000000       0.56250000000000000        0.0000000000000000     
  0.68750000000000000       0.56250000000000000        0.0000000000000000     
  0.71875000000000000       0.56250000000000000        0.0000000000000000     
  0.75000000000000000       0.56250000000000000        0.0000000000000000     
  0.62500000000000000       0.59375000000000000        0.0000000000000000     
  0.65625000000000000       0.59375000000000000        0.0000000000000000     
  0.68750000000000000       0.59375000000000000        0.0000000000000000     
  0.71875000000000000       0.59375000000000000        0.0000000000000000     
  0.75000000000000000       0.59375000000000000        0.0000000000000000     
  0.62500000000000000       0.62500000000000000        0.0000000000000000     
  0.65625000000000000       0.62500000000000000        0.0000000000000000     
  0.68750000000000000       0.62500000000000000        0.0000000000000000     
  0.71875000000000000       0.62500000000000000        0.0000000000000000     
  0.75000000000000000       0.62500000000000000        0.0000000000000000     
  0.75000000000000000       0.50000000000000000        0.0000000000000000     
  0.78125000000000000       0.50000000000000000        0.0000000000000000     
  0.81250000000000000       0.50000000000000000        0.0000000000000000     
  0.84375000000000000       0.50000000000000000        0.0000000000000000     
  0.87500000000000000       0.50000000000000000        0.0000000000000000     
  0.75000000000000000       0.53125000000000000        0.0000000000000000     
  0.78125000000000000       0.53125000000000000        0.0000000000000000     
  0.81250000000000000       0.53125000000000000        0.0000000000000000     
  0.84375000000000000       0.53125000000000000        0.0000000000000000     
  0.87500000000000000       0.53125000000000000        0.0000000000000000     
  0.75000000000000000       0.56250000000000000        0.0000000000000000     
  0.78125000000000000       0.56250000000000000        0.0000000000000000     
  0.81250000000000000       0.56250000000000000        0.0000000000000000     
  0.84375000000000000       0.56250000000000000        0.0000000000000000     
  0.87500000000000000       0.56250000000000000        0.0000000000000000     
  0.75000000000000000       0.59375000000000000        0.0000000000000000     
  0.78125000000000000       0.59375000000000000        0.0000000000000000     
  0.81250000000000000       0.59375000000000000        0.0000000000000000     
  0.84375000000000000       0.59375000000000000        0.0000000000000000     
  0.87500000000000000       0.59375000000000000        0.0000000000000000     
  0.75000000000000000       0.62500000000000000        0.0000000000000000     
  0.78125000000000000       0.62500000000000000        0.0000000000000000     
  0.81250000000000000       0.62500000000000000        0.0000000000000000     
  0.84375000000000000       0.62500000000000000        0.0000000000000000     
  0.87500000000000000       0.62500000000000000        0.0000000000000000     
  0.87500000000000000       0.50000000000000000        0.0000000000000000     
  0.90625000000000000       0.50000000000000000        0.0000000000000000     
  0.93750000000000000       0.50000000000000000        0.0000000000000000     
  0.96875000000000000       0.50000000000000000        0.0000000000000000     
   1.0000000000000000       0.50000000000000000        0.0000000000000000     
  0.87500000000000000       0.53125000000000000        0.0000000000000000     
  0.90625000000000000       0.53125000000000000        0.0000000000000000     
  0.93750000000000000       0.53125000000000000        0.0000000000000000     
  0.96875000000000000       0.53125000000000000        0.0000000000000000     
   1.0000000000000000       0.53125000000000000        0.0000000000000000     
  0.87500000000000000       0.56250000000000000        0.0000000000000000     
  0.90625000000000000       0.56250000000000000        0.0000000000000000     
  0.93750000000000000       0.56250000000000000        0.0000000000000000     
  0.96875000000000000       0.56250000000000000        0.0000000000000000     
   1.0000000000000000       0.56250000000000000        0.0000000000000000     
  0.87500000000000000       0.59375000000000000        0.0000000000000000     
  0.90625000000000000       0.59375000000000000        0.0000000000000000     
  0.93750000000000000       0.59375000000000000        0.0000000000000000     
  0.96875000000000000       0.59375000000000000        0.0000000000000000     
   1.0000000000000000       0.59375000000000000        0.0000000000000000     
  0.87500000000000000       0.62500000000000000        0.0000000000000000     
  0.90625000000000000       0.62500000000000000        0.0000000000000000     
  0.93750000000000000       0.62500000000000000        0.0000000000000000     
  0.96875000000000000       0.62500000000000000        0.0000000000000000     
   1.0000000000000000       0.62500000000000000        0.0000000000000000     
   1.0000000000000000       0.50000000000000000        0.0000000000000000     
   1.0312500000000000       0.50000000000000000        0.0000000000000000     
   1.0625000000000000       0.50000000000000000        0.0000000000000000     
   1.0937500000000000       0.50000000000000000        0.0000000000000000     
   1.1250000000000000       0.50000000000000000        0.0000000000000000     
   1.0000000000000000       0.53125000000000000        0.0000000000000000     
   1.0312500000000000       0.53125000000000000        0.0000000000000000     
   1.0625000000000000       0.53125000000000000        0.0000000000000000     
   1.0937500000000000       0.53125000000000000        0.0000000000000000     
   1.1250000000000000       0.53125000000000000        0.0000000000000000     
   1.0000000000000000       0.56250000000000000        0.0000000000000000     
   1.0312500000000000       0.56250000000000000        0.0000000000000000     
   1.0625000000000000       0.56250000000000000        0.0000000000000000     
   1.0937500000000000       0.56250000000000000        0.0000000000000000     
   1.1250000000000000       0.56250000000000000        0.0000000000000000     
   1.0000000000000000       0.59375000000000000        0.0000000000000000     
   1.0312500000000000       0.59375000000000000        0.0000000000000000     
   1.0625000000000000       0.59375000000000000        0.0000000000000000     
   1.0937500000000000       0.59375000000000000        0.0000000000000000     
   1.1250000000000000       0.59375000000000000        0.0000000000000000     
   1.0000000000000000       0.62500000000000000        0.0000000000000000     
   1.0312500000000000       0.62500000000000000        0.0000000000000000     
   1.0625000000000000       0.62500000000000000        0.0000000000000000     
   1.0937500000000000       0.62500000000000000        0.0000000000000000     
   1.1250000000000000       0.62500000000000000        0.0000000000000000     
   1.1250000000000000       0.50000000000000000        0.0000000000000000     
   1.1562500000000000       0.50000000000000000        0.0000000000000000     
   1.1875000000000000       0.50000000000000000        0.0000000000000000     
   1.2187500000000000       0.50000000000000000        0.0000000000000000     
   1.2500000000000000       0.50000000000000000        0.0000000000000000     
   1.1250000000000000       0.53125000000000000        0.0000000000000000     
   1.1562500000000000       0.53125000000000000        0.0000000000000000     
   1.1875000000000000       0.53125000000000000        0.0000000000000000     
   1.2187500000000000       0.53125000000000000        0.0000000000000000     
   1.2500000000000000       0.53125000000000000        0.0000000000000000     
   1.1250000000000000       0.56250000000000000        0.0000000000000000     
   1.1562500000000000       0.56250000000000000        0.0000000000000000     
   1.1875000000000000       0.56250000000000000        0.0000000000000000     
   1.2187500000000000       0.56250000000000000        0.0000000000000000     
   1.2500000000000000       0.56250000000000000        0.0000000000000000     
   1.1250000000000000       0.59375000000000000        0.0000000000000000     
   1.1562500000000000       0.59375000000000000        0.0000000000000000     
   1.1875000000000000       0.59375000000000000        0.0000000000000000     
   1.2187500000000000       0.59375000000000000        0.0000000000000000     
   1.2500000000000000       0.59375000000000000        0.0000000000000000     
   1.1250000000000000       0.62500000000000000        0.0000000000000000     
   1.1562500000000000       0.62500000000000000        0.0000000000000000     
   1.1875000000000000       0.62500000000000000        0.0000000000000000     
   1.2187500000000000       0.62500000000000000        0.0000000000000000     
   1.2500000000000000       0.62500000000000000        0.0000000000000000     
   1.2500000000000000       0.50000000000000000        0.0000000000000000     
   1.2812500000000000       0.50000000000000000        0.0000000000000000     
   1.3125000000000000       0.50000000000000000        0.0000000000000000     
   1.3437500000000000       0.50000000000000000        0.0000000000000000     
   1.3750000000000000       0.50000000000000000        0.0000000000000000     
   1.2500000000000000       0.53125000000000000        0.0000000000000000     
   1.2812500000000000       0.53125000000000000        0.0000000000000000     
   1.3125000000000000       0.53125000000000000        0.0000000000000000     
   1.3437500000000000       0.53125000000000000        0.0000000000000000     
   1.3750000000000000       0.53125000000000000        0.0000000000000000     
   1.2500000000000000       0.56250000000000000        0.0000000000000000     
   1.2812500000000000       0.56250000000000000        0.0000000000000000     
   1.3125000000000000       0.56250000000000000        0.0000000000000000     
   1.3437500000000000       0.56250000000000000        0.0000000000000000     
   1.3750000000000000       0.56250000000000000        0.0000000000000000     
   1.2500000000000000       0.59375000000000000        0.0000000000000000     
   1.2812500000000000       0.59375000000000000        0.0000000000000000     
   1.3125000000000000       0.59375000000000000        0.0000000000000000     
   1.3437500000000000       0.59375000000000000        0.0000000000000000     
   1.3750000000000000       0.59375000000000000        0.0000000000000000     
   1.2500000000000000       0.62500000000000000        0.0000000000000000     
   1.2812500000000000       0.62500000000000000        0.0000000000000000     
   1.3125000000000000       0.62500000000000000        0.0000000000000000     
   1.3437500000000000       0.62500000000000000        0.0000000000000000     
   1.3750000000000000       0.62500000000000000        0.0000000000000000     
   1.3750000000000000       0.50000000000000000        0.0000000000000000     
   1.4062500000000000       0.50000000000000000        0.0000000000000000     
   1.4375000000000000       0.50000000000000000        0.0000000000000000     
   1.4687500000000000       0.50000000000000000        0.0000000000000000     
   1.5000000000000000       0.50000000000000000        0.0000000000000000     
   1.3750000000000000       0.53125000000000000        0.0000000000000000     
   1.4062500000000000       0.53125000000000000        0.0000000000000000     
   1.4375000000000000       0.53125000000000000        0.0000000000000000     
   1.4687500000000000       0.53125000000000000        0.0000000000000000     
   1.5000000000000000       0.53125000000000000        0.0000000000000000     
   1.3750000000000000       0.56250000000000000        0.0000000000000000     
   1.4062500000000000       0.56250000000000000        0.0000000000000000     
   1.4375000000000000       0.56250000000000000        0.0000000000000000     
   1.4687500000000000       0.56250000000000000        0.0000000000000000     
   1.5000000000000000       0.56250000000000000        0.0000000000000000     
   1.3750000000000000       0.59375000000000000        0.0000000000000000     
   1.4062500000000000       0.59375000000000000        0.0000000000000000     
   1.4375000000000000       0.59375000000000000        0.0000000000000000     
   1.4687500000000000       0.59375000000000000        0.0000000000000000     
   1.5000000000000000       0.59375000000000000        0.0000000000000000     
   1.3750000000000000       0.62500000000000000        0.0000000000000000     
   1.4062500000000000       0.62500000000000000        0.0000000000000000     
   1.4375000000000000       0.62500000000000000        0.0000000000000000     
   1.4687500000000000       0.62500000000000000        0.0000000000000000     
   1.5000000000000000       0.62500000000000000        0.0000000000000000     
  0.50000000000000000       0.62500000000000000        0.0000000000000000     
  0.53125000000000000       0.62500000000000000        0.0000000000000000     
  0.56250000000000000       0.62500000000000000        0.0000000000000000     
  0.59375000000000000       0.62500000000000000        0.0000000000000000     
  0.62500000000000000       0.62500000000000000        0.0000000000000000     
  0.50000000000000000       0.65625000000000000        0.0000000000000000     
  0.53125000000000000       0.65625000000000000        0.0000000000000000     
  0.56250000000000000       0.65625000000000000        0.0000000000000000     
  0.59375000000000000       0.65625000000000000        0.0000000000000000     
  0.62500000000000000       0.65625000000000000        0.0000000000000000     
  0.50000000000000000       0.68750000000000000        0.0000000000000000     
  0.53125000000000000       0.68750000000000000        0.0000000000000000     
  0.56250000000000000       0.68750000000000000        0.0000000000000000     
  0.59375000000000000       0.68750000000000000        0.0000000000000000     
  0.62500000000000000       0.68750000000000000        0.0000000000000000     
  0.50000000000000000       0.71875000000000000        0.0000000000000000     
  0.53125000000000000       0.71875000000000000        0.0000000000000000     
  0.56250000000000000       0.71875000000000000        0.0000000000000000     
  0.59375000000000000       0.71875000000000000        0.0000000000000000     
  0.62500000000000000       0.71875000000000000        0.0000000000000000     
  0.50000000000000000       0.75000000000000000        0.0000000000000000     
  0.53125000000000000       0.75000000000000000        0.0000000000000000     
  0.56250000000000000       0.75000000000000000        0.0000000000000000     
  0.59375000000000000       0.75000000000000000        0.0000000000000000     
  0.62500000000000000       0.75000000000000000        0.0000000000000000     
  0.62500000000000000       0.62500000000000000        0.0000000000000000     
  0.65625000000000000       0.62500000000000000        0.0000000000000000     
  0.68750000000000000       0.62500000000000000        0.0000000000000000     
  0.71875000000000000       0.62500000000000000        0.0000000000000000     
  0.75000000000000000       0.62500000000000000        0.0000000000000000     
  0.62500000000000000       0.65625000000000000        0.0000000000000000     
  0.65625000000000000       0.65625000000000000        0.0000000000000000     
  0.68750000000000000       0.65625000000000000        0.0000000000000000     
  0.71875000000000000       0.65625000000000000        0.0000000000000000     
  0.75000000000000000       0.65625000000000000        0.0000000000000000     
  0.62500000000000000       0.68750000000000000        0.0000000000000000     
  0.65625000000000000       0.68750000000000000        0.0000000000000000     
  0.68750000000000000       0.68750000000000000        0.0000000000000000     
  0.71875000000000000       0.68750000000000000        0.0000000000000000     
  0.75000000000000000       0.68750000000000000        0.0000000000000000     
  0.62500000000000000       0.71875000000000000        0.0000000000000000     
  0.65625000000000000       0.71875000000000000        0.0000000000000000     
  0.68750000000000000       0.71875000000000000        0.0000000000000000     
  0.71875000000000000       0.71875000000000000        0.0000000000000000     
  0.75000000000000000       0.71875000000000000        0.0000000000000000     
  0.62500000000000000       0.75000000000000000        0.0000000000000000     
  0.65625000000000000       0.75000000000000000        0.0000000000000000     
  0.68750000000000000       0.75000000000000000        0.0000000000000000     
  0.71875000000000000       0.75000000000000000        0.0000000000000000     
  0.75000000000000000       0.75000000000000000        0.0000000000000000     
  0.75000000000000000       0.62500000000000000        0.0000000000000000     
  0.78125000000000000       0.62500000000000000        0.0000000000000000     
  0.81250000000000000       0.62500000000000000        0.0000000000000000     
  0.84375000000000000       0.62500000000000000        0.0000000000000000     
  0.87500000000000000       0.62500000000000000        0.0000000000000000     
  0.75000000000000000       0.65625000000000000        0.0000000000000000     
  0.78125000000000000       0.65625000000000000        0.0000000000000000     
  0.81250000000000000       0.65625000000000000        0.0000000000000000     
  0.84375000000000000       0.65625000000000000        0.0000000000000000     
  0.87500000000000000       0.65625000000000000        0.0000000000000000     
  0.75000000000000000       0.68750000000000000        0.0000000000000000     
  0.78125000000000000       0.68750000000000000        0.0000000000000000     
  0.81250000000000000       0.68750000000000000        0.0000000000000000     
  0.84375000000000000       0.68750000000000000        0.0000000000000000     
  0.87500000000000000       0.68750000000000000        0.0000000000000000     
  0.75000000000000000       0.71875000000000000        0.0000000000000000     
  0.78125000000000000       0.71875000000000000        0.0000000000000000     
  0.81250000000000000       0.71875000000000000        0.0000000000000000     
  0.84375000000000000       0.71875000000000000        0.0000000000000000     
  0.87500000000000000       0.71875000000000000        0.0000000000000000     
  0.75000000000000000       0.75000000000000000        0.0000000000000000     
  0.78125000000000000       0.75000000000000000        0.0000000000000000     
  0.81250000000000000       0.75000000000000000        0.0000000000000000     
  0.84375000000000000       0.75000000000000000        0.0000000000000000     
  0.87500000000000000       0.75000000000000000        0.0000000000000000     
  0.87500000000000000       0.62500000000000000        0.0000000000000000     
  0.90625000000000000       0.62500000000000000        0.0000000000000000     
  0.93750000000000000       0.62500000000000000        0.0000000000000000     
  0.96875000000000000       0.62500000000000000        0.0000000000000000     
   1.0000000000000000       0.62500000000000000        0.0000000000000000     
  0.87500000000000000       0.65625000000000000        0.0000000000000000     
  0.90625000000000000       0.65625000000000000        0.0000000000000000     
  0.93750000000000000       0.65625000000000000        0.0000000000000000     
  0.96875000000000000       0.65625000000000000        0.0000000000000000     
   1.0000000000000000       0.65625000000000000        0.0000000000000000     
  0.87500000000000000       0.68750000000000000        0.0000000000000000     
  0.90625000000000000       0.68750000000000000        0.0000000000000000     
  0.93750000000000000       0.68750000000000000        0.0000000000000000     
  0.96875000000000000       0.68750000000000000        0.0000000000000000     
   1.0000000000000000       0.68750000000000000        0.0000000000000000     
  0.87500000000000000       0.71875000000000000        0.0000000000000000     
  0.90625000000000000       0.71875000000000000        0.0000000000000000     
  0.93750000000000000       0.71875000000000000        0.0000000000000000     
  0.96875000000000000       0.71875000000000000        0.0000000000000000     
   1.0000000000000000       0.71875000000000000        0.0000000000000000     
  0.87500000000000000       0.75000000000000000        0.0000000000000000     
  0.90625000000000000       0.75000000000000000        0.0000000000000000     
  0.93750000000000000       0.75000000000000000        0.0000000000000000     
  0.96875000000000000       0.75000000000000000        0.0000000000000000     
   1.0000000000000000       0.75000000000000000        0.0000000000000000     
   1.0000000000000000       0.62500000000000000        0.0000000000000000     
   1.0312500000000000       0.62500000000000000        0.0000000000000000     
   1.0625000000000000       0.62500000000000000        0.0000000000000000     
   1.0937500000000000       0.62500000000000000        0.0000000000000000     
   1.1250000000000000       0.62500000000000000        0.0000000000000000     
   1.0000000000000000       0.65625000000000000        0.0000000000000000     
   1.0312500000000000       0.65625000000000000        0.0000000000000000     
   1.0625000000000000       0.65625000000000000        0.0000000000000000     
   1.0937500000000000       0.65625000000000000        0.0000000000000000     
   1.1250000000000000       0.65625000000000000        0.0000000000000000     
   1.0000000000000000       0.68750000000000000        0.0000000000000000     
   1.0312500000000000       0.68750000000000000        0.0000000000000000     
   1.0625000000000000       0.68750000000000000        0.0000000000000000     
   1.0937500000000000       0.68750000000000000        0.0000000000000000     
   1.1250000000000000       0.68750000000000000        0.0000000000000000     
   1.0000000000000000       0.71875000000000000        0.0000000000000000     
   1.0312500000000000       0.71875000000000000        0.0000000000000000     
   1.0625000000000000       0.71875000000000000        0.0000000000000000     
   1.0937500000000000       0.71875000000000000        0.0000000000000000     
   1.1250000000000000       0.71875000000000000        0.0000000000000000     
   1.0000000000000000       0.75000000000000000        0.0000000000000000     
   1.0312500000000000       0.75000000000000000        0.0000000000000000     
   1.0625000000000000       0.75000000000000000        0.0000000000000000     
   1.0937500000000000       0.75000000000000000        0.0000000000000000     
   1.1250000000000000       0.75000000000000000        0.0000000000000000     
   1.1250000000000000       0.62500000000000000        0.0000000000000000     
   1.1562500000000000       0.62500000000000000        0.0000000000000000     
   1.1875000000000000       0.62500000000000000        0.0000000000000000     
   1.2187500000000000       0.62500000000000000        0.0000000000000000     
   1.2500000000000000       0.62500000000000000        0.0000000000000000     
   1.1250000000000000       0.65625000000000000        0.0000000000000000     
   1.1562500000000000       0.65625000000000000        0.0000000000000000     
   1.1875000000000000       0.65625000000000000        0.0000000000000000     
   1.2187500000000000       0.65625000000000000        0.0000000000000000     
   1.2500000000000000       0.65625000000000000        0.0000000000000000     
   1.1250000000000000       0.68750000000000000        0.0000000000000000     
   1.1562500000000000       0.68750000000000000        0.0000000000000000     
   1.1875000000000000       0.68750000000000000        0.0000000000000000     
   1.2187500000000000       0.68750000000000000        0.0000000000000000     
   1.2500000000000000       0.68750000000000000        0.0000000000000000     
   1.1250000000000000       0.71875000000000000        0.0000000000000000     
   1.1562500000000000       0.71875000000000000        0.0000000000000000     
   1.1875000000000000       0.71875000000000000        0.0000000000000000     
   1.2187500000000000       0.71875000000000000        0.0000000000000000     
   1.2500000000000000       0.71875000000000000        0.0000000000000000     
   1.1250000000000000       0.75000000000000000        0.0000000000000000     
   1.1562500000000000       0.75000000000000000        0.0000000000000000     
   1.1875000000000000       0.75000000000000000        0.0000000000000000     
   1.2187500000000000       0.75000000000000000        0.0000000000000000     
   1.2500000000000000       0.75000000000000000        0.0000000000000000     
   1.2500000000000000       0.62500000000000000        0.0000000000000000     
   1.2812500000000000       0.62500000000000000        0.0000000000000000     
   1.3125000000000000       0.62500000000000000        0.0000000000000000     
   1.3437500000000000       0.62500000000000000        0.0000000000000000     
   1.3750000000000000       0.62500000000000000        0.0000000000000000     
   1.2500000000000000       0.65625000000000000        0.0000000000000000     
   1.2812500000000000       0.65625000000000000        0.0000000000000000     
   1.3125000000000000       0.65625000000000000        0.0000000000000000     
   1.3437500000000000       0.65625000000000000        0.0000000000000000     
   1.3750000000000000       0.65625000000000000        0.0000000000000000     
   1.2500000000000000       0.68750000000000000        0.0000000000000000     
   1.2812500000000000       0.68750000000000000        0.0000000000000000     
   1.3125000000000000       0.68750000000000000        0.0000000000000000     
   1.3437500000000000       0.68750000000000000        0.0000000000000000     
   1.3750000000000000       0.68750000000000000        0.0000000000000000     
   1.2500000000000000       0.71875000000000000        0.0000000000000000     
   1.2812500000000000       0.71875000000000000        0.0000000000000000     
   1.3125000000000000       0.71875000000000000        0.0000000000000000     
   1.3437500000000000       0.71875000000000000        0.0000000000000000     
   1.3750000000000000       0.71875000000000000        0.0000000000000000     
   1.2500000000000000       0.75000000000000000        0.0000000000000000     
   1.2812500000000000       0.75000000000000000        0.0000000000000000     
   1.3125000000000000       0.75000000000000000        0.0000000000000000     
   1.3437500000000000       0.75000000000000000        0.0000000000000000     
   1.3750000000000000       0.75000000000000000        0.0000000000000000     
   1.3750000000000000       0.62500000000000000        0.0000000000000000     
   1.4062500000000000       0.62500000000000000        0.0000000000000000     
   1.4375000000000000       0.62500000000000000        0.0000000000000000     
   1.4687500000000000       0.62500000000000000        0.0000000000000000     
   1.5000000000000000       0.62500000000000000        0.0000000000000000     
   1.3750000000000000       0.65625000000000000        0.0000000000000000     
   1.4062500000000000       0.65625000000000000        0.0000000000000000     
   1.4375000000000000       0.65625000000000000        0.0000000000000000     
   1.4687500000000000       0.65625000000000000        0.0000000000000000     
   1.5000000000000000       0.65625000000000000        0.0000000000000000     
   1.3750000000000000       0.68750000000000000        0.0000000000000000     
   1.4062500000000000       0.68750000000000000        0.0000000000000000     
   1.4375000000000000       0.68750000000000000        0.0000000000000000     
   1.4687500000000000       0.68750000000000000        0.0000000000000000     
   1.5000000000000000       0.68750000000000000        0.0000000000000000     
   1.3750000000000000       0.71875000000000000        0.0000000000000000     
   1.4062500000000000       0.71875000000000000        0.0000000000000000     
   1.4375000000000000       0.71875000000000000        0.0000000000000000     
   1.4687500000000000       0.71875000000000000        0.0000000000000000     
   1.5000000000000000       0.71875000000000000        0.0000000000000000     
   1.3750000000000000       0.75000000000000000        0.0000000000000000     
   1.4062500000000000       0.75000000000000000        0.0000000000000000     
   1.4375000000000000       0.75000000000000000        0.0000000000000000     
   1.4687500000000000       0.75000000000000000        0.0000000000000000     
   1.5000000000000000       0.75000000000000000        0.0000000000000000     
  0.50000000000000000       0.75000000000000000        0.0000000000000000     
  0.53125000000000000       0.75000000000000000        0.0000000000000000     
  0.56250000000000000       0.75000000000000000        0.0000000000000000     
  0.59375000000000000       0.75000000000000000        0.0000000000000000     
  0.62500000000000000       0.75000000000000000        0.0000000000000000     
  0.50000000000000000       0.78125000000000000        0.0000000000000000     
  0.53125000000000000       0.78125000000000000        0.0000000000000000     
  0.56250000000000000       0.78125000000000000        0.0000000000000000     
  0.59375000000000000       0.78125000000000000        0.0000000000000000     
  0.62500000000000000       0.78125000000000000        0.0000000000000000     
  0.50000000000000000       0.81250000000000000        0.0000000000000000     
  0.53125000000000000       0.81250000000000000        0.0000000000000000     
  0.56250000000000000       0.81250000000000000        0.0000000000000000     
  0.59375000000000000       0.81250000000000000        0.0000000000000000     
  0.62500000000000000       0.81250000000000000        0.0000000000000000     
  0.50000000000000000       0.84375000000000000        0.0000000000000000     
  0.53125000000000000       0.84375000000000000        0.0000000000000000     
  0.56250000000000000       0.84375000000000000        0.0000000000000000     
  0.59375000000000000       0.84375000000000000        0.0000000000000000     
  0.62500000000000000       0.84375000000000000        0.0000000000000000     
  0.50000000000000000       0.87500000000000000        0.0000000000000000     
  0.53125000000000000       0.87500000000000000        0.0000000000000000     
  0.56250000000000000       0.87500000000000000        0.0000000000000000     
  0.59375000000000000       0.87500000000000000        0.0000000000000000     
  0.62500000000000000       0.87500000000000000        0.0000000000000000     
  0.62500000000000000       0.75000000000000000        0.0000000000000000     
  0.65625000000000000       0.75000000000000000        0.0000000000000000     
  0.68750000000000000       0.75000000000000000        0.0000000000000000     
  0.71875000000000000       0.75000000000000000        0.0000000000000000     
  0.75000000000000000       0.75000000000000000        0.0000000000000000     
  0.62500000000000000       0.78125000000000000        0.0000000000000000     
  0.65625000000000000       0.78125000000000000        0.0000000000000000     
  0.68750000000000000       0.78125000000000000        0.0000000000000000     
  0.71875000000000000       0.78125000000000000        0.0000000000000000     
  0.75000000000000000       0.78125000000000000        0.0000000000000000     
  0.62500000000000000       0.81250000000000000        0.0000000000000000     
  0.65625000000000000       0.81250000000000000        0.0000000000000000     
  0.68750000000000000       0.81250000000000000        0.0000000000000000     
  0.71875000000000000       0.81250000000000000        0.0000000000000000     
  0.75000000000000000       0.81250000000000000        0.0000000000000000     
  0.62500000000000000       0.84375000000000000        0.0000000000000000     
  0.65625000000000000       0.84375000000000000        0.0000000000000000     
  0.68750000000000000       0.84375000000000000        0.0000000000000000     
  0.71875000000000000       0.84375000000000000        0.0000000000000000     
  0.75000000000000000       0.84375000000000000        0.0000000000000000     
  0.62500000000000000       0.87500000000000000        0.0000000000000000     
  0.65625000000000000       0.87500000000000000        0.0000000000000000     
  0.68750000000000000       0.87500000000000000        0.0000000000000000     
  0.71875000000000000       0.87500000000000000        0.0000000000000000     
  0.75000000000000000       0.87500000000000000        0.0000000000000000     
  0.75000000000000000       0.75000000000000000        0.0000000000000000     
  0.78125000000000000       0.75000000000000000        0.0000000000000000     
  0.81250000000000000       0.75000000000000000        0.0000000000000000     
  0.84375000000000000       0.75000000000000000        0.0000000000000000     
  0.87500000000000000       0.75000000000000000        0.0000000000000000     
  0.75000000000000000       0.78125000000000000        0.0000000000000000     
  0.78125000000000000       0.78125000000000000        0.0000000000000000     
  0.81250000000000000       0.78125000000000000        0.0000000000000000     
  0.84375000000000000       0.78125000000000000        0.0000000000000000     
  0.87500000000000000       0.78125000000000000        0.0000000000000000     
  0.75000000000000000       0.81250000000000000        0.0000000000000000     
  0.78125000000000000       0.81250000000000000        0.0000000000000000     
  0.81250000000000000       0.81250000000000000        0.0000000000000000     
  0.84375000000000000       0.81250000000000000        0.0000000000000000     
  0.87500000000000000       0.81250000000000000        0.0000000000000000     
  0.75000000000000000       0.84375000000000000        0.0000000000000000     
  0.78125000000000000       0.84375000000000000        0.0000000000000000     
  0.81250000000000000       0.84375000000000000        0.0000000000000000     
  0.84375000000000000       0.84375000000000000        0.0000000000000000     
  0.87500000000000000       0.84375000000000000        0.0000000000000000     
  0.75000000000000000       0.87500000000000000        0.0000000000000000     
  0.78125000000000000       0.87500000000000000        0.0000000000000000     
  0.81250000000000000       0.87500000000000000        0.0000000000000000     
  0.84375000000000000       0.87500000000000000        0.0000000000000000     
  0.87500000000000000       0.87500000000000000        0.0000000000000000     
  0.87500000000000000       0.75000000000000000        0.0000000000000000     
  0.90625000000000000       0.75000000000000000        0.0000000000000000     
  0.93750000000000000       0.75000000000000000        0.0000000000000000     
  0.96875000000000000       0.75000000000000000        0.0000000000000000     
   1.0000000000000000       0.75000000000000000        0.0000000000000000     
  0.87500000000000000       0.78125000000000000        0.0000000000000000     
  0.90625000000000000       0.78125000000000000        0.0000000000000000     
  0.93750000000000000       0.78125000000000000        0.0000000000000000     
  0.96875000000000000       0.78125000000000000        0.0000000000000000     
   1.0000000000000000       0.78125000000000000        0.0000000000000000     
  0.87500000000000000       0.81250000000000000        0.0000000000000000     
  0.90625000000000000       0.81250000000000000        0.0000000000000000     
  0.93750000000000000       0.81250000000000000        0.0000000000000000     
  0.96875000000000000       0.81250000000000000        0.0000000000000000     
   1.0000000000000000       0.81250000000000000        0.0000000000000000     
  0.87500000000000000       0.84375000000000000        0.0000000000000000     
  0.90625000000000000       0.84375000000000000        0.0000000000000000     
  0.93750000000000000       0.84375000000000000        0.0000000000000000     
  0.96875000000000000       0.84375000000000000        0.0000000000000000     
   1.0000000000000000       0.84375000000000000        0.0000000000000000     
  0.87500000000000000       0.87500000000000000        0.0000000000000000     
  0.90625000000000000       0.87500000000000000        0.0000000000000000     
  0.93750000000000000       0.87500000000000000        0.0000000000000000     
  0.96875000000000000       0.87500000000000000        0.0000000000000000     
   1.0000000000000000       0.87500000000000000        0.0000000000000000     
   1.0000000000000000       0.75000000000000000        0.0000000000000000     
   1.0312500000000000       0.75000000000000000        0.0000000000000000     
   1.0625000000000000       0.75000000000000000        0.0000000000000000     
   1.0937500000000000       0.75000000000000000        0.0000000000000000     
   1.1250000000000000       0.75000000000000000        0.0000000000000000     
   1.0000000000000000       0.78125000000000000        0.0000000000000000     
   1.0312500000000000       0.78125000000000000        0.0000000000000000     
   1.0625000000000000       0.78125000000000000        0.0000000000000000     
   1.0937500000000000       0.78125000000000000        0.0000000000000000     
   1.1250000000000000       0.78125000000000000        0.0000000000000000     
   1.0000000000000000       0.81250000000000000        0.0000000000000000     
   1.0312500000000000       0.81250000000000000        0.0000000000000000     
   1.0625000000000000       0.81250000000000000        0.0000000000000000     
   1.0937500000000000       0.81250000000000000        0.0000000000000000     
   1.1250000000000000       0.81250000000000000        0.0000000000000000     
   1.0000000000000000       0.84375000000000000        0.0000000000000000     
   1.0312500000000000       0.84375000000000000        0.0000000000000000     
   1.0625000000000000       0.84375000000000000        0.0000000000000000     
   1.0937500000000000       0.84375000000000000        0.0000000000000000     
   1.1250000000000000       0.84375000000000000        0.0000000000000000     
   1.0000000000000000       0.87500000000000000        0.0000000000000000     
   1.0312500000000000       0.87500000000000000        0.0000000000000000     
   1.0625000000000000       0.87500000000000000        0.0000000000000000     
   1.0937500000000000       0.87500000000000000        0.0000000000000000     
   1.1250000000000000       0.87500000000000000        0.0000000000000000     
   1.1250000000000000       0.75000000000000000        0.0000000000000000     
   1.1562500000000000       0.75000000000000000        0.0000000000000000     
   1.1875000000000000       0.75000000000000000        0.0000000000000000     
   1.2187500000000000       0.75000000000000000        0.0000000000000000     
   1.2500000000000000       0.75000000000000000        0.0000000000000000     
   1.1250000000000000       0.78125000000000000        0.0000000000000000     
   1.1562500000000000       0.78125000000000000        0.0000000000000000     
   1.1875000000000000       0.78125000000000000        0.0000000000000000     
   1.2187500000000000       0.78125000000000000        0.0000000000000000     
   1.2500000000000000       0.78125000000000000        0.0000000000000000     
   1.1250000000000000       0.81250000000000000        0.0000000000000000     
   1.1562500000000000       0.81250000000000000        0.0000000000000000     
   1.1875000000000000       0.81250000000000000        0.0000000000000000     
   1.2187500000000000       0.81250000000000000        0.0000000000000000     
   1.2500000000000000       0.81250000000000000        0.0000000000000000     
   1.1250000000000000       0.84375000000000000        0.0000000000000000     
   1.1562500000000000       0.84375000000000000        0.0000000000000000     
   1.1875000000000000       0.84375000000000000        0.0000000000000000     
   1.2187500000000000       0.84375000000000000        0.0000000000000000     
   1.2500000000000000       0.84375000000000000        0.0000000000000000     
   1.1250000000000000       0.87500000000000000        0.0000000000000000     
   1.1562500000000000       0.87500000000000000        0.0000000000000000     
   1.1875000000000000       0.87500000000000000        0.0000000000000000     
   1.2187500000000000       0.87500000000000000        0.0000000000000000     
   1.2500000000000000       0.87500000000000000        0.0000000000000000     
   1.2500000000000000       0.75000000000000000        0.0000000000000000     
   1.2812500000000000       0.75000000000000000        0.0000000000000000     
   1.3125000000000000       0.75000000000000000        0.0000000000000000     
   1.3437500000000000       0.75000000000000000        0.0000000000000000     
   1.3750000000000000       0.75000000000000000        0.0000000000000000     
   1.2500000000000000       0.78125000000000000        0.0000000000000000     
   1.2812500000000000       0.78125000000000000        0.0000000000000000     
   1.3125000000000000       0.78125000000000000        0.0000000000000000     
   1.3437500000000000       0.78125000000000000        0.0000000000000000     
   1.3750000000000000       0.78125000000000000        0.0000000000000000     
   1.2500000000000000       0.81250000000000000        0.0000000000000000     
   1.2812500000000000       0.81250000000000000        0.0000000000000000     
   1.3125000000000000       0.81250000000000000        0.0000000000000000     
   1.3437500000000000       0.81250000000000000        0.0000000000000000     
   1.3750000000000000       0.81250000000000000        0.0000000000000000     
   1.2500000000000000       0.84375000000000000        0.0000000000000000     
   1.2812500000000000       0.84375000000000000        0.0000000000000000     
   1.3125000000000000       0.84375000000000000        0.0000000000000000     
   1.3437500000000000       0.84375000000000000        0.0000000000000000     
   1.3750000000000000       0.84375000000000000        0.0000000000000000     
   1.2500000000000000       0.87500000000000000        0.0000000000000000     
   1.2812500000000000       0.87500000000000000        0.0000000000000000     
   1.3125000000000000       0.87500000000000000        0.0000000000000000     
   1.3437500000000000       0.87500000000000000        0.0000000000000000     
   1.3750000000000000       0.87500000000000000        0.0000000000000000     
   1.3750000000000000       0.75000000000000000        0.0000000000000000     
   1.4062500000000000       0.75000000000000000        0.0000000000000000     
   1.4375000000000000       0.75000000000000000        0.0000000000000000     
   1.4687500000000000       0.75000000000000000        0.0000000000000000     
   1.5000000000000000       0.75000000000000000        0.0000000000000000     
   1.3750000000000000       0.78125000000000000        0.0000000000000000     
   1.4062500000000000       0.78125000000000000        0.0000000000000000     
   1.4375000000000000       0.78125000000000000        0.0000000000000000     
   1.4687500000000000       0.78125000000000000        0.0000000000000000     
   1.5000000000000000       0.78125000000000000        0.0000000000000000     
   1.3750000000000000       0.81250000000000000        0.0000000000000000     
   1.4062500000000000       0.81250000000000000        0.0000000000000000     
   1.4375000000000000       0.81250000000000000        0.0000000000000000     
   1.4687500000000000       0.81250000000000000        0.0000000000000000     
   1.5000000000000000       0.81250000000000000        0.0000000000000000     
   1.3750000000000000       0.84375000000000000        0.0000000000000000     
   1.4062500000000000       0.84375000000000000        0.0000000000000000     
   1.4375000000000000       0.84375000000000000        0.0000000000000000     
   1.4687500000000000       0.84375000000000000        0.0000000000000000     
   1.5000000000000000       0.84375000000000000        0.0000000000000000     
   1.3750000000000000       0.87500000000000000        0.0000000000000000     
   1.4062500000000000       0.87500000000000000        0.0000000000000000     
   1.4375000000000000       0.87500000000000000        0.0000000000000000     
   1.4687500000000000       0.87500000000000000        0.0000000000000000     
   1.5000000000000000       0.87500000000000000        0.0000000000000000     
  0.50000000000000000       0.87500000000000000        0.0000000000000000     
  0.53125000000000000       0.87500000000000000        0.0000000000000000     
  0.56250000000000000       0.87500000000000000        0.0000000000000000     
  0.59375000000000000       0.87500000000000000        0.0000000000000000     
  0.62500000000000000       0.87500000000000000        0.0000000000000000     
  0.50000000000000000       0.90625000000000000        0.0000000000000000     
  0.53125000000000000       0.90625000000000000        0.0000000000000000     
  0.56250000000000000       0.90625000000000000        0.0000000000000000     
  0.59375000000000000       0.90625000000000000        0.0000000000000000     
  0.62500000000000000       0.90625000000000000        0.0000000000000000     
  0.50000000000000000       0.93750000000000000        0.0000000000000000     
  0.53125000000000000       0.93750000000000000        0.0000000000000000     
  0.56250000000000000       0.93750000000000000        0.0000000000000000     
  0.59375000000000000       0.93750000000000000        0.0000000000000000     
  0.62500000000000000       0.93750000000000000        0.0000000000000000     
  0.50000000000000000       0.96875000000000000        0.0000000000000000     
  0.53125000000000000       0.96875000000000000        0.0000000000000000     
  0.56250000000000000       0.96875000000000000        0.0000000000000000     
  0.59375000000000000       0.96875000000000000        0.0000000000000000     
  0.62500000000000000       0.96875000000000000        0.0000000000000000     
  0.50000000000000000        1.0000000000000000        0.0000000000000000     
  0.53125000000000000        1.0000000000000000        0.0000000000000000     
  0.56250000000000000        1.0000000000000000        0.0000000000000000     
  0.59375000000000000        1.0000000000000000        0.0000000000000000     
  0.62500000000000000        1.0000000000000000        0.0000000000000000     
  0.62500000000000000       0.87500000000000000        0.0000000000000000     
  0.65625000000000000       0.87500000000000000        0.0000000000000000     
  0.68750000000000000       0.87500000000000000        0.0000000000000000     
  0.71875000000000000       0.87500000000000000        0.0000000000000000     
  0.75000000000000000       0.87500000000000000        0.0000000000000000     
  0.62500000000000000       0.90625000000000000        0.0000000000000000     
  0.65625000000000000       0.90625000000000000        0.0000000000000000     
  0.68750000000000000       0.90625000000000000        0.0000000000000000     
  0.71875000000000000       0.90625000000000000        0.0000000000000000     
  0.75000000000000000       0.90625000000000000        0.0000000000000000     
  0.62500000000000000       0.93750000000000000        0.0000000000000000     
  0.65625000000000000       0.93750000000000000        0.0000000000000000     
  0.68750000000000000       0.93750000000000000        0.0000000000000000     
  0.71875000000000000       0.93750000000000000        0.0000000000000000     
  0.75000000000000000       0.93750000000000000        0.0000000000000000     
  0.62500000000000000       0.96875000000000000        0.0000000000000000     
  0.65625000000000000       0.96875000000000000        0.0000000000000000     
  0.68750000000000000       0.96875000000000000        0.0000000000000000     
  0.71875000000000000       0.96875000000000000        0.0000000000000000     
  0.75000000000000000       0.96875000000000000        0.0000000000000000     
  0.62500000000000000        1.0000000000000000        0.0000000000000000     
  0.65625000000000000        1.0000000000000000        0.0000000000000000     
  0.68750000000000000        1.0000000000000000        0.0000000000000000     
  0.71875000000000000        1.0000000000000000        0.0000000000000000     
  0.75000000000000000        1.0000000000000000        0.0000000000000000     
  0.75000000000000000       0.87500000000000000        0.0000000000000000     
  0.78125000000000000       0.87500000000000000        0.0000000000000000     
  0.81250000000000000       0.87500000000000000        0.0000000000000000     
  0.84375000000000000       0.87500000000000000        0.0000000000000000     
  0.87500000000000000       0.87500000000000000        0.0000000000000000     
  0.75000000000000000       0.90625000000000000        0.0000000000000000     
  0.78125000000000000       0.90625000000000000        0.0000000000000000     
  0.81250000000000000       0.90625000000000000        0.0000000000000000     
  0.84375000000000000       0.90625000000000000        0.0000000000000000     
  0.87500000000000000       0.90625000000000000        0.0000000000000000     
  0.75000000000000000       0.93750000000000000        0.0000000000000000     
  0.78125000000000000       0.93750000000000000        0.0000000000000000     
  0.81250000000000000       0.93750000000000000        0.0000000000000000     
  0.84375000000000000       0.93750000000000000        0.0000000000000000     
  0.87500000000000000       0.93750000000000000        0.0000000000000000     
  0.75000000000000000       0.96875000000000000        0.0000000000000000     
  0.78125000000000000       0.96875000000000000        0.0000000000000000     
  0.81250000000000000       0.96875000000000000        0.0000000000000000     
  0.84375000000000000       0.96875000000000000        0.0000000000000000     
  0.87500000000000000       0.96875000000000000        0.0000000000000000     
  0.75000000000000000        1.0000000000000000        0.0000000000000000     
  0.78125000000000000        1.0000000000000000        0.0000000000000000     
  0.81250000000000000        1.0000000000000000        0.0000000000000000     
  0.84375000000000000        1.0000000000000000        0.0000000000000000     
  0.87500000000000000        1.0000000000000000        0.0000000000000000     
  0.87500000000000000       0.87500000000000000        0.0000000000000000     
  0.90625000000000000       0.87500000000000000        0.0000000000000000     
  0.93750000000000000       0.87500000000000000        0.0000000000000000     
  0.96875000000000000       0.87500000000000000        0.0000000000000000     
   1.0000000000000000       0.87500000000000000        0.0000000000000000     
  0.87500000000000000       0.90625000000000000        0.0000000000000000     
  0.90625000000000000       0.90625000000000000        0.0000000000000000     
  0.93750000000000000       0.90625000000000000        0.0000000000000000     
  0.96875000000000000       0.90625000000000000        0.0000000000000000     
   1.0000000000000000       0.90625000000000000        0.0000000000000000     
  0.87500000000000000       0.93750000000000000        0.0000000000000000     
  0.90625000000000000       0.93750000000000000        0.0000000000000000     
  0.93750000000000000       0.93750000000000000        0.0000000000000000     
  0.96875000000000000       0.93750000000000000        0.0000000000000000     
   1.0000000000000000       0.93750000000000000        0.0000000000000000     
  0.87500000000000000       0.96875000000000000        0.0000000000000000     
  0.90625000000000000       0.96875000000000000        0.0000000000000000     
  0.93750000000000000       0.96875000000000000        0.0000000000000000     
  0.96875000000000000       0.96875000000000000        0.0000000000000000     
   1.0000000000000000       0.96875000000000000        0.0000000000000000     
  0.87500000000000000        1.0000000000000000        0.0000000000000000     
  0.90625000000000000        1.0000000000000000        0.0000000000000000     
  0.93750000000000000        1.0000000000000000        0.0000000000000000     
  0.96875000000000000        1.0000000000000000        0.0000000000000000     
   1.0000000000000000        1.0000000000000000        0.0000000000000000     
   1.0000000000000000       0.87500000000000000        0.0000000000000000     
   1.0312500000000000       0.87500000000000000        0.0000000000000000     
   1.0625000000000000       0.87500000000000000        0.0000000000000000     
   1.0937500000000000       0.87500000000000000        0.0000000000000000     
   1.1250000000000000       0.87500000000000000        0.0000000000000000     
   1.0000000000000000       0.90625000000000000        0.0000000000000000     
   1.0312500000000000       0.90625000000000000        0.0000000000000000     
   1.0625000000000000       0.90625000000000000        0.0000000000000000     
   1.0937500000000000       0.90625000000000000        0.0000000000000000     
   1.1250000000000000       0.90625000000000000        0.0000000000000000     
   1.0000000000000000       0.93750000000000000        0.0000000000000000     
   1.0312500000000000       0.93750000000000000        0.0000000000000000     
   1.0625000000000000       0.93750000000000000        0.0000000000000000     
   1.0937500000000000       0.93750000000000000        0.0000000000000000     
   1.1250000000000000       0.93750000000000000        0.0000000000000000     
   1.0000000000000000       0.96875000000000000        0.0000000000000000     
   1.0312500000000000       0.96875000000000000        0.0000000000000000     
   1.0625000000000000       0.96875000000000000        0.0000000000000000     
   1.0937500000000000       0.96875000000000000        0.0000000000000000     
   1.1250000000000000       0.96875000000000000        0.0000000000000000     
   1.0000000000000000        1.0000000000000000        0.0000000000000000     
   1.0312500000000000        1.0000000000000000        0.0000000000000000     
   1.0625000000000000        1.0000000000000000        0.0000000000000000     
   1.0937500000000000        1.0000000000000000        0.0000000000000000     
   1.1250000000000000        1.0000000000000000        0.0000000000000000     
   1.1250000000000000       0.87500000000000000        0.0000000000000000     
   1.1562500000000000       0.87500000000000000        0.0000000000000000     
   1.1875000000000000       0.87500000000000000        0.0000000000000000     
   1.2187500000000000       0.87500000000000000        0.0000000000000000     
   1.2500000000000000       0.87500000000000000        0.0000000000000000     
   1.1250000000000000       0.90625000000000000        0.0000000000000000     
   1.1562500000000000       0.90625000000000000        0.0000000000000000     
   1.1875000000000000       0.90625000000000000        0.0000000000000000     
   1.2187500000000000       0.90625000000000000        0.0000000000000000     
   1.2500000000000000       0.90625000000000000        0.0000000000000000     
   1.1250000000000000       0.93750000000000000        0.0000000000000000     
   1.1562500000000000       0.93750000000000000        0.0000000000000000     
   1.1875000000000000       0.93750000000000000        0.0000000000000000     
   1.2187500000000000       0.93750000000000000        0.0000000000000000     
   1.2500000000000000       0.93750000000000000        0.0000000000000000     
   1.1250000000000000       0.96875000000000000        0.0000000000000000     
   1.1562500000000000       0.96875000000000000        0.0000000000000000     
   1.1875000000000000       0.96875000000000000        0.0000000000000000     
   1.2187500000000000       0.96875000000000000        0.0000000000000000     
   1.2500000000000000       0.96875000000000000        0.0000000000000000     
   1.1250000000000000        1.0000000000000000        0.0000000000000000     
   1.1562500000000000        1.0000000000000000        0.0000000000000000     
   1.1875000000000000        1.0000000000000000        0.0000000000000000     
   1.2187500000000000        1.0000000000000000        0.0000000000000000     
   1.2500000000000000        1.0000000000000000        0.0000000000000000     
   1.2500000000000000       0.87500000000000000        0.0000000000000000     
   1.2812500000000000       0.87500000000000000        0.0000000000000000     
   1.3125000000000000       0.87500000000000000        0.0000000000000000     
   1.3437500000000000       0.87500000000000000        0.0000000000000000     
   1.3750000000000000       0.87500000000000000        0.0000000000000000     
   1.2500000000000000       0.90625000000000000        0.0000000000000000     
   1.2812500000000000       0.90625000000000000        0.0000000000000000     
   1.3125000000000000       0.90625000000000000        0.0000000000000000     
   1.3437500000000000       0.90625000000000000        0.0000000000000000     
   1.3750000000000000       0.90625000000000000        0.0000000000000000     
   1.2500000000000000       0.93750000000000000        0.0000000000000000     
   1.2812500000000000       0.93750000000000000        0.0000000000000000     
   1.3125000000000000       0.93750000000000000        0.0000000000000000     
   1.3437500000000000       0.93750000000000000        0.0000000000000000     
   1.3750000000000000       0.93750000000000000        0.0000000000000000     
   1.2500000000000000       0.96875000000000000        0.0000000000000000     
   1.2812500000000000       0.96875000000000000        0.0000000000000000     
   1.3125000000000000       0.96875000000000000        0.0000000000000000     
   1.3437500000000000       0.96875000000000000        0.0000000000000000     
   1.3750000000000000       0.96875000000000000        0.0000000000000000     
   1.2500000000000000        1.0000000000000000        0.0000000000000000     
   1.2812500000000000        1.0000000000000000        0.0000000000000000     
   1.3125000000000000        1.0000000000000000        0.0000000000000000     
   1.3437500000000000        1.0000000000000000        0.0000000000000000     
   1.3750000000000000        1.0000000000000000        0.0000000000000000     
   1.3750000000000000       0.87500000000000000        0.0000000000000000     
   1.4062500000000000       0.87500000000000000        0.0000000000000000     
   1.4375000000000000       0.87500000000000000        0.0000000000000000     
   1.4687500000000000       0.87500000000000000        0.0000000000000000     
   1.5000000000000000       0.87500000000000000        0.0000000000000000     
   1.3750000000000000       0.90625000000000000        0.0000000000000000     
   1.4062500000000000       0.90625000000000000        0.0000000000000000     
   1.4375000000000000       0.90625000000000000        0.0000000000000000     
   1.4687500000000000       0.90625000000000000        0.0000000000000000     
   1.5000000000000000       0.90625000000000000        0.0000000000000000     
   1.3750000000000000       0.93750000000000000        0.0000000000000000     
   1.4062500000000000       0.93750000000000000        0.0000000000000000     
   1.4375000000000000       0.93750000000000000        0.0000000000000000     
   1.4687500000000000       0.93750000000000000        0.0000000000000000     
   1.5000000000000000       0.93750000000000000        0.0000000000000000     
   1.3750000000000000       0.96875000000000000        0.0000000000000000     
   1.4062500000000000       0.96875000000000000        0.0000000000000000     
   1.4375000000000000       0.96875000000000000        0.0000000000000000     
   1.4687500000000000       0.96875000000000000        0.0000000000000000     
   1.5000000000000000       0.96875000000000000        0.0000000000000000     
   1.3750000000000000        1.0000000000000000        0.0000000000000000     
   1.4062500000000000        1.0000000000000000        0.0000000000000000     
   1.4375000000000000        1.0000000000000000        0.0000000000000000     
   1.4687500000000000        1.0000000000000000        0.0000000000000000     
   1.5000000000000000        1.0000000000000000        0.0000000000000000     
 </DataArray>
 </Points>
 <Cells>
 <DataArray  type="Int32"  Name="connectivity"  format="ascii">
           0           1           6           5
           1           2           7           6
           2           3           8           7
           3           4           9           8
           5           6          11          10
           6           7          12          11
           7           8          13          12
           8           9          14          13
          10          11          16          15
          11          12          17          16
          12          13          18          17
          13          14          19          18
          15          16          21          20
          16          17          22          21
          17          18          23          22
          18          19          24          23
          25          26          31          30
          26          27          32          31
          27          28          33          32
          28          29          34          33
          30          31          36          35
          31          32          37          36
          32          33          38          37
          33          34          39          38
          35          36          41          40
          36          37          42          41
          37          38          43          42
          38          39          44          43
          40          41          46          45
          41          42          47          46
          42          43          48          47
          43          44          49          48
          50          51          56          55
          51          52          57          56
          52          53          58          57
          53          54          59          58
          55          56          61          60
          56          57          62          61
          57          58          63          62
          58          59          64          63
          60          61          66          65
          61          62          67          66
          62          63          68          67
          63          64          69          68
          65          66          71          70
          66          67          72          71
          67          68          73          72
          68          69          74          73
          75          76          81          80
          76          77          82          81
          77          78          83          82
          78          79          84          83
          80          81          86          85
          81          82          87          86
          82          83          88          87
          83          84          89          88
          85          86          91          90
          86          87          92          91
          87          88          93          92
          88          89          94          93
          90          91          96          95
          91          92          97          96
          92          93          98          97
          93          94          99          98
         100         101         106         105
         101         102         107         106
         102         103         108         107
         103         104         109         108
         105         106         111         110
         106         107         112         111
         107         108         113         112
         108         109         114         113
         110         111         116         115
         111         112         117         116
         112         113         118         117
         113         114         119         118
         115         116         121         120
         116         117         122         121
         117         118         123         122
         118         119         124         123
         125         126         131         130
         126         127         132         131
         127         128         133         132
         128         129         134         133
         130         131         136         135
         131         132         137         136
         132         133         138         137
         133         134         139         138
         135         136         141         140
         136         137         142         141
         137         138         143         142
         138         139         144         143
         140         141         146         145
         141         142         147         146
         142         143         148         147
         143         144         149         148
         150         151         156         155
         151         152         157         156
         152         153         158         157
         153         154         159         158
         155         156         161         160
         156         157         162         161
         157         158         163         162
         158         159         164         163
         160         161         166         165
         161         162         167         166
         162         163         168         167
         163         164         169         168
         165         166         171         170
         166         167         172         171
         167         168         173         172
         168         169         174         173
         175         176         181         180
         176         177         182         181
         177         178         183         182
         178         179         184         183
         180         181         186         185
         181         182         187         186
         182         183         188         187
         183         184         189         188
         185         186         191         190
         186         187         192         191
         187         188         193         192
         188         189         194         193
         190         191         196         195
         191         192         197         196
         192         193         198         197
         193         194         199         198
         200         201         206         205
         201         202         207         206
         202         203         208         207
         203         204         209         208
         205         206         211         210
         206         207         212         211
         207         208         213         212
         208         209         214         213
         210         211         216         215
         211         212         217         216
         212         213         218         217
         213         214         219         218
         215         216         221         220
         216         217         222         221
         217         218         223         222
         218         219         224         223
         225         226         231         230
         226         227         232         231
         227         228         233         232
         228         229         234         233
         230         231         236         235
         231         232         237         236
         232         233         238         237
         233         234         239         238
         235         236         241         240
         236         237         242         241
         237         238         243         242
         238         239         244         243
         240         241         246         245
         241         242         247         246
         242         243         248         247
         243         244         249         248
         250         251         256         255
         251         252         257         256
         252         253         258         257
         253         254         259         258
         255         256         261         260
         256         257         262         261
         257         258         263         262
         258         259         264         263
         260         261         266         265
         261         262         267         266
         262         263         268         267
         263         264         269         268
         265         266         271         270
         266         267         272         271
         267         268         273         272
         268         269         274         273
         275         276         281         280
         276         277         282         281
         277         278         283         282
         278         279         284         283
         280         281         286         285
         281         282         287         286
         282         283         288         287
         283         284         289         288
         285         286         291         290
         286         287         292         291
         287         288         293         292
         288         289         294         293
         290         291         296         295
         291         292         297         296
         292         293         298         297
         293         294         299         298
         300         301         306         305
         301         302         307         306
         302         303         308         307
         303         304         309         308
         305         306         311         310
         306         307         312         311
         307         308         313         312
         308         309         314         313
         310         311         316         315
         311         312         317         316
         312         313         318         317
         313         314         319         318
         315         316         321         320
         316         317         322         321
         317         318         323         322
         318         319         324         323
         325         326         331         330
         326         327         332         331
         327         328         333         332
         328         329         334         333
         330         331         336         335
         331         332         337         336
         332         333         338         337
         333         334         339         338
         335         336         341         340
         336         337         342         341
         337         338         343         342
         338         339         344         343
         340         341         346         345
         341         342         347         346
         342         343         348         347
         343         344         349         348
         350         351         356         355
         351         352         357         356
         352         353         358         357
         353         354         359         358
         355         356         361         360
         356         357         362         361
         357         358         363         362
         358         359         364         363
         360         361         366         365
         361         362         367         366
         362         363         368         367
         363         364         369         368
         365         366         371         370
         366         367         372         371
         367         368         373         372
         368         369         374         373
         375         376         381         380
         376         377         382         381
         377         378         383         382
         378         379         384         383
         380         381         386         385
         381         382         387         386
         382         383         388         387
         383         384         389         388
         385         386         391         390
         386         387         392         391
         387         388         393         392
         388         389         394         393
         390         391         396         395
         391         392         397         396
         392         393         398         397
         393         394         399         398
         400         401         406         405
         401         402         407         406
         402         403         408         407
         403         404         409         408
         405         406         411         410
         406         407         412         411
         407         408         413         412
         408         409         414         413
         410         411         416         415
         411         412         417         416
         412         413         418         417
         413         414         419         418
         415         416         421         420
         416         417         422         421
         417         418         423         422
         418         419         424         423
         425         426         431         430
         426         427         432         431
         427         428         433         432
         428         429         434         433
         430         431         436         435
         431         432         437         436
         432         433         438         437
         433         434         439         438
         435         436         441         440
         436         437         442         441
         437         438         443         442
         438         439         444         443
         440         441         446         445
         441         442         447         446
         442         443         448         447
         443         444         449         448
         450         451         456         455
         451         452         457         456
         452         453         458         457
         453         454         459         458
         455         456         461         460
         456         457         462         461
         457         458         463         462
         458         459         464         463
         460         461         466         465
         461         462         467         466
         462         463         468         467
         463         464         469         468
         465         466         471         470
         466         467         472         471
         467         468         473         472
         468         469         474         473
         475         476         481         480
         476         477         482         481
         477         478         483         482
         478         479         484         483
         480         481         486         485
         481         482         487         486
         482         483         488         487
         483         484         489         488
         485         486         491         490
         486         487         492         491
         487         488         493         492
         488         489         494         493
         490         491         496         495
         491         492         497         496
         492         493         498         497
         493         494         499         498
         500         501         506         505
         501         502         507         506
         502         503         508         507
         503         504         509         508
         505         506         511         510
         506         507         512         511
         507         508         513         512
         508         509         514         513
         510         511         516         515
         511         512         517         516
         512         513         518         517
         513         514         519         518
         515         516         521         520
         516         517         522         521
         517         518         523         522
         518         519         524         523
         525         526         531         530
         526         527         532         531
         527         528         533         532
         528         529         534         533
         530         531         536         535
         531         532         537         536
         532         533         538         537
         533         534         539         538
         535         536         541         540
         536         537         542         541
         537         538         543         542
         538         539         544         543
         540         541         546         545
         541         542         547         546
         542         543         548         547
         543         544         549         548
         550         551         556         555
         551         552         557         556
         552         553         558         557
         553         554         559         558
         555         556         561         560
         556         557         562         561
         557         558         563         562
         558         559         564         563
         560         561         566         565
         561         562         567         566
         562         563         568         567
         563         564         569         568
         565         566         571         570
         566         567         572         571
         567         568         573         572
         568         569         574         573
         575         576         581         580
         576         577         582         581
         577         578         583         582
         578         579         584         583
         580         581         586         585
         581         582         587         586
         582         583         588         587
         583         584         589         588
         585         586         591         590
         586         587         592         591
         587         588         593         592
         588         589         594         593
         590         591         596         595
         591         592         597         596
         592         593         598         597
         593         594         599         598
         600         601         606         605
         601         602         607         606
         602         603         608         607
         603         604         609         608
         605         606         611         610
         606         607         612         611
         607         608         613         612
         608         609         614         613
         610         611         616         615
         611         612         617         616
         612         613         618         617
         613         614         619         618
         615         616         621         620
         616         617         622         621
         617         618         623         622
         618         619         624         623
         625         626         631         630
         626         627         632         631
         627         628         633         632
         628         629         634         633
         630         631         636         635
         631         632         637         636
         632         633         638         637
         633         634         639         638
         635         636         641         640
         636         637         642         641
         637         638         643         642
         638         639         644         643
         640         641         646         645
         641         642         647         646
         642         643         648         647
         643         644         649         648
         650         651         656         655
         651         652         657         656
         652         653         658         657
         653         654         659         658
         655         656         661         660
         656         657         662         661
         657         658         663         662
         658         659         664         663
         660         661         666         665
         661         662         667         666
         662         663         668         667
         663         664         669         668
         665         666         671         670
         666         667         672         671
         667         668         673         672
         668         669         674         673
         675         676         681         680
         676         677         682         681
         677         678         683         682
         678         679         684         683
         680         681         686         685
         681         682         687         686
         682         683         688         687
         683         684         689         688
         685         686         691         690
         686         687         692         691
         687         688         693         692
         688         689         694         693
         690         691         696         695
         691         692         697         696
         692         693         698         697
         693         694         699         698
         700         701         706         705
         701         702         707         706
         702         703         708         707
         703         704         709         708
         705         706         711         710
         706         707         712         711
         707         708         713         712
         708         709         714         713
         710         711         716         715
         711         712         717         716
         712         713         718         717
         713         714         719         718
         715         716         721         720
         716         717         722         721
         717         718         723         722
         718         719         724         723
         725         726         731         730
         726         727         732         731
         727         728         733         732
         728         729         734         733
         730         731         736         735
         731         732         737         736
         732         733         738         737
         733         734         739         738
         735         736         741         740
         736         737         742         741
         737         738         743         742
         738         739         744         743
         740         741         746         745
         741         742         747         746
         742         743         748         747
         743         744         749         748
         750         751         756         755
         751         752         757         756
         752         753         758         757
         753         754         759         758
         755         756         761         760
         756         757         762         761
         757         758         763         762
         758         759         764         763
         760         761         766         765
         761         762         767         766
         762         763         768         767
         763         764         769         768
         765         766         771         770
         766         767         772         771
         767         768         773         772
         768         769         774         773
         775         776         781         780
         776         777         782         781
         777         778         783         782
         778         779         784         783
         780         781         786         785
         781         782         787         786
         782         783         788         787
         783         784         789         788
         785         786         791         790
         786         787         792         791
         787         788         793         792
         788         789         794         793
         790         791         796         795
         791         792         797         796
         792         793         798         797
         793         794         799         798
         800         801         806         805
         801         802         807         806
         802         803         808         807
         803         804         809         808
         805         806         811         810
         806         807         812         811
         807         808         813         812
         808         809         814         813
         810         811         816         815
         811         812         817         816
         812         813         818         817
         813         814         819         818
         815         816         821         820
         816         817         822         821
         817         818         823         822
         818         819         824         823
         825         826         831         830
         826         827         832         831
         827         828         833         832
         828         829         834         833
         830         831         836         835
         831         832         837         836
         832         833         838         837
         833         834         839         838
         835         836         841         840
         836         837         842         841
         837         838         843         842
         838         839         844         843
         840         841         846         845
         841         842         847         846
         842         843         848         847
         843         844         849         848
         850         851         856         855
         851         852         857         856
         852         853         858         857
         853         854         859         858
         855         856         861         860
         856         857         862         861
         857         858         863         862
         858         859         864         863
         860         861         866         865
         861         862         867         866
         862         863         868         867
         863         864         869         868
         865         866         871         870
         866         867         872         871
         867         868         873         872
         868         869         874         873
         875         876         881         880
         876         877         882         881
         877         878         883         882
         878         879         884         883
         880         881         886         885
         881         882         887         886
         882         883         888         887
         883         884         889         888
         885         886         891         890
         886         887         892         891
         887         888         893         892
         888         889         894         893
         890         891         896         895
         891         892         897         896
         892         893         898         897
         893         894         899         898
         900         901         906         905
         901         902         907         906
         902         903         908         907
         903         904         909         908
         905         906         911         910
         906         907         912         911
         907         908         913         912
         908         909         914         913
         910         911         916         915
         911         912         917         916
         912         913         918         917
         913         914         919         918
         915         916         921         920
         916         917         922         921
         917         918         923         922
         918         919         924         923
         925         926         931         930
         926         927         932         931
         927         928         933         932
         928         929         934         933
         930         931         936         935
         931         932         937         936
         932         933         938         937
         933         934         939         938
         935         936         941         940
         936         937         942         941
         937         938         943         942
         938         939         944         943
         940         941         946         945
         941         942         947         946
         942         943         948         947
         943         944         949         948
         950         951         956         955
         951         952         957         956
         952         953         958         957
         953         954         959         958
         955         956         961         960
         956         957         962         961
         957         958         963         962
         958         959         964         963
         960         961         966         965
         961         962         967         966
         962         963         968         967
         963         964         969         968
         965         966         971         970
         966         967         972         971
         967         968         973         972
         968         969         974         973
         975         976         981         980
         976         977         982         981
         977         978         983         982
         978         979         984         983
         980         981         986         985
         981         982         987         986
         982         983         988         987
         983         984         989         988
         985         986         991         990
         986         987         992         991
         987         988         993         992
         988         989         994         993
         990         991         996         995
         991         992         997         996
         992         993         998         997
         993         994         999         998
        1000        1001        1006        1005
        1001        1002        1007        1006
        1002        1003        1008        1007
        1003        1004        1009        1008
        1005        1006        1011        1010
        1006        1007        1012        1011
        1007        1008        1013        1012
        1008        1009        1014        1013
        1010        1011        1016        1015
        1011        1012        1017        1016
        1012        1013        1018        1017
        1013        1014        1019        1018
        1015        1016        1021        1020
        1016        1017        1022        1021
        1017        1018        1023        1022
        1018        1019        1024        1023
        1025        1026        1031        1030
        1026        1027        1032        1031
        1027        1028        1033        1032
        1028        1029        1034        1033
        1030        1031        1036        1035
        1031        1032        1037        1036
        1032        1033        1038        1037
        1033        1034        1039        1038
        1035        1036        1041        1040
        1036        1037        1042        1041
        1037        1038        1043        1042
        1038        1039        1044        1043
        1040        1041        1046        1045
        1041        1042        1047        1046
        1042        1043        1048        1047
        1043        1044        1049        1048
        1050        1051        1056        1055
        1051        1052        1057        1056
        1052        1053        1058        1057
        1053        1054        1059        1058
        1055        1056        1061        1060
        1056        1057        1062        1061
        1057        1058        1063        1062
        1058        1059        1064        1063
        1060        1061        1066        1065
        1061        1062        1067        1066
        1062        1063        1068        1067
        1063        1064        1069        1068
        1065        1066        1071        1070
        1066        1067        1072        1071
        1067        1068        1073        1072
        1068        1069        1074        1073
        1075        1076        1081        1080
        1076        1077        1082        1081
        1077        1078        1083        1082
        1078        1079        1084        1083
        1080        1081        1086        1085
        1081        1082        1087        1086
        1082        1083        1088        1087
        1083        1084        1089        1088
        1085        1086        1091        1090
        1086        1087        1092        1091
        1087        1088        1093        1092
        1088        1089        1094        1093
        1090        1091        1096        1095
        1091        1092        1097        1096
        1092        1093        1098        1097
        1093        1094        1099        1098
        1100        1101        1106        1105
        1101        1102        1107        1106
        1102        1103        1108        1107
        1103        1104        1109        1108
        1105        1106        1111        1110
        1106        1107        1112        1111
        1107        1108        1113        1112
        1108        1109        1114        1113
        1110        1111        1116        1115
        1111        1112        1117        1116
        1112        1113        1118        1117
        1113        1114        1119        1118
        1115        1116        1121        1120
        1116        1117        1122        1121
        1117        1118        1123        1122
        1118        1119        1124        1123
        1125        1126        1131        1130
        1126        1127        1132        1131
        1127        1128        1133        1132
        1128        1129        1134        1133
        1130        1131        1136        1135
        1131        1132        1137        1136
        1132        1133        1138        1137
        1133        1134        1139        1138
        1135        1136        1141        1140
        1136        1137        1142        1141
        1137        1138        1143        1142
        1138        1139        1144        1143
        1140        1141        1146        1145
        1141        1142        1147        1146
        1142        1143        1148        1147
        1143        1144        1149        1148
        1150        1151        1156        1155
        1151        1152        1157        1156
        1152        1153        1158        1157
        1153        1154        1159        1158
        1155        1156        1161        1160
        1156        1157        1162        1161
        1157        1158        1163        1162
        1158        1159        1164        1163
        1160        1161        1166        1165
        1161        1162        1167        1166
        1162        1163        1168        1167
        1163        1164        1169        1168
        1165        1166        1171        1170
        1166        1167        1172        1171
        1167        1168        1173        1172
        1168        1169        1174        1173
        1175        1176        1181        1180
        1176        1177        1182        1181
        1177        1178        1183        1182
        1178        1179        1184        1183
        1180        1181        1186        1185
        1181        1182        1187        1186
        1182        1183        1188        1187
        1183        1184        1189        1188
        1185        1186        1191        1190
        1186        1187        1192        1191
        1187        1188        1193        1192
        1188        1189        1194        1193
        1190        1191        1196        1195
        1191        1192        1197        1196
        1192        1193        1198        1197
        1193        1194        1199        1198
        1200        1201        1206        1205
        1201        1202        1207        1206
        1202        1203        1208        1207
        1203        1204        1209        1208
        1205        1206        1211        1210
        1206        1207        1212        1211
        1207        1208        1213        1212
        1208        1209        1214        1213
        1210        1211        1216        1215
        1211        1212        1217        1216
        1212        1213        1218        1217
        1213        1214        1219        1218
        1215        1216        1221        1220
        1216        1217        1222        1221
        1217        1218        1223        1222
        1218        1219        1224        1223
        1225        1226        1231        1230
        1226        1227        1232        1231
        1227        1228        1233        1232
        1228        1229        1234        1233
        1230        1231        1236        1235
        1231        1232        1237        1236
        1232        1233        1238        1237
        1233        1234        1239        1238
        1235        1236        1241        1240
        1236        1237        1242        1241
        1237        1238        1243        1242
        1238        1239        1244        1243
        1240        1241        1246        1245
        1241        1242        1247        1246
        1242        1243        1248        1247
        1243        1244        1249        1248
        1250        1251        1256        1255
        1251        1252        1257        1256
        1252        1253        1258        1257
        1253        1254        1259        1258
        1255        1256        1261        1260
        1256        1257        1262        1261
        1257        1258        1263        1262
        1258        1259        1264        1263
        1260        1261        1266        1265
        1261        1262        1267        1266
        1262        1263        1268        1267
        1263        1264        1269        1268
        1265        1266        1271        1270
        1266        1267        1272        1271
        1267        1268        1273        1272
        1268        1269        1274        1273
        1275        1276        1281        1280
        1276        1277        1282        1281
        1277        1278        1283        1282
        1278        1279        1284        1283
        1280        1281        1286        1285
        1281        1282        1287        1286
        1282        1283        1288        1287
        1283        1284        1289        1288
        1285        1286        1291        1290
        1286        1287        1292        1291
        1287        1288        1293        1292
        1288        1289        1294        1293
        1290        1291        1296        1295
        1291        1292        1297        1296
        1292        1293        1298        1297
        1293        1294        1299        1298
        1300        1301        1306        1305
        1301        1302        1307        1306
        1302        1303        1308        1307
        1303        1304        1309        1308
        1305        1306        1311        1310
        1306        1307        1312        1311
        1307        1308        1313        1312
        1308        1309        1314        1313
        1310        1311        1316        1315
        1311        1312        1317        1316
        1312        1313        1318        1317
        1313        1314        1319        1318
        1315        1316        1321        1320
        1316        1317        1322        1321
        1317        1318        1323        1322
        1318        1319        1324        1323
        1325        1326        1331        1330
        1326        1327        1332        1331
        1327        1328        1333        1332
        1328        1329        1334        1333
        1330        1331        1336        1335
        1331        1332        1337        1336
        1332        1333        1338        1337
        1333        1334        1339        1338
        1335        1336        1341        1340
        1336        1337        1342        1341
        1337        1338        1343        1342
        1338        1339        1344        1343
        1340        1341        1346        1345
        1341        1342        1347        1346
        1342        1343        1348        1347
        1343        1344        1349        1348
        1350        1351        1356        1355
        1351        1352        1357        1356
        1352        1353        1358        1357
        1353        1354        1359        1358
        1355        1356        1361        1360
        1356        1357        1362        1361
        1357        1358        1363        1362
        1358        1359        1364        1363
        1360        1361        1366        1365
        1361        1362        1367        1366
        1362        1363        1368        1367
        1363        1364        1369        1368
        1365        1366        1371        1370
        1366        1367        1372        1371
        1367        1368        1373        1372
        1368        1369        1374        1373
        1375        1376        1381        1380
        1376        1377        1382        1381
        1377        1378        1383        1382
        1378        1379        1384        1383
        1380        1381        1386        1385
        1381        1382        1387        1386
        1382        1383        1388        1387
        1383        1384        1389        1388
        1385        1386        1391        1390
        1386        1387        1392        1391
        1387        1388        1393        1392
        1388        1389        1394        1393
        1390        1391        1396        1395
        1391        1392        1397        1396
        1392        1393        1398        1397
        1393        1394        1399        1398
        1400        1401        1406        1405
        1401        1402        1407        1406
        1402        1403        1408        1407
        1403        1404        1409        1408
        1405        1406        1411        1410
        1406        1407        1412        1411
        1407        1408        1413        1412
        1408        1409        1414        1413
        1410        1411        1416        1415
        1411        1412        1417        1416
        1412        1413        1418        1417
        1413        1414        1419        1418
        1415        1416        1421        1420
        1416        1417        1422        1421
        1417        1418        1423        1422
        1418        1419        1424        1423
        1425        1426        1431        1430
        1426        1427        1432        1431
        1427        1428        1433        1432
        1428        1429        1434        1433
        1430        1431        1436        1435
        1431        1432        1437        1436
        1432        1433        1438        1437
        1433        1434        1439        1438
        1435        1436        1441        1440
        1436        1437        1442        1441
        1437        1438        1443        1442
        1438        1439        1444        1443
        1440        1441        1446        1445
        1441        1442        1447        1446
        1442        1443        1448        1447
        1443        1444        1449        1448
        1450        1451        1456        1455
        1451        1452        1457        1456
        1452        1453        1458        1457
        1453        1454        1459        1458
        1455        1456        1461        1460
        1456        1457        1462        1461
        1457        1458        1463        1462
        1458        1459        1464        1463
        1460        1461        1466        1465
        1461        1462        1467        1466
        1462        1463        1468        1467
        1463        1464        1469        1468
        1465        1466        1471        1470
        1466        1467        1472        1471
        1467        1468        1473        1472
        1468        1469        1474        1473
        1475        1476        1481        1480
        1476        1477        1482        1481
        1477        1478        1483        1482
        1478        1479        1484        1483
        1480        1481        1486        1485
        1481        1482        1487        1486
        1482        1483        1488        1487
        1483        1484        1489        1488
        1485        1486        1491        1490
        1486        1487        1492        1491
        1487        1488        1493        1492
        1488        1489        1494        1493
        1490        1491        1496        1495
        1491        1492        1497        1496
        1492        1493        1498        1497
        1493        1494        1499        1498
        1500        1501        1506        1505
        1501        1502        1507        1506
        1502        1503        1508        1507
        1503        1504        1509        1508
        1505        1506        1511        1510
        1506        1507        1512        1511
        1507        1508        1513        1512
        1508        1509        1514        1513
        1510        1511        1516        1515
        1511        1512        1517        1516
        1512        1513        1518        1517
        1513        1514        1519        1518
        1515        1516        1521        1520
        1516        1517        1522        1521
        1517        1518        1523        1522
        1518        1519        1524        1523
        1525        1526        1531        1530
        1526        1527        1532        1531
        1527        1528        1533        1532
        1528        1529        1534        1533
        1530        1531        1536        1535
        1531        1532        1537        1536
        1532        1533        1538        1537
        1533        1534        1539        1538
        1535        1536        1541        1540
        1536        1537        1542        1541
        1537        1538        1543        1542
        1538        1539        1544        1543
        1540        1541        1546        1545
        1541        1542        1547        1546
        1542        1543        1548        1547
        1543        1544        1549        1548
        1550        1551        1556        1555
        1551        1552        1557        1556
        1552        1553        1558        1557
        1553        1554        1559        1558
        1555        1556        1561        1560
        1556        1557        1562        1561
        1557        1558        1563        1562
        1558        1559        1564        1563
        1560        1561        1566        1565
        1561        1562        1567        1566
        1562        1563        1568        1567
        1563        1564        1569        1568
        1565        1566        1571        1570
        1566        1567        1572        1571
        1567        1568        1573        1572
        1568        1569        1574        1573
        1575        1576        1581        1580
        1576        1577        1582        1581
        1577        1578        1583        1582
        1578        1579        1584        1583
        1580        1581        1586        1585
        1581        1582        1587        1586
        1582        1583        1588        1587
        1583        1584        1589        1588
        1585        1586        1591        1590
        1586        1587        1592        1591
        1587        1588        1593        1592
        1588        1589        1594        1593
        1590        1591        1596        1595
        1591        1592        1597        1596
        1592        1593        1598        1597
        1593        1594        1599        1598
 </DataArray>
 <DataArray  type="Int32"  Name="offsets"  format="ascii"> 
           4
           8
          12
          16
          20
          24
          28
          32
          36
          40
          44
          48
          52
          56
          60
          64
          68
          72
          76
          80
          84
          88
          92
          96
         100
         104
         108
         112
         116
         120
         124
         128
         132
         136
         140
         144
         148
         152
         156
         160
         164
         168
         172
         176
         180
         184
         188
         192
         196
         200
         204
         208
         212
         216
         220
         224
         228
         232
         236
         240
         244
         248
         252
         256
         260
         264
         268
         272
         276
         280
         284
         288
         292
         296
         300
         304
         308
         312
         316
         320
         324
         328
         332
         336
         340
         344
         348
         352
         356
         360
         364
         368
         372
         376
         380
         384
         388
         392
         396
         400
         404
         408
         412
         416
         420
         424
         428
         432
         436
         440
         444
         448
         452
         456
         460
         464
         468
         472
         476
         480
         484
         488
         492
         496
         500
         504
         508
         512
         516
         520
         524
         528
         532
         536
         540
         544
         548
         552
         556
         560
         564
         568
         572
         576
         580
         584
         588
         592
         596
         600
         604
         608
         612
         616
         620
         624
         628
         632
         636
         640
         644
         648
         652
         656
         660
         664
         668
         672
         676
         680
         684
         688
         692
         696
         700
         704
         708
         712
         716
         720
         724
         728
         732
         736
         740
         744
         748
         752
         756
         760
         764
         768
         772
         776
         780
         784
         788
         792
         796
         800
         804
         808
         812
         816
         820
         824
         828
         832
         836
         840
         844
         848
         852
         856
         860
         864
         868
         872
         876
         880
         884
         888
         892
         896
         900
         904
         908
         912
         916
         920
         924
         928
         932
         936
         940
         944
         948
         952
         956
         960
         964
         968
         972
         976
         980
         984
         988
         992
         996
        1000
        1004
        1008
        1012
        1016
        1020
        1024
        1028
        1032
        1036
        1040
        1044
        1048
        1052
        1056
        1060
        1064
        1068
        1072
        1076
        1080
        1084
        1088
        1092
        1096
        1100
        1104
        1108
        1112
        1116
        1120
        1124
        1128
        1132
        1136
        1140
        1144
        1148
        1152
        1156
        1160
        1164
        1168
        1172
        1176
        1180
        1184
        1188
        1192
        1196
        1200
        1204
        1208
        1212
        1216
        1220
        1224
        1228
        1232
        1236
        1240
        1244
        1248
        1252
        1256
        1260
        1264
        1268
        1272
        1276
        1280
        1284
        1288
        1292
        1296
        1300
        1304
        1308
        1312
        1316
        1320
        1324
        1328
        1332
        1336
        1340
        1344
        1348
        1352
        1356
        1360
        1364
        1368
        1372
        1376
        1380
        1384
        1388
        1392
        1396
        1400
        1404
        1408
        1412
        1416
        1420
        1424
        1428
        1432
        1436
        1440
        1444
        1448
        1452
        1456
        1460
        1464
        1468
        1472
        1476
        1480
        1484
        1488
        1492
        1496
        1500
        1504
        1508
        1512
        1516
        1520
        1524
        1528
        1532
        1536
        1540
        1544
        1548
        1552
        1556
        1560
        1564
        1568
        1572
        1576
        1580
        1584
        1588
        1592
        1596
        1600
        1604
        1608
        1612
        1616
        1620
        1624
        1628
        1632
        1636
        1640
        1644
        1648
        1652
        1656
        1660
        1664
        1668
        1672
        1676
        1680
        1684
        1688
        1692
        1696
        1700
        1704
        1708
        1712
        1716
        1720
        1724
        1728
        1732
        1736
        1740
        1744
        1748
        1752
        1756
        1760
        1764
        1768
        1772
        1776
        1780
        1784
        1788
        1792
        1796
        1800
        1804
        1808
        1812
        1816
        1820
        1824
        1828
        1832
        1836
        1840
        1844
        1848
        1852
        1856
        1860
        1864
        1868
        1872
        1876
        1880
        1884
        1888
        1892
        1896
        1900
        1904
        1908
        1912
        1916
        1920
        1924
        1928
        1932
        1936
        1940
        1944
        1948
        1952
        1956
        1960
        1964
        1968
        1972
        1976
        1980
        1984
        1988
        1992
        1996
        2000
        2004
        2008
        2012
        2016
        2020
        2024
        2028
        2032
        2036
        2040
        2044
        2048
        2052
        2056
        2060
        2064
        2068
        2072
        2076
        2080
        2084
        2088
        2092
        2096
        2100
        2104
        2108
        2112
        2116
        2120
        2124
        2128
        2132
        2136
        2140
        2144
        2148
        2152
        2156
        2160
        2164
        2168
        2172
        2176
        2180
        2184
        2188
        2192
        2196
        2200
        2204
        2208
        2212
        2216
        2220
        2224
        2228
        2232
        2236
        2240
        2244
        2248
        2252
        2256
        2260
        2264
        2268
        2272
        2276
        2280
        2284
        2288
        2292
        2296
        2300
        2304
        2308
        2312
        2316
        2320
        2324
        2328
        2332
        2336
        2340
        2344
        2348
        2352
        2356
        2360
        2364
        2368
        2372
        2376
        2380
        2384
        2388
        2392
        2396
        2400
        2404
        2408
        2412
        2416
        2420
        2424
        2428
        2432
        2436
        2440
        2444
        2448
        2452
        2456
        2460
        2464
        2468
        2472
        2476
        2480
        2484
        2488
        2492
        2496
        2500
        2504
        2508
        2512
        2516
        2520
        2524
        2528
        2532
        2536
        2540
        2544
        2548
        2552
        2556
        2560
        2564
        2568
        2572
        2576
        2580
        2584
        2588
        2592
        2596
        2600
        2604
        2608
        2612
        2616
        2620
        2624
        2628
        2632
        2636
        2640
        2644
        2648
        2652
        2656
        2660
        2664
        2668
        2672
        2676
        2680
        2684
        2688
        2692
        2696
        2700
        2704
        2708
        2712
        2716
        2720
        2724
        2728
        2732
        2736
        2740
        2744
        2748
        2752
        2756
        2760
        2764
        2768
        2772
        2776
        2780
        2784
        2788
        2792
        2796
        2800
        2804
        2808
        2812
        2816
        2820
        2824
        2828
        2832
        2836
        2840
        2844
        2848
        2852
        2856
        2860
        2864
        2868
        2872
        2876
        2880
        2884
        2888
        2892
        2896
        2900
        2904
        2908
        2912
        2916
        2920
        2924
        2928
        2932
        2936
        2940
        2944
        2948
        2952
        2956
        2960
        2964
        2968
        2972
        2976
        2980
        2984
        2988
        2992
        2996
        3000
        3004
        3008
        3012
        3016
        3020
        3024
        3028
        3032
        3036
        3040
        3044
        3048
        3052
        3056
        3060
        3064
        3068
        3072
        3076
        3080
        3084
        3088
        3092
        3096
        3100
        3104
        3108
        3112
        3116
        3120
        3124
        3128
        3132
        3136
        3140
        3144
        3148
        3152
        3156
        3160
        3164
        3168
        3172
        3176
        3180
        3184
        3188
        3192
        3196
        3200
        3204
        3208
        3212
        3216
        3220
        3224
        3228
        3232
        3236
        3240
        3244
        3248
        3252
        3256
        3260
        3264
        3268
        3272
        3276
        3280
        3284
        3288
        3292
        3296
        3300
        3304
        3308
        3312
        3316
        3320
        3324
        3328
        3332
        3336
        3340
        3344
        3348
        3352
        3356
        3360
        3364
        3368
        3372
        3376
        3380
        3384
        3388
        3392
        3396
        3400
        3404
        3408
        3412
        3416
        3420
        3424
        3428
        3432
        3436
        3440
        3444
        3448
        3452
        3456
        3460
        3464
        3468
        3472
        3476
        3480
        3484
        3488
        3492
        3496
        3500
        3504
        3508
        3512
        3516
        3520
        3524
        3528
        3532
        3536
        3540
        3544
        3548
        3552
        3556
        3560
        3564
        3568
        3572
        3576
        3580
        3584
        3588
        3592
        3596
        3600
        3604
        3608
        3612
        3616
        3620
        3624
        3628
        3632
        3636
        3640
        3644
        3648
        3652
        3656
        3660
        3664
        3668
        3672
        3676
        3680
        3684
        3688
        3692
        3696
        3700
        3704
        3708
        3712
        3716
        3720
        3724
        3728
        3732
        3736
        3740
        3744
        3748
        3752
        3756
        3760
        3764
        3768
        3772
        3776
        3780
        3784
        3788
        3792
        3796
        3800
        3804
        3808
        3812
        3816
        3820
        3824
        3828
        3832
        3836
        3840
        3844
        3848
        3852
        3856
        3860
        3864
        3868
        3872
        3876
        3880
        3884
        3888
        3892
        3896
        3900
        3904
        3908
        3912
        3916
        3920
        3924
        3928
        3932
        3936
        3940
        3944
        3948
        3952
        3956
        3960
        3964
        3968
        3972
        3976
        3980
        3984
        3988
        3992
        3996
        4000
        4004
        4008
        4012
        4016
        4020
        4024
        4028
        4032
        4036
        4040
        4044
        4048
        4052
        4056
        4060
        4064
        4068
        4072
        4076
        4080
        4084
        4088
        4092
        4096
 </DataArray>
 <DataArray  type="UInt8"  Name="types"  format="ascii">
 9
 9
 9
 9
 9
 9
 9
 9
 9
 9
 9
 9
 9
 9
 9
 9
 9
 9
 9
 9
 9
 9
 9
 9
 9
 9
 9
 9
 9
 9
 9
 9
 9
 9
 9
 9
 9
 9
 9
 9
 9
 9
 9
 9
 9
 9
 9
 9
 9
 9
 9
 9
 9
 9
 9
 9
 9
 9
 9
 9
 9
 9
 9
 9
 9
 9
 9
 9
 9
 9
 9
 9
 9
 9
 9
 9
 9
 9
 9
 9
 9
 9
 9
 9
 9
 9
 9
 9
 9
 9
 9
 9
 9
 9
 9
 9
 9
 9
 9
 9
 9
 9
 9
 9
 9
 9
 9
 9
 9
 9
 9
 9
 9
 9
 9
 9
 9
 9
 9
 9
 9
 9
 9
 9
 9
 9
 9
 9
 9
 9
 9
 9
 9
 9
 9
 9
 9
 9
 9
 9
 9
 9
 9
 9
 9
 9
 9
 9
 9
 9
 9
 9
 9
 9
 9
 9
 9
 9
 9
 9
 9
 9
 9
 9
 9
 9
 9
 9
 9
 9
 9
 9
 9
 9
 9
 9
 9
 9
 9
 9
 9
 9
 9
 9
 9
 9
 9
 9
 9
 9
 9
 9
 9
 9
 9
 9
 9
 9
 9
 9
 9
 9
 9
 9
 9
 9
 9
 9
 9
 9
 9
 9
 9
 9
 9
 9
 9
 9
 9
 9
 9
 9
 9
 9
 9
 9
 9
 9
 9
 9
 9
 9
 9
 9
 9
 9
 9
 9
 9
 9
 9
 9
 9
 9
 9
 9
 9
 9
 9
 9
 9
 9
 9
 9
 9
 9
 9
 9
 9
 9
 9
 9
 9
 9
 9
 9
 9
 9
 9
 9
 9
 9
 9
 9
 9
 9
 9
 9
 9
 9
 9
 9
 9
 9
 9
 9
 9
 9
 9
 9
 9
 9
 9
 9
 9
 9
 9
 9
 9
 9
 9
 9
 9
 9
 9
 9
 9
 9
 9
 9
 9
 9
 9
 9
 9
 9
 9
 9
 9
 9
 9
 9
 9
 9
 9
 9
 9
 9
 9
 9
 9
 9
 9
 9
 9
 9
 9
 9
 9
 9
 9
 9
 9
 9
 9
 9
 9
 9
 9
 9
 9
 9
 9
 9
 9
 9
 9
 9
 9
 9
 9
 9
 9
 9
 9
 9
 9
 9
 9
 9
 9
 9
 9
 9
 9
 9
 9
 9
 9
 9
 9
 9
 9
 9
 9
 9
 9
 9
 9
 9
 9
 9
 9
 9
 9
 9
 9
 9
 9
 9
 9
 9
 9
 9
 9
 9
 9
 9
 9
 9
 9
 9
 9
 9
 9
 9
 9
 9
 9
 9
 9
 9
 9
 9
 9
 9
 9
 9
 9
 9
 9
 9
 9
 9
 9
 9
 9
 9
 9
 9
 9
 9
 9
 9
 9
 9
 9
 9
 9
 9
 9
 9
 9
 9
 9
 9
 9
 9
 9
 9
 9
 9
 9
 9
 9
 9
 9
 9
 9
 9
 9
 9
 9
 9
 9
 9
 9
 9
 9
 9
 9
 9
 9
 9
 9
 9
 9
 9
 9
 9
 9
 9
 9
 9
 9
 9
 9
 9
 9
 9
 9
 9
 9
 9
 9
 9
 9
 9
 9
 9
 9
 9
 9
 9
 9
 9
 9
 9
 9
 9
 9
 9
 9
 9
 9
 9
 9
 9
 9
 9
 9
 9
 9
 9
 9
 9
 9
 9
 9
 9
 9
 9
 9
 9
 9
 9
 9
 9
 9
 9
 9
 9
 9
 9
 9
 9
 9
 9
 9
 9
 9
 9
 9
 9
 9
 9
 9
 9
 9
 9
 9
 9
 9
 9
 9
 9
 9
 9
 9
 9
 9
 9
 9
 9
 9
 9
 9
 9
 9
 9
 9
 9
 9
 9
 9
 9
 9
 9
 9
 9
 9
 9
 9
 9
 9
 9
 9
 9
 9
 9
 9
 9
 9
 9
 9
 9
 9
 9
 9
 9
 9
 9
 9
 9
 9
 9
 9
 9
 9
 9
 9
 9
 9
 9
 9
 9
 9
 9
 9
 9
 9
 9
 9
 9
 9
 9
 9
 9
 9
 9
 9
 9
 9
 9
 9
 9
 9
 9
 9
 9
 9
 9
 9
 9
 9
 9
 9
 9
 9
 9
 9
 9
 9
 9
 9
 9
 9
 9
 9
 9
 9
 9
 9
 9
 9
 9
 9
 9
 9
 9
 9
 9
 9
 9
 9
 9
 9
 9
 9
 9
 9
 9
 9
 9
 9
 9
 9
 9
 9
 9
 9
 9
 9
 9
 9
 9
 9
 9
 9
 9
 9
 9
 9
 9
 9
 9
 9
 9
 9
 9
 9
 9
 9
 9
 9
 9
 9
 9
 9
 9
 9
 9
 9
 9
 9
 9
 9
 9
 9
 9
 9
 9
 9
 9
 9
 9
 9
 9
 9
 9
 9
 9
 9
 9
 9
 9
 9
 9
 9
 9
 9
 9
 9
 9
 9
 9
 9
 9
 9
 9
 9
 9
 9
 9
 9
 9
 9
 9
 9
 9
 9
 9
 9
 9
 9
 9
 9
 9
 9
 9
 9
 9
 9
 9
 9
 9
 9
 9
 9
 9
 9
 9
 9
 9
 9
 9
 9
 9
 9
 9
 9
 9
 9
 9
 9
 9
 9
 9
 9
 9
 9
 9
 9
 9
 9
 9
 9
 9
 9
 9
 9
 9
 9
 9
 9
 9
 9
 9
 9
 9
 9
 9
 9
 9
 9
 9
 9
 9
 9
 9
 9
 9
 9
 9
 9
 9
 9
 9
 9
 9
 9
 9
 9
 9
 9
 9
 9
 9
 9
 9
 9
 9
 9
 9
 9
 9
 9
 9
 9
 9
 9
 9
 9
 9
 9
 9
 9
 9
 9
 9
 9
 9
 9
 9
 9
 9
 9
 9
 9
 9
 9
 9
 9
 9
 9
 9
 9
 9
 9
 9
 9
 9
 9
 9
 9
 9
 9
 9
 9
 9
 9
 9
 9
 9
 9
 9
 9
 9
 9
 9
 9
 9
 9
 9
 9
 9
 9
 9
 9
 9
 9
 9
 9
 9
 9
 9
 9
 9
 9
 9
 9
 9
 9
 9
 9
 9
 9
 9
 9
 9
 9
 9
 9
 9
 9
 9
 9
 9
 9
 9
 9
 9
 9
 9
 9
 9
 9
 9
 9
 9
 9
 9
 9
 9
 9
 9
 9
 9
 9
 9
 9
 9
 9
 9
 9
 9
 9
 9
 9
 9
 9
 9
 9
 9
 9
 9
 9
 9
 9
 9
 9
 9
 9
 9
 </DataArray>
 </Cells> 
 <PointData>
 <DataArray  type="Float64" Name="disp" NumberOfComponents="3" format="ascii">
   6.5253712121249544E-002   6.2956854888097755E-002   0.0000000000000000     
   6.8426747615257910E-002   6.8246038174188478E-002   0.0000000000000000     
   7.1448408340178529E-002   7.3747035081938708E-002   0.0000000000000000     
   7.4318694296011401E-002   7.9459845611348459E-002   0.0000000000000000     
   7.7037605482756538E-002   8.5384469762417745E-002   0.0000000000000000     
   6.0036267965252535E-002   6.1825384537297870E-002   0.0000000000000000     
   6.3021684451495655E-002   6.7227427937695580E-002   0.0000000000000000     
   6.5863152909803241E-002   7.2818073876524433E-002   0.0000000000000000     
   6.8560673340175279E-002   7.8597322353784430E-002   0.0000000000000000     
   7.1114245742611798E-002   8.4565173369475596E-002   0.0000000000000000     
   5.5041423944884371E-002   6.0877710856296105E-002   0.0000000000000000     
   5.7835829663482476E-002   6.6351499796954275E-002   0.0000000000000000     
   6.0494092416126966E-002   7.2000304577609642E-002   0.0000000000000000     
   6.3016212202817917E-002   7.7824125198262220E-002   0.0000000000000000     
   6.5402189023555268E-002   8.3822961658911996E-002   0.0000000000000000     
   5.0269180060145073E-002   6.0113833845092474E-002   0.0000000000000000     
   5.2869183251218338E-002   6.5618253751964575E-002   0.0000000000000000     
   5.5341226859149745E-002   7.1293727185194333E-002   0.0000000000000000     
   5.7685310883939266E-002   7.7140254144781803E-002   0.0000000000000000     
   5.9901435325586928E-002   8.3157834630726957E-002   0.0000000000000000     
   4.5719536311034620E-002   5.9533753503686962E-002   0.0000000000000000     
   4.8121745214703270E-002   6.5027689802726441E-002   0.0000000000000000     
   5.0404556238871523E-002   7.0698341699278536E-002   0.0000000000000000     
   5.2567969383539373E-002   7.6545709193343192E-002   0.0000000000000000     
   5.4611984648706827E-002   8.2569792284920451E-002   0.0000000000000000     
   7.7037605482756538E-002   8.5384469762417745E-002   0.0000000000000000     
   7.9649575355825439E-002   9.1492448635426230E-002   0.0000000000000000     
   8.2199037370629613E-002   9.7755323330653593E-002   0.0000000000000000     
   8.4685991527169047E-002  0.10417309384809985        0.0000000000000000     
   8.7110437825443782E-002  0.11074576018776500        0.0000000000000000     
   7.1114245742611798E-002   8.4565173369475596E-002   0.0000000000000000     
   7.3566595951762126E-002   9.0704386307931859E-002   0.0000000000000000     
   7.5960449802275690E-002   9.6997720553487168E-002   0.0000000000000000     
   7.8295807294152461E-002  0.10344517610614157        0.0000000000000000     
   8.0572668427392441E-002  0.11004675296589503        0.0000000000000000     
   6.5402189023555268E-002   8.3822961658911996E-002   0.0000000000000000     
   6.7692813581816835E-002   8.9986586003024449E-002   0.0000000000000000     
   6.9928876581080490E-002   9.6304770274065102E-002   0.0000000000000000     
   7.2110378021346191E-002  0.10277751447203395        0.0000000000000000     
   7.4237317902613939E-002  0.10940481859693096        0.0000000000000000     
   5.9901435325586928E-002   8.3157834630726957E-002   0.0000000000000000     
   6.2028228245989581E-002   8.9339047720704057E-002   0.0000000000000000     
   6.4104317707044001E-002   9.5676472492387393E-002   0.0000000000000000     
   6.6129703708750237E-002  0.10217010894577698        0.0000000000000000     
   6.8104386251108248E-002  0.10881995708087278        0.0000000000000000     
   5.4611984648706827E-002   8.2569792284920451E-002   0.0000000000000000     
   5.6572839944280300E-002   8.8761771460970598E-002   0.0000000000000000     
   5.8486773180166228E-002   9.5112827208454015E-002   0.0000000000000000     
   6.0353784356364591E-002  0.10162295952737063        0.0000000000000000     
   6.2173873472875403E-002  0.10829216841772049        0.0000000000000000     
   8.7110437825443782E-002  0.11074576018776500        0.0000000000000000     
   8.9445951845750910E-002  0.11746194526982723        0.0000000000000000     
   9.1666109168387591E-002  0.12431027201446475        0.0000000000000000     
   9.3770909793353827E-002  0.13129074042167754        0.0000000000000000     
   9.5760353720649602E-002  0.13840335049146568        0.0000000000000000     
   8.0572668427392441E-002  0.11004675296589503        0.0000000000000000     
   8.2765774938429071E-002  0.11679170091349676        0.0000000000000000     
   8.4849868563695724E-002  0.12366926972969601        0.0000000000000000     
   8.6824949303192483E-002  0.13067945941449272        0.0000000000000000     
   8.8691017156919280E-002  0.13782226996788691        0.0000000000000000     
   7.4237317902613939E-002  0.10940481859693096        0.0000000000000000     
   7.6285798078412348E-002  0.11617595115246308        0.0000000000000000     
   7.8231920402270103E-002  0.12308018064233719        0.0000000000000000     
   8.0075684874187161E-002  0.13011750706655331        0.0000000000000000     
   8.1817091494163524E-002  0.13728793042511145        0.0000000000000000     
   6.8104386251108248E-002  0.10881995708087278        0.0000000000000000     
   7.0006021265700824E-002  0.11561469598672613        0.0000000000000000     
   7.1812264684110685E-002  0.12254300475238833        0.0000000000000000     
   7.3523116506337832E-002  0.12960488337785936        0.0000000000000000     
   7.5138576732382265E-002  0.13680033186313922        0.0000000000000000     
   6.2173873472875403E-002  0.10829216841772049        0.0000000000000000     
   6.3926444500294444E-002  0.11510793541628594        0.0000000000000000     
   6.5590901409217472E-002  0.12205774205984940        0.0000000000000000     
   6.7167244199644524E-002  0.12914158834841089        0.0000000000000000     
   6.8655472871575585E-002  0.13635947428197032        0.0000000000000000     
   9.5760353720649602E-002  0.13840335049146568        0.0000000000000000     
   9.7650107638043313E-002  0.14563775346967966        0.0000000000000000     
   9.9455838233303340E-002  0.15298360060217014        0.0000000000000000     
  0.10117754550642970       0.16044089188893712        0.0000000000000000     
  0.10281522945742237       0.16800962732998057        0.0000000000000000     
   8.8691017156919280E-002  0.13782226996788691        0.0000000000000000     
   9.0463185783338965E-002  0.14508662767170943        0.0000000000000000     
   9.2156568840914332E-002  0.15246145880779113        0.0000000000000000     
   9.3771166329645397E-002  0.15994676337613195        0.0000000000000000     
   9.5306978249532173E-002  0.16754254137673191        0.0000000000000000     
   8.1817091494163524E-002  0.13728793042511145        0.0000000000000000     
   8.3470317856866816E-002  0.14457971737892591        0.0000000000000000     
   8.5049541556964703E-002  0.15198113458891108        0.0000000000000000     
   8.6554762594457199E-002  0.15949218205506702        0.0000000000000000     
   8.7985980969344249E-002  0.16711285977739362        0.0000000000000000     
   7.5138576732382265E-002  0.13680033186313922        0.0000000000000000     
   7.6671503858626852E-002  0.14411702259132911        0.0000000000000000     
   7.8134756381454451E-002  0.15154262794553017        0.0000000000000000     
   7.9528334300865020E-002  0.15907714792574237        0.0000000000000000     
   8.0852237616858572E-002  0.16672058253196570        0.0000000000000000     
   6.8655472871575585E-002  0.13635947428197032        0.0000000000000000     
   7.0066743788619101E-002  0.14369854330891901        0.0000000000000000     
   7.1412213314383535E-002  0.15114593887764821        0.0000000000000000     
   7.2691881448868886E-002  0.15870166098815794        0.0000000000000000     
   7.3905748192075155E-002  0.16636570964044814        0.0000000000000000     
  0.10281522945742237       0.16800962732998057        0.0000000000000000     
  0.10436685563285195       0.17567811932157193        0.0000000000000000     
  0.10583038957928899       0.18343468025998258        0.0000000000000000     
  0.10720583129673353       0.19127931014521257        0.0000000000000000     
  0.10849318078518555       0.19921200897726191        0.0000000000000000     
   9.5306978249532173E-002  0.16754254137673191        0.0000000000000000     
   9.6760376990828692E-002  0.17523773562241307        0.0000000000000000     
   9.8127734943789000E-002  0.18302128892599734        0.0000000000000000     
   9.9409052108413123E-002  0.19089320128748483        0.0000000000000000     
  0.10060432848470104       0.19885347270687537        0.0000000000000000     
   8.7985980969344249E-002  0.16711285977739362        0.0000000000000000     
   8.9338510251691025E-002  0.17483275485646571        0.0000000000000000     
   9.0607664011562630E-002  0.18264145439285803        0.0000000000000000     
   9.1793442248959092E-002  0.19053895838657056        0.0000000000000000     
   9.2895844963880370E-002  0.19852526683760338        0.0000000000000000     
   8.0852237616858572E-002  0.16672058253196570        0.0000000000000000     
   8.2101255415438931E-002  0.17446317702372996        0.0000000000000000     
   8.3270176782609881E-002  0.18229517666056469        0.0000000000000000     
   8.4359001718371435E-002  0.19021658144247003        0.0000000000000000     
   8.5367730222723551E-002  0.19822739136944592        0.0000000000000000     
   7.3905748192075155E-002  0.16636570964044814        0.0000000000000000     
   7.5048612482072397E-002  0.17412900212420571        0.0000000000000000     
   7.6115273256930724E-002  0.18198245572911731        0.0000000000000000     
   7.7105730516650095E-002  0.18992607045518306        0.0000000000000000     
   7.8019984261230566E-002  0.19795984630240288        0.0000000000000000     
  0.10849318078518555       0.19921200897726191        0.0000000000000000     
  0.10969925424948632       0.20722986272633881        0.0000000000000000     
  0.11083086789447710       0.21532995736265154        0.0000000000000000     
  0.11188802172015797       0.22351229288620011        0.0000000000000000     
  0.11287071572652885       0.23177686929698452        0.0000000000000000     
  0.10060432848470104       0.19885347270687537        0.0000000000000000     
  0.10172025951436899       0.20689693409772103        0.0000000000000000     
  0.10276354063913312       0.21501841637357338        0.0000000000000000     
  0.10373417185899353       0.22321791953443254        0.0000000000000000     
  0.10463215317395015       0.23149544358029855        0.0000000000000000     
   9.2895844963880370E-002  0.19852526683760338        0.0000000000000000     
   9.3920648653373351E-002  0.20659369309119360        0.0000000000000000     
   9.4873629814484786E-002  0.21473755049257837        0.0000000000000000     
   9.5754788447214745E-002  0.22295683904175773        0.0000000000000000     
   9.6564124551563199E-002  0.23125155873873168        0.0000000000000000     
   8.5367730222723551E-002  0.19822739136944592        0.0000000000000000     
   8.6300421666499399E-002  0.20632013970675664        0.0000000000000000     
   8.7161135420532110E-002  0.21448735971966656        0.0000000000000000     
   8.7949871484821654E-002  0.22272905140817567        0.0000000000000000     
   8.8666629859368018E-002  0.23104521477228396        0.0000000000000000     
   7.8019984261230566E-002  0.19795984630240288        0.0000000000000000     
   7.8859578553747173E-002  0.20607627394441008        0.0000000000000000     
   7.9626057457275051E-002  0.21426784405483790        0.0000000000000000     
   8.0319420971814201E-002  0.22253455663368632        0.0000000000000000     
   8.0939669097364608E-002  0.23087641168095535        0.0000000000000000     
  0.11287071572652885       0.23177686929698452        0.0000000000000000     
  0.11380646756091010       0.24013994898055396        0.0000000000000000     
  0.11472279487062211       0.24861779432245765        0.0000000000000000     
  0.11561969765566484       0.25721040532269557        0.0000000000000000     
  0.11649717591603831       0.26591778198126775        0.0000000000000000     
  0.10463215317395015       0.23149544358029855        0.0000000000000000     
  0.10546214157206688       0.23987418856194434        0.0000000000000000     
  0.10622879404140755       0.24837735453014295        0.0000000000000000     
  0.10693211058197219       0.25700494148489433        0.0000000000000000     
  0.10757209119376081       0.26575694942619854        0.0000000000000000     
   9.6564124551563199E-002  0.23125155873873168        0.0000000000000000     
   9.7292309541675642E-002  0.23964796892879134        0.0000000000000000     
   9.7930014831697484E-002  0.24817232895722777        0.0000000000000000     
   9.8477240421628795E-002  0.25682463882404100        0.0000000000000000     
   9.8933986311469491E-002  0.26560489852923103        0.0000000000000000     
   8.8666629859368018E-002  0.23104521477228396        0.0000000000000000     
   8.9296971469736405E-002  0.23946129008109496        0.0000000000000000     
   8.9826457241491922E-002  0.24800271760371217        0.0000000000000000     
   9.0255087174634610E-002  0.25666949734013561        0.0000000000000000     
   9.0582861269164414E-002  0.26546162929036521        0.0000000000000000     
   8.0939669097364608E-002  0.23087641168095535        0.0000000000000000     
   8.1476127356249178E-002  0.23931415201885523        0.0000000000000000     
   8.1918121270790858E-002  0.24786852046959615        0.0000000000000000     
   8.2265650840989635E-002  0.25653951703317807        0.0000000000000000     
   8.2518716066845521E-002  0.26532714170960109        0.0000000000000000     
  0.11649717591603831       0.26591778198126775        0.0000000000000000     
  0.11729585297050184       0.27490456715112466        0.0000000000000000     
  0.11795635213781472       0.28433540368521665        0.0000000000000000     
  0.11847867341797697       0.29421029158354389        0.0000000000000000     
  0.11886281681098859       0.30452923084610622        0.0000000000000000     
  0.10757209119376081       0.26575694942619854        0.0000000000000000     
  0.10812988398459528       0.27476554591743413        0.0000000000000000     
  0.10858663706229753       0.28416289852197968        0.0000000000000000     
  0.10894235042686753       0.29394900723983508        0.0000000000000000     
  0.10919702407830532       0.30412387207100056        0.0000000000000000     
   9.8933986311469491E-002  0.26560489852923103        0.0000000000000000     
   9.9311298933440900E-002  0.27461139575317861        0.0000000000000000     
   9.9620224719764200E-002  0.28394241817626442        0.0000000000000000     
   9.9860763670439417E-002  0.29359796579848846        0.0000000000000000     
  0.10003291578546654       0.30357803861985083        0.0000000000000000     
   9.0582861269164414E-002  0.26546162929036521        0.0000000000000000     
   9.0840097817038695E-002  0.27444211665835799        0.0000000000000000     
   9.1057115110214748E-002  0.28367396264807088        0.0000000000000000     
   9.1233913148692614E-002  0.29315716725950397        0.0000000000000000     
   9.1370491932472250E-002  0.30289173049265711        0.0000000000000000     
   8.2518716066845521E-002  0.26532714170960109        0.0000000000000000     
   8.2716280635388634E-002  0.27425770863297233        0.0000000000000000     
   8.2897308233649172E-002  0.28335753193739915        0.0000000000000000     
   8.3061798861627109E-002  0.29262661162288151        0.0000000000000000     
   8.3209752519322444E-002  0.30206494768941944        0.0000000000000000     
   4.5719536311034620E-002   5.9533753503686962E-002   0.0000000000000000     
   4.8121745214703270E-002   6.5027689802726441E-002   0.0000000000000000     
   5.0404556238871523E-002   7.0698341699278536E-002   0.0000000000000000     
   5.2567969383539373E-002   7.6545709193343192E-002   0.0000000000000000     
   5.4611984648706827E-002   8.2569792284920451E-002   0.0000000000000000     
   4.1342875319444021E-002   5.9022635040462471E-002   0.0000000000000000     
   4.3545673239680213E-002   6.4498364283789369E-002   0.0000000000000000     
   4.5638131700352226E-002   7.0158399320810180E-002   0.0000000000000000     
   4.7620250701460039E-002   7.6002740151524903E-002   0.0000000000000000     
   4.9492030243003665E-002   8.2031386775933551E-002   0.0000000000000000     
   3.7089579707264272E-002   5.8465643663801907E-002   0.0000000000000000     
   3.9093125011892139E-002   6.3948833529702792E-002   0.0000000000000000     
   4.0996004388651745E-002   6.9618151250737295E-002   0.0000000000000000     
   4.2798217837543097E-002   7.5473596826905479E-002   0.0000000000000000     
   4.4499765358566201E-002   8.1515170258207315E-002   0.0000000000000000     
   3.2959649474495374E-002   5.7862779373705271E-002   0.0000000000000000     
   3.4764100531339027E-002   6.3379097540466681E-002   0.0000000000000000     
   3.6478174303770088E-002   6.9077597489059894E-002   0.0000000000000000     
   3.8101870791788547E-002   7.4958279219484919E-002   0.0000000000000000     
   3.9635189995394414E-002   8.1021142731741727E-002   0.0000000000000000     
   2.8953084621137336E-002   5.7214042170172563E-002   0.0000000000000000     
   3.0558599798020891E-002   6.2789156316081077E-002   0.0000000000000000     
   3.2084641445707239E-002   6.8536738035777936E-002   0.0000000000000000     
   3.3531209564196383E-002   7.4456787329263183E-002   0.0000000000000000     
   3.4898304153488310E-002   8.0549304196536775E-002   0.0000000000000000     
   5.4611984648706827E-002   8.2569792284920451E-002   0.0000000000000000     
   5.6572839944280300E-002   8.8761771460970598E-002   0.0000000000000000     
   5.8486773180166228E-002   9.5112827208454015E-002   0.0000000000000000     
   6.0353784356364591E-002  0.10162295952737063        0.0000000000000000     
   6.2173873472875403E-002  0.10829216841772049        0.0000000000000000     
   4.9492030243003665E-002   8.2031386775933551E-002   0.0000000000000000     
   5.1287003552801406E-002   8.8233093341914232E-002   0.0000000000000000     
   5.3038703858671585E-002   9.4596613997345050E-002   0.0000000000000000     
   5.4747131160614186E-002  0.10112194874222596        0.0000000000000000     
   5.6412285458629224E-002  0.10780909757655704        0.0000000000000000     
   4.4499765358566201E-002   8.1515170258207315E-002   0.0000000000000000     
   4.6131073947665260E-002   8.7731349481624948E-002   0.0000000000000000     
   4.7722570600784490E-002   9.4110612434140498E-002   0.0000000000000000     
   4.9274255317923919E-002  0.10065295911575402        0.0000000000000000     
   5.0786128099083540E-002  0.10735838952646544        0.0000000000000000     
   3.9635189995394414E-002   8.1021142731741727E-002   0.0000000000000000     
   4.1105051128871840E-002   8.7256539880102763E-002   0.0000000000000000     
   4.2538373406504959E-002   9.3654822518840442E-002   0.0000000000000000     
   4.3935156828293805E-002  0.10021599064795474        0.0000000000000000     
   4.5295401394238356E-002  0.10694004426744566        0.0000000000000000     
   3.4898304153488310E-002   8.0549304196536775E-002   0.0000000000000000     
   3.6208935096421146E-002   8.6808664537347688E-002   0.0000000000000000     
   3.7486112275832983E-002   9.3229244251444798E-002   0.0000000000000000     
   3.8729835691723814E-002   9.9811043338828148E-002   0.0000000000000000     
   3.9940105344093660E-002  0.10655406179949772        0.0000000000000000     
   6.2173873472875403E-002  0.10829216841772049        0.0000000000000000     
   6.3926444500294444E-002  0.11510793541628594        0.0000000000000000     
   6.5590901409217472E-002  0.12205774205984940        0.0000000000000000     
   6.7167244199644524E-002  0.12914158834841089        0.0000000000000000     
   6.8655472871575585E-002  0.13635947428197032        0.0000000000000000     
   5.6412285458629224E-002  0.10780909757655704        0.0000000000000000     
   5.8015406127490669E-002  0.11464438905083732        0.0000000000000000     
   5.9537732541972532E-002  0.12161415171556579        0.0000000000000000     
   6.0979264702074820E-002  0.12871838557074250        0.0000000000000000     
   6.2340002607797526E-002  0.13595709061636749        0.0000000000000000     
   5.0786128099083540E-002  0.10735838952646544        0.0000000000000000     
   5.2241244492586970E-002  0.11421277650007501        0.0000000000000000     
   5.3622660046757885E-002  0.12120199287038284        0.0000000000000000     
   5.4930374761596283E-002  0.12832603863738901        0.0000000000000000     
   5.6164388637102144E-002  0.13558491380109350        0.0000000000000000     
   4.5295401394238356E-002  0.10694004426744566        0.0000000000000000     
   4.6603959595583347E-002  0.11381309776399903        0.0000000000000000     
   4.7845683923573530E-002  0.12082126552430060        0.0000000000000000     
   4.9020574378208913E-002  0.12796454754835040        0.0000000000000000     
   5.0128630959489467E-002  0.13524294383614840        0.0000000000000000     
   3.9940105344093660E-002  0.10655406179949772        0.0000000000000000     
   4.1103551436479785E-002  0.11344535284260938        0.0000000000000000     
   4.2206804172419461E-002  0.12047196967731900        0.0000000000000000     
   4.3249863551912703E-002  0.12763391230362661        0.0000000000000000     
   4.4232729574959495E-002  0.13493118072153221        0.0000000000000000     
   6.8655472871575585E-002  0.13635947428197032        0.0000000000000000     
   7.0066743788619101E-002  0.14369854330891901        0.0000000000000000     
   7.1412213314383535E-002  0.15114593887764821        0.0000000000000000     
   7.2691881448868886E-002  0.15870166098815794        0.0000000000000000     
   7.3905748192075155E-002  0.16636570964044814        0.0000000000000000     
   6.2340002607797526E-002  0.13595709061636749        0.0000000000000000     
   6.3629360153482861E-002  0.14331702412551292        0.0000000000000000     
   6.4856751233473064E-002  0.15078494337125115        0.0000000000000000     
   6.6022175847768122E-002  0.15836084835358208        0.0000000000000000     
   6.7125633996368061E-002  0.16604473907250586        0.0000000000000000     
   5.6164388637102144E-002  0.13558491380109350        0.0000000000000000     
   5.7332675459857430E-002  0.14296520963492809        0.0000000000000000     
   5.8443209016444064E-002  0.15045351741232463        0.0000000000000000     
   5.9495989306862035E-002  0.15804983713328311        0.0000000000000000     
   6.0491016331111390E-002  0.16575416879780358        0.0000000000000000     
   5.0128630959489467E-002  0.13524294383614840        0.0000000000000000     
   5.1176689707742827E-002  0.14264309983716458        0.0000000000000000     
   5.2171586663296556E-002  0.15015166100086874        0.0000000000000000     
   5.3113321826150653E-002  0.15776862732726105        0.0000000000000000     
   5.4001895196305133E-002  0.16549399881634136        0.0000000000000000     
   4.4232729574959495E-002  0.13493118072153221        0.0000000000000000     
   4.5161402897139040E-002  0.14235069473222231        0.0000000000000000     
   4.6041884174030517E-002  0.14987937413688351        0.0000000000000000     
   4.6874173405633934E-002  0.15751721893551585        0.0000000000000000     
   4.7658270591949291E-002  0.16526422912811928        0.0000000000000000     
   7.3905748192075155E-002  0.16636570964044814        0.0000000000000000     
   7.5048612482072397E-002  0.17412900212420571        0.0000000000000000     
   7.6115273256930724E-002  0.18198245572911731        0.0000000000000000     
   7.7105730516650095E-002  0.18992607045518306        0.0000000000000000     
   7.8019984261230566E-002  0.19795984630240288        0.0000000000000000     
   6.7125633996368061E-002  0.16604473907250586        0.0000000000000000     
   6.8162176458298154E-002  0.17382801092470362        0.0000000000000000     
   6.9126854012583672E-002  0.18170205930685687        0.0000000000000000     
   7.0019666659224628E-002  0.18966688421896555        0.0000000000000000     
   7.0840614398221008E-002  0.19772248566102962        0.0000000000000000     
   6.0491016331111390E-002  0.16575416879780358        0.0000000000000000     
   6.1423542350822834E-002  0.17355798419203447        0.0000000000000000     
   6.2288819627627182E-002  0.18145275510212441        0.0000000000000000     
   6.3086848161524406E-002  0.18943848152807335        0.0000000000000000     
   6.3817627952514527E-002  0.19751516346988135        0.0000000000000000     
   5.4001895196305133E-002  0.16549399881634136        0.0000000000000000     
   5.4832710159646504E-002  0.17331892192619819        0.0000000000000000     
   5.5601170102061281E-002  0.18123454311491990        0.0000000000000000     
   5.6307275023549479E-002  0.18924086238250656        0.0000000000000000     
   5.6951024924111082E-002  0.19733787972895805        0.0000000000000000     
   4.7658270591949291E-002  0.16526422912811928        0.0000000000000000     
   4.8389679884769124E-002  0.17311082412719475        0.0000000000000000     
   4.9063905435885971E-002  0.18104742334524337        0.0000000000000000     
   4.9680947245299825E-002  0.18907402678226501        0.0000000000000000     
   5.0240805313010693E-002  0.19719063443825974        0.0000000000000000     
   7.8019984261230566E-002  0.19795984630240288        0.0000000000000000     
   7.8859578553747173E-002  0.20607627394441008        0.0000000000000000     
   7.9626057457275051E-002  0.21426784405483790        0.0000000000000000     
   8.0319420971814201E-002  0.22253455663368632        0.0000000000000000     
   8.0939669097364608E-002  0.23087641168095535        0.0000000000000000     
   7.0840614398221008E-002  0.19772248566102962        0.0000000000000000     
   7.1588865741303187E-002  0.20586148147579275        0.0000000000000000     
   7.2263589200201428E-002  0.21407648950599861        0.0000000000000000     
   7.2864784774915758E-002  0.22236750975164712        0.0000000000000000     
   7.3392452465446192E-002  0.23073454221273845        0.0000000000000000     
   6.3817627952514527E-002  0.19751516346988135        0.0000000000000000     
   6.4479029655353903E-002  0.20567514797254349        0.0000000000000000     
   6.5068923924798960E-002  0.21391078208105496        0.0000000000000000     
   6.5587310760849685E-002  0.22222206579541570        0.0000000000000000     
   6.6034190163506090E-002  0.23060899911562580        0.0000000000000000     
   5.6951024924111082E-002  0.19733787972895805        0.0000000000000000     
   5.7530070295899391E-002  0.20551727343466222        0.0000000000000000     
   5.8042061631067683E-002  0.21377072178000689        0.0000000000000000     
   5.8486998929615987E-002  0.22209822476499189        0.0000000000000000     
   5.8864882191544281E-002  0.23049978238961735        0.0000000000000000     
   5.0240805313010693E-002  0.19719063443825974        0.0000000000000000     
   5.0741987662939608E-002  0.20538785786214903        0.0000000000000000     
   5.1183002319007589E-002  0.21365630860285442        0.0000000000000000     
   5.1563849281214644E-002  0.22199598666037576        0.0000000000000000     
   5.1884528549560771E-002  0.23040689203471318        0.0000000000000000     
   8.0939669097364608E-002  0.23087641168095535        0.0000000000000000     
   8.1476127356249178E-002  0.23931415201885523        0.0000000000000000     
   8.1918121270790858E-002  0.24786852046959615        0.0000000000000000     
   8.2265650840989635E-002  0.25653951703317807        0.0000000000000000     
   8.2518716066845521E-002  0.26532714170960109        0.0000000000000000     
   7.3392452465446192E-002  0.23073454221273845        0.0000000000000000     
   7.3843224790250503E-002  0.23919154968544631        0.0000000000000000     
   7.4213734267786421E-002  0.24775249496594468        0.0000000000000000     
   7.4503980898053976E-002  0.25641737805423359        0.0000000000000000     
   7.4713964681053138E-002  0.26518619895031292        0.0000000000000000     
   6.6034190163506090E-002  0.23060899911562580        0.0000000000000000     
   6.6411711360776865E-002  0.23907847802424242        0.0000000000000000     
   6.6722023580670725E-002  0.24763739850382280        0.0000000000000000     
   6.6965126823187629E-002  0.25628576055436703        0.0000000000000000     
   6.7141021088327646E-002  0.26502356417587503        0.0000000000000000     
   5.8864882191544281E-002  0.23049978238961735        0.0000000000000000     
   5.9181587067828299E-002  0.23897493703524350        0.0000000000000000     
   5.9442989209443749E-002  0.24752323108323054        0.0000000000000000     
   5.9649088616390664E-002  0.25614466453357848        0.0000000000000000     
   5.9799885288669002E-002  0.26483923738628745        0.0000000000000000     
   5.1884528549560771E-002  0.23040689203471318        0.0000000000000000     
   5.2152851911404799E-002  0.23888092671844954        0.0000000000000000     
   5.2376631154105548E-002  0.24740999270416786        0.0000000000000000     
   5.2555866277663031E-002  0.25599408999186801        0.0000000000000000     
   5.2690557282077236E-002  0.26463321858155009        0.0000000000000000     
   8.2518716066845521E-002  0.26532714170960109        0.0000000000000000     
   8.2716280635388634E-002  0.27425770863297233        0.0000000000000000     
   8.2897308233649172E-002  0.28335753193739915        0.0000000000000000     
   8.3061798861627109E-002  0.29262661162288151        0.0000000000000000     
   8.3209752519322444E-002  0.30206494768941944        0.0000000000000000     
   7.4713964681053138E-002  0.26518619895031292        0.0000000000000000     
   7.4884645567536962E-002  0.27405250120544056        0.0000000000000000     
   7.5056983508258374E-002  0.28300982837087413        0.0000000000000000     
   7.5230978503217444E-002  0.29205818044661369        0.0000000000000000     
   7.5406630552414117E-002  0.30119755743265936        0.0000000000000000     
   6.7141021088327646E-002  0.26502356417587503        0.0000000000000000     
   6.7289990792529827E-002  0.27382082390418144        0.0000000000000000     
   6.7452320352233336E-002  0.28264755427512078        0.0000000000000000     
   6.7628009767438130E-002  0.29150375528869310        0.0000000000000000     
   6.7817059038144223E-002  0.30038942694489840        0.0000000000000000     
   5.9799885288669002E-002  0.26483923738628745        0.0000000000000000     
   5.9932316310367308E-002  0.27356267672919504        0.0000000000000000     
   6.0083318765574018E-002  0.28227070965013906        0.0000000000000000     
   6.0252892654289188E-002  0.29096333614911968        0.0000000000000000     
   6.0441037976512790E-002  0.29964055622613661        0.0000000000000000     
   5.2690557282077236E-002  0.26463321858155009        0.0000000000000000     
   5.2811622121049326E-002  0.27327805968048136        0.0000000000000000     
   5.2949978748280453E-002  0.28187929449592908        0.0000000000000000     
   5.3105627163770611E-002  0.29043692302789337        0.0000000000000000     
   5.3278567367519791E-002  0.29895094527637400        0.0000000000000000     
   2.8953084621137336E-002   5.7214042170172563E-002   0.0000000000000000     
   3.0558599798020891E-002   6.2789156316081077E-002   0.0000000000000000     
   3.2084641445707239E-002   6.8536738035777936E-002   0.0000000000000000     
   3.3531209564196383E-002   7.4456787329263183E-002   0.0000000000000000     
   3.4898304153488310E-002   8.0549304196536775E-002   0.0000000000000000     
   2.5059085946159861E-002   5.6617078623626187E-002   0.0000000000000000     
   2.6465032166669941E-002   6.2246671625089338E-002   0.0000000000000000     
   2.7802595423614671E-002   6.8040495034284262E-002   0.0000000000000000     
   2.9071775716994042E-002   7.3998548851210946E-002   0.0000000000000000     
   3.0272573046808058E-002   8.0120833075869438E-002   0.0000000000000000     
   2.1266854248532661E-002   5.6169535304488524E-002   0.0000000000000000     
   2.2471806992018402E-002   6.1819305236034836E-002   0.0000000000000000     
   2.3619225846643839E-002   6.7633790627971618E-002   0.0000000000000000     
   2.4709110812408969E-002   7.3612991480298873E-002   0.0000000000000000     
   2.5741461889313786E-002   7.9756907793016599E-002   0.0000000000000000     
   1.7576389528255739E-002   5.5871412212759604E-002   0.0000000000000000     
   1.8578924274066266E-002   6.1507057148917577E-002   0.0000000000000000     
   1.9534532714794741E-002   6.7316624816840032E-002   0.0000000000000000     
   2.0443214850441149E-002   7.3300115216526934E-002   0.0000000000000000     
   2.1304970681005508E-002   7.9457528347978298E-002   0.0000000000000000     
   1.3987691785329097E-002   5.5722709348439384E-002   0.0000000000000000     
   1.4786384012813542E-002   6.1309927363737568E-002   0.0000000000000000     
   1.5548516028067377E-002   6.7088997600889488E-002   0.0000000000000000     
   1.6274087831090602E-002   7.3059920059895131E-002   0.0000000000000000     
   1.6963099421883218E-002   7.9222694740754496E-002   0.0000000000000000     
   3.4898304153488310E-002   8.0549304196536775E-002   0.0000000000000000     
   3.6208935096421146E-002   8.6808664537347688E-002   0.0000000000000000     
   3.7486112275832983E-002   9.3229244251444798E-002   0.0000000000000000     
   3.8729835691723814E-002   9.9811043338828148E-002   0.0000000000000000     
   3.9940105344093660E-002  0.10655406179949772        0.0000000000000000     
   3.0272573046808058E-002   8.0120833075869438E-002   0.0000000000000000     
   3.1424041753421388E-002   8.6404697161161573E-002   0.0000000000000000     
   3.2545236177198712E-002   9.2847490559989254E-002   0.0000000000000000     
   3.3636156318140022E-002   9.9449213272352469E-002   0.0000000000000000     
   3.4696802176245330E-002  0.10620986529825126        0.0000000000000000     
   2.5741461889313786E-002   7.9756907793016599E-002   0.0000000000000000     
   2.6731687002980752E-002   8.6061611459346279E-002   0.0000000000000000     
   2.7695194079032311E-002   9.2523174372509412E-002   0.0000000000000000     
   2.8631983117468469E-002   9.9141596532505941E-002   0.0000000000000000     
   2.9542054118289210E-002  0.10591687793933592        0.0000000000000000     
   2.1304970681005508E-002   7.9457528347978298E-002   0.0000000000000000     
   2.2131870845099242E-002   8.5779407431901822E-002   0.0000000000000000     
   2.2935985981333781E-002   9.2256295689005258E-002   0.0000000000000000     
   2.3717316089709138E-002   9.8888193119288523E-002   0.0000000000000000     
   2.4475861170225301E-002  0.10567509972275174        0.0000000000000000     
   1.6963099421883218E-002   7.9222694740754496E-002   0.0000000000000000     
   1.7624593279776848E-002   8.5558085078828186E-002   0.0000000000000000     
   1.8267611884103124E-002   9.2046854509476778E-002   0.0000000000000000     
   1.8892155234862044E-002   9.8689003032700270E-002   0.0000000000000000     
   1.9498223332053598E-002  0.10548453064849868        0.0000000000000000     
   3.9940105344093660E-002  0.10655406179949772        0.0000000000000000     
   4.1103551436479785E-002  0.11344535284260938        0.0000000000000000     
   4.2206804172419461E-002  0.12047196967731900        0.0000000000000000     
   4.3249863551912703E-002  0.12763391230362661        0.0000000000000000     
   4.4232729574959495E-002  0.13493118072153221        0.0000000000000000     
   3.4696802176245330E-002  0.10620986529825126        0.0000000000000000     
   3.5715572279612903E-002  0.11311776888687378        0.0000000000000000     
   3.6680865156341017E-002  0.12016124628740835        0.0000000000000000     
   3.7592680806429662E-002  0.12734029749985490        0.0000000000000000     
   3.8451019229878855E-002  0.13465492252421343        0.0000000000000000     
   2.9542054118289210E-002  0.10591687793933592        0.0000000000000000     
   3.0415574389319307E-002  0.11283857304775999        0.0000000000000000     
   3.1242711238383503E-002  0.11989623631253882        0.0000000000000000     
   3.2023464665481782E-002  0.12708986773367237        0.0000000000000000     
   3.2757834670614175E-002  0.13441946731116067        0.0000000000000000     
   2.4475861170225301E-002  0.10567509972275174        0.0000000000000000     
   2.5203557765598988E-002  0.11260776532526796        0.0000000000000000     
   2.5892342418546911E-002  0.11967693975271040        0.0000000000000000     
   2.6542215129069065E-002  0.12688262300507910        0.0000000000000000     
   2.7153175897165451E-002  0.13422481508237394        0.0000000000000000     
   1.9498223332053598E-002  0.10548453064849868        0.0000000000000000     
   2.0079522408451952E-002  0.11242534571939773        0.0000000000000000     
   2.0629758696831254E-002  0.11950335660792318        0.0000000000000000     
   2.1148932197191505E-002  0.12671856331407502        0.0000000000000000     
   2.1637042909532694E-002  0.13407096583785327        0.0000000000000000     
   4.4232729574959495E-002  0.13493118072153221        0.0000000000000000     
   4.5161402897139040E-002  0.14235069473222231        0.0000000000000000     
   4.6041884174030517E-002  0.14987937413688351        0.0000000000000000     
   4.6874173405633934E-002  0.15751721893551585        0.0000000000000000     
   4.7658270591949291E-002  0.16526422912811928        0.0000000000000000     
   3.8451019229878855E-002  0.13465492252421343        0.0000000000000000     
   3.9261158734733723E-002  0.14209233506051971        0.0000000000000000     
   4.0028377629039401E-002  0.14963974880880951        0.0000000000000000     
   4.0752675912795897E-002  0.15729716376908282        0.0000000000000000     
   4.1434053586003217E-002  0.16506457994133963        0.0000000000000000     
   3.2757834670614175E-002  0.13441946731116067        0.0000000000000000     
   3.3450300927214502E-002  0.14187236156247521        0.0000000000000000     
   3.4105343108716622E-002  0.14943587700508745        0.0000000000000000     
   3.4722961215120543E-002  0.15711001363899740        0.0000000000000000     
   3.5303155246426250E-002  0.16489477146420503        0.0000000000000000     
   2.7153175897165451E-002  0.13422481508237394        0.0000000000000000     
   2.7728829474581388E-002  0.14169077423808876        0.0000000000000000     
   2.8272780613062192E-002  0.14926775872571732        0.0000000000000000     
   2.8785029312607860E-002  0.15695576854525947        0.0000000000000000     
   2.9265575573218388E-002  0.16475480369671530        0.0000000000000000     
   2.1637042909532694E-002  0.13407096583785327        0.0000000000000000     
   2.2096744376834381E-002  0.14154757308736043        0.0000000000000000     
   2.2530690142076100E-002  0.14913539397069905        0.0000000000000000     
   2.2938880205257854E-002  0.15683442848786908        0.0000000000000000     
   2.3321314566379640E-002  0.16464467663887059        0.0000000000000000     
   4.7658270591949291E-002  0.16526422912811928        0.0000000000000000     
   4.8389679884769124E-002  0.17311082412719475        0.0000000000000000     
   4.9063905435885971E-002  0.18104742334524337        0.0000000000000000     
   4.9680947245299825E-002  0.18907402678226501        0.0000000000000000     
   5.0240805313010693E-002  0.19719063443825974        0.0000000000000000     
   4.1434053586003217E-002  0.16506457994133963        0.0000000000000000     
   4.2068190512652613E-002  0.17293157793275665        0.0000000000000000     
   4.2650766556735352E-002  0.18088773835051050        0.0000000000000000     
   4.3181781718251433E-002  0.18893306119460121        0.0000000000000000     
   4.3661235997200842E-002  0.19706754646502880        0.0000000000000000     
   3.5303155246426250E-002  0.16489477146420503        0.0000000000000000     
   3.5841981029758871E-002  0.17277907048061625        0.0000000000000000     
   3.6335494392243539E-002  0.18075183068813711        0.0000000000000000     
   3.6783695333880262E-002  0.18881305208676755        0.0000000000000000     
   3.7186583854669018E-002  0.19696273467650757        0.0000000000000000     
   2.9265575573218388E-002  0.16475480369671530        0.0000000000000000     
   2.9711051436087915E-002  0.17265330177077362        0.0000000000000000     
   3.0118088942410561E-002  0.18063970035812318        0.0000000000000000     
   3.0486688092186319E-002  0.18871399945876394        0.0000000000000000     
   3.0816848885415200E-002  0.19687619907269593        0.0000000000000000     
   2.3321314566379640E-002  0.16464467663887059        0.0000000000000000     
   2.3675401731639727E-002  0.17255427180322869        0.0000000000000000     
   2.3998550207236385E-002  0.18055134736046866        0.0000000000000000     
   2.4290759993169608E-002  0.18863590331059041        0.0000000000000000     
   2.4552031089439402E-002  0.19680793965359406        0.0000000000000000     
   5.0240805313010693E-002  0.19719063443825974        0.0000000000000000     
   5.0741987662939608E-002  0.20538785786214903        0.0000000000000000     
   5.1183002319007589E-002  0.21365630860285442        0.0000000000000000     
   5.1563849281214644E-002  0.22199598666037576        0.0000000000000000     
   5.1884528549560771E-002  0.23040689203471318        0.0000000000000000     
   4.3661235997200842E-002  0.19706754646502880        0.0000000000000000     
   4.4088840207227420E-002  0.20528050467542847        0.0000000000000000     
   4.4464305161974936E-002  0.21356124633943543        0.0000000000000000     
   4.4787630861443418E-002  0.22190977145704976        0.0000000000000000     
   4.5058817305632853E-002  0.23032608002827132        0.0000000000000000     
   3.7186583854669018E-002  0.19696273467650757        0.0000000000000000     
   3.7544686379515649E-002  0.20518881729492500        0.0000000000000000     
   3.7858529333326001E-002  0.21347923877958788        0.0000000000000000     
   3.8128112716100060E-002  0.22183399913049620        0.0000000000000000     
   3.8353436527837834E-002  0.23025309834764995        0.0000000000000000     
   3.0816848885415200E-002  0.19687619907269593        0.0000000000000000     
   3.1109526179804312E-002  0.20511279572063876        0.0000000000000000     
   3.1365674833060769E-002  0.21341028592331182        0.0000000000000000     
   3.1585294845184575E-002  0.22176866968071521        0.0000000000000000     
   3.1768386216175719E-002  0.23018794699284895        0.0000000000000000     
   2.4552031089439402E-002  0.19680793965359406        0.0000000000000000     
   2.4783359608093400E-002  0.20505243995256958        0.0000000000000000     
   2.4985741661179249E-002  0.21335438777060717        0.0000000000000000     
   2.5159177248696950E-002  0.22171378310770679        0.0000000000000000     
   2.5303666370646495E-002  0.23013062596386841        0.0000000000000000     
   5.1884528549560771E-002  0.23040689203471318        0.0000000000000000     
   5.2152851911404799E-002  0.23888092671844954        0.0000000000000000     
   5.2376631154105548E-002  0.24740999270416786        0.0000000000000000     
   5.2555866277663031E-002  0.25599408999186801        0.0000000000000000     
   5.2690557282077236E-002  0.26463321858155009        0.0000000000000000     
   4.5058817305632853E-002  0.23032608002827132        0.0000000000000000     
   4.5286354101311314E-002  0.23879502371443725        0.0000000000000000     
   4.5478730855246854E-002  0.24730145417688448        0.0000000000000000     
   4.5635947567439501E-002  0.25584537141561298        0.0000000000000000     
   4.5758004237889227E-002  0.26442677543062287        0.0000000000000000     
   3.8353436527837834E-002  0.23025309834764995        0.0000000000000000     
   3.8542941847352810E-002  0.23871580466378320        0.0000000000000000     
   3.8705069753458471E-002  0.24720138631163022        0.0000000000000000     
   3.8839820246154823E-002  0.25570984329119095        0.0000000000000000     
   3.8947193325441859E-002  0.26424117560246541        0.0000000000000000     
   3.1768386216175719E-002  0.23018794699284895        0.0000000000000000     
   3.1922615149529293E-002  0.23864326956648746        0.0000000000000000     
   3.2055647848740390E-002  0.24710978910840503        0.0000000000000000     
   3.2167484313809003E-002  0.25558750561860183        0.0000000000000000     
   3.2258124544735138E-002  0.26407641909707791        0.0000000000000000     
   2.5303666370646495E-002  0.23013062596386841        0.0000000000000000     
   2.5425374007840760E-002  0.23857741842254987        0.0000000000000000     
   2.5530465141092609E-002  0.24702666256720901        0.0000000000000000     
   2.5618939770402041E-002  0.25547835839784572        0.0000000000000000     
   2.5690797895769061E-002  0.26393250591446010        0.0000000000000000     
   5.2690557282077236E-002  0.26463321858155009        0.0000000000000000     
   5.2811622121049326E-002  0.27327805968048136        0.0000000000000000     
   5.2949978748280453E-002  0.28187929449592908        0.0000000000000000     
   5.3105627163770611E-002  0.29043692302789337        0.0000000000000000     
   5.3278567367519791E-002  0.29895094527637400        0.0000000000000000     
   4.5758004237889227E-002  0.26442677543062287        0.0000000000000000     
   4.5869134077825821E-002  0.27299566409361165        0.0000000000000000     
   4.5993570298479038E-002  0.28150203527627699        0.0000000000000000     
   4.6131312899848897E-002  0.28994588897861900        0.0000000000000000     
   4.6282361881935380E-002  0.29832722520063759        0.0000000000000000     
   3.8947193325441859E-002  0.26424117560246541        0.0000000000000000     
   3.9046078033946628E-002  0.27274418130415701        0.0000000000000000     
   3.9155363414296193E-002  0.28116765845496905        0.0000000000000000     
   3.9275049466490547E-002  0.28951160705490148        0.0000000000000000     
   3.9405136190529683E-002  0.29777602710395440        0.0000000000000000     
   3.2258124544735138E-002  0.26407641909707791        0.0000000000000000     
   3.2342453989411782E-002  0.27252361131211750        0.0000000000000000     
   3.2435358095731920E-002  0.28087616403200510        0.0000000000000000     
   3.2536836863695566E-002  0.28913407725674078        0.0000000000000000     
   3.2646890293302706E-002  0.29729735098632459        0.0000000000000000     
   2.5690797895769061E-002  0.26393250591446010        0.0000000000000000     
   2.5758261944221254E-002  0.27233395411749300        0.0000000000000000     
   2.5833554342786218E-002  0.28062755200738532        0.0000000000000000     
   2.5916675091463944E-002  0.28881329958413693        0.0000000000000000     
   2.6007624190254444E-002  0.29689119684774806        0.0000000000000000     
   1.3987691785329097E-002   5.5722709348439384E-002   0.0000000000000000     
   1.4786384012813542E-002   6.1309927363737568E-002   0.0000000000000000     
   1.5548516028067377E-002   6.7088997600889488E-002   0.0000000000000000     
   1.6274087831090602E-002   7.3059920059895131E-002   0.0000000000000000     
   1.6963099421883218E-002   7.9222694740754496E-002   0.0000000000000000     
   1.0460988975985444E-002   5.5645740445380981E-002   0.0000000000000000     
   1.1056076713952669E-002   6.1183381078726881E-002   0.0000000000000000     
   1.1624655490522532E-002   6.6929647336315665E-002   0.0000000000000000     
   1.2166725305695030E-002   7.2884539218147346E-002   0.0000000000000000     
   1.2682286159470165E-002   7.9048056724221910E-002   0.0000000000000000     
   6.9565090564574954E-003   5.5562819237437437E-002   0.0000000000000000     
   7.3498928831761037E-003   6.1082883492117580E-002   0.0000000000000000     
   7.7264308062209896E-003   6.6817312379314264E-002   0.0000000000000000     
   8.0861228255921583E-003   7.2766105899027475E-002   0.0000000000000000     
   8.4289689412896055E-003   7.8929264051257220E-002   0.0000000000000000     
   3.4742520267452498E-003   5.5473945724608766E-002   0.0000000000000000     
   3.6678325204838398E-003   6.1008434603909679E-002   0.0000000000000000     
   3.8538419751627502E-003   6.6751992729885259E-002   0.0000000000000000     
   4.0322803907819815E-003   7.2704620102535492E-002   0.0000000000000000     
   4.2031477673415332E-003   7.8866316721860397E-002   0.0000000000000000     
   1.4217886848706413E-005   5.5379119906894973E-002   0.0000000000000000     
   9.8956258758817195E-006   6.0960034414103165E-002   0.0000000000000000     
   6.8889973478139608E-006   6.6733688388028650E-002   0.0000000000000000     
   5.1980012645043839E-006   7.2700081828671409E-002   0.0000000000000000     
   4.8226376259512000E-006   7.8859214736031469E-002   0.0000000000000000     
   1.6963099421883218E-002   7.9222694740754496E-002   0.0000000000000000     
   1.7624593279776848E-002   8.5558085078828186E-002   0.0000000000000000     
   1.8267611884103124E-002   9.2046854509476778E-002   0.0000000000000000     
   1.8892155234862044E-002   9.8689003032700270E-002   0.0000000000000000     
   1.9498223332053598E-002  0.10548453064849868        0.0000000000000000     
   1.2682286159470165E-002   7.9048056724221910E-002   0.0000000000000000     
   1.3177600776803527E-002   8.5392172031623553E-002   0.0000000000000000     
   1.3658931882650695E-002   9.1888857317436484E-002   0.0000000000000000     
   1.4126279477011673E-002   9.8538112581660647E-002   0.0000000000000000     
   1.4579643559886462E-002  0.10533993782429608        0.0000000000000000     
   8.4289689412896055E-003   7.8929264051257220E-002   0.0000000000000000     
   8.7586398059692101E-003   8.5276195921786105E-002   0.0000000000000000     
   9.0788060722868519E-003   9.1776310596396751E-002   0.0000000000000000     
   9.3894677402425273E-003   9.8429608075089159E-002   0.0000000000000000     
   9.6906248098362381E-003  0.10523608835786331        0.0000000000000000     
   4.2031477673415332E-003   7.8866316721860397E-002   0.0000000000000000     
   4.3677103672739043E-003   8.5210156749315827E-002   0.0000000000000000     
   4.5272344530115959E-003   9.1709214346357648E-002   0.0000000000000000     
   4.6817200245546061E-003   9.8363489512985805E-002   0.0000000000000000     
   4.8311670819029349E-003  0.10517298224920035        0.0000000000000000     
   4.8226376259512000E-006   7.8859214736031469E-002   0.0000000000000000     
   4.8124607176078162E-006   8.5194054514212719E-002   0.0000000000000000     
   4.2170248249250920E-006   9.1687568567319092E-002   0.0000000000000000     
   3.0363299479067813E-006   9.8339756895350586E-002   0.0000000000000000     
   1.2703760865480189E-006  0.10515061949830720        0.0000000000000000     
   1.9498223332053598E-002  0.10548453064849868        0.0000000000000000     
   2.0079522408451952E-002  0.11242534571939773        0.0000000000000000     
   2.0629758696831254E-002  0.11950335660792318        0.0000000000000000     
   2.1148932197191505E-002  0.12671856331407502        0.0000000000000000     
   2.1637042909532694E-002  0.13407096583785327        0.0000000000000000     
   1.4579643559886462E-002  0.10533993782429608        0.0000000000000000     
   1.5014491884434105E-002  0.11228693384433730        0.0000000000000000     
   1.5426292203813660E-002  0.11937170144077872        0.0000000000000000     
   1.5815044518025116E-002  0.12659424061362040        0.0000000000000000     
   1.6180748827068481E-002  0.13395455136286230        0.0000000000000000     
   9.6906248098362381E-003  0.10523608835786331        0.0000000000000000     
   9.9794897601013562E-003  0.11218814931427468        0.0000000000000000     
   1.0253275070071255E-002  0.11927818881387871        0.0000000000000000     
   1.0511980739745927E-002  0.12650620685667538        0.0000000000000000     
   1.0755606769125381E-002  0.13387220344266471        0.0000000000000000     
   4.8311670819029349E-003  0.10517298224920035        0.0000000000000000     
   4.9745160354537060E-003  0.11212899212920992        0.0000000000000000     
   5.1107072956040403E-003  0.11922281872722314        0.0000000000000000     
   5.2397408623539371E-003  0.12645446204324004        0.0000000000000000     
   5.3616167357033971E-003  0.13382392207726054        0.0000000000000000     
   1.2703760865480189E-006  0.10515061949830720        0.0000000000000000     
  -4.2928950884976030E-007  0.11210946228914298        0.0000000000000000     
  -1.4111195879838202E-006  0.11920559118081202        0.0000000000000000     
  -1.6751141508583893E-006  0.12643900617331427        0.0000000000000000     
  -1.2212731974707569E-006  0.13380970726664979        0.0000000000000000     
   2.1637042909532694E-002  0.13407096583785327        0.0000000000000000     
   2.2096744376834381E-002  0.14154757308736043        0.0000000000000000     
   2.2530690142076100E-002  0.14913539397069905        0.0000000000000000     
   2.2938880205257854E-002  0.15683442848786908        0.0000000000000000     
   2.3321314566379640E-002  0.16464467663887059        0.0000000000000000     
   1.6180748827068481E-002  0.13395455136286230        0.0000000000000000     
   1.6525120426339572E-002  0.14143937790732647        0.0000000000000000     
   1.6849874611234217E-002  0.14903546446583493        0.0000000000000000     
   1.7155011381752416E-002  0.15674281103838772        0.0000000000000000     
   1.7440530737894165E-002  0.16456141762498480        0.0000000000000000     
   1.0755606769125381E-002  0.13387220344266471        0.0000000000000000     
   1.0985032415463059E-002  0.14136280849502317        0.0000000000000000     
   1.1201136936012410E-002  0.14896465193692721        0.0000000000000000     
   1.1403920330773434E-002  0.15667773376837679        0.0000000000000000     
   1.1593382599746136E-002  0.16450205398937201        0.0000000000000000     
   5.3616167357033971E-003  0.13382392207726054        0.0000000000000000     
   5.4764803442048380E-003  0.14131786485045056        0.0000000000000000     
   5.5844771164106745E-003  0.14892295638397585        0.0000000000000000     
   5.6856070523209111E-003  0.15663919667783641        0.0000000000000000     
   5.7798701519355469E-003  0.16446658573203224        0.0000000000000000     
  -1.2212731974707569E-006  0.13380970726664979        0.0000000000000000     
  -5.3578743509029823E-007  0.14130454697360861        0.0000000000000000     
  -1.0484757098541252E-007  0.14891037780698083        0.0000000000000000     
   7.1546394844252586E-008  0.15662719976676645        0.0000000000000000     
  -6.6055376017094825E-009  0.16445501285296546        0.0000000000000000     
   2.3321314566379640E-002  0.16464467663887059        0.0000000000000000     
   2.3675401731639727E-002  0.17255427180322869        0.0000000000000000     
   2.3998550207236385E-002  0.18055134736046866        0.0000000000000000     
   2.4290759993169608E-002  0.18863590331059041        0.0000000000000000     
   2.4552031089439402E-002  0.19680793965359406        0.0000000000000000     
   1.7440530737894165E-002  0.16456141762498480        0.0000000000000000     
   1.7704674156084333E-002  0.17247926425994120        0.0000000000000000     
   1.7945683112747773E-002  0.18048433097757186        0.0000000000000000     
   1.8163557607884497E-002  0.18857661777787679        0.0000000000000000     
   1.8358297641494496E-002  0.19675612466085604        0.0000000000000000     
   1.1593382599746136E-002  0.16450205398937201        0.0000000000000000     
   1.1768510949091740E-002  0.17242556282287078        0.0000000000000000     
   1.1928292584971479E-002  0.18043621049183103        0.0000000000000000     
   1.2072727507385353E-002  0.18853399699625284        0.0000000000000000     
   1.2201815716333362E-002  0.19671892233613616        0.0000000000000000     
   5.7798701519355469E-003  0.16446658573203224        0.0000000000000000     
   5.8669121106619485E-003  0.17239316749201747        0.0000000000000000     
   5.9463786239074921E-003  0.18040698590324628        0.0000000000000000     
   6.0182696916721724E-003  0.18850804096571855        0.0000000000000000     
   6.0825853139559946E-003  0.19669633267943434        0.0000000000000000     
  -6.6055376017094825E-009  0.16445501285296546        0.0000000000000000     
  -1.2235920503786239E-007  0.17238207826738131        0.0000000000000000     
  -5.8770444184082400E-008  0.18039665721181744        0.0000000000000000     
   1.8416074496231389E-007  0.18849874968627389        0.0000000000000000     
   6.0643436240043203E-007  0.19668835569075066        0.0000000000000000     
   2.4552031089439402E-002  0.19680793965359406        0.0000000000000000     
   2.4783359608093400E-002  0.20505243995256958        0.0000000000000000     
   2.4985741661179249E-002  0.21335438777060717        0.0000000000000000     
   2.5159177248696950E-002  0.22171378310770679        0.0000000000000000     
   2.5303666370646495E-002  0.23013062596386841        0.0000000000000000     
   1.8358297641494496E-002  0.19675612466085604        0.0000000000000000     
   1.8530712392336592E-002  0.20500644874873175        0.0000000000000000     
   1.8681611039169609E-002  0.21331118716372607        0.0000000000000000     
   1.8810993581993545E-002  0.22167033990583909        0.0000000000000000     
   1.8918860020808399E-002  0.23008390697507072        0.0000000000000000     
   1.2201815716333362E-002  0.19671892233613616        0.0000000000000000     
   1.2316110260487560E-002  0.20497352086713932        0.0000000000000000     
   1.2416164188520007E-002  0.21328032694492075        0.0000000000000000     
   1.2501977500430705E-002  0.22163934056948040        0.0000000000000000     
   1.2573550196219647E-002  0.23005056174081831        0.0000000000000000     
   6.0825853139559946E-003  0.19669633267943434        0.0000000000000000     
   6.1395532125463042E-003  0.20495365630779233        0.0000000000000000     
   6.1894011092304482E-003  0.21326180711419113        0.0000000000000000     
   6.2321290040084267E-003  0.22162078509863076        0.0000000000000000     
   6.2677368968802379E-003  0.23003059026111120        0.0000000000000000     
   6.0643436240043203E-007  0.19668835569075066        0.0000000000000000     
   1.0412485128242707E-006  0.20494685507069077        0.0000000000000000     
   1.3218013009295634E-006  0.21325562767153725        0.0000000000000000     
   1.4480927267119734E-006  0.22161467349329006        0.0000000000000000     
   1.4201227901775720E-006  0.23002399253594930        0.0000000000000000     
   2.5303666370646495E-002  0.23013062596386841        0.0000000000000000     
   2.5425374007840760E-002  0.23857741842254987        0.0000000000000000     
   2.5530465141092609E-002  0.24702666256720901        0.0000000000000000     
   2.5618939770402041E-002  0.25547835839784572        0.0000000000000000     
   2.5690797895769061E-002  0.26393250591446010        0.0000000000000000     
   1.8918860020808399E-002  0.23008390697507072        0.0000000000000000     
   1.9009597679992711E-002  0.23852272477503966        0.0000000000000000     
   1.9087593883925016E-002  0.24695762970936458        0.0000000000000000     
   1.9152848632605322E-002  0.25538862177804533        0.0000000000000000     
   1.9205361926033622E-002  0.26381570098108220        0.0000000000000000     
   1.2573550196219647E-002  0.23005056174081831        0.0000000000000000     
   1.2633665423690644E-002  0.23848366216702580        0.0000000000000000     
   1.2685106330647504E-002  0.24690831355619428        0.0000000000000000     
   1.2727872917090228E-002  0.25532451590832372        0.0000000000000000     
   1.2761965183018810E-002  0.26373226922341408        0.0000000000000000     
   6.2677368968802379E-003  0.23003059026111120        0.0000000000000000     
   6.2975772389345618E-003  0.23846023059850835        0.0000000000000000     
   6.3230024812600668E-003  0.24687871410769818        0.0000000000000000     
   6.3440126238567549E-003  0.25528604078868067        0.0000000000000000     
   6.3606076667246277E-003  0.26368221064145586        0.0000000000000000     
   1.4201227901775720E-006  0.23002399253594930        0.0000000000000000     
   1.3331257244612871E-006  0.23845243006948724        0.0000000000000000     
   1.2823357627060692E-006  0.24686883136387622        0.0000000000000000     
   1.2677529049091537E-006  0.25527319641911633        0.0000000000000000     
   1.2893771510718958E-006  0.26366552523520742        0.0000000000000000     
   2.5690797895769061E-002  0.26393250591446010        0.0000000000000000     
   2.5758261944221254E-002  0.27233395411749300        0.0000000000000000     
   2.5833554342786218E-002  0.28062755200738532        0.0000000000000000     
   2.5916675091463944E-002  0.28881329958413693        0.0000000000000000     
   2.6007624190254444E-002  0.29689119684774806        0.0000000000000000     
   1.9205361926033622E-002  0.26381570098108220        0.0000000000000000     
   1.9255095860066393E-002  0.27218153374987752        0.0000000000000000     
   1.9312012530560124E-002  0.28042878651583403        0.0000000000000000     
   1.9376111937514803E-002  0.28855745927895166        0.0000000000000000     
   1.9447394080930439E-002  0.29656755203923041        0.0000000000000000     
   1.2761965183018810E-002  0.26373226922341408        0.0000000000000000     
   1.2794549698638533E-002  0.27207267423886494        0.0000000000000000     
   1.2832793034154678E-002  0.28028683169207574        0.0000000000000000     
   1.2876695189567241E-002  0.28837474158304655        0.0000000000000000     
   1.2926256164876224E-002  0.29633640391177724        0.0000000000000000     
   6.3606076667246277E-003  0.26368221064145586        0.0000000000000000     
   6.3766234599376718E-003  0.27200737558445531        0.0000000000000000     
   6.3958958535698818E-003  0.28020168753611058        0.0000000000000000     
   6.4184248476212577E-003  0.28826514649642171        0.0000000000000000     
   6.4442104420917969E-003  0.29619775246538860        0.0000000000000000     
   1.2893771510718958E-006  0.26366552523520742        0.0000000000000000     
   1.3171439638103022E-006  0.27198563778664853        0.0000000000000000     
   1.3209888057371267E-006  0.28017335404793842        0.0000000000000000     
   1.3009116768543751E-006  0.28822867401907704        0.0000000000000000     
   1.2569125771603670E-006  0.29615159770006444        0.0000000000000000     
   1.4217886848706413E-005   5.5379119906894973E-002   0.0000000000000000     
   9.8956258758817195E-006   6.0960034414103165E-002   0.0000000000000000     
   6.8889973478139608E-006   6.6733688388028650E-002   0.0000000000000000     
   5.1980012645043839E-006   7.2700081828671409E-002   0.0000000000000000     
   4.8226376259512000E-006   7.8859214736031469E-002   0.0000000000000000     
  -3.4491261150816528E-003   5.5329549812474746E-002   0.0000000000000000     
  -3.6507749435349206E-003   6.0958829553474231E-002   0.0000000000000000     
  -3.8423169421387300E-003   6.6763712157887678E-002   0.0000000000000000     
  -4.0237521108930823E-003   7.2744197625715087E-002   0.0000000000000000     
  -4.1950804497979752E-003   7.8900285956956445E-002   0.0000000000000000     
  -6.9413127308953484E-003   5.5376443469526755E-002   0.0000000000000000     
  -7.3410363306357163E-003   6.1025966652799031E-002   0.0000000000000000     
  -7.7216646582117937E-003   6.6843376843605570E-002   0.0000000000000000     
  -8.0831977136235859E-003   7.2828674041946359E-002   0.0000000000000000     
  -8.4256354968710832E-003   7.8981858247821377E-002   0.0000000000000000     
  -1.0462341960592378E-002   5.5519800878051029E-002   0.0000000000000000     
  -1.1060888535426503E-002   6.1161445712077600E-002   0.0000000000000000     
  -1.1631154150871381E-002   6.6972682445182327E-002   0.0000000000000000     
  -1.2173138806926997E-002   7.2953511077365196E-002   0.0000000000000000     
  -1.2686842503593365E-002   7.9103931608626249E-002   0.0000000000000000     
  -1.4012213804172741E-002   5.5759622038047546E-002   0.0000000000000000     
  -1.4810331557907282E-002   6.1365266731309903E-002   0.0000000000000000     
  -1.5570785420117481E-002   6.7151628962617949E-002   0.0000000000000000     
  -1.6293575390803328E-002   7.3118708731971668E-002   0.0000000000000000     
  -1.6978701469964833E-002   7.9266506039371076E-002   0.0000000000000000     
   4.8226376259512000E-006   7.8859214736031469E-002   0.0000000000000000     
   4.8124607176078162E-006   8.5194054514212719E-002   0.0000000000000000     
   4.2170248249250920E-006   9.1687568567319092E-002   0.0000000000000000     
   3.0363299479067813E-006   9.8339756895350586E-002   0.0000000000000000     
   1.2703760865480189E-006  0.10515061949830720        0.0000000000000000     
  -4.1950804497979752E-003   7.8900285956956445E-002   0.0000000000000000     
  -4.3594014019813481E-003   8.5225083311256916E-002   0.0000000000000000     
  -4.5198144105711305E-003   9.1711695848261596E-002   0.0000000000000000     
  -4.6763194755673277E-003   9.8360123567970512E-002   0.0000000000000000     
  -4.8289165969699344E-003  0.10517036647038364        0.0000000000000000     
  -8.4256354968710832E-003   7.8981858247821377E-002   0.0000000000000000     
  -8.7542787091046265E-003   8.5300437235228496E-002   0.0000000000000000     
  -9.0744280514745458E-003   9.1781918778165550E-002   0.0000000000000000     
  -9.3860835239808448E-003   9.8426302876632538E-002   0.0000000000000000     
  -9.6892451266235233E-003  0.10523358953062947        0.0000000000000000     
  -1.2686842503593365E-002   7.9103931608626249E-002   0.0000000000000000     
  -1.3179819460652229E-002   8.5420116286127515E-002   0.0000000000000000     
  -1.3659623897885323E-002   9.1898237357030982E-002   0.0000000000000000     
  -1.4126255815292654E-002   9.8538294821336733E-002   0.0000000000000000     
  -1.4579715212874218E-002  0.10534028867904469        0.0000000000000000     
  -1.6978701469964833E-002   7.9266506039371076E-002   0.0000000000000000     
  -1.7636023656624155E-002   8.5584120463953889E-002   0.0000000000000000     
  -1.8275401949803458E-002   9.2060651584857850E-002   0.0000000000000000     
  -1.8896836349502750E-002   9.8696099402082987E-002   0.0000000000000000     
  -1.9500326855722023E-002  0.10549046391562929        0.0000000000000000     
   1.2703760865480189E-006  0.10515061949830720        0.0000000000000000     
  -4.2928950884976030E-007  0.11210946228914298        0.0000000000000000     
  -1.4111195879838202E-006  0.11920559118081202        0.0000000000000000     
  -1.6751141508583893E-006  0.12643900617331427        0.0000000000000000     
  -1.2212731974707569E-006  0.13380970726664979        0.0000000000000000     
  -4.8289165969699344E-003  0.10517036647038364        0.0000000000000000     
  -4.9753227930908039E-003  0.11212987721197863        0.0000000000000000     
  -5.1132550822417799E-003  0.11922610844923311        0.0000000000000000     
  -5.2427134644228660E-003  0.12645906018214703        0.0000000000000000     
  -5.3636979396340578E-003  0.13382873241072044        0.0000000000000000     
  -9.6892451266235233E-003  0.10523358953062947        0.0000000000000000     
  -9.9801410535966528E-003  0.11219055431562158        0.0000000000000000     
  -1.0254999499094308E-002  0.11928397280707412        0.0000000000000000     
  -1.0513820463116493E-002  0.12651384500498711        0.0000000000000000     
  -1.0756603945663202E-002  0.13388017090936052        0.0000000000000000     
  -1.4579715212874218E-002  0.10534028867904469        0.0000000000000000     
  -1.5014884071026399E-002  0.11229149360007183        0.0000000000000000     
  -1.5426644370145577E-002  0.11937918425433511        0.0000000000000000     
  -1.5814996110231738E-002  0.12660336064183450        0.0000000000000000     
  -1.6179939291284903E-002  0.13396402276257002        0.0000000000000000     
  -1.9500326855722023E-002  0.10549046391562929        0.0000000000000000     
  -2.0079551845380041E-002  0.11243269506532941        0.0000000000000000     
  -2.0628189695395573E-002  0.11951174279101608        0.0000000000000000     
  -2.1146240405768613E-002  0.12672760709268924        0.0000000000000000     
  -2.1633703976499160E-002  0.13408028797034893        0.0000000000000000     
  -1.2212731974707569E-006  0.13380970726664979        0.0000000000000000     
  -5.3578743509029823E-007  0.14130454697360861        0.0000000000000000     
  -1.0484757098541252E-007  0.14891037780698083        0.0000000000000000     
   7.1546394844252586E-008  0.15662719976676645        0.0000000000000000     
  -6.6055376017094825E-009  0.16445501285296546        0.0000000000000000     
  -5.3636979396340578E-003  0.13382873241072044        0.0000000000000000     
  -5.4772538374791343E-003  0.14132216960037414        0.0000000000000000     
  -5.5844264875618598E-003  0.14892641621652891        0.0000000000000000     
  -5.6852158898822447E-003  0.15664147225918468        0.0000000000000000     
  -5.7796220444402786E-003  0.16446733772834157        0.0000000000000000     
  -1.0756603945663202E-002  0.13388017090936052        0.0000000000000000     
  -1.0984911663949696E-002  0.14137004746662390        0.0000000000000000     
  -1.1200305335191242E-002  0.14897057162320665        0.0000000000000000     
  -1.1402784959387829E-002  0.15668174337910890        0.0000000000000000     
  -1.1592350536539460E-002  0.16450356273433062        0.0000000000000000     
  -1.6179939291284903E-002  0.13396402276257002        0.0000000000000000     
  -1.6523509266846786E-002  0.14144818057235783        0.0000000000000000     
  -1.6847741390459119E-002  0.14904284402701420        0.0000000000000000     
  -1.7152635662121909E-002  0.15674801312653908        0.0000000000000000     
  -1.7438192081835148E-002  0.16456368787093251        0.0000000000000000     
  -2.1633703976499160E-002  0.13408028797034893        0.0000000000000000     
  -2.2093046646170397E-002  0.14155656891757604        0.0000000000000000     
  -2.2526734653365507E-002  0.14914323342795147        0.0000000000000000     
  -2.2934767998084485E-002  0.15684028150147525        0.0000000000000000     
  -2.3317146680327330E-002  0.16464771313814733        0.0000000000000000     
  -6.6055376017094825E-009  0.16445501285296546        0.0000000000000000     
  -1.2235920503786239E-007  0.17238207826738131        0.0000000000000000     
  -5.8770444184082400E-008  0.18039665721181744        0.0000000000000000     
   1.8416074496231389E-007  0.18849874968627389        0.0000000000000000     
   6.0643436240043203E-007  0.19668835569075066        0.0000000000000000     
  -5.7796220444402786E-003  0.16446733772834157        0.0000000000000000     
  -5.8668839731488894E-003  0.17239253351568415        0.0000000000000000     
  -5.9462406979209903E-003  0.18040558051289704        0.0000000000000000     
  -6.0176922187565839E-003  0.18850647871998027        0.0000000000000000     
  -6.0812385356556718E-003  0.19669522813693391        0.0000000000000000     
  -1.1592350536539460E-002  0.16450356273433062        0.0000000000000000     
  -1.1767664243809265E-002  0.17242477160364808        0.0000000000000000     
  -1.1927388258360367E-002  0.18043411190183758        0.0000000000000000     
  -1.2071522580192768E-002  0.18853158362889924        0.0000000000000000     
  -1.2200067209306465E-002  0.19671718678483296        0.0000000000000000     
  -1.7438192081835148E-002  0.16456368787093251        0.0000000000000000     
  -1.7702463171186171E-002  0.17247879253127293        0.0000000000000000     
  -1.7943501451762316E-002  0.18048225137863902        0.0000000000000000     
  -1.8161306923563589E-002  0.18857406441303060        0.0000000000000000     
  -1.8355879586589983E-002  0.19675423163444772        0.0000000000000000     
  -2.3317146680327330E-002  0.16464771313814733        0.0000000000000000     
  -2.3671280755279599E-002  0.17255459629855893        0.0000000000000000     
  -2.3994580278126836E-002  0.18054999894330132        0.0000000000000000     
  -2.4287045248869044E-002  0.18863392107237445        0.0000000000000000     
  -2.4548675667506223E-002  0.19680636268577834        0.0000000000000000     
   6.0643436240043203E-007  0.19668835569075066        0.0000000000000000     
   1.0412485128242707E-006  0.20494685507069077        0.0000000000000000     
   1.3218013009295634E-006  0.21325562767153725        0.0000000000000000     
   1.4480927267119734E-006  0.22161467349329006        0.0000000000000000     
   1.4201227901775720E-006  0.23002399253594930        0.0000000000000000     
  -6.0812385356556718E-003  0.19669522813693391        0.0000000000000000     
  -6.1374133353957402E-003  0.20495320349252169        0.0000000000000000     
  -6.1867503047542769E-003  0.21326177951550773        0.0000000000000000     
  -6.2292494437312844E-003  0.22162095620589181        0.0000000000000000     
  -6.2649107523267671E-003  0.23003073356367404        0.0000000000000000     
  -1.2200067209306465E-002  0.19671718678483296        0.0000000000000000     
  -1.2313798242962248E-002  0.20497278790997239        0.0000000000000000     
  -1.2413491778420899E-002  0.21328025354465113        0.0000000000000000     
  -1.2499147815682421E-002  0.22163958368886932        0.0000000000000000     
  -1.2570766354746816E-002  0.23005077834262680        0.0000000000000000     
  -1.8355879586589983E-002  0.19675423163444772        0.0000000000000000     
  -1.8528113474186696E-002  0.20500560832304265        0.0000000000000000     
  -1.8678902619698935E-002  0.21331104975896767        0.0000000000000000     
  -1.8808247023126692E-002  0.22167055594222257        0.0000000000000000     
  -1.8916146684469972E-002  0.23008412687280755        0.0000000000000000     
  -2.4548675667506223E-002  0.19680636268577834        0.0000000000000000     
  -2.4780359029069096E-002  0.20505166473173267        0.0000000000000000     
  -2.4982982828588386E-002  0.21335416815845715        0.0000000000000000     
  -2.5156547066064100E-002  0.22171387296595169        0.0000000000000000     
  -2.5301051741496237E-002  0.23013077915421631        0.0000000000000000     
   1.4201227901775720E-006  0.23002399253594930        0.0000000000000000     
   1.3331257244612871E-006  0.23845243006948724        0.0000000000000000     
   1.2823357627060692E-006  0.24686883136387622        0.0000000000000000     
   1.2677529049091537E-006  0.25527319641911633        0.0000000000000000     
   1.2893771510718958E-006  0.26366552523520742        0.0000000000000000     
  -6.2649107523267671E-003  0.23003073356367404        0.0000000000000000     
  -6.2949126723725567E-003  0.23846026039387741        0.0000000000000000     
  -6.3204336457005038E-003  0.24687868550152484        0.0000000000000000     
  -6.3414736723106119E-003  0.25528600888661634        0.0000000000000000     
  -6.3580327522028733E-003  0.26368223054915196        0.0000000000000000     
  -1.2570766354746816E-002  0.23005077834262680        0.0000000000000000     
  -1.2631005911789400E-002  0.23848372138559384        0.0000000000000000     
  -1.2682525002985499E-002  0.24690829669744047        0.0000000000000000     
  -1.2725323628335112E-002  0.25532450427816666        0.0000000000000000     
  -1.2759401787838234E-002  0.26373234412777263        0.0000000000000000     
  -1.8916146684469972E-002  0.23008412687280755        0.0000000000000000     
  -1.9006946592526067E-002  0.23852281304463643        0.0000000000000000     
  -1.9084991736092270E-002  0.24695766495162297        0.0000000000000000     
  -1.9150282115168584E-002  0.25538868259376729        0.0000000000000000     
  -1.9202817729755003E-002  0.26381586597106937        0.0000000000000000     
  -2.5301051741496237E-002  0.23013077915421631        0.0000000000000000     
  -2.5422734714582559E-002  0.23857753537100521        0.0000000000000000     
  -2.5527833845020824E-002  0.24702679026407251        0.0000000000000000     
  -2.5616349132811037E-002  0.25547854383341811        0.0000000000000000     
  -2.5688280577953190E-002  0.26393279607904219        0.0000000000000000     
   1.2893771510718958E-006  0.26366552523520742        0.0000000000000000     
   1.3171439638103022E-006  0.27198563778664853        0.0000000000000000     
   1.3209888057371267E-006  0.28017335404793842        0.0000000000000000     
   1.3009116768543751E-006  0.28822867401907704        0.0000000000000000     
   1.2569125771603670E-006  0.29615159770006444        0.0000000000000000     
  -6.3580327522028733E-003  0.26368223054915196        0.0000000000000000     
  -6.3740015878223774E-003  0.27200746556463451        0.0000000000000000     
  -6.3932708816142074E-003  0.28020182900856655        0.0000000000000000     
  -6.4158406335783633E-003  0.28826532088094825        0.0000000000000000     
  -6.4417108437148443E-003  0.29619794118177967        0.0000000000000000     
  -1.2759401787838234E-002  0.26373234412777263        0.0000000000000000     
  -1.2791965073960217E-002  0.27207286363760297        0.0000000000000000     
  -1.2830219079166403E-002  0.28028711019900249        0.0000000000000000     
  -1.2874163803456788E-002  0.28837508381197119        0.0000000000000000     
  -1.2923799246831376E-002  0.29633678447650902        0.0000000000000000     
  -1.9202817729755003E-002  0.26381586597106937        0.0000000000000000     
  -1.9252573314449704E-002  0.27218183200555401        0.0000000000000000     
  -1.9309523603850843E-002  0.28042919761924612        0.0000000000000000     
  -1.9373668597958419E-002  0.28855796281214563        0.0000000000000000     
  -1.9445008296772436E-002  0.29656812758425272        0.0000000000000000     
  -2.5688280577953190E-002  0.26393279607904219        0.0000000000000000     
  -2.5755826309290845E-002  0.27233437066848765        0.0000000000000000     
  -2.5831184455667535E-002  0.28062809126929755        0.0000000000000000     
  -2.5914355017083258E-002  0.28881395788147185        0.0000000000000000     
  -2.6005337993538026E-002  0.29689197050501065        0.0000000000000000     
  -1.4012213804172741E-002   5.5759622038047546E-002   0.0000000000000000     
  -1.4810331557907282E-002   6.1365266731309903E-002   0.0000000000000000     
  -1.5570785420117481E-002   6.7151628962617949E-002   0.0000000000000000     
  -1.6293575390803328E-002   7.3118708731971668E-002   0.0000000000000000     
  -1.6978701469964833E-002   7.9266506039371076E-002   0.0000000000000000     
  -1.7617485708886420E-002   5.6064711484399843E-002   0.0000000000000000     
  -1.8615817102632645E-002   6.1629392689087736E-002   0.0000000000000000     
  -1.9566906857577865E-002   6.7386936091655816E-002   0.0000000000000000     
  -2.0470754973722079E-002   7.3337341692104055E-002   0.0000000000000000     
  -2.1327361451065275E-002   7.9480609490432508E-002   0.0000000000000000     
  -2.1304715121983394E-002   5.6403873751991435E-002   0.0000000000000000     
  -2.2503796874157184E-002   6.1945786564002868E-002   0.0000000000000000     
  -2.3645866854880297E-002   6.7685323528039326E-002   0.0000000000000000     
  -2.4730925064152740E-002   7.3622484644100789E-002   0.0000000000000000     
  -2.5758971501974495E-002   7.9757269912187248E-002   0.0000000000000000     
  -2.5073902043463658E-002   5.6777108840822300E-002   0.0000000000000000     
  -2.6474270872480894E-002   6.2314448356055305E-002   0.0000000000000000     
  -2.7807665412024778E-002   6.8046791271768464E-002   0.0000000000000000     
  -2.9074085662095316E-002   7.3974137587961813E-002   0.0000000000000000     
  -3.0273531622692498E-002   8.0096487304635283E-002   0.0000000000000000     
  -2.8925046473327221E-002   5.7184416750892461E-002   0.0000000000000000     
  -3.0527239097603780E-002   6.2735378065245040E-002   0.0000000000000000     
  -3.2052302529011312E-002   6.8471339322843244E-002   0.0000000000000000     
  -3.3500236767549811E-002   7.4392300523687116E-002   0.0000000000000000     
  -3.4871041813219275E-002   8.0498261667776627E-002   0.0000000000000000     
  -1.6978701469964833E-002   7.9266506039371076E-002   0.0000000000000000     
  -1.7636023656624155E-002   8.5584120463953889E-002   0.0000000000000000     
  -1.8275401949803458E-002   9.2060651584857850E-002   0.0000000000000000     
  -1.8896836349502750E-002   9.8696099402082987E-002   0.0000000000000000     
  -1.9500326855722023E-002  0.10549046391562929        0.0000000000000000     
  -2.1327361451065275E-002   7.9480609490432508E-002   0.0000000000000000     
  -2.2149058638648651E-002   8.5798163244752049E-002   0.0000000000000000     
  -2.2948178885513378E-002   9.2271426713173607E-002   0.0000000000000000     
  -2.3724722191659463E-002   9.8900399895697197E-002   0.0000000000000000     
  -2.4478688557086903E-002  0.10568508279232282        0.0000000000000000     
  -2.5758971501974495E-002   7.9757269912187248E-002   0.0000000000000000     
  -2.6745091748353961E-002   8.6067958104566314E-002   0.0000000000000000     
  -2.7704371383299505E-002   9.2532827993505623E-002   0.0000000000000000     
  -2.8636810406811129E-002   9.9151879579005106E-002   0.0000000000000000     
  -2.9542408818888834E-002  0.10592511286106485        0.0000000000000000     
  -3.0273531622692498E-002   8.0096487304635283E-002   0.0000000000000000     
  -3.1424122985740086E-002   8.6393505043396712E-002   0.0000000000000000     
  -3.2543979443161841E-002   9.2844855425853870E-002   0.0000000000000000     
  -3.3633100994957740E-002   9.9450538452006729E-002   0.0000000000000000     
  -3.4691487641127811E-002  0.10621055412185534        0.0000000000000000     
  -3.4871041813219275E-002   8.0498261667776627E-002   0.0000000000000000     
  -3.6186152350807035E-002   8.6774804061243244E-002   0.0000000000000000     
  -3.7467003065100375E-002   9.3207509010218376E-002   0.0000000000000000     
  -3.8713593956099308E-002   9.9796376514702093E-002   0.0000000000000000     
  -3.9925925023803835E-002  0.10654140657469433        0.0000000000000000     
  -1.9500326855722023E-002  0.10549046391562929        0.0000000000000000     
  -2.0079551845380041E-002  0.11243269506532941        0.0000000000000000     
  -2.0628189695395573E-002  0.11951174279101608        0.0000000000000000     
  -2.1146240405768613E-002  0.12672760709268924        0.0000000000000000     
  -2.1633703976499160E-002  0.13408028797034893        0.0000000000000000     
  -2.4478688557086903E-002  0.10568508279232282        0.0000000000000000     
  -2.5202490969470324E-002  0.11261616943605032        0.0000000000000000     
  -2.5888542416484354E-002  0.11968435385987956        0.0000000000000000     
  -2.6536842898128982E-002  0.12688963606381054        0.0000000000000000     
  -2.7147392414404215E-002  0.13423201604784324        0.0000000000000000     
  -2.9542408818888834E-002  0.10592511286106485        0.0000000000000000     
  -3.0412048036109991E-002  0.11284392743689060        0.0000000000000000     
  -3.1236609475051948E-002  0.11989972290368819        0.0000000000000000     
  -3.2016093135714720E-002  0.12709249926145766        0.0000000000000000     
  -3.2750499018098303E-002  0.13442225651019893        0.0000000000000000     
  -3.4691487641127811E-002  0.10621055412185534        0.0000000000000000     
  -3.5708223045299019E-002  0.11311596906785022        0.0000000000000000     
  -3.6672390871098359E-002  0.12015784992244197        0.0000000000000000     
  -3.7583991118525825E-002  0.12733619668563059        0.0000000000000000     
  -3.8443023787581423E-002  0.13465100935741606        0.0000000000000000     
  -3.9925925023803835E-002  0.10654140657469433        0.0000000000000000     
  -4.1091015997037447E-002  0.11343229432892923        0.0000000000000000     
  -4.2195886604623603E-002  0.12045873491614090        0.0000000000000000     
  -4.3240536846562316E-002  0.12762072833632931        0.0000000000000000     
  -4.4224966722853587E-002  0.13491827458949451        0.0000000000000000     
  -2.1633703976499160E-002  0.13408028797034893        0.0000000000000000     
  -2.2093046646170397E-002  0.14155656891757604        0.0000000000000000     
  -2.2526734653365507E-002  0.14914323342795147        0.0000000000000000     
  -2.2934767998084485E-002  0.15684028150147525        0.0000000000000000     
  -2.3317146680327330E-002  0.16464771313814733        0.0000000000000000     
  -2.7147392414404215E-002  0.13423201604784324        0.0000000000000000     
  -2.7723174192917387E-002  0.14169808148860358        0.0000000000000000     
  -2.8267171461275803E-002  0.14927442006271760        0.0000000000000000     
  -2.8779384219479495E-002  0.15696103177018514        0.0000000000000000     
  -2.9259812467528436E-002  0.16475791661100636        0.0000000000000000     
  -3.2750499018098303E-002  0.13442225651019893        0.0000000000000000     
  -3.3443542298084578E-002  0.14187558727176575        0.0000000000000000     
  -3.4098938151555430E-002  0.14943908416801169        0.0000000000000000     
  -3.4716686578510854E-002  0.15711274719893678        0.0000000000000000     
  -3.5296787578950856E-002  0.16489657636454103        0.0000000000000000     
  -3.8443023787581423E-002  0.13465100935741606        0.0000000000000000     
  -3.9254150961672001E-002  0.14208908626706238        0.0000000000000000     
  -4.0022034724204382E-002  0.14963722574383373        0.0000000000000000     
  -4.0746675075178582E-002  0.15729542778773006        0.0000000000000000     
  -4.1428072014594600E-002  0.16506369239875135        0.0000000000000000     
  -4.4224966722853587E-002  0.13491827458949451        0.0000000000000000     
  -4.5155000183679635E-002  0.14233857847449363        0.0000000000000000     
  -4.6036461179222665E-002  0.14986884479018378        0.0000000000000000     
  -4.6869349709482679E-002  0.15750907353656496        0.0000000000000000     
  -4.7653665774459668E-002  0.16525926471363725        0.0000000000000000     
  -2.3317146680327330E-002  0.16464771313814733        0.0000000000000000     
  -2.3671280755279599E-002  0.17255459629855893        0.0000000000000000     
  -2.3994580278126836E-002  0.18054999894330132        0.0000000000000000     
  -2.4287045248869044E-002  0.18863392107237445        0.0000000000000000     
  -2.4548675667506223E-002  0.19680636268577834        0.0000000000000000     
  -2.9259812467528436E-002  0.16475791661100636        0.0000000000000000     
  -2.9705269943286074E-002  0.17265426170641332        0.0000000000000000     
  -3.0112570384615844E-002  0.18063925417763821        0.0000000000000000     
  -3.0481713791517748E-002  0.18871289402468100        0.0000000000000000     
  -3.0812700163991791E-002  0.19687518124754178        0.0000000000000000     
  -3.5296787578950856E-002  0.16489657636454103        0.0000000000000000     
  -3.5835583682402097E-002  0.17277986755574357        0.0000000000000000     
  -3.6329417418391248E-002  0.18075191666346338        0.0000000000000000     
  -3.6778288786918314E-002  0.18881272368770055        0.0000000000000000     
  -3.7182197787983290E-002  0.19696228862845505        0.0000000000000000     
  -4.1428072014594600E-002  0.16506369239875135        0.0000000000000000     
  -4.2062221972627677E-002  0.17293141384654956        0.0000000000000000     
  -4.2645121379453053E-002  0.18088798640077683        0.0000000000000000     
  -4.3176770235070737E-002  0.18893341006143305        0.0000000000000000     
  -4.3657168539480720E-002  0.19706768482851825        0.0000000000000000     
  -4.7653665774459668E-002  0.16525926471363725        0.0000000000000000     
  -4.8385184813962812E-002  0.17310890057883146        0.0000000000000000     
  -4.9059682267801268E-002  0.18104746338957856        0.0000000000000000     
  -4.9677158135975015E-002  0.18907495314587847        0.0000000000000000     
  -5.0237612418484075E-002  0.19719136984773128        0.0000000000000000     
  -2.4548675667506223E-002  0.19680636268577834        0.0000000000000000     
  -2.4780359029069096E-002  0.20505166473173267        0.0000000000000000     
  -2.4982982828588386E-002  0.21335416815845715        0.0000000000000000     
  -2.5156547066064100E-002  0.22171387296595169        0.0000000000000000     
  -2.5301051741496237E-002  0.23013077915421631        0.0000000000000000     
  -3.0812700163991791E-002  0.19687518124754178        0.0000000000000000     
  -3.1106206075303858E-002  0.20511219142361262        0.0000000000000000     
  -3.1362908098719854E-002  0.21341000013028563        0.0000000000000000     
  -3.1582806234239771E-002  0.22176860736756093        0.0000000000000000     
  -3.1765900481863611E-002  0.23018801313543844        0.0000000000000000     
  -3.7182197787983290E-002  0.19696228862845505        0.0000000000000000     
  -3.7541325780585409E-002  0.20518842268625267        0.0000000000000000     
  -3.7855854123723928E-002  0.21347893706161927        0.0000000000000000     
  -3.8125782817398826E-002  0.22183383175455479        0.0000000000000000     
  -3.8351111861610124E-002  0.23025310676505920        0.0000000000000000     
  -4.3657168539480720E-002  0.19706768482851825        0.0000000000000000     
  -4.4085718144913751E-002  0.20528035851965298        0.0000000000000000     
  -4.4461820903600610E-002  0.21356097895245799        0.0000000000000000     
  -4.4785476815541264E-002  0.22190954612693325        0.0000000000000000     
  -4.5056685880735761E-002  0.23032606004307862        0.0000000000000000     
  -5.0237612418484075E-002  0.19719136984773128        0.0000000000000000     
  -5.0739383168288903E-002  0.20538799892381354        0.0000000000000000     
  -5.1180808438349906E-002  0.21365612580280188        0.0000000000000000     
  -5.1561888228667120E-002  0.22199575048469630        0.0000000000000000     
  -5.1882622539240517E-002  0.23040687296949677        0.0000000000000000     
  -2.5301051741496237E-002  0.23013077915421631        0.0000000000000000     
  -2.5422734714582559E-002  0.23857753537100521        0.0000000000000000     
  -2.5527833845020824E-002  0.24702679026407251        0.0000000000000000     
  -2.5616349132811037E-002  0.25547854383341811        0.0000000000000000     
  -2.5688280577953190E-002  0.26393279607904219        0.0000000000000000     
  -3.1765900481863611E-002  0.23018801313543844        0.0000000000000000     
  -3.1920030765802271E-002  0.23864341915283946        0.0000000000000000     
  -3.2053037010266613E-002  0.24711002713868555        0.0000000000000000     
  -3.2164919215256646E-002  0.25558783709297650        0.0000000000000000     
  -3.2255677380772382E-002  0.26407684901571249        0.0000000000000000     
  -3.8351111861610124E-002  0.23025310676505920        0.0000000000000000     
  -3.8540495234028617E-002  0.23871599517827849        0.0000000000000000     
  -3.8702586912325122E-002  0.24720173007935872        0.0000000000000000     
  -3.8837386896499626E-002  0.25571031146829976        0.0000000000000000     
  -3.8944895186552142E-002  0.26424173934510170        0.0000000000000000     
  -4.5056685880735761E-002  0.23032606004307862        0.0000000000000000     
  -4.5284128119261594E-002  0.23879526344732221        0.0000000000000000     
  -4.5476483551196337E-002  0.24730189908609196        0.0000000000000000     
  -4.5633752176539963E-002  0.25584596695938777        0.0000000000000000     
  -4.5755933995292507E-002  0.26442746706720982        0.0000000000000000     
  -5.1882622539240517E-002  0.23040687296949677        0.0000000000000000     
  -5.2150929421501201E-002  0.23888122395997072        0.0000000000000000     
  -5.2374726926880250E-002  0.24741053415888534        0.0000000000000000     
  -5.2554015055377663E-002  0.25599480356624066        0.0000000000000000     
  -5.2688793806993435E-002  0.26463403218203674        0.0000000000000000     
  -2.5688280577953190E-002  0.26393279607904219        0.0000000000000000     
  -2.5755826309290845E-002  0.27233437066848765        0.0000000000000000     
  -2.5831184455667535E-002  0.28062809126929755        0.0000000000000000     
  -2.5914355017083258E-002  0.28881395788147185        0.0000000000000000     
  -2.6005337993538026E-002  0.29689197050501065        0.0000000000000000     
  -3.2255677380772382E-002  0.26407684901571249        0.0000000000000000     
  -3.2340140659024116E-002  0.27252415039090500        0.0000000000000000     
  -3.2433138202222218E-002  0.28087682870256581        0.0000000000000000     
  -3.2534670010366661E-002  0.28913488395069487        0.0000000000000000     
  -3.2644736083457450E-002  0.29729831613529223        0.0000000000000000     
  -3.8944895186552142E-002  0.26424173934510170        0.0000000000000000     
  -3.9043932964190037E-002  0.27274484193730753        0.0000000000000000     
  -3.9153321411120635E-002  0.28116844747246034        0.0000000000000000     
  -3.9273060527343966E-002  0.28951255595056014        0.0000000000000000     
  -3.9403150312860027E-002  0.29777716737160681        0.0000000000000000     
  -4.5755933995292507E-002  0.26442746706720982        0.0000000000000000     
  -4.5867203224788558E-002  0.27299644530769501        0.0000000000000000     
  -4.5991734082362803E-002  0.28150294757898098        0.0000000000000000     
  -4.6129526568015188E-002  0.28994697388106744        0.0000000000000000     
  -4.6280580681745759E-002  0.29832852421395450        0.0000000000000000     
  -5.2688793806993435E-002  0.26463403218203674        0.0000000000000000     
  -5.2809951440819736E-002  0.27327896050206774        0.0000000000000000     
  -5.2948376215948702E-002  0.28188032902212778        0.0000000000000000     
  -5.3104068132380326E-002  0.29043813774221700        0.0000000000000000     
  -5.3277027190114637E-002  0.29895238666233526        0.0000000000000000     
  -2.8925046473327221E-002   5.7184416750892461E-002   0.0000000000000000     
  -3.0527239097603780E-002   6.2735378065245040E-002   0.0000000000000000     
  -3.2052302529011312E-002   6.8471339322843244E-002   0.0000000000000000     
  -3.3500236767549811E-002   7.4392300523687116E-002   0.0000000000000000     
  -3.4871041813219275E-002   8.0498261667776627E-002   0.0000000000000000     
  -3.2893400665482457E-002   5.7648702375025916E-002   0.0000000000000000     
  -3.4697089071421661E-002   6.3212572581314158E-002   0.0000000000000000     
  -3.6413381568856297E-002   6.8950961601068353E-002   0.0000000000000000     
  -3.8042278157786387E-002   7.4863869434288480E-002   0.0000000000000000     
  -3.9583778838211903E-002   8.0951296080974594E-002   0.0000000000000000     
  -3.7014216873837762E-002   5.8192870606046658E-002   0.0000000000000000     
  -3.9018208315830374E-002   6.3750028794004751E-002   0.0000000000000000     
  -4.0924505894576191E-002   6.9477652026248435E-002   0.0000000000000000     
  -4.2733109610075197E-002   7.5375740302777661E-002   0.0000000000000000     
  -4.4444019462327421E-002   8.1444293623592456E-002   0.0000000000000000     
  -4.1287495098393141E-002   5.8816921443954694E-002   0.0000000000000000     
  -4.3490596830829904E-002   6.4347746703316847E-002   0.0000000000000000     
  -4.5585675506170938E-002   7.0051410598383490E-002   0.0000000000000000     
  -4.7572731124416262E-002   7.5927913129154631E-002   0.0000000000000000     
  -4.9451763685565850E-002   8.1977254295630270E-002   0.0000000000000000     
  -4.5713235339148575E-002   5.9520854888750016E-002   0.0000000000000000     
  -4.8114254616420257E-002   6.5005726309250417E-002   0.0000000000000000     
  -5.0396890403640593E-002   7.0672237317473546E-002   0.0000000000000000     
  -5.2561142700809568E-002   7.6520387913419405E-002   0.0000000000000000     
  -5.4607011507927176E-002   8.2550178097087992E-002   0.0000000000000000     
  -3.4871041813219275E-002   8.0498261667776627E-002   0.0000000000000000     
  -3.6186152350807035E-002   8.6774804061243244E-002   0.0000000000000000     
  -3.7467003065100375E-002   9.3207509010218376E-002   0.0000000000000000     
  -3.8713593956099308E-002   9.9796376514702093E-002   0.0000000000000000     
  -3.9925925023803835E-002  0.10654140657469433        0.0000000000000000     
  -3.9583778838211903E-002   8.0951296080974594E-002   0.0000000000000000     
  -4.1062789286235184E-002   8.7205091550967090E-002   0.0000000000000000     
  -4.2504215177958569E-002   9.3617105854106528E-002   0.0000000000000000     
  -4.3908056513382046E-002  0.10018733899039282        0.0000000000000000     
  -4.5274313292505648E-002  0.10691579095982603        0.0000000000000000     
  -4.4444019462327421E-002   8.1444293623592456E-002   0.0000000000000000     
  -4.6085643234704946E-002   8.7677603905429544E-002   0.0000000000000000     
  -4.7686388710579883E-002   9.4069963065025616E-002   0.0000000000000000     
  -4.9246255889952205E-002  0.10062137110238065        0.0000000000000000     
  -5.0765244772821939E-002  0.10733182801749472        0.0000000000000000     
  -4.9451763685565850E-002   8.1977254295630270E-002   0.0000000000000000     
  -5.1254714196216321E-002   8.8192341124630563E-002   0.0000000000000000     
  -5.3013523662964288E-002   9.4566080642975656E-002   0.0000000000000000     
  -5.4728192085809771E-002  0.10109847285066559        0.0000000000000000     
  -5.6398719464752757E-002  0.10778951774770036        0.0000000000000000     
  -5.4607011507927176E-002   8.2550178097087992E-002   0.0000000000000000     
  -5.6570002170769310E-002   8.8749303208570135E-002   0.0000000000000000     
  -5.8485620035111839E-002   9.5105458587956687E-002   0.0000000000000000     
  -6.0353865100954751E-002  0.10161864423524763        0.0000000000000000     
  -6.2174737368298053E-002  0.10828886015044298        0.0000000000000000     
  -3.9925925023803835E-002  0.10654140657469433        0.0000000000000000     
  -4.1091015997037447E-002  0.11343229432892923        0.0000000000000000     
  -4.2195886604623603E-002  0.12045873491614090        0.0000000000000000     
  -4.3240536846562316E-002  0.12762072833632931        0.0000000000000000     
  -4.4224966722853587E-002  0.13491827458949451        0.0000000000000000     
  -4.5274313292505648E-002  0.10691579095982603        0.0000000000000000     
  -4.6587893836237695E-002  0.11379066174217692        0.0000000000000000     
  -4.7833706465486563E-002  0.12080015131721626        0.0000000000000000     
  -4.9011751180252271E-002  0.12794425968494405        0.0000000000000000     
  -5.0122027980534778E-002  0.13522298684536030        0.0000000000000000     
  -5.0765244772821939E-002  0.10733182801749472        0.0000000000000000     
  -5.2226323507812214E-002  0.11418882982964265        0.0000000000000000     
  -5.3612460243546142E-002  0.12117987255809941        0.0000000000000000     
  -5.4923654980023752E-002  0.12830495620286492        0.0000000000000000     
  -5.6159907717245022E-002  0.13556408076393925        0.0000000000000000     
  -5.6398719464752757E-002  0.10778951774770036        0.0000000000000000     
  -5.8006305011761017E-002  0.11462679859132643        0.0000000000000000     
  -5.9532147938802349E-002  0.12159789863879029        0.0000000000000000     
  -6.0976248245876781E-002  0.12870281789009194        0.0000000000000000     
  -6.2338605932984278E-002  0.13594155634523136        0.0000000000000000     
  -6.2174737368298053E-002  0.10828886015044298        0.0000000000000000     
  -6.3927838348084090E-002  0.11510456802722825        0.0000000000000000     
  -6.5592769551255176E-002  0.12205422955928896        0.0000000000000000     
  -6.7169530977811351E-002  0.12913784474662510        0.0000000000000000     
  -6.8658122627752588E-002  0.13635541358923670        0.0000000000000000     
  -4.4224966722853587E-002  0.13491827458949451        0.0000000000000000     
  -4.5155000183679635E-002  0.14233857847449363        0.0000000000000000     
  -4.6036461179222665E-002  0.14986884479018378        0.0000000000000000     
  -4.6869349709482679E-002  0.15750907353656496        0.0000000000000000     
  -4.7653665774459668E-002  0.16525926471363725        0.0000000000000000     
  -5.0122027980534778E-002  0.13522298684536030        0.0000000000000000     
  -5.1171643011276455E-002  0.14262392771333318        0.0000000000000000     
  -5.2167702417419574E-002  0.15013467720373097        0.0000000000000000     
  -5.3110206198964151E-002  0.15775523531655367        0.0000000000000000     
  -5.3999154355910177E-002  0.16548560205180124        0.0000000000000000     
  -5.6159907717245022E-002  0.13556408076393925        0.0000000000000000     
  -5.7329632491631421E-002  0.14294499780285491        0.0000000000000000     
  -5.8441243339604425E-002  0.15043545888114457        0.0000000000000000     
  -5.9494740261164025E-002  0.15803546399880819        0.0000000000000000     
  -6.0490123256310223E-002  0.16574501315584578        0.0000000000000000     
  -6.2338605932984278E-002  0.13594155634523136        0.0000000000000000     
  -6.3628968624744542E-002  0.14330178874305885        0.0000000000000000     
  -6.4857083945777202E-002  0.15077118982242460        0.0000000000000000     
  -6.6022951896082302E-002  0.15834975958332856        0.0000000000000000     
  -6.7126572475659799E-002  0.16603749802577078        0.0000000000000000     
  -6.8658122627752588E-002  0.13635541358923670        0.0000000000000000     
  -7.0069651410615802E-002  0.14369430053394494        0.0000000000000000     
  -7.1415224235937921E-002  0.15114187002757096        0.0000000000000000     
  -7.2694841103718974E-002  0.15869812207011477        0.0000000000000000     
  -7.3908502013958946E-002  0.16636305666157636        0.0000000000000000     
  -4.7653665774459668E-002  0.16525926471363725        0.0000000000000000     
  -4.8385184813962812E-002  0.17310890057883146        0.0000000000000000     
  -4.9059682267801268E-002  0.18104746338957856        0.0000000000000000     
  -4.9677158135975015E-002  0.18907495314587847        0.0000000000000000     
  -5.0237612418484075E-002  0.19719136984773128        0.0000000000000000     
  -5.3999154355910177E-002  0.16548560205180124        0.0000000000000000     
  -5.4830143530931325E-002  0.17331539293821771        0.0000000000000000     
  -5.5598770366701251E-002  0.18123422350454715        0.0000000000000000     
  -5.6305034863219958E-002  0.18924209375078954        0.0000000000000000     
  -5.6948937020487450E-002  0.19733900367694493        0.0000000000000000     
  -6.0490123256310223E-002  0.16574501315584578        0.0000000000000000     
  -6.1422769448057017E-002  0.17355395611033692        0.0000000000000000     
  -6.2288055959418387E-002  0.18145214262036130        0.0000000000000000     
  -6.3085982790394346E-002  0.18943957268591893        0.0000000000000000     
  -6.3816549940984874E-002  0.19751624630700984        0.0000000000000000     
  -6.7126572475659799E-002  0.16603749802577078        0.0000000000000000     
  -6.8163062565339896E-002  0.17382459009518902        0.0000000000000000     
  -6.9127539045952674E-002  0.18170122073702102        0.0000000000000000     
  -7.0020001917498187E-002  0.18966738995126667        0.0000000000000000     
  -7.0840451179976394E-002  0.19772309773792604        0.0000000000000000     
  -7.3908502013958946E-002  0.16636305666157636        0.0000000000000000     
  -7.5051022882779955E-002  0.17412729489277409        0.0000000000000000     
  -7.6117219626304120E-002  0.18198145785452621        0.0000000000000000     
  -7.7107092244531453E-002  0.18992554554683269        0.0000000000000000     
  -7.8020640737461955E-002  0.19795955796969358        0.0000000000000000     
  -5.0237612418484075E-002  0.19719136984773128        0.0000000000000000     
  -5.0739383168288903E-002  0.20538799892381354        0.0000000000000000     
  -5.1180808438349906E-002  0.21365612580280188        0.0000000000000000     
  -5.1561888228667120E-002  0.22199575048469630        0.0000000000000000     
  -5.1882622539240517E-002  0.23040687296949677        0.0000000000000000     
  -5.6948937020487450E-002  0.19733900367694493        0.0000000000000000     
  -5.7528121953824861E-002  0.20551762569158602        0.0000000000000000     
  -5.8040234778553336E-002  0.21377063220328571        0.0000000000000000     
  -5.8485275494672868E-002  0.22209802321204394        0.0000000000000000     
  -5.8863244102183472E-002  0.23049979871786083        0.0000000000000000     
  -6.3816549940984874E-002  0.19751624630700984        0.0000000000000000     
  -6.4477735604635669E-002  0.20567552061582220        0.0000000000000000     
  -6.5067517974792419E-002  0.21391075274454430        0.0000000000000000     
  -6.5585897051455080E-002  0.22222194269317622        0.0000000000000000     
  -6.6032872834623682E-002  0.23060909046171787        0.0000000000000000     
  -7.0840451179976394E-002  0.19772309773792604        0.0000000000000000     
  -7.1588224120721369E-002  0.20586168369652214        0.0000000000000000     
  -7.2262658027067134E-002  0.21407648742657778        0.0000000000000000     
  -7.2863752899013784E-002  0.22236750892809309        0.0000000000000000     
  -7.3391508736561181E-002  0.23073474820106796        0.0000000000000000     
  -7.8020640737461955E-002  0.19795955796969358        0.0000000000000000     
  -7.8859587502081899E-002  0.20607611493368572        0.0000000000000000     
  -7.9625654935377543E-002  0.21426783624938606        0.0000000000000000     
  -8.0318843037348889E-002  0.22253472191679452        0.0000000000000000     
  -8.0939151807995921E-002  0.23087677193591113        0.0000000000000000     
  -5.1882622539240517E-002  0.23040687296949677        0.0000000000000000     
  -5.2150929421501201E-002  0.23888122395997072        0.0000000000000000     
  -5.2374726926880250E-002  0.24741053415888534        0.0000000000000000     
  -5.2554015055377663E-002  0.25599480356624066        0.0000000000000000     
  -5.2688793806993435E-002  0.26463403218203674        0.0000000000000000     
  -5.8863244102183472E-002  0.23049979871786083        0.0000000000000000     
  -5.9180020070931386E-002  0.23897529665071632        0.0000000000000000     
  -5.9441482870762875E-002  0.24752385494059057        0.0000000000000000     
  -5.9647632501677920E-002  0.25614547358748352        0.0000000000000000     
  -5.9798468963676563E-002  0.26484015259139526        0.0000000000000000     
  -6.6032872834623682E-002  0.23060909046171787        0.0000000000000000     
  -6.6410520997736103E-002  0.23907890145405150        0.0000000000000000     
  -6.6720917214230208E-002  0.24763808107405941        0.0000000000000000     
  -6.6964061484105997E-002  0.25628662932174151        0.0000000000000000     
  -6.7139953807363470E-002  0.26502454619709792        0.0000000000000000     
  -7.3391508736561181E-002  0.23073474820106796        0.0000000000000000     
  -7.3842432201915345E-002  0.23919203836997630        0.0000000000000000     
  -7.4213029957282239E-002  0.24775321255929189        0.0000000000000000     
  -7.4503302002661850E-002  0.25641827076901469        0.0000000000000000     
  -7.4713248338054150E-002  0.26518721299914466        0.0000000000000000     
  -8.0939151807995921E-002  0.23087677193591113        0.0000000000000000     
  -8.1475753683469126E-002  0.23931470739849067        0.0000000000000000     
  -8.1917821099918978E-002  0.24786924939628793        0.0000000000000000     
  -8.2265354057345488E-002  0.25654039792930283        0.0000000000000000     
  -8.2518352555748645E-002  0.26532815299753554        0.0000000000000000     
  -5.2688793806993435E-002  0.26463403218203674        0.0000000000000000     
  -5.2809951440819736E-002  0.27327896050206774        0.0000000000000000     
  -5.2948376215948702E-002  0.28188032902212778        0.0000000000000000     
  -5.3104068132380326E-002  0.29043813774221700        0.0000000000000000     
  -5.3277027190114637E-002  0.29895238666233526        0.0000000000000000     
  -5.9798468963676563E-002  0.26484015259139526        0.0000000000000000     
  -5.9930934613830665E-002  0.27356368255049396        0.0000000000000000     
  -6.0081971809212181E-002  0.28227185406294791        0.0000000000000000     
  -6.0251580549821090E-002  0.29096466712875707        0.0000000000000000     
  -6.0439760835657386E-002  0.29964212174792154        0.0000000000000000     
  -6.7139953807363470E-002  0.26502454619709792        0.0000000000000000     
  -6.7288909745368539E-002  0.27382190648304222        0.0000000000000000     
  -6.7451244859487114E-002  0.28264878496248835        0.0000000000000000     
  -6.7626959149719168E-002  0.29150518163543626        0.0000000000000000     
  -6.7816052616064756E-002  0.30039109650188583        0.0000000000000000     
  -7.4713248338054150E-002  0.26518721299914466        0.0000000000000000     
  -7.4883876835433322E-002  0.27405363229971258        0.0000000000000000     
  -7.5056195366773479E-002  0.28301112172074916        0.0000000000000000     
  -7.5230203932074594E-002  0.29205968126225434        0.0000000000000000     
  -7.5405902531336708E-002  0.30119931092422814        0.0000000000000000     
  -8.2518352555748645E-002  0.26532815299753554        0.0000000000000000     
  -8.2715835884025049E-002  0.27425886000050503        0.0000000000000000     
  -8.2896823331071276E-002  0.28335886433773033        0.0000000000000000     
  -8.3061314896887353E-002  0.29262816600921149        0.0000000000000000     
  -8.3209310581473267E-002  0.30206676501494845        0.0000000000000000     
  -4.5713235339148575E-002   5.9520854888750016E-002   0.0000000000000000     
  -4.8114254616420257E-002   6.5005726309250417E-002   0.0000000000000000     
  -5.0396890403640593E-002   7.0672237317473546E-002   0.0000000000000000     
  -5.2561142700809568E-002   7.6520387913419405E-002   0.0000000000000000     
  -5.4607011507927176E-002   8.2550178097087992E-002   0.0000000000000000     
  -5.0310290058981577E-002   6.0278759583075429E-002   0.0000000000000000     
  -5.2907072313635305E-002   6.5719124238827281E-002   0.0000000000000000     
  -5.5375943569665895E-002   7.1348681769244984E-002   0.0000000000000000     
  -5.7716903827073326E-002   7.7167432174328546E-002   0.0000000000000000     
  -5.9929953085857607E-002   8.3175375454077924E-002   0.0000000000000000     
  -5.5097511720769647E-002   6.1064724169573710E-002   0.0000000000000000     
  -5.7886940563508904E-002   6.6483097119069259E-002   0.0000000000000000     
  -6.0540627986927616E-002   7.2089293539424226E-002   0.0000000000000000     
  -6.3058573991025768E-002   7.7883313430638604E-002   0.0000000000000000     
  -6.5440778575803327E-002   8.3865156792712378E-002   0.0000000000000000     
  -6.0074900324512771E-002   6.1878748648244865E-002   0.0000000000000000     
  -6.3053859366041062E-002   6.7297644949976337E-002   0.0000000000000000     
  -6.5890943655425763E-002   7.2894072628011231E-002   0.0000000000000000     
  -6.8586153192666852E-002   7.8668031682349579E-002   0.0000000000000000     
  -7.1139487977764371E-002   8.4619522112991355E-002   0.0000000000000000     
  -6.5242455870210964E-002   6.2720833019088887E-002   0.0000000000000000     
  -6.8407828721231773E-002   6.8162767731548529E-002   0.0000000000000000     
  -7.1426890575160329E-002   7.3763019035006053E-002   0.0000000000000000     
  -7.4299641431996633E-002   7.9521586929461485E-002   0.0000000000000000     
  -7.7026081291740711E-002   8.5438471414914827E-002   0.0000000000000000     
  -5.4607011507927176E-002   8.2550178097087992E-002   0.0000000000000000     
  -5.6570002170769310E-002   8.8749303208570135E-002   0.0000000000000000     
  -5.8485620035111839E-002   9.5105458587956687E-002   0.0000000000000000     
  -6.0353865100954751E-002  0.10161864423524763        0.0000000000000000     
  -6.2174737368298053E-002  0.10828886015044298        0.0000000000000000     
  -5.9929953085857607E-002   8.3175375454077924E-002   0.0000000000000000     
  -6.2053574323461223E-002   8.9355848339359667E-002   0.0000000000000000     
  -6.4126250517326608E-002   9.5692187561040185E-002   0.0000000000000000     
  -6.6147981667453809E-002  0.10218439311911953        0.0000000000000000     
  -6.8118767773842792E-002  0.10883246501359771        0.0000000000000000     
  -6.5440778575803327E-002   8.3865156792712378E-002   0.0000000000000000     
  -6.7727497819389360E-002   9.0019334699110470E-002   0.0000000000000000     
  -6.9958987799912761E-002   9.6330358223297732E-002   0.0000000000000000     
  -7.2135248517373615E-002  0.10279822736527412        0.0000000000000000     
  -7.4256279971771852E-002  0.10942294212503974        0.0000000000000000     
  -7.1139487977764371E-002   8.4619522112991355E-002   0.0000000000000000     
  -7.3591772658553725E-002   9.0739762287822545E-002   0.0000000000000000     
  -7.5983831882870334E-002   9.7019970574729261E-002   0.0000000000000000     
  -7.8315665650714170E-002  0.10346014697371141        0.0000000000000000     
  -8.0587273962085301E-002  0.11006029148476901        0.0000000000000000     
  -7.7026081291740711E-002   8.5438471414914827E-002   0.0000000000000000     
  -7.9646398840954313E-002   9.1517131105495961E-002   0.0000000000000000     
  -8.2200782766199243E-002   9.7761024615334799E-002   0.0000000000000000     
  -8.4689233067475486E-002  0.10417015194443133        0.0000000000000000     
  -8.7111749744783085E-002  0.11074451309278557        0.0000000000000000     
  -6.2174737368298053E-002  0.10828886015044298        0.0000000000000000     
  -6.3927838348084090E-002  0.11510456802722825        0.0000000000000000     
  -6.5592769551255176E-002  0.12205422955928896        0.0000000000000000     
  -6.7169530977811351E-002  0.12913784474662510        0.0000000000000000     
  -6.8658122627752588E-002  0.13635541358923670        0.0000000000000000     
  -6.8118767773842792E-002  0.10883246501359771        0.0000000000000000     
  -7.0016843747608942E-002  0.11562543817872148        0.0000000000000000     
  -7.1820444499867603E-002  0.12255234754873762        0.0000000000000000     
  -7.3529570030618788E-002  0.12961319312364614        0.0000000000000000     
  -7.5144220339862511E-002  0.13680797490344701        0.0000000000000000     
  -7.4256279971771852E-002  0.10942294212503974        0.0000000000000000     
  -7.6299241441163027E-002  0.11619270908717950        0.0000000000000000     
  -7.8241292203602514E-002  0.12309573483627848        0.0000000000000000     
  -8.0082432259090411E-002  0.13013201937233670        0.0000000000000000     
  -8.1822661607626648E-002  0.13730156269535410        0.0000000000000000     
  -8.0587273962085301E-002  0.11006029148476901        0.0000000000000000     
  -8.2775031428746329E-002  0.11680638075260234        0.0000000000000000     
  -8.4855312662459964E-002  0.12368439142191159        0.0000000000000000     
  -8.6828117663226193E-002  0.13069432349269680        0.0000000000000000     
  -8.8693446431045000E-002  0.13783617696495792        0.0000000000000000     
  -8.7111749744783085E-002  0.11074451309278557        0.0000000000000000     
  -8.9444213710358933E-002  0.11746645317498995        0.0000000000000000     
  -9.1662505876439954E-002  0.12431831730563689        0.0000000000000000     
  -9.3766626243026174E-002  0.13130010548472643        0.0000000000000000     
  -9.5756574810117567E-002  0.13841181771225852        0.0000000000000000     
  -6.8658122627752588E-002  0.13635541358923670        0.0000000000000000     
  -7.0069651410615802E-002  0.14369430053394494        0.0000000000000000     
  -7.1415224235937921E-002  0.15114187002757096        0.0000000000000000     
  -7.2694841103718974E-002  0.15869812207011477        0.0000000000000000     
  -7.3908502013958946E-002  0.16636305666157636        0.0000000000000000     
  -7.5144220339862511E-002  0.13680797490344701        0.0000000000000000     
  -7.6676774192241698E-002  0.14412394835828748        0.0000000000000000     
  -7.8139610352399302E-002  0.15154836895831469        0.0000000000000000     
  -7.9532728820335338E-002  0.15908123670352872        0.0000000000000000     
  -8.0856129596049792E-002  0.16672255159392949        0.0000000000000000     
  -8.1822661607626648E-002  0.13730156269535410        0.0000000000000000     
  -8.3475430312618698E-002  0.14459214739886078        0.0000000000000000     
  -8.5054188437474046E-002  0.15199155607638684        0.0000000000000000     
  -8.6558935982192664E-002  0.15949978872793230        0.0000000000000000     
  -8.7989672946774566E-002  0.16711684535349716        0.0000000000000000     
  -8.8693446431045000E-002  0.13783617696495792        0.0000000000000000     
  -9.0465619771746830E-002  0.14509889765566483        0.0000000000000000     
  -9.2158958491162138E-002  0.15247143138178737        0.0000000000000000     
  -9.3773462589290937E-002  0.15995377814332554        0.0000000000000000     
  -9.5309132066133201E-002  0.16754593794027936        0.0000000000000000     
  -9.5756574810117567E-002  0.13841181771225852        0.0000000000000000     
  -9.7647342569626067E-002  0.14564419912869966        0.0000000000000000     
  -9.9453920513463606E-002  0.15298799487451631        0.0000000000000000     
 -0.10117630864163019       0.16044320494970843        0.0000000000000000     
 -0.10281450695412576       0.16800982935427605        0.0000000000000000     
  -7.3908502013958946E-002  0.16636305666157636        0.0000000000000000     
  -7.5051022882779955E-002  0.17412729489277409        0.0000000000000000     
  -7.6117219626304120E-002  0.18198145785452621        0.0000000000000000     
  -7.7107092244531453E-002  0.18992554554683269        0.0000000000000000     
  -7.8020640737461955E-002  0.19795955796969358        0.0000000000000000     
  -8.0856129596049792E-002  0.16672255159392949        0.0000000000000000     
  -8.2104590745337130E-002  0.17446318106353578        0.0000000000000000     
  -8.3272890333991781E-002  0.18229399254636627        0.0000000000000000     
  -8.4361028362013785E-002  0.19021498604242110        0.0000000000000000     
  -8.5369004829403128E-002  0.19822616155170006        0.0000000000000000     
  -8.7989672946774566E-002  0.16711684535349716        0.0000000000000000     
  -8.9341706497971379E-002  0.17483335916791778        0.0000000000000000     
  -9.0610343802534785E-002  0.18263996338603070        0.0000000000000000     
  -9.1795584860464796E-002  0.19053665800783584        0.0000000000000000     
  -9.2897429671761386E-002  0.19852344303333325        0.0000000000000000     
  -9.5309132066133201E-002  0.16754593794027936        0.0000000000000000     
  -9.6762370140682674E-002  0.17523782920592015        0.0000000000000000     
  -9.8129580031933103E-002  0.18301937037351934        0.0000000000000000     
  -9.9410761739884460E-002  0.19089056144307698        0.0000000000000000     
 -0.10060591526453677       0.19885140241459312        0.0000000000000000     
 -0.10281450695412576       0.16800982935427605        0.0000000000000000     
 -0.10436658167347106       0.17567659117754278        0.0000000000000000     
 -0.10583059902218675       0.18343221350883226        0.0000000000000000     
 -0.10720655900027280       0.19127669634814454        0.0000000000000000     
 -0.10849446160772926       0.19921003969547957        0.0000000000000000     
  -7.8020640737461955E-002  0.19795955796969358        0.0000000000000000     
  -7.8859587502081899E-002  0.20607611493368572        0.0000000000000000     
  -7.9625654935377543E-002  0.21426783624938606        0.0000000000000000     
  -8.0318843037348889E-002  0.22253472191679452        0.0000000000000000     
  -8.0939151807995921E-002  0.23087677193591113        0.0000000000000000     
  -8.5369004829403128E-002  0.19822616155170006        0.0000000000000000     
  -8.6301024446270275E-002  0.20631958315765650        0.0000000000000000     
  -8.7161291922725745E-002  0.21448731494374362        0.0000000000000000     
  -8.7949807258769511E-002  0.22272935690996135        0.0000000000000000     
  -8.8666570454401614E-002  0.23104570905630975        0.0000000000000000     
  -9.2897429671761386E-002  0.19852344303333325        0.0000000000000000     
  -9.3921733650839473E-002  0.20659285719877796        0.0000000000000000     
  -9.4874352212113919E-002  0.21473743924042510        0.0000000000000000     
  -9.5755285355584724E-002  0.22295718915827456        0.0000000000000000     
  -9.6564533081251902E-002  0.23125210695232640        0.0000000000000000     
 -0.10060591526453677       0.19885140241459312        0.0000000000000000     
 -0.10172171511578948       0.20689593705704998        0.0000000000000000     
 -0.10276483580354205       0.21501820913943032        0.0000000000000000     
 -0.10373527732779449       0.22321821866173397        0.0000000000000000     
 -0.10463303968854680       0.23149596562396099        0.0000000000000000     
 -0.10849446160772926       0.19921003969547957        0.0000000000000000     
 -0.10970096884112029       0.20722882273247273        0.0000000000000000     
 -0.11083274269701016       0.21532962464075947        0.0000000000000000     
 -0.11188978317539884       0.22351244542033971        0.0000000000000000     
 -0.11287209027628631       0.23177728507121353        0.0000000000000000     
  -8.0939151807995921E-002  0.23087677193591113        0.0000000000000000     
  -8.1475753683469126E-002  0.23931470739849067        0.0000000000000000     
  -8.1917821099918978E-002  0.24786924939628793        0.0000000000000000     
  -8.2265354057345488E-002  0.25654039792930283        0.0000000000000000     
  -8.2518352555748645E-002  0.26532815299753554        0.0000000000000000     
  -8.8666570454401614E-002  0.23104570905630975        0.0000000000000000     
  -8.9297001409293336E-002  0.23946189664502163        0.0000000000000000     
  -8.9826520023116113E-002  0.24800344493832974        0.0000000000000000     
  -9.0255126295869903E-002  0.25667035393623411        0.0000000000000000     
  -9.0582820227554692E-002  0.26546262363873474        0.0000000000000000     
  -9.6564533081251902E-002  0.23125210695232640        0.0000000000000000     
  -9.7292691346283919E-002  0.23964859421499615        0.0000000000000000     
  -9.7930356107849295E-002  0.24817305253869940        0.0000000000000000     
  -9.8477527365948003E-002  0.25682548192343607        0.0000000000000000     
  -9.8934205120580057E-002  0.26560588236920618        0.0000000000000000     
 -0.10463303968854680       0.23149596562396099        0.0000000000000000     
 -0.10546282349444086       0.23987480010841433        0.0000000000000000     
 -0.10622932935411854       0.24837807219739691        0.0000000000000000     
 -0.10693255726757983       0.25700578189090884        0.0000000000000000     
 -0.10757250723482474       0.26575792918895008        0.0000000000000000     
 -0.11287209027628631       0.23177728507121353        0.0000000000000000     
 -0.11380739785376413       0.24014051432527600        0.0000000000000000     
 -0.11472343976192383       0.24861850391442228        0.0000000000000000     
 -0.11562021600076537       0.25721125383865234        0.0000000000000000     
 -0.11649772657028878       0.26591876409796628        0.0000000000000000     
  -8.2518352555748645E-002  0.26532815299753554        0.0000000000000000     
  -8.2715835884025049E-002  0.27425886000050503        0.0000000000000000     
  -8.2896823331071276E-002  0.28335886433773033        0.0000000000000000     
  -8.3061314896887353E-002  0.29262816600921149        0.0000000000000000     
  -8.3209310581473267E-002  0.30206676501494845        0.0000000000000000     
  -9.0582820227554692E-002  0.26546262363873474        0.0000000000000000     
  -9.0839968306296093E-002  0.27444327186316253        0.0000000000000000     
  -9.1056937020219733E-002  0.28367531642684840        0.0000000000000000     
  -9.1233726369325599E-002  0.29315875732979230        0.0000000000000000     
  -9.1370336353613718E-002  0.30289359457199444        0.0000000000000000     
  -9.8934205120580057E-002  0.26560588236920618        0.0000000000000000     
  -9.9311455517398908E-002  0.27461255016542807        0.0000000000000000     
  -9.9620344702058050E-002  0.28394378160151995        0.0000000000000000     
  -9.9860872674557552E-002  0.29359957667748182        0.0000000000000000     
 -0.10003303943489729       0.30357993539331368        0.0000000000000000     
 -0.10757250723482474       0.26575792918895008        0.0000000000000000     
 -0.10813029751733350       0.27476669490730171        0.0000000000000000     
 -0.10858704637658630       0.28416425986174493        0.0000000000000000     
 -0.10894275381258313       0.29395062405227973        0.0000000000000000     
 -0.10919741982532401       0.30412578747890612        0.0000000000000000     
 -0.11649772657028878       0.26591876409796628        0.0000000000000000     
 -0.11729649430609984       0.27490570608878345        0.0000000000000000     
 -0.11795704204380439       0.28433675120752350        0.0000000000000000     
 -0.11847936978340239       0.29421189945418624        0.0000000000000000     
 -0.11886347752489386       0.30453115082877191        0.0000000000000000     
 </DataArray>
 <DataArray  type="Float64" Name="stress" NumberOfComponents="3" format="ascii">
   6080096224.0194435       -524839009.33614659       -107422337.39112505     
   5845160912.5004969       -339158192.23774362       -88303203.482808217     
   5592487791.3548203       -212603407.22845554       -63839394.568468221     
   5322076860.5823879       -145174654.30834699       -34030910.648108907     
   5033928120.1832123       -136871933.47737980        1122248.2782889355     
   5792743164.0066395       -258155321.32758498        148872400.98427987     
   5547453290.2475023       -154520855.07057476        148346358.44348863     
   5290517525.1490946       -89706026.611172199        153444366.29069650     
   5021935868.7114000       -63710835.949370146        164166424.52590609     
   4741708320.9344187       -76535283.085193157        180512533.14911222     
   5497834755.6797943        6261762.1867578030        371251988.75508314     
   5242988535.0575418        28089342.215491056        358188007.76721710     
   4982588341.3834724        31403678.738157511        351027452.54933381     
   4716634174.6575756        16204771.754741669        349770323.10141444     
   4445126034.8798618       -17507378.734742165        354416619.42346883     
   5195370999.0389233        268412241.20689297        559716425.92126215     
   4931766646.9306211        208672399.62046790        541221744.48837364     
   4668700240.0579462        150725708.81950784        528909864.20742691     
   4406171778.4209166        94572168.804006815        522780785.07842833     
   4144181262.0195270        40211779.573978901        522834507.10136724     
   4885351894.0840359        528296115.73282671        714265712.48283243     
   4613787625.8667307        387228317.14435530        697447568.60695100     
   4348853221.1725254        268260063.63288593        687091601.26498961     
   4090548680.0014229        171391355.19842529        683197810.45693958     
   3838874002.3534212        96622191.840968132        685766196.18280637     
   5033928120.1832123       -136871933.47737980        1122248.2782889355     
   4923972801.3366385       -103339370.07171059       -1588531.9417003202     
   4813143302.7380772       -72720739.172667503       -1308653.9789319839     
   4701439624.3875198       -45016040.780274153        1961882.1665977871     
   4588861766.2849836       -20225274.894478559        8223076.4948902745     
   4741708320.9344187       -76535283.085193157        180512533.14911222     
   4635898306.7534447       -54858635.079672575        175674612.92418066     
   4529981987.2497015       -33536338.150036097        173770710.89006713     
   4423959362.4231853       -12568392.296308517        174800827.04676715     
   4317830432.2738943        8045202.4815037251        178764961.39427236     
   4445126034.8798618       -17507378.734742165        354416619.42346883     
   4343299496.8160582       -7735194.6938853264        348347412.69435763     
   4242134527.8587098        4242219.7018165588        345155584.16410542     
   4141631128.0078001        18424864.452314615        344841133.83272475     
   4041789297.2633390        34812739.557642698        347404061.70019501     
   4144181262.0195270        40211779.573978901        522834507.10136724     
   4046176371.5244808        38030951.085660696        516429867.36882478     
   3949600924.5650954        40614934.382879019        512845965.84319550     
   3854454921.1413770        47963729.465643406        512082802.52448153     
   3760738361.2533140        60077336.333935499        514140377.41267574     
   3838874002.3534212        96622191.840968132        685766196.18280637     
   3744528930.8786998        82439802.258920908        679921976.94758308     
   3652381177.3688641        75581805.893158197        676841855.92733228     
   3562430741.8239040        76048202.743642569        676525833.12203717     
   3474677624.2438197        83838992.810391188        678973908.53171206     
   4588861766.2849836       -20225274.894478559        8223076.4948902745     
   4364493732.4552221       -29835855.902781725        1461402.3695616382     
   4140430014.0856395       -38432052.043848991       -730523.37215209543     
   3916670611.1762295       -46013863.317668915        1647299.2697394653     
   3693215523.7269783       -52581289.724272728        8594870.2952600196     
   4317830432.2738943        8045202.4815037251        178764961.39427236     
   4105215192.3629551       -2989794.9606893063        170718644.84765908     
   3892902280.2199397       -13017033.176471233        167471902.10896638     
   3680891695.8448596       -22036512.165811300        169024733.17818248     
   3469183439.2376990       -30048231.928741217        175377138.05530956     
   4041789297.2633390        34812739.557642698        347404061.70019501     
   3841583495.3406334        22550318.902377367        338070783.75802612     
   3641678033.4936109        11289031.832716942        333766905.04806530     
   3442072911.7222724        1028878.3486809731        334492425.57031047     
   3242768130.0266056       -8230141.5497871637        340247345.32476914     
   3760738361.2533140        60077336.333935499        514140377.41267574     
   3573598641.3882585        46784485.686433077        503517819.10066235     
   3386757273.9066458        34486142.983721256        498154485.44514698     
   3200214258.8084650        23182308.225787401        498050376.44613355     
   3013969596.0937185        12872981.412638664        503205492.10363233     
   3474677624.2438197        83838992.810391188        678973908.53171206     
   3301260630.5058398        69712705.391483426        667059750.87556148     
   3128140001.4590464        56574300.276530385        660634643.30020189     
   2955315737.1034460        44423777.465555906        659698585.80565250     
   2782787837.4390316        33261136.958534956        664251578.39189661     
   3693215523.7269783       -52581289.724272728        8594870.2952600196     
   3535695172.5527086       -39899865.316288233        4560913.1311737001     
   3377520020.1592093       -29401111.639066458        4562778.8455592487     
   3218690066.5464554       -21085028.692695498        8600467.4384467714     
   3059205311.7144856       -14951616.477043629        16673978.909812566     
   3469183439.2376990       -30048231.928741217        175377138.05530956     
   3321115629.1188722       -19379958.387938261        169624267.83791962     
   3172473750.1489940       -10625247.683993816        167571333.44635057     
   3023257802.3280611       -3784099.8168812990        169218334.88060170     
   2873467785.6560693        1143485.2133573294        174565272.14067498     
   3242768130.0266056       -8230141.5497871637        340247345.32476914     
   3103193183.6699057        137077.93585228920        332869749.81694418     
   2963124900.8303256        6859842.4785698652        328856203.08228517     
   2822563281.5078635        11938152.078351736        328206705.12077844     
   2681508325.7025256        15372006.735193133        330921255.93243062     
   3013969596.0937185        12872981.412638664        503205492.10363233     
   2881927836.2058096        18651243.655120850        494297359.06826013     
   2749473472.2032013        23054158.848596811        488417387.75337785     
   2616606504.0858874        26081726.993058205        485565578.15898496     
   2483326931.8538733        27733948.088516593        485741930.28508753     
   2782787837.4390316        33261136.958534956        664251578.39189661     
   2657319586.7265873        36162538.769854784        653907095.59185207     
   2531519464.2676072        37957701.426056862        646254887.45962858     
   2405387470.0621176        38646624.927226543        641294953.99523091     
   2278923604.1100936        38229309.273281813        639027295.19864988     
   3059205311.7144856       -14951616.477043629        16673978.909812566     
   2890875452.2104521       -12260882.605023861        10147843.595062703     
   2722680077.2606449       -9121866.8855909109        4909975.1509317476     
   2554619186.8650002       -5534569.3189404011        960373.57740945509     
   2386692781.0235600       -1498989.9049516916       -1700961.1254939281     
   2873467785.6560693        1143485.2133573294        174565272.14067498     
   2708199407.1823854        909935.65275239944        166302338.99242750     
   2543163805.6584430        1452309.2579574585        159780959.01983231     
   2378360981.0842323        2770606.0289437771        155001132.22288105     
   2213790933.4597707        4864825.9657605886        151962858.60156029     
   2681508325.7025256        15372006.735193133        330921255.93243062     
   2520596531.9878244        12602704.860556960        321036199.41217691     
   2360015807.6184006        10936967.470192075        313345982.37258577     
   2199766152.5942640        10374794.564107418        307850604.81365174     
   2039847566.9154060        10916186.142287016        304550066.73538601     
   2483326931.8538733        27733948.088516593        485741930.28508753     
   2328066826.6267734        22817425.018392682        474349424.85428911     
   2173236083.1405139        19332107.751067519        465605045.20917016     
   2018834701.3950710        17277996.286476970        459508791.34973115     
   1864862681.3904674        16655090.624661207        456060663.27599132     
   2278923604.1100936        38229309.273281813        639027295.19864988     
   2130610291.0992489        31554096.126319885        626242015.31877434     
   1982824632.2247725        26637730.100578308        616558147.52960134     
   1835566627.4866693        23480211.196081877        609975691.83113515     
   1688836276.8849428        22081539.412846148        606494648.22337508     
   2386692781.0235600       -1498989.9049516916       -1700961.1254939281     
   2246002966.6747303        6077805.8493989706       -7172292.5415667733     
   2102126078.0305600        3031020.6192585230       -10944288.562086103     
   1955062115.0910330       -10639345.595393658       -13016949.187032701     
   1804811077.8561530       -34933292.794555783       -13390274.416433470     
   2213790933.4597707        4864825.9657605886        151962858.60156029     
   2076512981.6846082        12231044.765997887        142647902.98523703     
   1937079859.6247239        12413362.617184043        134306716.32711244     
   1795491567.2801423        5411779.5193690062        126939298.62718457     
   1651748104.6508598       -8773704.5274492502        120545649.88546436     
   2039847566.9154060        10916186.142287016        304550066.73538601     
   1903908430.7500038        17449913.899218678        292595374.93123329     
   1766846028.3105435        20239420.742617965        280888885.64792752     
   1628660359.5970223        19284706.672489047        269430598.88545340     
   1489351424.6094465        14585771.688834548        258220514.64382374     
   1864862681.3904674        16655090.624661207        456060663.27599132     
   1728189313.8709440        21734413.249119759        442670123.29643375     
   1591424584.0880115        26509194.995540559        428802219.40035802     
   1454568492.0416672        30979435.863938928        414456951.58776742     
   1317621037.7319167        35145135.854290009        399634319.85865718     
   1688836276.8849428        22081539.412846148        606494648.22337508     
   1549355631.0474126        25084542.815665901        592872148.08083117     
   1410815526.9571261        31222685.375957131        578046717.58441627     
   1273215964.6140752        40495967.093704343        562018356.73412585     
   1136556944.0182636        52904387.968915105        544787065.52994764     
   1804811077.8561530       -34933292.794555783       -13390274.416433470     
   1773110143.9548159       -16286114.582394242       -8204643.9379761359     
   1749459643.3013129        29195841.122559905       -41637022.446261443     
   1733859575.8956480        101512574.32030177       -113687409.94131756     
   1726309941.7378316        200664085.01087189       -224355806.42311120     
   1651748104.6508598       -8773704.5274492502        120545649.88546436     
   1528664810.8258023       -13701406.444352567        135785697.45597097     
   1409754092.6625350       -4720522.8219444156        124789987.94783886     
   1295015950.1611166        18168946.339961171        87558521.361075014     
   1184450383.3215036        54967001.041206062        24091297.695663437     
   1489351424.6094465        14585771.688834548        258220514.64382374     
   1310263633.4552634       -3303451.5788186193        278990812.12269336     
   1131470560.3768849       -20210281.260458767        285907604.43103510     
   952972205.37429821       -36134717.356132567        278970891.56885225     
   774768568.44752407       -51076759.865748554        258180673.53617102     
   1317621037.7319167        35145135.854290009        399634319.85865718     
   1117906611.8432426        14907750.014322400        421410700.06218648     
   914609046.44434392       -17273434.193059564        441715827.00332177     
   707728341.53522944       -61398416.767827928        460549700.68205142     
   497264497.11589319       -117467197.71000192        477912321.09837723     
   1136556944.0182636        52904387.968915105        544787065.52994764     
   951593745.98970509        40932198.334971726        563045361.27446890     
   759169550.86491549        4090018.3802635074        592214655.66469765     
   559284358.64388418       -57622151.895262033        632294948.70064402     
   351938169.32662183       -144204312.49154076        683286240.38230300     
   1726309941.7378316        200664085.01087189       -224355806.42311120     
   1456142938.7937994        184445886.29482174       -96627767.119870603     
   1153803855.0608325        60987418.282322705        60181494.794207491     
   819292690.53889346       -169711319.02677220        246071979.31914485     
   452609445.22799587       -507650325.63235152        461043686.45496327     
   1184450383.3215036        54967001.041206062        24091297.695663437     
   977506232.07340181        11807327.593823075        155592021.68129194     
   732734019.78365040       -157445882.65905854        312861749.29864210     
   450133746.45222938       -452792629.71750557        495900480.54768324     
   129705412.07917321       -874232913.58142519        704708215.42842555     
   774768568.44752407       -51076759.865748554        258180673.53617102     
   621583786.09777939       -124016952.88378304        386855438.57603538     
   424914962.45368314       -341903950.21631694        537986988.26847684     
   184762097.51522338       -704737751.86336851        711575322.61345267     
  -98874808.717570662       -1212518357.8249285        907620441.61101913     
   497264497.11589319       -117467197.71000192        477912321.09837723     
   388375600.86695439       -223026955.13791659        597162483.56434023     
   230346683.07095474       -492386784.38935632        735557211.70370781     
   23177743.727901459       -925546685.46432614        893096505.51651251     
  -233131217.16219467       -1522506658.3627694        1069780365.0027183     
   351938169.32662183       -144204312.49154076        683286240.38230300     
   277881676.38091409       -285222679.16864800        786513156.64620602     
   149029181.63546318       -608894385.17823291        905572419.60437703     
  -34619314.909760475       -1115219430.5203712        1040464029.2568257     
  -273063813.25471497       -1804197815.1949790        1191187985.6035488     
   4885351894.0840359        528296115.73282671        714265712.48283243     
   4613787625.8667307        387228317.14435530        697447568.60695100     
   4348853221.1725254        268260063.63288593        687091601.26498961     
   4090548680.0014229        171391355.19842529        683197810.45693958     
   3838874002.3534212        96622191.840968132        685766196.18280637     
   4426024455.1079435        302421890.24273705        789118556.00844121     
   4189819251.6934752        221243753.40532184        778022428.62888968     
   3956592872.6689649        149995031.20111704        773842714.15966940     
   3726345318.0344248        88675723.630127192        776579412.60077894     
   3499076587.7898464        37285830.692347527        786232523.95221341     
   3966382245.7285175        76453233.631647348        885055765.55794919     
   3766833925.3352056        55554104.010783911        875422109.01940227     
   3566613390.1987233        32414258.579337120        873159101.76759350     
   3365720640.3190646        7033697.3373136520        878266743.80253017     
   3164155675.6962347       -20587579.715287447        890745035.12421167     
   3506425265.9457698       -149609854.10043979        1002077341.1313505     
   3344831646.7919431       -109840631.03925538        989646609.77847409     
   3178914773.7618041       -84482254.232441187        985040764.08875906     
   3008674646.8553548       -73534723.679999828        988259804.06219852     
   2834111266.0725923       -76998039.381933570        999303729.69879246     
   3046153515.7596893       -375767372.95352507        1140183282.7286427     
   2923812416.0636702       -274940451.74479294        1120695930.9061203     
   2793497023.3582010       -200694507.23422635        1109487701.1231637     
   2655207337.6432819       -153029539.42182684        1106558593.3797784     
   2508943358.9189167       -131945548.30758297        1111908607.6759615     
   3838874002.3534212        96622191.840968132        685766196.18280637     
   3744528930.8786998        82439802.258920908        679921976.94758308     
   3652381177.3688641        75581805.893158197        676841855.92733228     
   3562430741.8239040        76048202.743642569        676525833.12203717     
   3474677624.2438197        83838992.810391188        678973908.53171206     
   3499076587.7898464        37285830.692347527        786232523.95221341     
   3415434220.8677440        35425166.088475943        784047221.46329784     
   3333060053.2944789        37791832.647379994        784487195.42031205     
   3251954085.0700402        44385830.369053006        787552445.82326424     
   3172116316.1944351        55207159.253490567        793242972.67215371     
   3164155675.6962347       -20587579.715287447        890745035.12421167     
   3090819379.7009521       -10245509.428723812        891134677.66287351     
   3017822164.4384556        1226829.9671136141        894010774.87844038     
   2945164029.9087391        13829438.472225547        899373326.77090633     
   2872844976.1118054        27562316.086611509        907222333.34028065     
   2834111266.0725923       -76998039.381933570        999303729.69879246     
   2770684407.3783283       -54572224.292676330        1001184345.5463139     
   2706667510.8007998       -34113202.147635937        1005412594.3017050     
   2642060576.3400002       -15620972.946824074        1011988475.9649736     
   2576863603.9959364        904463.30975973606        1020911990.5361116     
   2508943358.9189167       -131945548.30758297        1111908607.6759615     
   2455029303.8998675       -97554978.503373027        1114196225.1136162     
   2399596092.3814979       -68228263.696897626        1118692653.6901126     
   2342643724.3638210       -43965403.888111234        1125397893.4054482     
   2284172199.8468232       -24766399.077058554        1134311944.2596276     
   3474677624.2438197        83838992.810391188        678973908.53171206     
   3301260630.5058398        69712705.391483426        667059750.87556148     
   3128140001.4590464        56574300.276530385        660634643.30020189     
   2955315737.1034460        44423777.465555906        659698585.80565250     
   2782787837.4390316        33261136.958534956        664251578.39189661     
   3172116316.1944351        55207159.253490567        793242972.67215371     
   3013871903.4514642        44809011.472924590        782715371.55739367     
   2855877434.1037526        35244008.343235016        777509596.59530616     
   2698132908.1513100        26512149.864431500        777625647.78588319     
   2540638325.5941253        18613436.036495566        783063525.12911761     
   2872844976.1118054        27562316.086611509        907222333.34028065     
   2729295361.7120371        20748973.148859620        898027130.58834207     
   2585949269.4116011        14614037.208891273        893986530.06092942     
   2442806699.2105017        9157508.2667120695        895100531.75805473     
   2299867651.1087437        4379386.3223286867        901369135.67970645     
   2576863603.9959364        904463.30975973606        1020911990.5361116     
   2447531005.2875557       -2467409.5807297230        1012995027.9684019     
   2318355507.3825860       -5315613.1265109777        1010065443.6970922     
   2189337110.2810225       -7640147.3276067972        1012123237.7221824     
   2060475813.9828699       -9441012.1839998960        1019168410.0436678     
   2284172199.8468232       -24766399.077058554        1134311944.2596276     
   2168578834.1780224       -24840136.715827703        1127619063.6975706     
   2053096148.0167055       -24544942.662984371        1125746337.5037830     
   1937724141.3628705       -23880816.918534636        1128693765.6782565     
   1822462814.2165241       -22847759.482450128        1136461348.2209971     
   2782787837.4390316        33261136.958534956        664251578.39189661     
   2657319586.7265873        36162538.769854784        653907095.59185207     
   2531519464.2676072        37957701.426056862        646254887.45962858     
   2405387470.0621176        38646624.927226543        641294953.99523091     
   2278923604.1100936        38229309.273281813        639027295.19864988     
   2540638325.5941253        18613436.036495566        783063525.12911761     
   2422943497.2957578        22882722.157452822        773089634.26042819     
   2305149103.8468909        26820124.443434119        766087358.81712031     
   2187255145.2475381        30425642.894456506        762056698.79920781     
   2069261621.4976954        33699277.510505438        760997654.20669651     
   2299867651.1087437        4379386.3223286867        901369135.67970645     
   2190744361.6746302        10255991.687966585        892036861.10441422     
   2081753813.6860666        16575068.538765669        885955542.71207261     
   1972896007.1430440        23336616.874708652        883125180.50269043     
   1864170942.0455701        30540636.695800662        883545774.47626674     
   2060475813.9828699       -9441012.1839998960        1019168410.0436678     
   1960722179.8632159       -1717652.6385948658        1010748776.1238083     
   1861333593.7851362        7222533.7120687962        1005859439.1444724     
   1762310055.7486339        17379546.867984414        1004500399.1056563     
   1663651565.7537172        28753386.829186082        1006671656.0073713     
   1822462814.2165241       -22847759.482450128        1136461348.2209971     
   1732876951.8615017       -13038210.822259426        1129225379.3186154     
   1643888444.1441045       -1237480.0366586447        1125799048.1143215     
   1555497291.0643096        12554432.874291062        1126182354.6081181     
   1467703492.6221385        28337527.910640478        1130375298.8000076     
   2278923604.1100936        38229309.273281813        639027295.19864988     
   2130610291.0992489        31554096.126319885        626242015.31877434     
   1982824632.2247725        26637730.100578308        616558147.52960134     
   1835566627.4866693        23480211.196081877        609975691.83113515     
   1688836276.8849428        22081539.412846148        606494648.22337508     
   2069261621.4976954        33699277.510505438        760997654.20669651     
   1930459396.8150291        30960604.160155416        750369268.83747137     
   1791908584.9620521        29059973.575448632        743047260.90770304     
   1653609185.9387569        27997385.756341338        739031630.41737151     
   1515561199.7451558        27772840.702882051        738322377.36647761     
   1864170942.0455701        30540636.695800662        883545774.47626674     
   1735465420.9731824        31914187.726719737        874752002.09324694     
   1606735071.4237955        33204977.167645752        869469572.49840808     
   1477979893.3974125        34413005.018571377        867698485.69173670     
   1349199886.8940299        35538271.279509485        869438741.67324412     
   1663651565.7537172        28753386.829186082        1006671656.0073713     
   1545628363.5737052        34414846.825993121        999390215.08608437     
   1427304091.6100147        39072740.877195060        995825082.30170679     
   1308678749.8626387        42727068.982789159        995976257.65423775     
   1189752338.3315797        45377831.142763019        999843741.14367878     
   1467703492.6221385        28337527.910640478        1130375298.8000076     
   1360948224.6166003        38462581.457968116        1124283907.8159888     
   1253615645.5206966        46663264.704078257        1122113790.3176107     
   1145705755.3344195        52939577.648940325        1123864946.3048775     
   1037218554.0577784        57291520.292577803        1129537375.7777834     
   1688836276.8849428        22081539.412846148        606494648.22337508     
   1549355631.0474126        25084542.815665901        592872148.08083117     
   1410815526.9571261        31222685.375957131        578046717.58441627     
   1273215964.6140752        40495967.093704343        562018356.73412585     
   1136556944.0182636        52904387.968915105        544787065.52994764     
   1515561199.7451558        27772840.702882051        738322377.36647761     
   1374210472.5314486        27182208.767512083        728660287.96642351     
   1233020245.9545107        27126578.954728842        719591905.24737978     
   1091990520.0143344        27605951.264496922        711117229.20935464     
   951121294.71095061        28620325.696871877        703236259.85233343     
   1349199886.8940299        35538271.279509485        869438741.67324412     
   1211112326.9752541        32893978.607289135        862827015.05346930     
   1072405226.5827807        28184551.022752941        858605632.14959073     
   933078585.71662009        21409988.525910676        856774592.96161866     
   793132404.37676549        12570291.116776884        857333897.48954666     
   1189752338.3315797        45377831.142763019        999843741.14367878     
   1060061194.3788443        42219852.335001647        995372329.34197497     
   928970468.84195328        34396601.580047846        995087898.29105270     
   796480161.72090590        21908078.877917856        998990447.99093437     
   662590273.01571298        4754284.2286200523        1007079978.4416009     
   1037218554.0577784        57291520.292577803        1129537375.7777834     
   921057074.74221587        55159829.950651884        1126296230.8319290     
   802715972.73202312        45762730.626621813        1129038703.6717620     
   682195248.02721274        29100222.320540518        1137764794.2972827     
   559494900.62778640        5172305.0323942602        1152474502.7084756     
   1136556944.0182636        52904387.968915105        544787065.52994764     
   951593745.98970509        40932198.334971726        563045361.27446890     
   759169550.86491549        4090018.3802635074        592214655.66469765     
   559284358.64388418       -57622151.895262033        632294948.70064402     
   351938169.32662183       -144204312.49154076        683286240.38230300     
   951121294.71095061        28620325.696871877        703236259.85233343     
   791820241.53638172        11299037.632572681        721305879.77867663     
   623915095.98748708       -34702558.346150845        749439019.81553829     
   447405858.06425482       -109384462.23934716        787635679.96292126     
   262292527.76667422       -212746674.04700455        835895860.22081184     
   793132404.37676549        12570291.116776884        857333897.48954666     
   657072128.81276822       -10826505.550901830        873881230.43994153     
   511264665.59633732       -66713927.726689875        899644604.96565175     
   355710014.72747183       -155091975.41059881        934624021.06667709     
   190408176.20617276       -275960648.60261124        978819478.74301898     
   662590273.01571298        4754284.2286200523        1007079978.4416009     
   547349407.81885946       -25444431.215470701        1020771413.2582613     
   421218259.69146580       -91944089.761334598        1042831411.1150289     
   284196828.63354409       -194744691.40898362        1073259972.0119179     
   136285114.64508578       -333846236.15839857        1112057095.9489343     
   559494900.62778640        5172305.0323942602        1152474502.7084756     
   462652078.55464804       -32554739.361130416        1161976428.2336156     
   353775878.27287126       -110393044.45011126        1178999438.2636790     
   232866299.78247184       -228342610.23450893        1203543532.7986584     
   99923343.083432406       -386403436.71436250        1235608711.8385470     
   351938169.32662183       -144204312.49154076        683286240.38230300     
   277881676.38091409       -285222679.16864800        786513156.64620602     
   149029181.63546318       -608894385.17823291        905572419.60437703     
  -34619314.909760475       -1115219430.5203712        1040464029.2568257     
  -273063813.25471497       -1804197815.1949790        1191187985.6035488     
   262292527.76667422       -212746674.04700455        835895860.22081184     
   223599200.24751398       -352329579.56503421        885171536.38243032     
   140665990.67812744       -639378758.58380175        945486040.52580452     
   13492899.058509290       -1073894211.1033330        1016839372.6509211     
  -157920074.61131752       -1655875937.1235821        1099231532.7577820     
   190408176.20617276       -275960648.60261124        978819478.74301898     
   173382246.36347345       -418216823.28661573        986459387.84348333     
   122672554.22008631       -672752205.63958812        1000344606.2131674     
   38279099.776004493       -1039566795.6615372        1020475133.8520691     
  -79798116.968769968       -1518660593.3524535        1046850970.7602081     
   136285114.64508578       -333846236.15839857        1112057095.9489343     
   127230814.72879624       -482884410.33339334        1090376711.0293550     
   95048872.261339664       -709014726.34558320        1070148116.6664735     
   39739287.242727041       -1012237184.1949681        1051371312.8603047     
  -38697940.327055156       -1392551783.8815746        1034046299.6108240     
   99923343.083432406       -386403436.71436250        1235608711.8385470     
   85144905.343480915       -546332340.70534909        1196923505.9400566     
   57794944.801888704       -748166320.70178795        1154896571.8857367     
   17873461.458671689       -991905376.70364559        1109527909.6755879     
  -34619544.686170518       -1277549508.7109318        1060817519.3096186     
   3046153515.7596893       -375767372.95352507        1140183282.7286427     
   2923812416.0636702       -274940451.74479294        1120695930.9061203     
   2793497023.3582010       -200694507.23422635        1109487701.1231637     
   2655207337.6432819       -153029539.42182684        1106558593.3797784     
   2508943358.9189167       -131945548.30758297        1111908607.6759615     
   2707963089.1045094       -190337664.32532442        1258606236.0331731     
   2587309876.1574788       -154864073.99714446        1231984100.1805222     
   2464203247.1021004       -127568537.36344814        1213462754.6061127     
   2338643201.9383817       -108451054.42422307        1203042199.3099413     
   2210629740.6663160       -97511625.179486156        1200722434.2920129     
   2367021840.0757651       -5733202.4091964960        1348478025.1561949     
   2247546994.5596366       -35765798.756989002        1321162128.3247073     
   2131139609.8362672       -55573525.795580506        1301768690.0101302     
   2017799685.9056604       -65156383.524967432        1290297710.2124641     
   1907527222.7678123       -64514371.945153832        1286749188.9317074     
   2023329768.6734543        178046012.79486465        1409798650.0977051     
   1904523771.2701445        82354373.975671172        1388230015.3386743     
   1794306111.5606980        15290527.469359994        1374405507.3352187     
   1692676789.5451186       -23145526.724060178        1368325126.0873454     
   1599635805.2234054       -32953788.604593933        1369988871.5950544     
   1676886874.8975763        360999981.28685248        1442568110.8577101     
   1558240206.2889991        199496444.20083535        1433187761.2224166     
   1453702752.2753923        85023622.431380570        1431373206.5813768     
   1363274512.8567598        17581515.978509605        1437124446.9345877     
   1286955488.0330951       -2829875.1578051448        1450441482.2820492     
   2508943358.9189167       -131945548.30758297        1111908607.6759615     
   2455029303.8998675       -97554978.503373027        1114196225.1136162     
   2399596092.3814979       -68228263.696897626        1118692653.6901126     
   2342643724.3638210       -43965403.888111234        1125397893.4054482     
   2284172199.8468232       -24766399.077058554        1134311944.2596276     
   2210629740.6663160       -97511625.179486156        1200722434.2920129     
   2161104745.8358498       -68839531.130591273        1199781928.8662474     
   2110199842.8532908       -44767130.922004938        1201328460.6979320     
   2057915031.7186399       -25294424.553729296        1205362029.7870681     
   2004250312.4318950       -10421412.025755048        1211882636.1336517     
   1907527222.7678123       -64514371.945153832        1286749188.9317074     
   1863186219.8933783       -41322274.121342421        1282743017.0476222     
   1817604557.2140749       -22265708.980428338        1281502108.5395920     
   1770782234.7299047       -7344676.5224068165        1283026463.4076200     
   1722719252.4408648        3440823.2527210712        1287316081.6517038     
   1599635805.2234054       -32953788.604593933        1369988871.5950544     
   1561273726.0724540       -15003207.475627601        1363079489.6577408     
   1521810235.4638548       -723997.87215119600        1359213597.2150888     
   1481245333.3976142        9883840.2058474422        1358391194.2671018     
   1439579019.8737264        16820306.758364856        1360612280.8137767     
   1286955488.0330951       -2829875.1578051448        1450441482.2820492     
   1255367264.3730714        10117668.806541383        1440791346.6966000     
   1222816877.6026342        19858002.402835608        1434462926.7244232     
   1189304327.7217653        26391125.631029189        1431456222.3655148     
   1154829614.7304833        29717038.491177201        1431771233.6198778     
   2284172199.8468232       -24766399.077058554        1134311944.2596276     
   2168578834.1780224       -24840136.715827703        1127619063.6975706     
   2053096148.0167055       -24544942.662984371        1125746337.5037830     
   1937724141.3628705       -23880816.918534636        1128693765.6782565     
   1822462814.2165241       -22847759.482450128        1136461348.2209971     
   2004250312.4318950       -10421412.025755048        1211882636.1336517     
   1901041626.3464096       -12196115.151491046        1204949147.8141344     
   1798036238.1180115       -13293158.753594518        1203114712.2258921     
   1695234147.7467020       -13712542.832068205        1206379329.3689253     
   1592635355.2324872       -13454267.386898160        1214742999.2432389     
   1722719252.4408648        3440823.2527210712        1287316081.6517038     
   1632692098.4044359        204210.37973761559        1280250040.3159273     
   1542960860.5747032       -2046015.1375913024        1278561950.0744405     
   1453525538.9516664       -3309853.2992684245        1282251810.9272404     
   1364386133.5353270       -3587304.1052867770        1291319622.8743291     
   1439579019.8737264        16820306.758364856        1360612280.8137767     
   1363530250.3521020        12360839.877859652        1353521741.2029552     
   1287870015.3867791        9196488.1850233078        1352088051.0494320     
   1212598314.9777613        7327251.6798704863        1356311210.3532062     
   1137715149.1250460        6753130.3623902202        1366191219.1142764     
   1154829614.7304833        29717038.491177201        1431771233.6198778     
   1093556082.1894107        24273773.342874587        1424764250.4752142     
   1032763702.5542463        20434351.214266121        1423693015.1508613     
   972452475.82499230        18198772.105358720        1428557527.6468155     
   912622402.00164235        17567036.016137123        1439357787.9630811     
   1822462814.2165241       -22847759.482450128        1136461348.2209971     
   1732876951.8615017       -13038210.822259426        1129225379.3186154     
   1643888444.1441045       -1237480.0366586447        1125799048.1143215     
   1555497291.0643096        12554432.874291062        1126182354.6081181     
   1467703492.6221385        28337527.910640478        1130375298.8000076     
   1592635355.2324872       -13454267.386898160        1214742999.2432389     
   1512641879.4582014       -5407279.1197414994        1208759746.9556549     
   1433109139.5411284        4175495.3381147981        1206752360.5843298     
   1354037135.4812613        15294055.986660659        1208720840.1292555     
   1275425867.2786000        27948402.825896621        1214665185.5904369     
   1364386133.5353270       -3587304.1052867770        1291319622.8743291     
   1294459982.1079617        2839605.0986946225        1286429698.6244082     
   1224857947.7573986        10346904.558675349        1285681868.5089073     
   1155580030.4836326        18934594.274646223        1289076132.5278211     
   1086626230.2866688        28602674.246631563        1296612490.6811557     
   1137715149.1250460        6753130.3623902202        1366191219.1142764     
   1078331259.8107786        11702441.833037853        1362235234.3248742     
   1019134868.7929103        17276747.625001669        1362587571.8880563     
   960125976.07143128        23476047.738265097        1367248231.8038208     
   901304581.64634395        30300342.172843426        1376217214.0721586     
   912622402.00164235        17567036.016137123        1439357787.9630811     
   864255712.56666183        21181231.083314210        1436176354.0570574     
   815939902.64766443        24965024.537104040        1437469470.7217784     
   767674972.24465132        28918416.377511144        1443237137.9572458     
   719460921.35762680        33041406.604544252        1453479355.7634556     
   1467703492.6221385        28337527.910640478        1130375298.8000076     
   1360948224.6166003        38462581.457968116        1124283907.8159888     
   1253615645.5206966        46663264.704078257        1122113790.3176107     
   1145705755.3344195        52939577.648940325        1123864946.3048775     
   1037218554.0577784        57291520.292577803        1129537375.7777834     
   1275425867.2786000        27948402.825896621        1214665185.5904369     
   1178570771.0859785        35087730.610437214        1209400450.7669935     
   1081227332.0090840        40599248.780734837        1208518972.8746402     
   983395550.04791331        44482957.336780608        1212020751.9133689     
   885075425.20247340        46738856.278590351        1219905787.8831909     
   1086626230.2866688        28602674.246631563        1296612490.6811557     
   1000991258.6082287        33152262.078746200        1292278208.2587354     
   914956912.25161433        36370600.983620167        1292789166.2128477     
   828523191.21682489        38257690.961239338        1298145364.5434961     
   741690095.50386095        38813532.011614025        1308346803.2506788     
   901304581.64634395        30300342.172843426        1376217214.0721586     
   828209687.18336165        32656175.862937480        1372917180.2912147     
   754804386.24829876        33977321.312765479        1374924370.3322406     
   681088678.84115791        34263778.522334576        1382238784.1952472     
   607062564.96193898        33515547.491639823        1394860421.8802364     
   719460921.35762680        33041406.604544252        1453479355.7634556     
   660226056.81136680        33599471.962973744        1451317366.8644223     
   600769753.99912965        33419409.768146396        1454924585.2328150     
   541092012.92090940        32501220.020043254        1464301010.8686340     
   481192833.57670814        30844902.718672976        1479446643.7718670     
   1037218554.0577784        57291520.292577803        1129537375.7777834     
   921057074.74221587        55159829.950651884        1126296230.8319290     
   802715972.73202312        45762730.626621813        1129038703.6717620     
   682195248.02721274        29100222.320540518        1137764794.2972827     
   559494900.62778640        5172305.0323942602        1152474502.7084756     
   885075425.20247340        46738856.278590351        1219905787.8831909     
   784200785.51934588        44181291.120722413        1217131787.4397542     
   681146064.77650106        34356789.097125053        1220231555.4238770     
   575911262.97394204        17265350.207815766        1229205091.8355651     
   468496380.11166579       -7093025.5472229719        1244052396.6748064     
   741690095.50386095        38813532.011614025        1308346803.2506788     
   655788440.14424527        35735935.445135444        1306039412.5503790     
   567706245.35981631        25389874.129274458        1309495940.9195197     
   477443511.15058047        7775348.0640641749        1318716388.3580945     
   385000237.51653433       -17107642.750523463        1333700754.8661041     
   607062564.96193898        33515547.491639823        1394860421.8802364     
   535820038.61690772        29823762.923868209        1393019106.1638024     
   462396514.48197252        18861985.723078623        1396831860.1586783     
   386791992.55713540        630215.88929064572        1406298683.8648677     
   309006472.84238946       -24871546.577537999        1421419577.2823720     
   481192833.57670814        30844902.718672976        1479446643.7718670     
   424295580.93733847        26444773.556938127        1478070868.2800219     
   365216872.14296556        14773123.878533870        1482239313.1413639     
   303956707.19359553       -4170046.3165312856        1491951978.3558922     
   240515086.08922940       -30384737.028250411        1507208863.9236088     
   559494900.62778640        5172305.0323942602        1152474502.7084756     
   462652078.55464804       -32554739.361130416        1161976428.2336156     
   353775878.27287126       -110393044.45011126        1178999438.2636790     
   232866299.78247184       -228342610.23450893        1203543532.7986584     
   99923343.083432406       -386403436.71436250        1235608711.8385470     
   468496380.11166579       -7093025.5472229719        1244052396.6748064     
   390727314.15992963       -41298978.231718525        1242632892.7610495     
   302781413.66178936       -109427712.73756389        1247551864.8105896     
   204658678.61722606       -211479229.06482095        1258809312.8234506     
   96359109.026262939       -347453527.21341068        1276405236.7996056     
   385000237.51653433       -17107642.750523463        1333700754.8661041     
   322926046.13875073       -48806168.190204874        1323525789.1193643     
   252531563.87676629       -108238996.57721809        1318506690.7943206     
   173816790.73059499       -195406127.91152167        1318643459.8909717     
   86781726.700231925       -310307562.19313401        1323936096.4093187     
   309006472.84238946       -24871546.577537999        1421419577.2823720     
   259248274.49108511       -55076309.236670509        1404655117.3085759     
   203026328.91781059       -106826895.96903582        1391863916.2148604     
   140340636.12256381       -180123306.77464253        1383045974.0012310     
   71191196.105337009       -274965541.65352148        1378201290.6676924     
   240515086.08922940       -30384737.028250411        1507208863.9236088     
   199693999.21695453       -60109401.371042341        1486020877.3286729     
   154265708.78491569       -105191410.91305028        1467623541.0722182     
   104230214.79312994       -165630765.65421459        1452016855.1542301     
   49587517.241596207       -241427465.59453607        1439200819.5747170     
   99923343.083432406       -386403436.71436250        1235608711.8385470     
   85144905.343480915       -546332340.70534909        1196923505.9400566     
   57794944.801888704       -748166320.70178795        1154896571.8857367     
   17873461.458671689       -991905376.70364559        1109527909.6755879     
  -34619544.686170518       -1277549508.7109318        1060817519.3096186     
   96359109.026262939       -347453527.21341068        1276405236.7996056     
   79545544.818455100       -488659577.82588768        1222048895.4651566     
   51363175.105097592       -667761646.79018319        1165148141.9162288     
   11811999.886200845       -884759734.10628009        1105702976.1527843     
  -39107980.838251889       -1139653839.7742417        1043713398.1748750     
   86781726.700231925       -310307562.19313401        1323936096.4093187     
   70211081.571246207       -432107345.76306129        1255311789.8176801     
   43474348.232792974       -587794090.03120661        1184940386.9528761     
   6571526.6848686337       -777367794.99759662        1112821887.8149242     
  -40497383.072522342       -1000828460.6621947        1038956292.4038082     
   71191196.105337009       -274965541.65352148        1378201290.6676924     
   57141515.601846948       -376675644.51688862        1296712188.9976070     
   34128464.184963375       -508263650.42490041        1214273306.9957132     
   2152041.8546925783       -669729559.37752771        1130884644.6619973     
  -38787751.388972700       -861073371.37481534        1046546201.9964471     
   49587517.241596207       -241427465.59453607        1439200819.5747170     
   40336846.910247713       -322364474.08740926        1346250093.0049713     
   23325522.961612582       -429170327.97124064        1253146902.0447388     
  -1446454.6043494940       -561845027.24615622        1159891246.6939936     
  -33979085.787611187       -720388571.91207910        1066483126.9527868     
   1676886874.8975763        360999981.28685248        1442568110.8577101     
   1558240206.2889991        199496444.20083535        1433187761.2224166     
   1453702752.2753923        85023622.431380570        1431373206.5813768     
   1363274512.8567598        17581515.978509605        1437124446.9345877     
   1286955488.0330951       -2829875.1578051448        1450441482.2820492     
   1232932646.0109670        216385287.24142140        1416174614.2439287     
   1155748592.2297223        128762460.91372851        1420584281.0943670     
   1085689345.3395605        64888990.889646292        1432273077.2581217     
   1022754905.3404890        24764877.169197083        1451241002.7351890     
   966945272.23249841        8390119.7523545623        1477488057.5255682     
   793397950.81769311        73096453.303989232        1417486865.5766945     
   756857467.06109798        59108624.293814987        1427538073.2583330     
   720457382.49170530        45588792.574308008        1444581744.5723472     
   684197697.10951304        32536958.145474583        1468617879.5187352     
   648078410.91451931        19953121.007301211        1499646478.0975006     
   358282789.31775260       -68866520.525442064        1446504864.8560057     
   361566830.78312957       -9465065.6589013934        1454049137.7143068     
   358006863.73182458        27123027.485362262        1468299208.5240507     
   347602888.16383255        40897758.907336608        1489255077.2852309     
   330354904.07915652        31859128.607031941        1516916743.9978459     
  -72412838.488852531       -209503634.24687278        1503228612.0818629     
  -30123316.604181729       -76958608.944417283        1500117474.4622962     
  -1662210.9400801011        9491695.6228076555        1503425469.1132350     
   12970478.503451452        49847279.454799704        1513152596.0346718     
   13774751.726409728        44108142.551547490        1529298855.2266047     
   1286955488.0330951       -2829875.1578051448        1450441482.2820492     
   1255367264.3730714        10117668.806541383        1440791346.6966000     
   1222816877.6026342        19858002.402835608        1434462926.7244232     
   1189304327.7217653        26391125.631029189        1431456222.3655148     
   1154829614.7304833        29717038.491177201        1431771233.6198778     
   966945272.23249841        8390119.7523545623        1477488057.5255682     
   941094304.42328238        11714700.566585124        1467635859.4733238     
   915181214.54151154        14832207.805633128        1461095903.3430724     
   889206002.58717954        17742641.469478905        1457868189.1348104     
   863168668.56029642        20446001.558152318        1457952716.8485434     
   648078410.91451931        19953121.007301211        1499646478.0975006     
   627937631.26673567        13646618.364595801        1490642265.4559708     
   608634770.58426142        10133178.939589113        1484940821.0451527     
   590169828.86709619        9412802.7322793901        1482542144.8650434     
   572542806.11524010        11485489.742664963        1483446236.9156494     
   330354904.07915652        31859128.607031941        1516916743.9978459     
   315897244.90343612        15913422.200586885        1509810564.6445417     
   303177545.73089010        5760915.8047237098        1505997679.8306668     
   292195806.56151521        1401609.4194305986        1505478089.5562236     
   282952027.39531386        2835503.0447157621        1508251793.8212118     
   13774751.726409728        44108142.551547490        1529298855.2266047     
   4973145.3333799280        18515112.074545979        1525140757.0390332     
  -1190460.0186130500        1715418.4010012427        1524266479.6996114     
  -4716064.3295639325       -6290938.4690703647        1526676023.2083404     
  -5603667.5994793866       -5503958.5356902005        1532369387.5652223     
   1154829614.7304833        29717038.491177201        1431771233.6198778     
   1093556082.1894107        24273773.342874587        1424764250.4752142     
   1032763702.5542463        20434351.214266121        1423693015.1508613     
   972452475.82499230        18198772.105358720        1428557527.6468155     
   912622402.00164235        17567036.016137123        1439357787.9630811     
   863168668.56029642        20446001.558152318        1457952716.8485434     
   818099047.79634941        17721165.420800209        1451716049.7718287     
   773277146.77204657        15822061.748924464        1451380852.6239154     
   728702965.48739982        14748690.542572618        1456947125.4047952     
   684376503.94240081        14501051.801712036        1468414868.1144845     
   572542806.11524010        11485489.742664963        1483446236.9156494     
   543579160.29552996        11449701.566386640        1477707547.2129169     
   514629801.04921085        11461535.301411450        1477836049.5474730     
   485694728.37628067        11520990.947731793        1483831743.9193215     
   456773942.27673960        11628068.505351186        1495694630.3284552     
   282952027.39531386        2835503.0447157621        1508251793.8212118     
   269996419.68695617        5459381.7796526402        1502738742.7984917     
   256821665.38572833        7352771.8716896772        1503058605.9215477     
   243427764.49163139        8515673.3208303154        1509211383.1903818     
   229814717.00466290        8948086.1270639375        1521197074.6049981     
  -5603667.5994793866       -5503958.5356902005        1532369387.5652223     
  -2649174.0293729529       -249793.93940795795        1526809636.5285435     
  -147260.21839233721        3495771.4597889171        1527048521.7461314     
   1902073.8334543852        5732737.6618728144        1533086043.2179878     
   3498828.1261731386        6461104.6668627886        1544922200.9441154     
   912622402.00164235        17567036.016137123        1439357787.9630811     
   864255712.56666183        21181231.083314210        1436176354.0570574     
   815939902.64766443        24965024.537104040        1437469470.7217784     
   767674972.24465132        28918416.377511144        1443237137.9572458     
   719460921.35762680        33041406.604544252        1453479355.7634556     
   684376503.94240081        14501051.801712036        1468414868.1144845     
   647415989.23733699        16850788.127426922        1465551190.7451057     
   610463309.30773354        19226640.371348560        1467278741.5375636     
   573518464.15360141        21628608.533504993        1473597520.4918575     
   536581453.77493417        24056692.613874972        1484507527.6079931     
   456773942.27673960        11628068.505351186        1495694630.3284552     
   431552966.84756857        12813355.453399897        1493098490.6317835     
   406296781.45334107        13881275.851261213        1495210256.6880424     
   381005386.09406018        14831829.698944777        1502029928.4972277     
   355678780.76972747        15665016.996454746        1513557506.0593421     
   229814717.00466290        8948086.1270639375        1521197074.6049981     
   216666645.39735967        9068933.0612407476        1518818253.7170992     
   203440319.08448339        8928930.9768376648        1521264016.1732113     
   190135738.06602797        8528079.8738405779        1528534361.9733465     
   176752902.34199998        7866379.7522666603        1540629291.1175001     
   3498828.1261731386        6461104.6668627886        1544922200.9441154     
   2757024.8867126652        5617520.9509568224        1542710480.0010390     
   1893922.2011566204        4369605.7480642311        1545440019.9930725     
   909520.06950285344        2717359.0581795801        1553110820.9202154     
  -196181.50823577924        660780.88134606997        1565722882.7824712     
   719460921.35762680        33041406.604544252        1453479355.7634556     
   660226056.81136680        33599471.962973744        1451317366.8644223     
   600769753.99912965        33419409.768146396        1454924585.2328150     
   541092012.92090940        32501220.020043254        1464301010.8686340     
   481192833.57670814        30844902.718672976        1479446643.7718670     
   536581453.77493417        24056692.613874972        1484507527.6079931     
   492173729.13888782        24091497.598078340        1482839102.7836511     
   447657907.20937055        23765978.270710751        1486927715.3245702     
   403033987.98640263        23080134.631839037        1496773365.2307434     
   358301971.46996731        22033966.681409031        1512376052.5021703     
   355678780.76972747        15665016.996454746        1513557506.0593421     
   326063424.89483714        15166130.261693075        1512514876.4442983     
   296453312.69900233        14684722.457113177        1517217114.2923467     
   266848444.18222275        14220793.582719728        1527664219.6034844     
   237248819.34450310        13774343.638524771        1543856192.3777063     
   176752902.34199998        7866379.7522666603        1540629291.1175001     
   161895144.07922253        6823369.9538478106        1540344687.8463645     
   147155970.46801114        6175642.3273183256        1545792782.1361430     
   132535381.50837773        5923196.8727141097        1556973573.9868450     
   118033377.20031923        6066033.5900262557        1573887063.3984652     
  -196181.50823577924        660780.88134606997        1565722882.7824712     
  -331113.30796255055       -936783.32547858881        1566328536.9898419     
  -234119.48359718634       -1761262.1186600204        1572654718.8559651     
   94799.964859192376       -1812655.4982064716        1584701428.3808398     
   655645.03741470654       -1090963.4640884444        1602468665.5644629     
   481192833.57670814        30844902.718672976        1479446643.7718670     
   424295580.93733847        26444773.556938127        1478070868.2800219     
   365216872.14296556        14773123.878533870        1482239313.1413639     
   303956707.19359553       -4170046.3165312856        1491951978.3558922     
   240515086.08922940       -30384737.028250411        1507208863.9236088     
   358301971.46996731        22033966.681409031        1512376052.5021703     
   316101280.40020925        19068062.107002899        1509346395.7898622     
   272242224.47581059        10574274.683790609        1511746591.1808321     
   226724803.69674993       -3447395.5882941931        1519576638.6751001     
   179549018.06304646       -22996948.709185816        1532836538.2726486     
   237248819.34450310        13774343.638524771        1543856192.3777063     
   209417923.41607767        12144633.722986929        1539782927.6286676     
   180451753.93334997        6730678.6264423206        1541025146.7330160     
   150350310.89631659       -2467521.6511200964        1547582849.6907501     
   119113594.30498435       -15449967.109681636        1559456036.5018642     
   118033377.20031923        6066033.5900262557        1573887063.3984652     
   104245509.98493436        5674488.4048674591        1569380463.7964439     
   89845460.515587926        3242335.7065036111        1570074979.7979076     
   74833228.792290896       -1230424.5050303675        1575970611.4028521     
   59208814.815039136       -7743792.2297440469        1587067358.6112759     
   655645.03741470654       -1090963.4640884444        1602468665.5644629     
   584040.10677509848       -342373.84737344994        1598139004.2931941     
   423344.22253040021        109245.92399124330        1598896090.3755033     
   173557.38467361164        263895.84998230240        1604739923.8113956     
  -165320.40678634570        121575.93062946555        1615670504.6008685     
   240515086.08922940       -30384737.028250411        1507208863.9236088     
   199693999.21695453       -60109401.371042341        1486020877.3286729     
   154265708.78491569       -105191410.91305028        1467623541.0722182     
   104230214.79312994       -165630765.65421459        1452016855.1542301     
   49587517.241596207       -241427465.59453607        1439200819.5747170     
   179549018.06304646       -22996948.709185816        1532836538.2726486     
   148332645.05606884       -45506211.786284223        1507205224.6684449     
   113666372.89656246       -79515138.705148056        1484506409.5608447     
   75550201.584530324       -125023729.46576437        1464740092.9498420     
   33984131.119962908       -182031984.06816223        1447906274.8354232     
   119113594.30498435       -15449967.109681636        1559456036.5018642     
   97907215.615077585       -30622244.785554454        1530731584.3635044     
   74408242.179868162       -53436504.945767321        1505081478.8798594     
   48616673.999359205       -83892747.590312034        1482505720.0509324     
   20532511.073544718       -121990972.71921057        1463004307.8767154     
   59208814.815039136       -7743792.2297440469        1587067358.6112759     
   48417710.893977374       -15457500.368855696        1556599956.4138472     
   36491316.634845644       -26955509.634868808        1529348749.0292509     
   23429632.037627250       -42237820.027834699        1505313736.4574940     
   9232657.1023432389       -61304431.547687218        1484494918.6985691     
  -165320.40678634570        121575.93062946555        1615670504.6008685     
  -135869.10723109366       -11978.536192754822        1584810340.8194647     
  -84403.738519978680       -72152.772498207574        1557308220.0090199     
  -10924.300657209817       -58946.778296065764        1533164142.1695375     
   84569.206347513711        27639.446377870503        1512378107.3010001     
   49587517.241596207       -241427465.59453607        1439200819.5747170     
   40336846.910247713       -322364474.08740926        1346250093.0049713     
   23325522.961612582       -429170327.97124064        1253146902.0447388     
  -1446454.6043494940       -561845027.24615622        1159891246.6939936     
  -33979085.787611187       -720388571.91207910        1066483126.9527868     
   33984131.119962908       -182031984.06816223        1447906274.8354232     
   29819753.077552244       -241882757.55963087        1347460906.7701278     
   19832948.946525410       -321141618.01315898        1246214481.3941786     
   4023718.7268791199       -419808565.42874926        1144166998.7075696     
  -17607937.581380606       -537883599.80638146        1041318458.7103198     
   20532511.073544718       -121990972.71921057        1463004307.8767154     
   19601302.691023357       -161311447.99803248        1357325563.7660098     
   14785895.748577535       -213579251.80993390        1250197169.4244900     
   6086290.2462089658       -278794384.15491802        1141619124.8521633     
  -6497513.8160805851       -356956845.03296310        1031591430.0490153     
   9232657.1023432389       -61304431.547687218        1484494918.6985691     
   9681495.7506632544       -80650545.402608454        1375844063.9926100     
   8184363.3677693903       -106483229.36157438        1265094966.1356637     
   4741259.9536466151       -138802483.42463803        1152247625.1277418     
  -647814.49171648920       -177608307.59183219        1037302040.9688510     
   84569.206347513711        27639.446377870503        1512378107.3010001     
   60332.256498216986        99950.226734066251        1403016407.4499204     
   28351.804100634396        146449.33192861523        1290907871.5276966     
  -11372.150826796445        167136.76202575167        1176052499.5343359     
  -58839.608279454675        162012.51703393963        1058450291.4698377     
  -72412838.488852531       -209503634.24687278        1503228612.0818629     
  -30123316.604181729       -76958608.944417283        1500117474.4622962     
  -1662210.9400801011        9491695.6228076555        1503425469.1132350     
   12970478.503451452        49847279.454799704        1513152596.0346718     
   13774751.726409728        44108142.551547490        1529298855.2266047     
  -436966067.30527544       -133659200.06507534        1523972677.2335875     
  -393928251.90152127       -54883526.422424719        1507654297.4404955     
  -358755830.17327535       -2325831.6981360018        1497900707.6976926     
  -331448802.12054211        24013884.107778579        1494711908.0051768     
  -312007167.74332118        24135620.995318398        1498087898.3629520     
  -803306006.47610319       -58350778.989594370        1520471451.1383116     
  -759103732.46815085       -33219607.481209129        1497902688.8075950     
  -716803829.59065187       -14429673.074331522        1482044374.3069556     
  -676406297.84360445       -1980975.7689612210        1472896507.6363933     
  -637911137.22700858        4126484.4349057078        1470459088.7959075     
  -1171432656.0013359        16421628.979563475        1492724933.7960355     
  -1125649758.3040750       -11966852.120787799        1470862648.5635898     
  -1075806209.1922092       -26819828.505780876        1455856468.9410195     
  -1021902008.6657363       -28137300.175417960        1447706394.9283113     
  -963937156.72465587       -15919267.129699945        1446412426.5254726     
  -1541346015.8809726        90658023.842398345        1440733125.2067552     
  -1493566329.4092970        8874739.6588409543        1426534176.7084942     
  -1435762968.9779491       -39496297.992488384        1419336991.5998902     
  -1367935934.5869401       -54455089.111603618        1419141569.8809404     
  -1290085226.2362595       -36001633.698485851        1425947911.5516486     
   13774751.726409728        44108142.551547490        1529298855.2266047     
   4973145.3333799280        18515112.074545979        1525140757.0390332     
  -1190460.0186130500        1715418.4010012427        1524266479.6996114     
  -4716064.3295639325       -6290938.4690703647        1526676023.2083404     
  -5603667.5994793866       -5503958.5356902005        1532369387.5652223     
  -312007167.74332118        24135620.995318398        1498087898.3629520     
  -308908108.45020282        9454979.6400833428        1496240758.7013831     
  -304470868.04259413       -765058.00017991662        1497745912.7682915     
  -298695446.52049363       -6524491.9254730195        1502603360.5636771     
  -291581843.88390052       -7823322.1357894838        1510813102.0875399     
  -637911137.22700858        4126484.4349057078        1470459088.7959075     
  -622715775.44681132        416923.24171552062        1469406451.0793712     
  -607482052.47867060       -3164767.3249959052        1471774579.9716363     
  -592209968.32258475       -6618587.2652239799        1477563475.4727075     
  -576899522.97855330       -9944536.5789649487        1486773137.5825820     
  -963937156.72465587       -15919267.129699945        1446412426.5254726     
  -936449855.65644455       -8599057.1205576658        1444637834.1729953     
  -910224013.32684088       -5483709.5734385848        1446352481.3096492     
  -885259629.73583627       -6573224.4883180857        1451556367.9354346     
  -861556704.88343525       -11867601.865209162        1460249494.0503485     
  -1290085226.2362595       -36001633.698485851        1425947911.5516486     
  -1250110349.0791073       -17592961.446749687        1421934907.9822609     
  -1212696750.5871041       -7721884.7455075383        1421479616.7823300     
  -1177844430.7602522       -6388403.5947720408        1424582037.9518566     
  -1145553389.5985444       -13592517.994514823        1431242171.4908390     
  -5603667.5994793866       -5503958.5356902005        1532369387.5652223     
  -2649174.0293729529       -249793.93940795795        1526809636.5285435     
  -147260.21839233721        3495771.4597889171        1527048521.7461314     
   1902073.8334543852        5732737.6618728144        1533086043.2179878     
   3498828.1261731386        6461104.6668627886        1544922200.9441154     
  -291581843.88390052       -7823322.1357894838        1510813102.0875399     
  -274297189.26938319       -4440811.3613720983        1504995771.6042986     
  -257275973.75306895       -1936430.9142979234        1504834925.7829213     
  -240518197.33495951       -310180.79457414150        1510330564.6234069     
  -224023860.01506022        437938.99778430164        1521482688.1257567     
  -576899522.97855330       -9944536.5789649487        1486773137.5825820     
  -545690854.72649360       -8555523.8484629691        1480918891.7571886     
  -514556484.91171771       -7414172.5755726695        1480578979.0012548     
  -483496413.53422403       -6520482.7602895200        1485753399.3147783     
  -452510640.59401482       -5874454.4026222229        1496442152.6977565     
  -861556704.88343525       -11867601.865209162        1460249494.0503485     
  -816830170.40070748       -12593931.400691539        1454578996.9872143     
  -771988793.69434011       -12937453.524041384        1454280681.4011343     
  -727032574.76433098       -12898168.235251009        1459354547.2921064     
  -681961513.61068821       -12476075.534348518        1469800594.6601288     
  -1145553389.5985444       -13592517.994514823        1431242171.4908390     
  -1087715136.2920182       -16556034.018035889        1425976087.2943723     
  -1029572900.1009353       -18506273.759698629        1425940032.9825554     
  -971126681.02528477       -19443237.219469070        1431134008.5553854     
  -912376479.06507456       -19366924.397375405        1441558014.0128601     
   3498828.1261731386        6461104.6668627886        1544922200.9441154     
   2757024.8867126652        5617520.9509568224        1542710480.0010390     
   1893922.2011566204        4369605.7480642311        1545440019.9930725     
   909520.06950285344        2717359.0581795801        1553110820.9202154     
  -196181.50823577924        660780.88134606997        1565722882.7824712     
  -224023860.01506022        437938.99778430164        1521482688.1257567     
  -212126663.76076311       -757525.83357419074        1518759850.8161850     
  -200338188.16917083       -2315392.8739477545        1520899263.2087290     
  -188658433.24027386       -4235662.1233068854        1527900925.3033919     
  -177087398.97407526       -6518333.5816591457        1539764837.1001668     
  -452510640.59401482       -5874454.4026222229        1496442152.6977565     
  -428200191.22594398       -7489524.2634267509        1493222874.2689841     
  -403985883.73717910       -9425067.0552510768        1494786834.3093331     
  -379867718.12772357       -11681082.778105333        1501134032.8188024     
  -355845694.39757174       -14257571.431974784        1512264469.7973919     
  -681961513.61068821       -12476075.534348518        1469800594.6601288     
  -645463557.50882399       -14578474.338580698        1466099550.3594437     
  -609049164.50287366       -16959416.795856744        1467102733.2948856     
  -572718334.59284258       -19618902.906199545        1472810143.4664538     
  -536471067.77872163       -22556932.669573098        1483221780.8741484     
  -912376479.06507456       -19366924.397375405        1441558014.0128601     
  -863916762.60940790       -22024376.059052438        1437389879.0875578     
  -815528030.46625900       -24918442.095786303        1437846960.1653848     
  -767210282.63563406       -28049122.507601321        1442929257.2463477     
  -718963519.11752617       -31416417.294474512        1452636770.3304381     
  -196181.50823577924        660780.88134606997        1565722882.7824712     
  -331113.30796255055       -936783.32547858881        1566328536.9898419     
  -234119.48359718634       -1761262.1186600204        1572654718.8559651     
   94799.964859192376       -1812655.4982064716        1584701428.3808398     
   655645.03741470654       -1090963.4640884444        1602468665.5644629     
  -177087398.97407526       -6518333.5816591457        1539764837.1001668     
  -162261787.35896230       -7692933.3915982619        1539951101.5204635     
  -147240620.94240209       -8215683.8633802906        1545827341.4326084     
  -132023899.72439714       -8086584.9970122129        1557393556.8365958     
  -116611623.70494469       -7305636.7924844623        1574649747.7324231     
  -355845694.39757174       -14257571.431974784        1512264469.7973919     
  -326146831.27306640       -15035394.416650906        1511988911.8041992     
  -296288784.16976035       -15282604.138660729        1517372777.1359439     
  -266271553.08766502       -14999200.598038271        1528416065.7926230     
  -236095138.02676672       -14185183.794739261        1545118777.7742388     
  -536471067.77872163       -22556932.669573098        1483221780.8741484     
  -491986245.05027652       -22964166.400634527        1482441967.8410416     
  -447378609.16568071       -22962022.944529369        1487291025.9659610     
  -402648160.12493622       -22550502.301260233        1497768955.2489157     
  -357794897.92803985       -21729604.470819399        1513875755.6898947     
  -718963519.11752617       -31416417.294474512        1452636770.3304381     
  -659780028.69059157       -31479249.343552947        1451310269.6309958     
  -600510095.93014717       -31253940.280933529        1455582087.9226727     
  -541153720.83621395       -30740490.106685370        1465452225.2054739     
  -481710903.40877098       -29938898.820736945        1480920681.4793944     
   655645.03741470654       -1090963.4640884444        1602468665.5644629     
   584040.10677509848       -342373.84737344994        1598139004.2931941     
   423344.22253040021        109245.92399124330        1598896090.3755033     
   173557.38467361164        263895.84998230240        1604739923.8113956     
  -165320.40678634570        121575.93062946555        1615670504.6008685     
  -116611623.70494469       -7305636.7924844623        1574649747.7324231     
  -103101802.88083406       -6035015.1539057381        1569862850.6210668     
  -89088365.434407622       -3085671.4409423918        1570315987.8085849     
  -74571311.365675285        1542394.3463747241        1576009159.2949691     
  -59550640.674638830        7849182.2080388032        1586942365.0802312     
  -236095138.02676672       -14185183.794739261        1545118777.7742388     
  -208565928.74705702       -12261141.324003853        1540566136.9946892     
  -179940395.26912743       -6682684.8591980711        1541406817.4593029     
  -150218537.59297740        2550185.5996742994        1547640819.1680851     
  -119400355.71861364        15437470.052591465        1559268142.1210306     
  -357794897.92803985       -21729604.470819399        1513875755.6898947     
  -315808337.49189693       -19020752.357672870        1510248863.4140477     
  -272132745.28163344       -10681794.330795869        1512168579.3276613     
  -226768121.29722881        3287269.6098858714        1519634903.4307344     
  -179714465.53869903        22886439.464320928        1532647835.7232661     
  -481710903.40877098       -29938898.820736945        1480920681.4793944     
  -424829029.11537015       -26313848.254975244        1478911029.8791494     
  -365665415.47192538       -15082999.855729416        1482601273.4136636     
  -304220062.47843069        3753646.3770156056        1491991412.0829234     
  -240492970.13489830        30196090.443216234        1507081445.8869357     
  -165320.40678634570        121575.93062946555        1615670504.6008685     
  -135869.10723109366       -11978.536192754822        1584810340.8194647     
  -84403.738519978680       -72152.772498207574        1557308220.0090199     
  -10924.300657209817       -58946.778296065764        1533164142.1695375     
   84569.206347513711        27639.446377870503        1512378107.3010001     
  -59550640.674638830        7849182.2080388032        1586942365.0802312     
  -48670416.044063076        15438538.649095647        1556533993.9705589     
  -36629169.092356227        26897969.493919667        1529332118.3965957     
  -23426899.819514289        42227474.742530793        1505336738.3583307     
  -9063608.2255391143        61427054.394915566        1484547853.8557622     
  -119400355.71861364        15437470.052591465        1559268142.1210306     
  -98102350.429172680        30619839.599879116        1530640406.6437354     
  -74504314.566612363        53468977.724230722        1505067619.2668855     
  -48606248.130948938        83984884.425590843        1482549779.9904861     
  -20408151.122167908        122167559.70401396        1463086888.8145323     
  -179714465.53869903        22886439.464320928        1532647835.7232661     
  -148431672.26254892        45531924.316190071        1507129578.8389888     
  -113709840.16129793        79640871.918396711        1484514722.6199036     
  -75548969.234965891        125213282.27087295        1464803267.0660176     
  -33949059.483526066        182249155.37370855        1447995212.1773169     
  -240492970.13489830        30196090.443216234        1507081445.8869357     
  -199658381.54419318        60174792.798027307        1486001510.5563204     
  -154245745.87640992        105413652.07643145        1467673428.4556475     
  -104255063.13156141        165912668.27838734        1452097199.5849149     
  -49686333.309629619        241671841.40395287        1439272823.9441171     
   84569.206347513711        27639.446377870503        1512378107.3010001     
   60332.256498216986        99950.226734066251        1403016407.4499204     
   28351.804100634396        146449.33192861523        1290907871.5276966     
  -11372.150826796445        167136.76202575167        1176052499.5343359     
  -58839.608279454675        162012.51703393963        1058450291.4698377     
  -9063608.2255391143        61427054.394915566        1484547853.8557622     
  -9568746.3296673447        80866193.017374232        1375870612.2426660     
  -8135947.7134929374        106765120.70751147        1265101014.7723165     
  -4765212.3770242855        139123837.46529275        1152239061.4447007     
   543459.67975364625        177942343.29077536        1037284752.2598628     
  -20408151.122167908        122167559.70401396        1463086888.8145323     
  -19524246.912318863        161534509.20907193        1357364065.6993923     
  -14756725.759334490        213846848.52457914        1250203366.9408903     
  -6105587.6632119864        279104577.65055239        1141604792.5390179     
   6429167.3760547936        357307696.58699721        1031568342.4937836     
  -33949059.483526066        182249155.37370855        1447995212.1773169     
  -29806169.491458803        242104898.80181482        1347496767.8201196     
  -19833982.333409876        321391632.78319037        1246214928.0334413     
  -4032498.0093829334        420109357.31782895        1144149692.8172772     
   17598283.480612278        538258072.40568936        1041301062.1716537     
  -49686333.309629619        241671841.40395287        1439272823.9441171     
  -40414514.067074567        322577361.79564154        1346268718.6048236     
  -23367717.435715884        429399473.48334581        1253135698.0499401     
   1454056.5844478607        562138176.46706927        1159873762.2794721     
   34050807.993438870        720793470.74687541        1066482911.2934196     
  -1541346015.8809726        90658023.842398345        1440733125.2067552     
  -1493566329.4092970        8874739.6588409543        1426534176.7084942     
  -1435762968.9779491       -39496297.992488384        1419336991.5998902     
  -1367935934.5869401       -54455089.111603618        1419141569.8809404     
  -1290085226.2362595       -36001633.698485851        1425947911.5516486     
  -1952311819.3691049        32788099.575391650        1345476514.5913706     
  -1872807242.7782559       -4543133.4482290745        1339849584.3714702     
  -1787952001.5433998       -24038817.658496618        1341366486.7397580     
  -1697746095.6645370       -25698953.055410445        1350027221.6962292     
  -1602189525.1416702       -9523539.6389712095        1365831789.2408793     
  -2364612995.7325954       -25482436.554221034        1266382204.5860806     
  -2252977617.0267811       -18239844.819173574        1263875448.4429452     
  -2140664582.9926226       -8738401.9896380901        1268654594.0865204     
  -2027673893.6301169        3021891.9343810081        1280719641.5168066     
  -1914005548.9392672        17041036.952887654        1300070590.7338037     
  -2778249544.9714403       -84153584.546441555        1203450195.1908984     
  -2634077452.1548705       -32215394.453985214        1198611768.9229186     
  -2493900713.3256159        6404949.0140917301        1201201313.6401784     
  -2357719328.4836769        31707445.857780337        1211218829.3426759     
  -2225533297.6290522        43692096.077094913        1228664316.0304098     
  -3193221467.0856404       -143225344.40126729        1156680486.4058149     
  -3016106748.1625261       -46469782.352673292        1144058545.8113904     
  -2847660392.5423832        21391235.352684975        1139006645.4007301     
  -2687882400.2252154        60357708.714788079        1141524785.1738355     
  -2536772771.2110248        70429637.733639359        1151612965.1307070     
  -1290085226.2362595       -36001633.698485851        1425947911.5516486     
  -1250110349.0791073       -17592961.446749687        1421934907.9822609     
  -1212696750.5871041       -7721884.7455075383        1421479616.7823300     
  -1177844430.7602522       -6388403.5947720408        1424582037.9518566     
  -1145553389.5985444       -13592517.994514823        1431242171.4908390     
  -1602189525.1416702       -9523539.6389712095        1365831789.2408793     
  -1556746699.5316494       -2539874.8715642691        1359415063.7580178     
  -1512802423.2965193       -551374.68712484837        1356283280.2889054     
  -1470356696.4362769       -3558039.0856411457        1356436438.8335402     
  -1429409518.9509296       -11559868.067148924        1359874539.3919258     
  -1914005548.9392672        17041036.952887654        1300070590.7338037     
  -1863874118.7498236        12365891.073941588        1292489994.1760981     
  -1814178508.6450191        6238011.5795425177        1287921569.2764354     
  -1764918718.6248422       -1342601.5302890539        1286365316.0348117     
  -1716094748.6893020       -10375948.255572438        1287821234.4512327     
  -2225533297.6290522        43692096.077094913        1228664316.0304098     
  -2171492606.7336407        27124336.389746070        1221159699.2364981     
  -2116825006.6326070        12646274.054481626        1216394483.7449210     
  -2061530497.3259454        257909.07130503654        1214368669.5556779     
  -2005609078.8136594       -10040758.559791327        1215082256.6687710     
  -2536772771.2110248        70429637.733639359        1151612965.1307070     
  -2479602163.4830914        41735461.075867295        1145424178.9392202     
  -2420741917.2592807        18673412.737695813        1141702023.6943645     
  -2360192032.5395851        1243492.7191400528        1140446499.3961315     
  -2297952509.3240070       -10554298.979814291        1141657606.0445275     
  -1145553389.5985444       -13592517.994514823        1431242171.4908390     
  -1087715136.2920182       -16556034.018035889        1425976087.2943723     
  -1029572900.1009353       -18506273.759698629        1425940032.9825554     
  -971126681.02528477       -19443237.219469070        1431134008.5553854     
  -912376479.06507456       -19366924.397375405        1441558014.0128601     
  -1429409518.9509296       -11559868.067148924        1359874539.3919258     
  -1357170090.1229956       -12367950.338162184        1353886108.3668170     
  -1284878658.3106923       -13002689.327948809        1353248066.9921842     
  -1212535223.5140295       -13464085.036534488        1357960415.2680259     
  -1140139785.7329979       -13752137.463886499        1368023153.1943362     
  -1716094748.6893020       -10375948.255572438        1287821234.4512327     
  -1629110259.2947402       -8925431.2605105042        1280816480.0472579     
  -1542325746.8160114       -8141503.9848877192        1279282475.0595818     
  -1455741211.2531126       -8024166.4286980629        1283219219.4882069     
  -1369356652.6060386       -8573418.5919293761        1292626713.3331261     
  -2005609078.8136594       -10040758.559791327        1215082256.6687710     
  -1903535643.8072562       -6228476.7850941420        1206767202.3356950     
  -1801914165.6168797       -3922717.7304812670        1204043257.1847456     
  -1700744644.2425282       -3123481.3959563971        1206910421.2159226     
  -1600027079.6842008       -3830767.7815070748        1215368694.4292228     
  -2297952509.3240070       -10554298.979814291        1141657606.0445275     
  -2180446243.6605439       -4277086.9119079113        1131738275.2321277     
  -2063643914.7133021       -346330.56474125385        1127530413.3676782     
  -1947545522.4822876        1237970.0616705418        1129034020.4511802     
  -1832151066.9674850        475814.96737194061        1136249096.4826324     
  -912376479.06507456       -19366924.397375405        1441558014.0128601     
  -863916762.60940790       -22024376.059052438        1437389879.0875578     
  -815528030.46625900       -24918442.095786303        1437846960.1653848     
  -767210282.63563406       -28049122.507601321        1442929257.2463477     
  -718963519.11752617       -31416417.294474512        1452636770.3304381     
  -1140139785.7329979       -13752137.463886499        1368023153.1943362     
  -1080341317.5715349       -17844775.249355853        1363166164.7852933     
  -1020611661.9365767       -22166788.123171031        1362737273.8676803     
  -960950818.82812417       -26718176.085340500        1366736480.4414999     
  -901358788.24618268       -31498939.135878652        1375163784.5067530     
  -1369356652.6060386       -8573418.5919293761        1292626713.3331261     
  -1298782628.4864957       -14270201.225509524        1287083405.1906924     
  -1228275245.1074445       -20189119.660727322        1285771076.0279894     
  -1157834502.4688835       -26330173.897580385        1288689725.8450174     
  -1087460400.5708168       -32693363.936079383        1295839354.6417825     
  -1600027079.6842008       -3830767.7815070748        1215368694.4292228     
  -1519240695.3542917       -11300653.987520397        1209141600.3037484     
  -1438518779.9788594       -18985436.708451152        1206948366.6463084     
  -1357861333.5579009       -26885115.944297671        1208788993.4569011     
  -1277268356.0914180       -34999691.695061982        1214663480.7355258     
  -1832151066.9674850        475814.96737194061        1136249096.4826324     
  -1741715518.1749198       -8936133.5353707075        1129340750.1244690     
  -1651342266.5508182       -18555739.266328096        1126269145.7226403     
  -1561031312.0951731       -28383002.225469053        1127034283.2771454     
  -1470782654.8079982       -38417922.412851632        1131636162.7879813     
  -718963519.11752617       -31416417.294474512        1452636770.3304381     
  -659780028.69059157       -31479249.343552947        1451310269.6309958     
  -600510095.93014717       -31253940.280933529        1455582087.9226727     
  -541153720.83621395       -30740490.106685370        1465452225.2054739     
  -481710903.40877098       -29938898.820736945        1480920681.4793944     
  -901358788.24618268       -31498939.135878652        1375163784.5067530     
  -828318108.06016338       -32235025.520820528        1372443559.2034481     
  -755201968.01729214       -32719579.049602121        1374939758.0319839     
  -682010368.11757195       -32952599.722218513        1382652380.9923575     
  -608743308.36099792       -32934087.538652301        1395581428.0845644     
  -1087460400.5708168       -32693363.936079383        1295839354.6417825     
  -1001653658.7950939       -34430043.107714057        1291712591.8451922     
  -915782439.63917279       -35951797.678685635        1292420358.3211575     
  -829846743.10304999       -37258627.648984462        1297962654.0696752     
  -743846569.18672681       -38350533.018611670        1308339479.0907412     
  -1277268356.0914180       -34999691.695061982        1214663480.7355258     
  -1179786680.8953824       -38064302.104212403        1209117367.5562248     
  -1082251510.7957902       -40950596.168179750        1208023888.7901928     
  -984662845.79264605       -43658573.886974096        1211383044.4374297     
  -887020685.88595915       -46188235.260618657        1219194834.4979355     
  -1470782654.8079982       -38417922.412851632        1131636162.7879813     
  -1362717174.3610215       -43137802.510302722        1124657886.3365417     
  -1254609181.4871531       -47715974.518117428        1121750349.4390874     
  -1146458676.1863723       -52152438.436227739        1122913552.0956209     
  -1038265658.4586982       -56447194.264684439        1128147494.3061361     
  -481710903.40877098       -29938898.820736945        1480920681.4793944     
  -424829029.11537015       -26313848.254975244        1478911029.8791494     
  -365665415.47192538       -15082999.855729416        1482601273.4136636     
  -304220062.47843069        3753646.3770156056        1491991412.0829234     
  -240492970.13489830        30196090.443216234        1507081445.8869357     
  -608743308.36099792       -32934087.538652301        1395581428.0845644     
  -537157501.57930624       -29859614.134556204        1393422325.3763289     
  -463299679.63491637       -19211756.854797587        1397001101.1001058     
  -387169842.52782804       -990515.69938051701        1406317755.2558935     
  -308767990.25802875        24804109.331744477        1421372287.8436978     
  -743846569.18672681       -38350533.018611670        1308339479.0907412     
  -657448306.21029449       -35794079.664274454        1306019580.3892875     
  -568787752.25850201       -25696656.392070800        1309475543.4170980     
  -477864907.33134264       -8058263.2019785345        1318707368.1741834     
  -384679771.42882466        17121099.905979708        1333715054.6605430     
  -887020685.88595915       -46188235.260618657        1219194834.4979355     
  -785701443.00832546       -44117244.844101399        1216702794.9180205     
  -682129633.34267223       -34537698.467515945        1220024600.3646388     
  -576305256.88899076       -17449596.130839944        1229160250.8377886     
  -468228313.64728665        7147062.1659151316        1244109746.3374717     
  -1038265658.4586982       -56447194.264684439        1128147494.3061361     
  -921916911.97339928       -54829109.674031168        1125471968.9625368     
  -803325322.88742268       -45734883.081118643        1128648271.9427328     
  -682490891.20076227       -29164514.485922486        1137676403.2467191     
  -559413616.91341639       -5118003.8884497583        1152556362.8745008     
  -240492970.13489830        30196090.443216234        1507081445.8869357     
  -199658381.54419318        60174792.798027307        1486001510.5563204     
  -154245745.87640992        105413652.07643145        1467673428.4556475     
  -104255063.13156141        165912668.27838734        1452097199.5849149     
  -49686333.309629619        241671841.40395287        1439272823.9441171     
  -308767990.25802875        24804109.331744477        1421372287.8436978     
  -259093014.03534928        55193510.771767318        1404647440.1727026     
  -202978290.85031000        107048735.41964768        1391876260.7382421     
  -140423820.70288724        180369783.27548015        1383058749.5403111     
  -71429603.593105763        275156654.33917475        1378194906.5789061     
  -384679771.42882466        17121099.905979708        1333715054.6605430     
  -322730650.41248691        48951327.579692855        1323517277.8486824     
  -252480082.54848838        108453044.74560872        1318474984.2799499     
  -173928067.83681363        195626251.40377980        1318588173.9543376     
  -87074606.277474582        310470947.55416226        1323856846.8718510     
  -468228313.64728665        7147062.1659151316        1244109746.3374717     
  -390571290.67560029        41448243.221829027        1242611023.5842698     
  -302751120.97095186        109626580.05428007        1247469599.0807745     
  -204767804.53333503        211682072.66329414        1258685472.8269968     
  -96621341.362750322        347614721.04886758        1276258644.8229330     
  -559413616.91341639       -5118003.8884497583        1152556362.8745008     
  -462614934.82468885        32684257.698182613        1161928677.3794527     
  -353791406.11770785        110569341.34564868        1178860105.1407139     
  -232943030.79245037        228537247.05404490        1203350646.1582806     
  -100069808.84893769        386587974.82328612        1235400300.4321554     
  -49686333.309629619        241671841.40395287        1439272823.9441171     
  -40414514.067074567        322577361.79564154        1346268718.6048236     
  -23367717.435715884        429399473.48334581        1253135698.0499401     
   1454056.5844478607        562138176.46706927        1159873762.2794721     
   34050807.993438870        720793470.74687541        1066482911.2934196     
  -71429603.593105763        275156654.33917475        1378194906.5789061     
  -57304025.463423654        376861210.42807639        1296691581.0292308     
  -34203945.909831136        508480771.26334655        1214251053.9089596     
  -2129364.9323211610        670015336.84501016        1130873325.2180917     
   38919717.469110608        861464907.17307413        1046558394.9566289     
  -87074606.277474582        310470947.55416226        1323856846.8718510     
  -70404658.846394151        432281722.46453136        1255253745.8193948     
  -43560685.956288606        588005915.57165146        1184905156.8413446     
  -6542687.6071551740        777643526.87552476        1112811079.9377017     
   40649336.200987756        1001194556.3761078        1038971515.1084640     
  -96621341.362750322        347614721.04886758        1276258644.8229330     
  -79716414.215983748        488838897.90501732        1221955212.9753273     
  -51437937.575086892        667974906.40825737        1165098006.8471274     
  -11785911.440051317        885022746.55861759        1105687026.4383371     
   39239664.189093113        1139982418.3560300        1043722271.7489500     
  -100069808.84893769        386587974.82328612        1235400300.4321554     
  -85239291.572202206        546532736.74948800        1196795982.4970231     
  -57835700.766227245        748387743.77315724        1154829603.9262936     
  -17859036.431014240        992152995.89429939        1109501164.7199678     
   34690701.433415830        1277828493.1128037        1060810664.8780527     
  -3193221467.0856404       -143225344.40126729        1156680486.4058149     
  -3016106748.1625261       -46469782.352673292        1144058545.8113904     
  -2847660392.5423832        21391235.352684975        1139006645.4007301     
  -2687882400.2252154        60357708.714788079        1141524785.1738355     
  -2536772771.2110248        70429637.733639359        1151612965.1307070     
  -3578623188.2233429       -105471255.51897728        1057495827.1753823     
  -3392266216.8748226       -43615165.453109026        1038014772.1166208     
  -3210509301.4609261        2907404.8306883574        1026126826.1204159     
  -3033352441.9816399        34096455.332435966        1021831989.1867745     
  -2860795638.4369831        49951986.052107692        1025130261.3156888     
  -3961541302.7376194       -66972084.649659157        941448701.06583488     
  -3765876167.8814287       -39995693.241844416        919854890.13915133     
  -3570742781.5915070       -14791797.054910898        905877257.15382099     
  -3376141143.8678498        8639603.9111433029        899515802.10984218     
  -3182071254.7104502        30298509.656318426        900770525.00721717     
  -4341975810.6284838       -27727831.793317318        808539108.07717752     
  -4136936601.1823540       -35611365.718875647        789578899.87898314     
  -3928360832.9341440       -31706370.304131269        778257938.50094068     
  -3716248505.8838315       -16012845.549075365        774576223.94304085     
  -3500599620.0314326        11469208.546278954        778533756.20528877     
  -4719926711.8959227        12261503.050050735        658767048.20940423     
  -4505447516.7775946       -30462182.884197950        647186801.33611715     
  -4283363455.4888177       -47836314.916961908        643268870.16177428     
  -4053674528.0295949       -39860893.048233271        647013254.68637216     
  -3816380734.3999262       -6535917.2780208588        658419954.90990734     
  -2536772771.2110248        70429637.733639359        1151612965.1307070     
  -2479602163.4830914        41735461.075867295        1145424178.9392202     
  -2420741917.2592807        18673412.737695813        1141702023.6943645     
  -2360192032.5395851        1243492.7191400528        1140446499.3961315     
  -2297952509.3240070       -10554298.979814291        1141657606.0445275     
  -2860795638.4369831        49951986.052107692        1025130261.3156888     
  -2795178605.5287390        28134268.760227799        1021410051.4094805     
  -2728648099.2049627        9361462.8534413576        1020133585.4570651     
  -2661204119.4656653       -6366431.6682637930        1021300863.4584463     
  -2592846666.3108377       -19049414.804877281        1024911885.4136155     
  -3182071254.7104502        30298509.656318426        900770525.00721717     
  -3108073188.0299845        15337634.307915688        898613365.45920205     
  -3033937813.0143461        834453.41008281708        898877062.87214553     
  -2959665129.6635427       -13211033.037199855        901561617.24605131     
  -2885255137.9775677       -26798825.033916950        906667028.58091617     
  -3500599620.0314326        11469208.546278954        778533756.20528877     
  -3418285910.9868398        3345557.7189207077        777034121.08838439     
  -3336611058.6874318       -6907615.5923995972        777932455.93960416     
  -3255575063.1332083       -19290311.387669206        781228760.75895405     
  -3175177924.3241816       -33802529.666923046        786923035.54642618     
  -3816380734.3999262       -6535917.2780208588        658419954.90990734     
  -3725816774.3992977       -7841961.0067620277        656672318.29702675     
  -3636667836.2242136       -13864744.153974295        657299764.65943778     
  -3548933919.8746815       -24604266.719701767        660302293.99714863     
  -3462615025.3506899       -40060528.703891039        665679906.31014717     
  -2297952509.3240070       -10554298.979814291        1141657606.0445275     
  -2180446243.6605439       -4277086.9119079113        1131738275.2321277     
  -2063643914.7133021       -346330.56474125385        1127530413.3676782     
  -1947545522.4822876        1237970.0616705418        1129034020.4511802     
  -1832151066.9674850        475814.96737194061        1136249096.4826324     
  -2592846666.3108377       -19049414.804877281        1024911885.4136155     
  -2460588155.8859487       -11902366.080885172        1015034897.2118596     
  -2328808142.1647687       -6350306.3692684174        1010593589.1118443     
  -2197506625.1473022       -2393235.6700241566        1011587961.1135720     
  -2066683604.8335352       -31153.983124732971        1018018013.2170463     
  -2885255137.9775677       -26798825.033916950        906667028.58091617     
  -2739032350.9232683       -19018330.093451262        897095396.33773053     
  -2593062620.5601707       -12081357.456979632        892683655.35008073     
  -2447345946.8882675       -5987907.1245039701        893431805.61796653     
  -2301882329.9075608       -737979.09601402283        899339847.14139068     
  -3175177924.3241816       -33802529.666923046        786923035.54642618     
  -3015778828.7724967       -25624978.949582577        777919772.60974085     
  -2856407349.8994937       -17539483.827864051        773800612.08238792     
  -2697063487.7051826       -9546044.3017753363        774565553.96436107     
  -2537747242.1895490       -1644660.3712919950        780214598.25566709     
  -3462615025.3506899       -40060528.703891039        665679906.31014717     
  -3290827589.4336329       -31722312.649288297        657508026.02789295     
  -3118842330.1827531       -22724685.481936693        653944459.30876672     
  -2946659247.5980458       -13067647.201830506        654989206.15275955     
  -2774278341.6795101       -2751197.8089619875        660642266.55987608     
  -1832151066.9674850        475814.96737194061        1136249096.4826324     
  -1741715518.1749198       -8936133.5353707075        1129340750.1244690     
  -1651342266.5508182       -18555739.266328096        1126269145.7226403     
  -1561031312.0951731       -28383002.225469053        1127034283.2771454     
  -1470782654.8079982       -38417922.412851632        1131636162.7879813     
  -2066683604.8335352       -31153.983124732971        1018018013.2170463     
  -1966152409.7157497       -7683167.6878565550        1010606049.3854446     
  -1865753628.5532665       -15776561.243603110        1006717086.5866028     
  -1765487261.3460827       -24311334.650344133        1006351124.8205196     
  -1665353308.0942025       -33287487.908094049        1009508164.0871891     
  -2301882329.9075608       -737979.09601402283        899339847.14139068     
  -2192151891.1033344       -6898978.7943671942        891342462.91837263     
  -2082623983.0412552       -13735080.966526866        886554338.80453587     
  -1973298605.7213185       -21246285.612497211        884975474.79988360     
  -1864175759.1435187       -29432592.732270002        886605870.90440941     
  -2537747242.1895490       -1644660.3712919950        780214598.25566709     
  -2419713962.3376837       -6583566.8549146652        771549990.72325039     
  -2301953330.0147915       -12431298.435131550        765780902.37644160     
  -2184465345.2208853       -19187855.111956120        762907333.21523511     
  -2067250007.9559531       -26853236.885378122        762929283.23964417     
  -2774278341.6795101       -2751197.8089619875        660642266.55987608     
  -2648838623.4187789       -6736931.8694692850        651228632.80008101     
  -2523741669.4738631       -11865213.649370193        644396777.30231833     
  -2398987479.8447771       -18136043.148709297        640146700.06658351     
  -2274576054.5315113       -25549420.367436886        638478401.09288239     
  -1470782654.8079982       -38417922.412851632        1131636162.7879813     
  -1362717174.3610215       -43137802.510302722        1124657886.3365417     
  -1254609181.4871531       -47715974.518117428        1121750349.4390874     
  -1146458676.1863723       -52152438.436227739        1122913552.0956209     
  -1038265658.4586982       -56447194.264684439        1128147494.3061361     
  -1665353308.0942025       -33287487.908094049        1009508164.0871891     
  -1546654260.7536936       -36742967.980868876        1000998209.9637182     
  -1427855011.5732470       -39864441.920513809        996305398.50635445     
  -1308955560.5528519       -42651909.726995766        995429729.71510720     
  -1189955907.6925159       -45105371.400349200        998371203.58997095     
  -1864175759.1435187       -29432592.732270002        886605870.90440941     
  -1735567707.4462636       -31841041.541417718        876631543.42412126     
  -1606801764.4960177       -33723186.173933208        870220761.72207141     
  -1477877930.2927825       -35079026.629812360        867373525.79825985     
  -1348796204.8365545       -35908562.909056962        868089835.65269375     
  -2067250007.9559531       -26853236.885378122        762929283.23964417     
  -1929457514.4387274       -28432023.191928148        751557886.71775591     
  -1791449440.2554603       -29292207.278340816        743496439.08623779     
  -1653225785.4061637       -29433789.144654155        738744940.34508896     
  -1514786549.8908319       -28856768.790851355        737303390.49430585     
  -2274576054.5315113       -25549420.367436886        638478401.09288239     
  -2128323681.7310898       -26515912.932411432        625777239.84461975     
  -1981798038.8515825       -26571505.233775735        616132430.59885406     
  -1834999125.8930018       -25716197.271550536        609543973.35558176     
  -1687926942.8553290       -23949989.045698225        606011868.11480772     
  -1038265658.4586982       -56447194.264684439        1128147494.3061361     
  -921916911.97339928       -54829109.674031168        1125471968.9625368     
  -803325322.88742268       -45734883.081118643        1128648271.9427328     
  -682490891.20076227       -29164514.485922486        1137676403.2467191     
  -559413616.91341639       -5118003.8884497583        1152556362.8745008     
  -1189955907.6925159       -45105371.400349200        998371203.58997095     
  -1060263297.1920401       -42058164.829300761        994440402.45932555     
  -929159164.82666826       -34305885.375256300        994592486.40570498     
  -796643510.59638476       -21848533.038186371        998827455.42910111     
  -662716334.50121212       -4686107.8181459308        1007145309.5295151     
  -1348796204.8365545       -35908562.909056962        868089835.65269375     
  -1210813853.8831162       -32948471.426279247        861933884.54326081     
  -1072251301.8005576       -28054376.179765463        858091875.26407528     
  -933108548.58888018       -21226277.169525027        856563807.81513500     
  -793385594.24808323       -12464174.395548046        857349682.19644010     
  -1514786549.8908319       -28856768.790851355        737303390.49430585     
  -1373568582.0466406       -27500029.465009689        727952415.21434331     
  -1232601733.8091006       -26980355.494678259        719146438.51784849     
  -1091886005.1782308       -27297746.879917145        710885460.40482676     
  -951421396.15402818       -28452203.620690644        703169480.87527049     
  -1687926942.8553290       -23949989.045698225        606011868.11480772     
  -1548527481.6825945       -25712838.945449054        592495994.47256470     
  -1410210460.8522959       -31083823.319985092        577756176.16701579     
  -1272975880.3644474       -40062942.169360340        561792413.19817066     
  -1136823740.2190416       -52650195.493533790        544604705.56601822     
  -559413616.91341639       -5118003.8884497583        1152556362.8745008     
  -462614934.82468885        32684257.698182613        1161928677.3794527     
  -353791406.11770785        110569341.34564868        1178860105.1407139     
  -232943030.79245037        228537247.05404490        1203350646.1582806     
  -100069808.84893769        386587974.82328612        1235400300.4321554     
  -662716334.50121212       -4686107.8181459308        1007145309.5295151     
  -547448461.03401363        25535856.007378012        1020725407.9365581     
  -421290573.56764007        92057866.496805727        1042702762.8617582     
  -284242672.10208285        194879923.65018713        1073077374.3051176     
  -136304756.63734788        334002027.46749133        1111849242.2666297     
  -793385594.24808323       -12464174.395548046        857349682.19644010     
  -657253834.36854923        10895900.179018587        873813593.11664355     
  -511366893.10892570        66773246.020570874        899512903.81685519     
  -355724770.46920782        155167863.12908846        934447614.29707563     
  -190327466.44938529        276079751.50462168        978617724.55730522     
  -951421396.15402818       -28452203.620690644        703169480.87527049     
  -792031054.82829893       -11235609.786899328        721193232.91970456     
  -624020364.74155855        34715479.916918159        749290528.00599277     
  -447389325.89381915        109401065.49075377        787461366.13414264     
  -262137938.28505319        212821146.93465620        835705747.30415285     
  -1136823740.2190416       -52650195.493533790        544604705.56601822     
  -951780122.41326272       -40858673.890394807        562864327.34574676     
  -759250988.46554780       -4115431.8141348958        592035635.42918122     
  -559236338.37592220        57579530.735163242        632118629.81633127     
  -351736172.14434862        144226213.75761577        683113310.50718844     
  -100069808.84893769        386587974.82328612        1235400300.4321554     
  -85239291.572202206        546532736.74948800        1196795982.4970231     
  -57835700.766227245        748387743.77315724        1154829603.9262936     
  -17859036.431014240        992152995.89429939        1109501164.7199678     
   34690701.433415830        1277828493.1128037        1060810664.8780527     
  -136304756.63734788        334002027.46749133        1111849242.2666297     
  -127246471.64125094        483054200.24315721        1090243630.8937263     
  -95060206.293366939        709199640.85810900        1070073575.8983546     
  -39745960.593690634        1012438349.3123583        1051339077.2805269     
   38696265.457772672        1392770325.6059000        1034040135.0402398     
  -190327466.44938529        276079751.50462168        978617724.55730522     
  -173333936.55354410        418351578.28383303        986324877.70627475     
  -122657519.48335433        672899695.64419472        1000265204.2459152     
  -38298215.238830090        1039724103.5857053        1020438704.1762408     
   79743976.180054545        1518824802.1083608        1046845377.4972323     
  -262137938.28505319        212821146.93465620        835705747.30415285     
  -223501686.30907992        352424870.87152612        885039722.93464339     
  -140627640.33619076        639487908.13143814        945404488.96894979     
  -13515800.366406739        1074010258.7143278        1016800045.4070657     
   157833833.60027146        1655991922.6202085        1099226392.2489960     
  -351736172.14434862        144226213.75761577        683113310.50718844     
  -277749720.90785074        285274078.00626194        786388166.57885861     
  -148970568.85188028        608964278.31980586        905491430.06747317     
   34601284.023538291        1115296814.6981850        1040423100.9730437     
   272965837.71842009        1804271687.1414356        1191183179.2955511     
  -4719926711.8959227        12261503.050050735        658767048.20940423     
  -4505447516.7775946       -30462182.884197950        647186801.33611715     
  -4283363455.4888177       -47836314.916961908        643268870.16177428     
  -4053674528.0295949       -39860893.048233271        647013254.68637216     
  -3816380734.3999262       -6535917.2780208588        658419954.90990734     
  -5125255093.1166697       -55462018.344258070        482680635.77235729     
  -4876422612.1199083       -44650806.209885120        478979534.42987567     
  -4625633034.0425310       -27315937.140117407        481687514.66371304     
  -4372886358.8845329       -3457411.1349384785        490804576.47387570     
  -4118182586.6459093        26924771.805647612        506330719.86035925     
  -5522217900.9212351       -120675867.71371078        326515260.03710443     
  -5242612802.9678249       -57403958.187252045        324104240.28729320     
  -4966698377.0236216       -6434288.6914846897        326849067.99118727     
  -4694474623.0886106        32233140.773616076        334749743.14878660     
  -4425941541.1628094        58598330.208042622        347806265.76008368     
  -5910815135.3096657       -183380045.05832243        190270921.00364038     
  -5604018089.3213654       -68721638.816318035        182560918.90837795     
  -5306559484.4320936        14808630.428931475        178753530.14419368     
  -5018439320.6418390        67210762.677428246        178848754.71110472     
  -4739657597.9506235        88484757.929156303        182846592.60908946     
  -6291046796.2819290       -243574550.37809062        73947618.671969056     
  -5960638471.1805048       -78603848.097047329        54349570.293118827     
  -5645216356.2679358        36412820.221141100        37400901.122735232     
  -5344780451.5442142        101475454.57648754        23101611.160819225     
  -5059330757.0093479        116584054.96900296        11451700.407367930     
  -3816380734.3999262       -6535917.2780208588        658419954.90990734     
  -3725816774.3992977       -7841961.0067620277        656672318.29702675     
  -3636667836.2242136       -13864744.153974295        657299764.65943778     
  -3548933919.8746815       -24604266.719701767        660302293.99714863     
  -3462615025.3506899       -40060528.703891039        665679906.31014717     
  -4118182586.6459093        26924771.805647612        506330719.86035925     
  -4024919192.2358575        11754473.247957468        501901461.54174542     
  -3931714236.5435925       -3610621.0356903076        500373051.67715037     
  -3838567719.5691147       -19170511.045288563        501745490.26658154     
  -3745479641.3124199       -34925196.780843258        506018777.31003213     
  -4425941541.1628094        58598330.208042622        347806265.76008368     
  -4328476525.2612514        30014432.946020842        342278066.02812016     
  -4229713364.9697227        5757683.6505751610        340176480.22891140     
  -4129652060.2882175       -14171917.678289890        341501508.36245203     
  -4028292611.2167416       -29774371.040578127        346253150.42874092     
  -4739657597.9506235        88484757.929156303        182846592.60908946     
  -4636488773.4754810        46937918.087423086        177802131.75616187     
  -4530665221.5025978        14240169.904830694        176710050.31471980     
  -4422186942.0319901       -9608486.6186888218        179570348.28475529     
  -4311053935.0636454       -24608051.483075619        186383025.66626433     
  -5059330757.0093479        116584054.96900296        11451700.407367930     
  -4948955936.8785343        62524928.672208071        8473658.7258656025     
  -4834569806.1422338        21836837.727028847        9973761.9345811121     
  -4716172364.8004360       -5480217.8664886951        15952010.033493968     
  -4593763612.8531466       -19426238.108364820        26408403.022616975     
  -3462615025.3506899       -40060528.703891039        665679906.31014717     
  -3290827589.4336329       -31722312.649288297        657508026.02789295     
  -3118842330.1827531       -22724685.481936693        653944459.30876672     
  -2946659247.5980458       -13067647.201830506        654989206.15275955     
  -2774278341.6795101       -2751197.8089619875        660642266.55987608     
  -3745479641.3124199       -34925196.780843258        506018777.31003213     
  -3560686848.0415964       -23590636.859269381        497900101.68405205     
  -3376113969.1389894       -12989124.831742764        494485769.56700599     
  -3191761004.6045947       -3120660.6982592344        495775780.95889485     
  -3007627954.4384203        6014755.5411545038        501770135.85972184     
  -4028292611.2167416       -29774371.040578127        346253150.42874092     
  -3830220089.3184013       -15361155.869905233        337700318.80665135     
  -3632785219.4903188       -3073447.6000833511        333947860.63931060     
  -3435988001.7324905        7088753.7688846588        334995775.92671704     
  -3239828436.0449214        15125448.236993790        340844064.66886640     
  -4311053935.0636454       -24608051.483075619        186383025.66626433     
  -4099427313.2640529       -7033869.6812040806        176908677.39569128     
  -3888856081.2367382        7022346.2130525112        172330732.52567321     
  -3679340238.9817314        17560596.199630022        172649191.05621138     
  -3470879786.4990196        24580880.278553724        177864052.98731267     
  -4593763612.8531466       -19426238.108364820        26408403.022616975     
  -4368308519.8785343        1391221.7068681717        15525177.451170418     
  -4144326554.3782568        17298256.607650042        9634385.2260920834     
  -3921817716.3523159        28294866.593976259        8736026.3473891746     
  -3700782005.8007164        34381051.665834188        12830100.815051606     
  -2774278341.6795101       -2751197.8089619875        660642266.55987608     
  -2648838623.4187789       -6736931.8694692850        651228632.80008101     
  -2523741669.4738631       -11865213.649370193        644396777.30231833     
  -2398987479.8447771       -18136043.148709297        640146700.06658351     
  -2274576054.5315113       -25549420.367436886        638478401.09288239     
  -3007627954.4384203        6014755.5411545038        501770135.85972184     
  -2875818148.2852359       -812454.16634988785        492780979.51930237     
  -2743963583.4185886       -7490468.1623044014        486765837.67573851     
  -2612064259.8384728       -14019286.446694732        483724710.32902235     
  -2480120177.5448871       -20398909.019531369        483657597.47915858     
  -3239828436.0449214        15125448.236993790        340844064.66886640     
  -3100527867.0426621        5792965.3694767952        332731495.94866192     
  -2960795016.2976508       -2098578.3555231094        327985177.96013290     
  -2820629883.8098822       -8549182.9380044937        326605110.70327133     
  -2680032469.5793552       -13558848.377956867        328591294.17808008     
  -3470879786.4990196        24580880.278553724        177864052.98731267     
  -3322967779.6910644        13079326.738004923        171080182.08816105     
  -3174235968.1110520        4310455.7709548473        168054798.15549824     
  -3024684351.7590084       -1725732.6226341724        168787901.18932703     
  -2874312930.6349101       -5029238.4427268505        173279491.18964836     
  -3700782005.8007164        34381051.665834188        12830100.815051606     
  -3543137886.2304192        21046629.939260721        7827037.9377900828     
  -3384286438.8587990        11736634.217119455        6974698.2618329460     
  -3224227663.6858363        6451064.4994533062        10273081.787196046     
  -3062961560.7115402        5189920.7862074375        17722188.513866413     
  -2274576054.5315113       -25549420.367436886        638478401.09288239     
  -2128323681.7310898       -26515912.932411432        625777239.84461975     
  -1981798038.8515825       -26571505.233775735        616132430.59885406     
  -1834999125.8930018       -25716197.271550536        609543973.35558176     
  -1687926942.8553290       -23949989.045698225        606011868.11480772     
  -2480120177.5448871       -20398909.019531369        483657597.47915858     
  -2326092084.8164091       -20005921.306981921        472895016.82906646     
  -2172011559.2706666       -19438157.536895514        464743680.98016471     
  -2017878600.9076636       -18695617.709268928        459203589.93246913     
  -1863693209.7274058       -17778301.824125171        456274743.68596333     
  -2680032469.5793552       -13558848.377956867        328591294.17808008     
  -2519500391.7836647       -12187900.846124887        319509650.65402615     
  -2359136718.4325356       -11378301.462837577        312594144.72987139     
  -2198941449.5259724       -11130050.228104591        307844776.40562069     
  -2038914585.0639739       -11443147.141916275        305261545.68126237     
  -2874312930.6349101       -5029238.4427268505        173279491.18964836     
  -2708548602.6328545       -3061851.5498423576        165621141.31952047     
  -2543173516.3371992       -2391937.0116245747        159683821.84796980     
  -2378187671.7479205       -3019494.8280005455        155467532.77503350     
  -2213591068.8650446       -4944524.9990431070        152972274.10069385     
  -3062961560.7115402        5189920.7862074375        17722188.513866413     
  -2893236717.3639946        7372226.5818148851        11229488.825518731     
  -2724121952.9846601        7520935.8167191744        6012712.3344545681     
  -2555617267.5735226        5636048.4909666777        2071859.0407179575     
  -2387722661.1306043        1717564.6044834852       -593071.05573481473     
  -1687926942.8553290       -23949989.045698225        606011868.11480772     
  -1548527481.6825945       -25712838.945449054        592495994.47256470     
  -1410210460.8522959       -31083823.319985092        577756176.16701579     
  -1272975880.3644474       -40062942.169360340        561792413.19817066     
  -1136823740.2190416       -52650195.493533790        544604705.56601822     
  -1863693209.7274058       -17778301.824125171        456274743.68596333     
  -1727223996.9704995       -22094624.602599025        442710366.75174779     
  -1590753668.7692597       -26407229.233290911        428705160.20990002     
  -1454282225.1237044       -30716115.716271222        414259124.06042254     
  -1317809666.0338166       -35021284.051466286        399372258.30331290     
  -2038914585.0639739       -11443147.141916275        305261545.68126237     
  -1903138149.1352661       -17641701.322817564        292912813.87296844     
  -1766277041.9754605       -20224684.733388662        280906367.51271790     
  -1628331263.5845659       -19192097.373670161        269242206.60050255     
  -1489300813.9625688       -14543939.243612051        257920331.13633156     
  -2213591068.8650446       -4944524.9990431070        152972274.10069385     
  -2076269938.1769042       -12354069.106095910        143103335.83622354     
  -1936780580.4708948       -12536189.820259452        134359798.07546592     
  -1795122995.7470164       -5490887.1415325403        126741660.81841496     
  -1651297184.0052860        8781838.9300527573        120248924.06507930     
  -2387722661.1306043        1717564.6044834852       -593071.05573481473     
  -2246619364.0953927       -6231727.9524292946       -6718067.3584875930     
  -2102264284.2555370       -3341744.4938292503       -10934548.101850921     
  -1954657421.6110778        10387514.980104446       -13242513.285846740     
  -1803798776.1619616        34956050.469550014       -13641962.910448946     
  -1136823740.2190416       -52650195.493533790        544604705.56601822     
  -951780122.41326272       -40858673.890394807        562864327.34574676     
  -759250988.46554780       -4115431.8141348958        592035635.42918122     
  -559236338.37592220        57579530.735163242        632118629.81633127     
  -351736172.14434862        144226213.75761577        683113310.50718844     
  -1317809666.0338166       -35021284.051466286        399372258.30331290     
  -1118013387.7058752       -14872672.466488659        421217804.01421010     
  -914620424.28458238        17264889.429644644        441571304.59649503     
  -707630775.76996446        61391401.636864334        460432760.05014068     
  -497044442.16200864        117506864.15522137        477802170.37517530     
  -1489300813.9625688       -14543939.243612051        257920331.13633156     
  -1310191107.7762773        3329992.5240639448        278814831.22172254     
  -1131373547.5452363        20230104.440918326        285813554.74614638     
  -952848133.26945555        36156396.506910801        278916501.70961690     
  -774614864.94891679        51108868.722072482        258123672.11211196     
  -1651297184.0052860        8781838.9300527573        120248924.06507930     
  -1528313282.6244609        13749321.081330359        135655408.96826777     
  -1409510358.2474961        4780213.2197237015        124762385.87815608     
  -1294888410.8743663       -18125484.654645324        87569854.794753730     
  -1184447440.5050902       -54967772.541885972        24077815.718042277     
  -1803798776.1619616        34956050.469550014       -13641962.910448946     
  -1772379912.2504454        16385313.205196738       -8260462.7461517584     
  -1749030856.3913684       -29084784.233954787       -41582202.007492192     
  -1733751608.5847292       -101454241.84790868       -113607180.69446097     
  -1726542168.8305113       -200723059.63657862       -224335398.80707312     
  -351736172.14434862        144226213.75761577        683113310.50718844     
  -277749720.90785074        285274078.00626194        786388166.57885861     
  -148970568.85188028        608964278.31980586        905491430.06747317     
   34601284.023538291        1115296814.6981850        1040423100.9730437     
   272965837.71842009        1804271687.1414356        1191183179.2955511     
  -497044442.16200864        117506864.15522137        477802170.37517530     
  -388230058.74792796        223073540.70176402        597073164.82700598     
  -230276448.94167203        492437638.55555469        735494435.31436121     
  -23183612.743251145        925599157.71652722        893065981.83724177     
   233048449.84733719        1522558098.1847746        1069787804.3956405     
  -774614864.94891679        51108868.722072482        258123672.11211196     
  -621481496.16132987        124041673.52524209        386795084.77894908     
  -424862375.40885079        341926984.87807411        537938642.09987688     
  -184757502.69150540        704764802.78044009        711554344.07490373     
   98833121.990733862        1212555127.2324708        907642190.70404565     
  -1184447440.5050902       -54967772.541885972        24077815.718042277     
  -977504033.14806592       -11821523.523273528        155553926.43469572     
  -732728348.25344062        157432317.28733692        312824050.42402714     
  -450120385.82121581        452793749.88993776        495888187.68603939     
  -129680145.85140938        874262774.28449821        704746338.22071838     
  -1726542168.8305113       -200723059.63657862       -224335398.80707312     
  -1456297669.7081180       -184516050.44377053       -96650310.205757067     
  -1153874367.4753945       -61046364.216516197        60150660.286802426     
  -819272262.13240814        169685999.04494089        246067512.67061657     
  -452491353.67908108        507681039.34086716        461100246.94569528     
 </DataArray>
 <DataArray  type="Float64" Name="VM" NumberOfComponents="1" format="ascii">
   6361502686.7597075     
   6023849346.3933821     
   5702835108.0353050     
   5396450941.8020430     
   5103741127.6890154     
   5931646818.7403221     
   5632169373.7132082     
   5342550859.0613365     
   5062084799.4845057     
   4790648991.8274641     
   5532204279.8606091     
   5265675800.6378002     
   5004034570.6740799     
   4747366258.1153183     
   4496010220.1467371     
   5158417509.9994850     
   4920925297.1040497     
   4685618843.9986753     
   4452694876.4314203     
   4222472993.6039982     
   4805764664.3777809     
   4594528500.4057636     
   4385675405.7713633     
   4178654874.8331718     
   3973184473.5770245     
   5103741127.6890154     
   4976448029.6242781     
   4849913116.2365189     
   4724109728.8791809     
   4599029812.8468027     
   4790648991.8274641     
   4673485459.7780762     
   4556793749.8213549     
   4440590326.6384783     
   4324911245.4837704     
   4496010220.1467371     
   4388843170.9613256     
   4281953340.9468851     
   4175390413.6879630     
   4069230349.6377378     
   4222472993.6039982     
   4125434409.9483433     
   4028599906.6518798     
   3932039625.3476481     
   3835863416.2087207     
   3973184473.5770245     
   3886705120.6360574     
   3800512071.1280727     
   3714679161.4838743     
   3629341097.5243459     
   4599029812.8468027     
   4379488615.3658571     
   4159779386.8117518     
   3939880104.6499681     
   3719814692.6400046     
   4324911245.4837704     
   4117342472.1866479     
   3910201038.1330385     
   3703548484.9428482     
   3497520676.3600597     
   4069230349.6377378     
   3874857274.8087659     
   3681716496.8722253     
   3489982960.1591430     
   3299940315.9861989     
   3835863416.2087207     
   3655981078.4249864     
   3478360476.5644579     
   3303313927.0729079     
   3131297968.4291925     
   3629341097.5243459     
   3465248610.9629068     
   3304663762.6565828     
   3148044625.1080985     
   2996021735.9410377     
   3719814692.6400046     
   3555821778.3565674     
   3392325339.9357414     
   3229318565.8039842     
   3066844440.0263839     
   3497520676.3600597     
   3343780026.2842150     
   3191026694.6576982     
   3039316848.0144329     
   2888763015.1243477     
   3299940315.9861989     
   3156230249.1547008     
   3014012088.9294100     
   2873407164.2815928     
   2734598630.1911922     
   3131297968.4291925     
   2997514640.7088327     
   2865729174.9903145     
   2736126098.9395738     
   2608954777.4240446     
   2996021735.9410377     
   2872166980.1089668     
   2750795714.6579885     
   2632147410.2810421     
   2516525432.0615664     
   3066844440.0263839     
   2897078671.7259555     
   2727265711.3622575     
   2557391504.1076064     
   2387444446.7153444     
   2888763015.1243477     
   2723022213.2244191     
   2557455895.1954083     
   2392090128.7994246     
   2226971573.0488281     
   2734598630.1911922     
   2575071279.6100826     
   2416307084.6554742     
   2258444735.9171243     
   2101685545.7165422     
   2608954777.4240446     
   2458112573.5915647     
   2309043036.3462133     
   2162072073.3180838     
   2017648319.5266376     
   2516525432.0615664     
   2376931546.5193486     
   2240517125.8634992     
   2107834838.4200661     
   1979613784.2181094     
   2387444446.7153444     
   2243004641.4147062     
   2100697736.4418082     
   1960533084.1228490     
   1822676398.5596039     
   2226971573.0488281     
   2085114651.7644699     
   1944865466.1880739     
   1806223465.5901649     
   1669261660.1515026     
   2101685545.7165422     
   1961832035.1857076     
   1822934524.3304658     
   1685015362.6532693     
   1548124857.1826873     
   2017648319.5266376     
   1880803026.0382037     
   1744351337.8120658     
   1608412635.5932987     
   1473151444.3868511     
   1979613784.2181094     
   1848447829.9353845     
   1717480678.4922082     
   1587057845.2001035     
   1457672992.1534483     
   1822676398.5596039     
   1781365724.2806036     
   1736544102.4624817     
   1696861739.8446443     
   1680776686.1422806     
   1669261660.1515026     
   1553467720.0337176     
   1428566163.9414144     
   1294938929.2409687     
   1158697358.3186483     
   1548124857.1826873     
   1398083586.2576203     
   1244480171.6161790     
   1085067462.5717854     
   917834200.02607536     
   1473151444.3868511     
   1328921704.1967962     
   1199143500.1777198     
   1088310916.5402906     
   1002338939.4808302     
   1457672992.1534483     
   1348820045.4027123     
   1274913609.9933138     
   1244080857.8770971     
   1263347386.6695397     
   1680776686.1422806     
   1383402958.0668361     
   1129371825.2925498     
   1010316754.6738694     
   1153262909.2008657     
   1158697358.3186483     
   1008336621.3982153     
   985241963.54823065     
   1161555275.4064617     
   1544130962.0941806     
   917834200.02607536     
   963226310.85514390     
   1144998314.1027009     
   1476488901.4379406     
   1957399824.5773547     
   1002338939.4808302     
   1164905126.2262807     
   1425502450.8864033     
   1808726088.4831719     
   2334678339.0456343     
   1263347386.6695397     
   1446940633.1091771     
   1715776594.6213489     
   2110450409.5212424     
   2663422407.0393519     
   4805764664.3777809     
   4594528500.4057636     
   4385675405.7713633     
   4178654874.8331718     
   3973184473.5770245     
   4495636671.4012575     
   4300292957.6130495     
   4108546462.7806983     
   3920752886.6089072     
   3737505313.4836297     
   4217198310.7390313     
   4035090160.4213490     
   3859195911.2774286     
   3690326389.5041251     
   3529550601.4901533     
   3981767700.3293009     
   3808616988.5077424     
   3645835185.1079564     
   3494101438.9956660     
   3354423975.8855538     
   3803281638.1413651     
   3632633165.0019240     
   3478136324.2603011     
   3339653419.6690664     
   3217494765.9038134     
   3973184473.5770245     
   3886705120.6360574     
   3800512071.1280727     
   3714679161.4838743     
   3629341097.5243459     
   3737505313.4836297     
   3659186203.4312077     
   3582040699.5286570     
   3506216102.2561088     
   3431901727.0811119     
   3529550601.4901533     
   3459378480.1168518     
   3391358955.2592731     
   3325668292.9022560     
   3262510193.5585766     
   3354423975.8855538     
   3292109187.9186392     
   3232972204.4690094     
   3177162521.3530493     
   3124848804.3951745     
   3217494765.9038134     
   3162354482.3402166     
   3111407485.0069666     
   3064713544.3613825     
   3022352973.1003652     
   3629341097.5243459     
   3465248610.9629068     
   3304663762.6565828     
   3148044625.1080985     
   2996021735.9410377     
   3431901727.0811119     
   3284556763.9851103     
   3141685695.4548635     
   3003863466.3392510     
   2871840003.4953918     
   3262510193.5585766     
   3132445018.9895263     
   3007855013.6270852     
   2889400161.4494343     
   2777901607.1442347     
   3124848804.3951745     
   3012462439.8441286     
   2906513477.8586612     
   2807697020.2265215     
   2716839235.9646330     
   3022352973.1003652     
   2927762498.1544456     
   2840442540.1080675     
   2761062916.1499691     
   2690383821.9408712     
   2996021735.9410377     
   2872166980.1089668     
   2750795714.6579885     
   2632147410.2810421     
   2516525432.0615664     
   2871840003.4953918     
   2758394100.7426901     
   2648259210.9220757     
   2541781537.1788435     
   2439384956.7068329     
   2777901607.1442347     
   2676599908.8989635     
   2579577510.4729056     
   2487278188.6531129     
   2400227587.3261623     
   2716839235.9646330     
   2629190278.7495756     
   2546847267.0468268     
   2470318559.7089605     
   2400185647.2980828     
   2690383821.9408712     
   2617456019.1440606     
   2550818597.5260615     
   2490996013.1357994     
   2438567287.8697042     
   2516525432.0615664     
   2376931546.5193486     
   2240517125.8634992     
   2107834838.4200661     
   1979613784.2181094     
   2439384956.7068329     
   2314524999.0821896     
   2194553653.6215315     
   2080243666.3605890     
   1972553025.8621578     
   2400227587.3261623     
   2291952436.0318093     
   2190269520.2628703     
   2096055599.6747322     
   2010329885.4906223     
   2400185647.2980828     
   2309394133.2333717     
   2226647199.2000690     
   2152778619.1285505     
   2088694308.3004580     
   2438567287.8697042     
   2365027859.1238761     
   2300575998.2069435     
   2245886985.2442021     
   2201645945.4640722     
   1979613784.2181094     
   1848447829.9353845     
   1717480678.4922082     
   1587057845.2001035     
   1457672992.1534483     
   1972553025.8621578     
   1855984015.3168535     
   1743864870.7561913     
   1637108148.0173373     
   1536832180.3557694     
   2010329885.4906223     
   1913491090.4218295     
   1825440487.6001093     
   1747370865.7154851     
   1680568758.8515723     
   2088694308.3004580     
   2013220019.4527569     
   1950080923.2081168     
   1900357073.6203201     
   1865081386.8467870     
   2201645945.4640722     
   2146208980.7178323     
   2105682281.0505242     
   2080843897.8965771     
   2072380239.3521256     
   1457672992.1534483     
   1348820045.4027123     
   1274913609.9933138     
   1244080857.8770971     
   1263347386.6695397     
   1536832180.3557694     
   1476145884.7487521     
   1448137527.2551353     
   1456772495.8443770     
   1505332537.2664037     
   1680568758.8515723     
   1652265113.5579302     
   1651675520.8336992     
   1681165395.3541067     
   1743335146.4502449     
   1865081386.8467870     
   1854747589.8497388     
   1867377606.0139041     
   1905177172.4692862     
   1971176848.5832930     
   2072380239.3521256     
   2068993942.4729333     
   2084830309.3644030     
   2122520074.3398156     
   2185884187.2082353     
   1263347386.6695397     
   1446940633.1091771     
   1715776594.6213489     
   2110450409.5212424     
   2663422407.0393519     
   1505332537.2664037     
   1613536269.7091696     
   1788955707.3454485     
   2066351303.7418261     
   2475943800.9372449     
   1743335146.4502449     
   1787955384.9344344     
   1884738791.1098309     
   2060598599.8364170     
   2340769605.6113591     
   1971176848.5832930     
   1969153860.6141763     
   2003691142.6822462     
   2093459773.8563819     
   2257114167.4179535     
   2185884187.2082353     
   2156414555.2415209     
   2146553424.8056757     
   2166813574.4743977     
   2228251445.7751055     
   3803281638.1413651     
   3632633165.0019240     
   3478136324.2603011     
   3339653419.6690664     
   3217494765.9038134     
   3554854267.0575643     
   3416458852.9769607     
   3289437907.7893271     
   3174361916.7183967     
   3071995696.3971257     
   3327397606.1344285     
   3220177030.3164210     
   3122032120.6444559     
   3033453147.8012061     
   2955174369.8438725     
   3118960506.1691298     
   3042810362.4450355     
   2976458269.6734123     
   2919213811.4885602     
   2871104882.5476007     
   2929150510.0669413     
   2884290115.1118789     
   2853658950.1838937     
   2833873339.1612945     
   2823339483.7161083     
   3217494765.9038134     
   3162354482.3402166     
   3111407485.0069666     
   3064713544.3613825     
   3022352973.1003652     
   3071995696.3971257     
   3023625650.0185318     
   2979762620.8935227     
   2940476276.1756859     
   2905855056.6584196     
   2955174369.8438725     
   2913151292.9145966     
   2876003356.2025733     
   2843800310.7157092     
   2816628120.9578676     
   2871104882.5476007     
   2834639649.5805340     
   2803460988.2912426     
   2777629375.1715102     
   2757218499.2427902     
   2823339483.7161083     
   2791233967.1939926     
   2764858842.7541866     
   2744258541.9690709     
   2729487684.8206711     
   3022352973.1003652     
   2927762498.1544456     
   2840442540.1080675     
   2761062916.1499691     
   2690383821.9408712     
   2905855056.6584196     
   2827189537.2194829     
   2756713194.2108903     
   2695052147.8005991     
   2642895721.8547111     
   2816628120.9578676     
   2753628626.8136358     
   2699639106.4835477     
   2655196324.8868861     
   2620873129.9651170     
   2757218499.2427902     
   2708980706.2106905     
   2670444937.4437370     
   2642026428.1518826     
   2624155781.9908228     
   2729487684.8206711     
   2694395831.4964719     
   2669572995.0634084     
   2655301753.3686476     
   2651868907.7883291     
   2690383821.9408712     
   2617456019.1440606     
   2550818597.5260615     
   2490996013.1357994     
   2438567287.8697042     
   2642895721.8547111     
   2584491119.8511896     
   2533098710.9455538     
   2489168527.9910388     
   2453177669.7758703     
   2620873129.9651170     
   2576172172.4254899     
   2539024254.1914988     
   2509779893.3457212     
   2488796117.4430318     
   2624155781.9908228     
   2591789081.9072661     
   2567345263.8991570     
   2551069625.3939347     
   2543202642.9941139     
   2651868907.7883291     
   2629997745.4646668     
   2616288717.8719144     
   2610892855.4162674     
   2613953034.0012164     
   2438567287.8697042     
   2365027859.1238761     
   2300575998.2069435     
   2245886985.2442021     
   2201645945.4640722     
   2453177669.7758703     
   2395173310.7486420     
   2346989166.6640053     
   2309173901.6919985     
   2282254589.1775627     
   2488796117.4430318     
   2445372435.9222527     
   2412281684.2052546     
   2389929100.9474115     
   2378683911.0104599     
   2543202642.9941139     
   2512897988.8540330     
   2493288784.1371169     
   2484647116.3766909     
   2487209079.4822993     
   2613953034.0012164     
   2594958655.1254840     
   2586963554.0202065     
   2590131868.5501847     
   2604600299.5224113     
   2201645945.4640722     
   2146208980.7178323     
   2105682281.0505242     
   2080843897.8965771     
   2072380239.3521256     
   2282254589.1775627     
   2241986890.9699264     
   2215543613.9652586     
   2203375600.9535933     
   2205869742.9809976     
   2378683911.0104599     
   2350556777.3085418     
   2335135947.7492623     
   2332667831.4045997     
   2343368816.7767820     
   2487209079.4822993     
   2468505436.7428465     
   2461475641.0167856     
   2466250726.2926459     
   2482959908.4589558     
   2604600299.5224113     
   2592987878.9663687     
   2592162487.0091901     
   2602198435.9079256     
   2623187832.5794020     
   2072380239.3521256     
   2068993942.4729333     
   2084830309.3644030     
   2122520074.3398156     
   2185884187.2082353     
   2205869742.9809976     
   2191556432.5361843     
   2192245573.0386596     
   2209907771.1044278     
   2247469761.6128373     
   2343368816.7767820     
   2318962181.5892491     
   2306122571.5950909     
   2306257232.0857072     
   2321458860.1621213     
   2482959908.4589558     
   2450242743.3918033     
   2426144231.5405331     
   2411610876.1255436     
   2408021128.2486849     
   2623187832.5794020     
   2584621532.0191083     
   2552028045.3645978     
   2525988927.4190130     
   2507312291.8407998     
   2185884187.2082353     
   2156414555.2415209     
   2146553424.8056757     
   2166813574.4743977     
   2228251445.7751055     
   2247469761.6128373     
   2182704028.8992877     
   2134374083.6380787     
   2112138088.9362042     
   2126918832.6634662     
   2321458860.1621213     
   2224726533.1506500     
   2141307319.8598025     
   2079560056.5675173     
   2049648078.2617936     
   2408021128.2486849     
   2282774849.7126002     
   2167999525.0109792     
   2070430834.0604239     
   1998832058.8362637     
   2507312291.8407998     
   2357056855.6062794     
   2214920618.6870193     
   2085881673.5418155     
   1976814333.2017939     
   2929150510.0669413     
   2884290115.1118789     
   2853658950.1838937     
   2833873339.1612945     
   2823339483.7161083     
   2704960005.5203347     
   2694011255.7162166     
   2695681945.8532462     
   2709172168.7618518     
   2734200732.8223486     
   2569948611.5156536     
   2577825654.1228514     
   2597834029.7411609     
   2630102442.6184540     
   2674750688.3047876     
   2536712797.3011308     
   2544998840.6769629     
   2566496062.7967429     
   2600370410.3622198     
   2646267894.9820642     
   2610182641.0532665     
   2599147765.0785189     
   2604030156.5009499     
   2621239931.4397812     
   2649111673.5811501     
   2823339483.7161083     
   2791233967.1939926     
   2764858842.7541866     
   2744258541.9690709     
   2729487684.8206711     
   2734200732.8223486     
   2708622552.9006572     
   2688606741.0802011     
   2674203474.6332612     
   2665465853.3021364     
   2674750688.3047876     
   2655553758.5283656     
   2641877984.7409964     
   2633747806.7358227     
   2631197343.4616551     
   2646267894.9820642     
   2633173204.2253461     
   2625698053.2874551     
   2623807089.6862588     
   2627496526.9709029     
   2649111673.5811501     
   2641673418.4132633     
   2640108199.5630231     
   2644286517.7996063     
   2654147447.3241034     
   2729487684.8206711     
   2694395831.4964719     
   2669572995.0634084     
   2655301753.3686476     
   2651868907.7883291     
   2665465853.3021364     
   2641503528.4186039     
   2627830318.4723735     
   2624607189.6425400     
   2631992396.4964776     
   2631197343.4616551     
   2615386083.4072866     
   2609803617.0014353     
   2614518378.3297276     
   2629595696.9100914     
   2627496526.9709029     
   2616510088.8935542     
   2615660260.5179610     
   2624959740.5202513     
   2644420558.4355640     
   2654147447.3241034     
   2644513077.5554323     
   2644928036.8646846     
   2655387735.4926958     
   2675889609.5106516     
   2651868907.7883291     
   2629997745.4646668     
   2616288717.8719144     
   2610892855.4162674     
   2613953034.0012164     
   2631992396.4964776     
   2617640697.3836040     
   2611516546.6270981     
   2613705372.8918142     
   2624286151.4082947     
   2629595696.9100914     
   2620858983.5953512     
   2620418092.9487443     
   2628310445.6490932     
   2644569917.0464430     
   2644420558.4355640     
   2639221174.6922002     
   2642420066.0343390     
   2654026134.2863498     
   2674047288.4584937     
   2675889609.5106516     
   2672057361.9213166     
   2676783325.3535719     
   2690067918.4646630     
   2711911695.0515742     
   2613953034.0012164     
   2594958655.1254840     
   2586963554.0202065     
   2590131868.5501847     
   2604600299.5224113     
   2624286151.4082947     
   2612928164.3264289     
   2612122793.3073564     
   2621957003.8380504     
   2642501647.5476174     
   2644569917.0464430     
   2639072943.7781119     
   2643783309.7230501     
   2658738315.4534369     
   2683968072.8888183     
   2674047288.4584937     
   2672664812.0783343     
   2681270260.8046041     
   2699873294.9410048     
   2728482022.1993618     
   2711911695.0515742     
   2712960732.1861134     
   2723918379.6013803     
   2744784020.2616105     
   2775557566.9952025     
   2604600299.5224113     
   2592987878.9663687     
   2592162487.0091901     
   2602198435.9079256     
   2623187832.5794020     
   2642501647.5476174     
   2632230194.9236765     
   2632011046.3011150     
   2641881358.7398357     
   2661890183.3636093     
   2683968072.8888183     
   2674743809.6855898     
   2675008239.8676143     
   2684775656.7854857     
   2704066648.6410022     
   2728482022.1993618     
   2720142074.7216187     
   2720881794.0023770     
   2730703884.8492665     
   2749613164.2720423     
   2775557566.9952025     
   2768058071.9003134     
   2769369290.7159529     
   2779491090.6827393     
   2798423413.3744311     
   2623187832.5794020     
   2584621532.0191083     
   2552028045.3645978     
   2525988927.4190130     
   2507312291.8407998     
   2661890183.3636093     
   2616452983.2322192     
   2576734122.7025018     
   2543064087.5796103     
   2515904311.6401997     
   2704066648.6410022     
   2653853657.1506829     
   2609248730.4141631     
   2570398760.9708967     
   2537509207.2801776     
   2749613164.2720423     
   2696727998.6592350     
   2649483845.2420430     
   2607916972.0645461     
   2572077947.6923909     
   2798423413.3744311     
   2744972033.7521310     
   2697336961.2569795     
   2655518191.1358604     
   2619515723.1649728     
   2507312291.8407998     
   2357056855.6062794     
   2214920618.6870193     
   2085881673.5418155     
   1976814333.2017939     
   2515904311.6401997     
   2348097539.7124643     
   2183814568.8011999     
   2026153739.5520163     
   1879678212.5958714     
   2537509207.2801776     
   2357236850.0005026     
   2176688210.8788848     
   1997333936.4740486     
   1821450990.4252291     
   2572077947.6923909     
   2384579569.8649721     
   2194008427.3780861     
   2000742481.2915044     
   1805385456.3356199     
   2619515723.1649728     
   2430095703.1197042     
   2235918025.4239273     
   2036982688.9170179     
   1833289692.8147120     
   2610182641.0532665     
   2599147765.0785189     
   2604030156.5009499     
   2621239931.4397812     
   2649111673.5811501     
   2667935110.4534373     
   2637353965.4868770     
   2618968564.1218457     
   2611682486.8226800     
   2615007369.2701316     
   2745420208.8904910     
   2698751986.8170986     
   2663276043.3169746     
   2639026681.5937915     
   2626086398.5631051     
   2841908540.7213969     
   2782817078.5268607     
   2736380737.2830710     
   2702569754.3555689     
   2681493952.0551100     
   2958181471.1103086     
   2889476323.7718415     
   2837220545.8415871     
   2800287733.5623784     
   2778336403.7140570     
   2649111673.5811501     
   2641673418.4132633     
   2640108199.5630231     
   2644286517.7996063     
   2654147447.3241034     
   2615007369.2701316     
   2610487226.5499024     
   2611933884.0348358     
   2619305877.5694242     
   2632578341.7927852     
   2626086398.5631051     
   2620210047.0985332     
   2620206702.3877664     
   2626103259.7893605     
   2637926845.6353126     
   2681493952.0551100     
   2670186342.9197483     
   2664461094.0945244     
   2664386698.0836768     
   2670052796.9253101     
   2778336403.7140570     
   2758040772.2887611     
   2742834598.4824128     
   2732788999.8576684     
   2728052204.4612322     
   2654147447.3241034     
   2644513077.5554323     
   2644928036.8646846     
   2655387735.4926958     
   2675889609.5106516     
   2632578341.7927852     
   2620892478.6058249     
   2619022898.1157203     
   2626988720.6919641     
   2644808821.3007917     
   2637926845.6353126     
   2621553990.8018241     
   2614832819.6505914     
   2617832721.7935510     
   2630619600.9785509     
   2670052796.9253101     
   2646598421.8770185     
   2632668495.4706068     
   2628404919.9384990     
   2633943871.7143154     
   2728052204.4612322     
   2695480193.9151564     
   2672306908.6152434     
   2658762282.5244918     
   2655071470.6602349     
   2675889609.5106516     
   2672057361.9213166     
   2676783325.3535719     
   2690067918.4646630     
   2711911695.0515742     
   2644808821.3007917     
   2639077880.1030998     
   2641794957.1373563     
   2652970894.0196199     
   2672615831.2632165     
   2630619600.9785509     
   2620944130.9837599     
   2619665793.9855347     
   2626824854.8715186     
   2642458593.9977479     
   2633943871.7143154     
   2618352447.0110674     
   2611143557.5421171     
   2612405834.2501254     
   2622222231.9625168     
   2655071470.6602349     
   2631744480.7019000     
   2616791327.5227938     
   2610366510.6840930     
   2612617276.7379298     
   2711911695.0515742     
   2712960732.1861134     
   2723918379.6013803     
   2744784020.2616105     
   2775557566.9952025     
   2672615831.2632165     
   2671982033.0535917     
   2681284043.9023156     
   2700528124.8483644     
   2729718887.5495639     
   2642458593.9977479     
   2638186020.8570080     
   2644003209.4902234     
   2659943357.6832013     
   2686032239.7553029     
   2622222231.9625168     
   2612313596.8539934     
   2612758301.9301291     
   2623640538.9585719     
   2645028172.6433635     
   2612617276.7379298     
   2595079140.5219851     
   2588238497.7943592     
   2592259182.6019907     
   2607277897.0849414     
   2775557566.9952025     
   2768058071.9003134     
   2769369290.7159529     
   2779491090.6827393     
   2798423413.3744311     
   2729718887.5495639     
   2720928571.5547018     
   2721276954.9424458     
   2730767820.2976308     
   2749406030.8646064     
   2686032239.7553029     
   2676027819.9707060     
   2675635559.9934688     
   2684870855.9445319     
   2703754688.7511339     
   2645028172.6433635     
   2633751064.7743449     
   2632721956.9651451     
   2641978568.0634513     
   2661571390.6474996     
   2607277897.0849414     
   2594518594.8220263     
   2592825287.0819402     
   2602272274.7626600     
   2622955217.6218109     
   2798423413.3744311     
   2744972033.7521310     
   2697336961.2569795     
   2655518191.1358604     
   2619515723.1649728     
   2749406030.8646064     
   2696618768.2226248     
   2649456667.3456621     
   2607956542.1288371     
   2572170129.2730298     
   2703754688.7511339     
   2653704144.6481671     
   2609229600.8019128     
   2570478509.6846275     
   2537657256.5970936     
   2661571390.6474996     
   2616329910.2682633     
   2576757736.3949690     
   2543185321.7650967     
   2516073306.5942554     
   2622955217.6218109     
   2584589008.8901834     
   2552128381.0457911     
   2526153637.1560154     
   2507468959.6366096     
   2619515723.1649728     
   2430095703.1197042     
   2235918025.4239273     
   2036982688.9170179     
   1833289692.8147120     
   2572170129.2730298     
   2384630897.0291605     
   2194031757.4771843     
   2000751275.9434118     
   1805393597.0329990     
   2537657256.5970936     
   2357316282.1483078     
   2176724440.7614436     
   1997354562.4090927     
   1821486389.9995139     
   2516073306.5942554     
   2348182707.3865008     
   2183853334.1333070     
   2026187992.7624958     
   1879756032.0921626     
   2507468959.6366096     
   2357126361.2072105     
   2214951754.9578061     
   2085930367.0732691     
   1976946252.4721482     
   2958181471.1103086     
   2889476323.7718415     
   2837220545.8415871     
   2800287733.5623784     
   2778336403.7140570     
   3050824519.3404007     
   2980689504.4030790     
   2924407996.1038108     
   2882202706.6607151     
   2854528487.5670691     
   3216047191.4755983     
   3134850924.7135863     
   3064680842.4675550     
   3006380941.0361671     
   2960890896.3808622     
   3440469418.3886008     
   3341340229.4960308     
   3250262894.8879838     
   3167926168.5914984     
   3095318025.2176771     
   3711274152.5867562     
   3589639452.8665562     
   3473118294.0791149     
   3361521348.8705792     
   3255376733.6960135     
   2778336403.7140570     
   2758040772.2887611     
   2742834598.4824128     
   2732788999.8576684     
   2728052204.4612322     
   2854528487.5670691     
   2821974617.5967216     
   2793966779.3581119     
   2770647816.9532180     
   2752198704.0588956     
   2960890896.3808622     
   2916988046.8166943     
   2877294796.5727539     
   2841967185.2874703     
   2811180060.4332747     
   3095318025.2176771     
   3041169051.4955692     
   2991107588.5643220     
   2945252712.7792215     
   2903739903.7689924     
   3255376733.6960135     
   3192122448.5496621     
   3133048702.4614305     
   3078197120.4424820     
   3027637712.6116986     
   2728052204.4612322     
   2695480193.9151564     
   2672306908.6152434     
   2658762282.5244918     
   2655071470.6602349     
   2752198704.0588956     
   2706344580.9303145     
   2669871972.7635198     
   2643154694.8284411     
   2626573916.0095968     
   2811180060.4332747     
   2749729433.1096244     
   2697400432.8517327     
   2654716641.6442852     
   2622236171.2526069     
   2903739903.7689924     
   2824976434.5034943     
   2754814357.2362642     
   2693905742.8423324     
   2642978469.1733561     
   3027637712.6116986     
   2930449236.5081367     
   2841106496.2304664     
   2760344100.9717832     
   2689021299.8901520     
   2655071470.6602349     
   2631744480.7019000     
   2616791327.5227938     
   2610366510.6840930     
   2612617276.7379298     
   2626573916.0095968     
   2592844640.3318458     
   2567230897.5383196     
   2549974765.5343227     
   2541313500.0156045     
   2622236171.2526069     
   2576481542.9178634     
   2538482157.1654124     
   2508575623.3101163     
   2487103765.2917614     
   2642978469.1733561     
   2584012734.2051754     
   2532303082.0101776     
   2488275797.2840633     
   2452377937.3322120     
   2689021299.8901520     
   2616165168.3251858     
   2549917701.8170109     
   2490770247.1319532     
   2439256926.8768148     
   2612617276.7379298     
   2595079140.5219851     
   2588238497.7943592     
   2592259182.6019907     
   2607277897.0849414     
   2541313500.0156045     
   2512220750.5024524     
   2493605563.7390947     
   2485745928.5640683     
   2488884736.4700971     
   2487103765.2917614     
   2444498468.2320738     
   2412069056.0863242     
   2390237650.4533625     
   2379392390.3180819     
   2452377937.3322120     
   2394646565.2473602     
   2346612790.1804848     
   2308857868.3849311     
   2281945937.9101639     
   2439256926.8768148     
   2365299225.6490202     
   2300310338.2287755     
   2245016991.9063816     
   2200164763.5305181     
   2607277897.0849414     
   2594518594.8220263     
   2592825287.0819402     
   2602272274.7626600     
   2622955217.6218109     
   2488884736.4700971     
   2469467107.0706882     
   2461899899.1388617     
   2466314427.7486091     
   2482842961.7247863     
   2379392390.3180819     
   2350967496.0557823     
   2335324919.2054024     
   2332710100.4404736     
   2343340636.8881779     
   2281945937.9101639     
   2241808907.8657899     
   2215471637.8667965     
   2203379384.0964084     
   2205915336.9655256     
   2200164763.5305181     
   2145332281.7536938     
   2105284785.8383005     
   2080784146.7839594     
   2072502163.2058268     
   2622955217.6218109     
   2584589008.8901834     
   2552128381.0457911     
   2526153637.1560154     
   2507468959.6366096     
   2482842961.7247863     
   2450220206.4641991     
   2426179458.1779475     
   2411666402.3630137     
   2408055502.8906970     
   2343340636.8881779     
   2318931511.1205397     
   2306083116.7163801     
   2306202466.4849491     
   2321378724.9996214     
   2205915336.9655256     
   2191506069.2631006     
   2192123856.0344748     
   2209740298.1925097     
   2247279925.5939627     
   2072502163.2058268     
   2068921414.2444520     
   2084621275.7989559     
   2122236136.8830285     
   2185587271.3274288     
   2507468959.6366096     
   2357126361.2072105     
   2214951754.9578061     
   2085930367.0732691     
   1976946252.4721482     
   2408055502.8906970     
   2282790169.1996207     
   2168024796.7248688     
   2070501201.6500771     
   1998990240.6126063     
   2321378724.9996214     
   2224689832.3003798     
   2141322750.8398936     
   2079640747.6328561     
   2049812294.2714372     
   2247279925.5939627     
   2182615469.2074046     
   2134374776.1881225     
   2112218352.9763579     
   2127072090.8711913     
   2185587271.3274288     
   2156272641.3028579     
   2146533706.9873033     
   2166883456.1387906     
   2228380159.6667123     
   3711274152.5867562     
   3589639452.8665562     
   3473118294.0791149     
   3361521348.8705792     
   3255376733.6960135     
   3974307298.3627410     
   3820188754.2233691     
   3670901996.4953961     
   3526788626.2099657     
   3388543266.3071113     
   4253464357.9280143     
   4070774274.7586217     
   3893513313.4577780     
   3722224902.2647901     
   3557677627.6870852     
   4549102731.9331656     
   4340333531.7360554     
   4138299931.2411914     
   3943495484.3962059     
   3756703711.7986031     
   4861857050.2760792     
   4628098072.8873119     
   4402950715.1044722     
   4186664715.3069210     
   3980001456.0804882     
   3255376733.6960135     
   3192122448.5496621     
   3133048702.4614305     
   3078197120.4424820     
   3027637712.6116986     
   3388543266.3071113     
   3319983548.0565252     
   3254715013.7354412     
   3192846987.2253881     
   3134510746.8499627     
   3557677627.6870852     
   3482892851.7660451     
   3410461985.0949492     
   3340528704.6225390     
   3273259727.3628511     
   3756703711.7986031     
   3675251271.7948079     
   3595206498.0396252     
   3516716534.0705762     
   3439958140.4086270     
   3980001456.0804882     
   3891813205.1445141     
   3804109968.8231912     
   3717017053.9313354     
   3630700026.7339721     
   3027637712.6116986     
   2930449236.5081367     
   2841106496.2304664     
   2760344100.9717832     
   2689021299.8901520     
   3134510746.8499627     
   3019310591.1569552     
   2910755443.4008689     
   2809575155.2703800     
   2716652124.1659384     
   3273259727.3628511     
   3140845196.0082874     
   3013875299.7601953     
   2893016545.4798222     
   2779100672.2106614     
   3439958140.4086270     
   3291470314.6870790     
   3147312001.2656317     
   3008047820.1485219     
   2874403328.6615448     
   3630700026.7339721     
   3467435692.2232552     
   3307529175.7489891     
   3151427956.0092626     
   2999723305.7071161     
   2689021299.8901520     
   2616165168.3251858     
   2549917701.8170109     
   2490770247.1319532     
   2439256926.8768148     
   2716652124.1659384     
   2629578257.4010620     
   2547996900.1618233     
   2472416372.4216928     
   2403413087.5905848     
   2779100672.2106614     
   2678418947.5826492     
   2582022866.8850555     
   2490377139.9549041     
   2404029933.9982262     
   2874403328.6615448     
   2761339678.2719049     
   2651374845.8585110     
   2544882042.6366239     
   2442317467.3317637     
   2999723305.7071161     
   2875907263.8669877     
   2754125938.1557665     
   2634639462.4091959     
   2517776580.0286345     
   2439256926.8768148     
   2365299225.6490202     
   2300310338.2287755     
   2245016991.9063816     
   2200164763.5305181     
   2403413087.5905848     
   2311417969.3588424     
   2227400234.7812147     
   2152207106.8794274     
   2086765759.2763097     
   2404029933.9982262     
   2294209106.5036883     
   2191030627.5862422     
   2095357176.1040013     
   2008195005.9666462     
   2442317467.3317637     
   2315874364.1293397     
   2194546533.3111429     
   2079084752.2300515     
   1970418236.9488778     
   2517776580.0286345     
   2376725016.5178771     
   2239291778.8514500     
   2106021244.3557956     
   1977623899.4027402     
   2200164763.5305181     
   2145332281.7536938     
   2105284785.8383005     
   2080784146.7839594     
   2072502163.2058268     
   2086765759.2763097     
   2011981501.4596879     
   1949430855.8122566     
   1900179361.6570120     
   1865243781.1039059     
   2008195005.9666462     
   1912080382.4182987     
   1824662587.9977157     
   1747123455.3364608     
   1680735729.6973054     
   1970418236.9488778     
   1854566763.7421114     
   1743070205.3873248     
   1636834933.9327602     
   1536972388.2234480     
   1977623899.4027402     
   1847142654.0123713     
   1716750305.7980506     
   1586790981.4553225     
   1457761682.5876729     
   2072502163.2058268     
   2068921414.2444520     
   2084621275.7989559     
   2122236136.8830285     
   2185587271.3274288     
   1865243781.1039059     
   1854716295.7511113     
   1867198614.1215346     
   1904901683.8828483     
   1970859867.8473654     
   1680735729.6973054     
   1652244921.9624450     
   1651505611.7105474     
   1680890020.8418453     
   1743005474.9687104     
   1536972388.2234480     
   1476109588.2406833     
   1447956709.5312214     
   1456487857.9850099     
   1504994991.4147255     
   1457761682.5876729     
   1348745755.1411176     
   1274705038.6054754     
   1243777768.3075683     
   1263004551.3995047     
   2185587271.3274288     
   2156272641.3028579     
   2146533706.9873033     
   2166883456.1387906     
   2228380159.6667123     
   1970859867.8473654     
   1968982857.1176386     
   2003644082.9360480     
   2093512133.5995088     
   2257239148.4354291     
   1743005474.9687104     
   1787760474.9204912     
   1884666153.8553843     
   2060630483.4487817     
   2340881561.6253352     
   1504994991.4147255     
   1613322590.1367497     
   1788859842.6665020     
   2066360040.7360888     
   2476034167.2732086     
   1263004551.3995047     
   1446713533.5652914     
   1715660708.7015498     
   2110434604.2915351     
   2663485355.1201110     
   4861857050.2760792     
   4628098072.8873119     
   4402950715.1044722     
   4186664715.3069210     
   3980001456.0804882     
   5165849455.9416428     
   4924633912.1447649     
   4686890462.7913923     
   4453054636.1216202     
   4223759732.7869802     
   5492075328.9186430     
   5244279565.9500093     
   4995664914.3971682     
   4746221738.9399118     
   4496070803.4360695     
   5830612946.2540751     
   5578943409.7655306     
   5322991096.1058836     
   5061867665.8877277     
   4794983814.6447239     
   6174193405.6774473     
   5922476007.1675920     
   5663881030.9765596     
   5396382160.5161848     
   5118657076.8222017     
   3980001456.0804882     
   3891813205.1445141     
   3804109968.8231912     
   3717017053.9313354     
   3630700026.7339721     
   4223759732.7869802     
   4123486232.2958512     
   4024340134.3362060     
   3926401399.8003616     
   3829776874.4817934     
   4496070803.4360695     
   4383832739.4872761     
   4273408682.2249298     
   4164801523.9500318     
   4058049005.1788874     
   4794983814.6447239     
   4670299694.7896509     
   4548112454.6293821     
   4428326510.0018101     
   4310907195.3377409     
   5118657076.8222017     
   4980534384.7324848     
   4845555922.9114437     
   4713515625.8479204     
   4584309563.6087255     
   3630700026.7339721     
   3467435692.2232552     
   3307529175.7489891     
   3151427956.0092626     
   2999723305.7071161     
   3829776874.4817934     
   3652226993.4018431     
   3476781559.5893860     
   3303750674.7435746     
   3133571771.0354738     
   4058049005.1788874     
   3867054409.4809680     
   3677028180.8669529     
   3488135201.0842390     
   3300643113.2062392     
   4310907195.3377409     
   4107360341.5067725     
   3903799875.9941554     
   3700255073.1623802     
   3496832117.2929015     
   4584309563.6087255     
   4369087048.7300949     
   4153036227.5503936     
   3936070510.4621248     
   3718158162.7168875     
   2999723305.7071161     
   2875907263.8669877     
   2754125938.1557665     
   2634639462.4091959     
   2517776580.0286345     
   3133571771.0354738     
   2999415525.2282510     
   2866995225.7660007     
   2736498811.8014641     
   2608178383.3728018     
   3300643113.2062392     
   3156485166.8438859     
   3013771873.1039348     
   2872616341.2655115     
   2733191621.9494753     
   3496832117.2929015     
   3342686554.4189572     
   3189702526.9725757     
   3037921440.1023588     
   2887442095.9679890     
   3718158162.7168875     
   3553733802.7709765     
   3390191516.7277336     
   3227507080.2025795     
   3065713491.7409840     
   2517776580.0286345     
   2376725016.5178771     
   2239291778.8514500     
   2106021244.3557956     
   1977623899.4027402     
   2608178383.3728018     
   2456716935.1711130     
   2307325772.3489633     
   2160338375.8654385     
   2016208092.6300137     
   2733191621.9494753     
   2573632180.1592813     
   2414944689.0528646     
   2257276736.8579907     
   2100839323.9397349     
   2887442095.9679890     
   2722176118.7289939     
   2556980819.9477744     
   2391885293.0835586     
   2226941010.0044208     
   3065713491.7409840     
   2896995159.3540916     
   2727910076.1760240     
   2558442464.4706397     
   2388582127.4623775     
   1977623899.4027402     
   1847142654.0123713     
   1716750305.7980506     
   1586790981.4553225     
   1457761682.5876729     
   2016208092.6300137     
   1879788804.3122861     
   1743717730.2664382     
   1608117605.9499996     
   1473157161.2342312     
   2100839323.9397349     
   1961138750.6011415     
   1822401270.9839571     
   1684652500.0267937     
   1547946004.1374125     
   2226941010.0044208     
   2084906422.6204066     
   1944518961.0708480     
   1805776909.7226706     
   1668754130.3951256     
   2388582127.4623775     
   2243540166.3797011     
   2100680782.7565799     
   1960006036.2277110     
   1821681624.4504418     
   1457761682.5876729     
   1348745755.1411176     
   1274705038.6054754     
   1243777768.3075683     
   1263004551.3995047     
   1473157161.2342312     
   1328841826.4801211     
   1198989186.1689358     
   1088093582.2620275     
   1002073807.8593109     
   1547946004.1374125     
   1397922703.3952277     
   1244335698.4629192     
   1084924720.7887759     
   917667415.36280012     
   1668754130.3951256     
   1553110097.0823872     
   1428347653.5085123     
   1294835699.3056102     
   1158693221.4650385     
   1821681624.4504418     
   1780686591.6137216     
   1736165866.1480942     
   1696764840.2101998     
   1680969926.6121292     
   1263004551.3995047     
   1446713533.5652914     
   1715660708.7015498     
   2110434604.2915351     
   2663485355.1201110     
   1002073807.8593109     
   1164721996.5974741     
   1425403470.8356531     
   1808709638.6203349     
   2334738267.3526273     
   917667415.36280012     
   963092157.85310686     
   1144913953.1119032     
   1476471503.5181475     
   1957462733.4404223     
   1158693221.4650385     
   1008310154.8655275     
   985194167.78593493     
   1161532402.9611740     
   1544192043.2756658     
   1680969926.6121292     
   1383532662.7052436     
   1129410105.0560009     
   1010280689.9257709     
   1153277961.6333809     
 </DataArray>
 <DataArray  type="Float64" Name="strain" NumberOfComponents="3" format="ascii">
  0.10395913211367147       -3.9147797942366336E-002  -4.6549679536154187E-003
   9.9115139502863658E-002  -3.4878441099798208E-002  -3.8264721509216892E-003
   9.4271146892055957E-002  -3.1505829077248360E-002  -2.7663737646336228E-003
   8.9427154281248200E-002  -2.9029961874717722E-002  -1.4746727947513860E-003
   8.4583161670440443E-002  -2.7450839492205725E-002   4.8630758725853873E-005
   9.7836496006748597E-002  -3.3266304508826283E-002   6.4511373759854607E-003
   9.3230159112811239E-002  -3.0312614035747087E-002   6.4283421992178402E-003
   8.8623822218874104E-002  -2.7947688069265009E-002   6.6492558725968487E-003
   8.4017485324936858E-002  -2.6171526609379839E-002   7.1138783961225971E-003
   7.9411148430999612E-002  -2.4984129656091980E-002   7.8222097697948634E-003
   9.1599270450396120E-002  -2.7384811075286342E-002   1.6087586179386937E-002
   8.7242695539881565E-002  -2.5746786971696189E-002   1.5521480336579407E-002
   8.2886120629367094E-002  -2.4389547061281408E-002   1.5211189610471132E-002
   7.8529545718852553E-002  -2.3313091344042185E-002   1.5156714001061292E-002
   7.4172970808338068E-002  -2.2517419819978346E-002   1.5358053508350317E-002
   8.5247455444614248E-002  -2.1503317641746400E-002   2.4254378456588024E-002
   8.1152748784074677E-002  -2.1180959907645305E-002   2.3452942261162860E-002
   7.7058042123534898E-002  -2.0831406053297932E-002   2.2919427448988498E-002
   7.2963335462995244E-002  -2.0454656078704472E-002   2.2653834020065228E-002
   6.8868628802455562E-002  -2.0050709983864656E-002   2.2656161974392582E-002
   7.8781050989403134E-002  -1.5621824208206403E-002   3.0951514207589403E-002
   7.4960318845390395E-002  -1.6615132843594393E-002   3.0222727972967878E-002
   7.1139586701377655E-002  -1.7273265045314526E-002   2.9773969388149552E-002
   6.7318854557364916E-002  -1.7596220813366693E-002   2.9605238453134050E-002
   6.3498122413352176E-002  -1.7584000147750967E-002   2.9716535167921609E-002
   8.4583161670440443E-002  -2.7450839492205725E-002   4.8630758725853873E-005
   8.2582910205969196E-002  -2.6342186841211701E-002  -6.8836384140347207E-005
   8.0582658741497948E-002  -2.5277728833234842E-002  -5.6708339087052639E-005
   7.8582407277026700E-002  -2.4257465468275501E-002   8.5014893885904108E-005
   7.6582155812555452E-002  -2.3281396746332894E-002   3.5633331477857855E-004
   7.9411148430999612E-002  -2.4984129656091980E-002   7.8222097697948634E-003
   7.7539264954622433E-002  -2.4093802118428431E-002   7.6125665600478287E-003
   7.5667381478245199E-002  -2.3208848905415774E-002   7.5300641385695755E-003
   7.3795498001867965E-002  -2.2329270017054405E-002   7.5747025053599093E-003
   7.1923614525490731E-002  -2.1455065453344413E-002   7.7464816604184694E-003
   7.4172970808338068E-002  -2.2517419819978346E-002   1.5358053508350317E-002
   7.2427000920403745E-002  -2.1845417395645050E-002   1.5095054550088832E-002
   7.0681031032469421E-002  -2.1139968977596610E-002   1.4956741980444568E-002
   6.8935061144535098E-002  -2.0401074565833757E-002   1.4943115799418073E-002
   6.7189091256600775E-002  -1.9628734160355987E-002   1.5054176007008452E-002
   6.8868628802455562E-002  -2.0050709983864656E-002   2.2656161974392582E-002
   6.7246118103313046E-002  -1.9597032672861392E-002   2.2378627585982407E-002
   6.5623607404170531E-002  -1.9071089049777494E-002   2.2223325186538471E-002
   6.4001096705028071E-002  -1.8472879114612831E-002   2.2190254776060868E-002
   6.2378586005885556E-002  -1.7802402867367645E-002   2.2279416354549282E-002
   6.3498122413352176E-002  -1.7584000147750967E-002   2.9716535167921609E-002
   6.1996616503350394E-002  -1.7348647950078150E-002   2.9463285667728600E-002
   6.0495110593348611E-002  -1.7002209121958350E-002   2.9329813756851064E-002
   5.8993604683346856E-002  -1.6544683663392144E-002   2.9316119435288279E-002
   5.7492098773345046E-002  -1.5976071574379247E-002   2.9422202703040856E-002
   7.6582155812555452E-002  -2.3281396746332894E-002   3.5633331477857855E-004
   7.2890741487100952E-002  -2.2319732927322478E-002   6.3327436014337657E-005
   6.9199327161646562E-002  -2.1342684271159013E-002  -3.1656012793257471E-005
   6.5507912836192173E-002  -2.0350250777842298E-002   7.1382968355376830E-005
   6.1816498510737672E-002  -1.9342432447372770E-002   3.7244437946126752E-004
   7.1923614525490731E-002  -2.1455065453344413E-002   7.7464816604184694E-003
   6.8435202180852694E-002  -2.0575905877826262E-002   7.3978079433985600E-003
   6.4946789836214686E-002  -1.9681461954040885E-002   7.2571157580552104E-003
   6.1458377491576718E-002  -1.8771733681987819E-002   7.3244051043879072E-003
   5.7969965146938696E-002  -1.7846721061667514E-002   7.5996759823967475E-003
   6.7189091256600775E-002  -1.9628734160355987E-002   1.5054176007008452E-002
   6.3913639994498672E-002  -1.8832078828330212E-002   1.4649733962847800E-002
   6.0638188732396597E-002  -1.8020239636922772E-002   1.4463232552082830E-002
   5.7362737470294467E-002  -1.7193216586133344E-002   1.4494671774713454E-002
   5.4087286208192364E-002  -1.6351009675962813E-002   1.4744051630739996E-002
   6.2378586005885556E-002  -1.7802402867367645E-002   2.2279416354549282E-002
   5.9326054928038816E-002  -1.7088251778834079E-002   2.1819105494362036E-002
   5.6273523850192159E-002  -1.6359017319804540E-002   2.1586694369289703E-002
   5.3220992772345474E-002  -1.5614699490279200E-002   2.1582182979332454E-002
   5.0168461694498775E-002  -1.4855298290257946E-002   2.1805571324490736E-002
   5.7492098773345046E-002  -1.5976071574379247E-002   2.9422202703040856E-002
   5.4672446981473249E-002  -1.5344424729337808E-002   2.8905922537940998E-002
   5.1852795189601453E-002  -1.4697795002686392E-002   2.8627501209675416E-002
   4.9033143397729656E-002  -1.4036182394424633E-002   2.8586938718244942E-002
   4.6213491605857859E-002  -1.3359586904552911E-002   2.8784235063648855E-002
   6.1816498510737672E-002  -1.9342432447372770E-002   3.7244437946126752E-004
   5.9127752202459916E-002  -1.8343473618035011E-002   1.9763956901752699E-004
   5.6439005894182159E-002  -1.7377618628113822E-002   1.9772041664090079E-004
   5.3750259585904403E-002  -1.6444867477610536E-002   3.7268692233269340E-004
   5.1061513277626647E-002  -1.5545220166523155E-002   7.2253908609187789E-004
   5.7969965146938696E-002  -1.7846721061667514E-002   7.5996759823967475E-003
   5.5448826943920893E-002  -1.6928577452060001E-002   7.3503849396431842E-003
   5.2927688740903200E-002  -1.6039456212144865E-002   7.2614244493418578E-003
   5.0406550537885425E-002  -1.5179357341921662E-002   7.3327945114927406E-003
   4.7885412334867705E-002  -1.4348280841391059E-002   7.5644951260959159E-003
   5.4087286208192364E-002  -1.6351009675962813E-002   1.4744051630739996E-002
   5.1719201004819165E-002  -1.5513681286085323E-002   1.4424355825400914E-002
   4.9351115801445911E-002  -1.4701293796175463E-002   1.4250435466899025E-002
   4.6983030598072628E-002  -1.3913847206233454E-002   1.4222290555233733E-002
   4.4614945394699457E-002  -1.3151341516259407E-002   1.4339921090405328E-002
   5.0168461694498775E-002  -1.4855298290257946E-002   2.1805571324490736E-002
   4.7938874385154560E-002  -1.4098785120110369E-002   2.1419552226291272E-002
   4.5709287075810373E-002  -1.3363131380206061E-002   2.1164753469313041E-002
   4.3479699766466165E-002  -1.2648337070545135E-002   2.1041175053556016E-002
   4.1250112457121971E-002  -1.1954402191127422E-002   2.1048816979020460E-002
   4.6213491605857859E-002  -1.3359586904552911E-002   2.8784235063648855E-002
   4.4107847084927182E-002  -1.2683888954135358E-002   2.8335974142313591E-002
   4.2002202563996505E-002  -1.2024968964237090E-002   2.8004378456583906E-002
   3.9896558043065827E-002  -1.1382826934856812E-002   2.7789448006460007E-002
   3.7790913522135150E-002  -1.0757462865995771E-002   2.7691182791941493E-002
   5.1061513277626647E-002  -1.5545220166523155E-002   7.2253908609187789E-004
   4.8242561949865981E-002  -1.4658725304469322E-002   4.3973988911938378E-004
   4.5423610622105370E-002  -1.3765431501063075E-002   2.1276558987370908E-004
   4.2604659294344704E-002  -1.2865338756307340E-002   4.1616188354409722E-005
   3.9785707966584094E-002  -1.1958447070200329E-002  -7.3708315438070215E-005
   4.7885412334867705E-002  -1.4348280841391059E-002   7.5644951260959159E-003
   4.5132107108109332E-002  -1.3525831441699387E-002   7.2064346896718590E-003
   4.2378801881350930E-002  -1.2691613873992924E-002   6.9238415575260670E-003
   3.9625496654592487E-002  -1.1845628138272099E-002   6.7167157296581792E-003
   3.6872191427834045E-002  -1.0987874234536177E-002   6.5850572060676127E-003
   4.4614945394699457E-002  -1.3151341516259407E-002   1.4339921090405328E-002
   4.1946928675494294E-002  -1.2392937578929841E-002   1.3911568641194333E-002
   3.9278911956289048E-002  -1.1617796246922135E-002   1.3578325902812050E-002
   3.6610895237083871E-002  -1.0825917520236199E-002   1.3340192875258242E-002
   3.3942878517878666E-002  -1.0017301398872247E-002   1.3197169558533395E-002
   4.1250112457121971E-002  -1.1954402191127422E-002   2.1048816979020460E-002
   3.8687026652020923E-002  -1.1260043716160656E-002   2.0555141743685862E-002
   3.6123940846919896E-002  -1.0543978619851443E-002   2.0176218625730706E-002
   3.3560855041818799E-002  -9.8062069022007391E-003   1.9912047625155017E-002
   3.0997769236717820E-002  -9.0467285632079841E-003   1.9762628741959623E-002
   3.7790913522135150E-002  -1.0757462865995771E-002   2.7691182791941493E-002
   3.5352401037689218E-002  -1.0127149853390915E-002   2.7137153997146890E-002
   3.2913888553243315E-002  -9.4701609927808905E-003   2.6717519726282724E-002
   3.0475376068797411E-002  -8.7864962841653141E-003   2.6432279979349188E-002
   2.8036863584351479E-002  -8.0761557275439433E-003   2.6281434756346256E-002
   3.9785707966584094E-002  -1.1958447070200329E-002  -7.3708315438070215E-005
   3.7402993748665181E-002  -1.1128718069217003E-002  -3.1079934346789351E-004
   3.5020279530746379E-002  -1.0460113379831826E-002  -4.7425250435706445E-004
   3.2637565312827521E-002  -9.9526330020450610E-003  -5.6406779810475038E-004
   3.0254851094908664E-002  -9.6062769358566946E-003  -5.8024522471211704E-004
   3.6872191427834045E-002  -1.0987874234536177E-002   6.5850572060676127E-003
   3.4547394470913484E-002  -1.0178714162323077E-002   6.1814091293602713E-003
   3.2222597513992812E-002  -9.4785099211705526E-003   5.8199577075082054E-003
   2.9897800557072196E-002  -8.8872615110778957E-003   5.5007029405113317E-003
   2.7573003600151580E-002  -8.4049689320451204E-003   5.2236448283701220E-003
   3.3942878517878666E-002  -1.0017301398872247E-002   1.3197169558533395E-002
   3.1644557609670637E-002  -9.2287102554297062E-003   1.2679132913686775E-002
   2.9346236701462636E-002  -8.4969064625090851E-003   1.2171851711410192E-002
   2.7047915793254593E-002  -7.8218900201102934E-003   1.1675325951702981E-002
   2.4749594885046605E-002  -7.2036609282333242E-003   1.1189555634565695E-002
   3.0997769236717820E-002  -9.0467285632079841E-003   1.9762628741959623E-002
   2.8694483164936800E-002  -8.2787063485360579E-003   1.9182372009512130E-002
   2.6391197093155822E-002  -7.5153030038477148E-003   1.8581429507348847E-002
   2.4087911021374760E-002  -6.7565185291426876E-003   1.7959801235469922E-002
   2.1784624949593830E-002  -6.0023529244214169E-003   1.7317487193875145E-002
   2.8036863584351479E-002  -8.0761557275439433E-003   2.6281434756346256E-002
   2.5697171136711883E-002  -7.3287024416426316E-003   2.5691126416836019E-002
   2.3357478689072314E-002  -6.5336995451863444E-003   2.5048691095324704E-002
   2.1017786241432732E-002  -5.6911470381753038E-003   2.4354128791812119E-002
   1.8678093793793149E-002  -4.8010449206093986E-003   2.3607439506297734E-002
   3.0254851094908664E-002  -9.6062769358566946E-003  -5.8024522471211704E-004
   2.9633266305492234E-002  -9.1369859628139816E-003  -3.5553457064563254E-004
   2.9011681516075749E-002  -8.2607008644638991E-003  -1.8042709726713291E-003
   2.8390096726659292E-002  -6.9774216408065443E-003  -4.9264544307904279E-003
   2.7768511937242835E-002  -5.2871482918412926E-003  -9.7220849450014857E-003
   2.7573003600151580E-002  -8.4049689320451204E-003   5.2236448283701220E-003
   2.5546253879318470E-002  -7.8716808282015549E-003   5.8840468897587428E-003
   2.3519504158485305E-002  -7.1274458436784149E-003   5.4075661444063505E-003
   2.1492754437652140E-002  -6.1722639784728972E-003   3.7942025923132505E-003
   1.9466004716819030E-002  -5.0061352325874164E-003   1.0439562334787489E-003
   2.4749594885046605E-002  -7.2036609282333242E-003   1.1189555634565695E-002
   2.1854244482148483E-002  -6.6063756935899609E-003   1.2089601858650045E-002
   1.8958894079250374E-002  -5.9941908228920704E-003   1.2389329525344855E-002
   1.6063543676352300E-002  -5.3671063161403673E-003   1.2088738634650265E-002
   1.3168193273454143E-002  -4.7251221733334292E-003   1.1187829186567411E-002
   2.1784624949593830E-002  -6.0023529244214169E-003   1.7317487193875145E-002
   1.8557238113982431E-002  -5.3410705589775065E-003   1.8261130336028081E-002
   1.5329851278371030E-002  -4.8609358021060450E-003   1.9141019170143943E-002
   1.2102464442759630E-002  -4.5619486538066127E-003   1.9957153696222227E-002
   8.8750776071482296E-003  -4.4441091140794975E-003   2.0709533914263015E-002
   1.8678093793793149E-002  -4.8010449206093986E-003   2.3607439506297734E-002
   1.5655234774820226E-002  -4.0757654243656627E-003   2.4398632321893654E-002
   1.2632375755847275E-002  -3.7276807813201862E-003   2.5662635078803564E-002
   9.6095167368743795E-003  -3.7567909914737879E-003   2.7399447777027908E-002
   6.5866577179014008E-003  -4.1630960548254548E-003   2.9609070416566463E-002
   2.7768511937242835E-002  -5.2871482918412926E-003  -9.7220849450014857E-003
   2.3346819548422548E-002  -4.2066165890553009E-003  -4.1872032418610594E-003
   1.8925127159602262E-002  -4.7525623039321174E-003   2.6078647744156580E-003
   1.4503434770782087E-002  -6.9249854364740043E-003   1.0663119103829610E-002
   1.0081742381961689E-002  -1.0723885986679171E-002   1.9978559746381741E-002
   1.9466004716819030E-002  -5.0061352325874164E-003   1.0439562334787489E-003
   1.6232733896587581E-002  -4.6907423671366244E-003   6.7423209395226502E-003
   1.2999463076356133E-002  -6.2877681432358945E-003   1.3557342469607825E-002
   9.7661922561246839E-003  -9.7972125608862398E-003   2.1489020823732941E-002
   6.5329214358933463E-003  -1.5219075620086286E-002   3.0537356001898441E-002
   1.3168193273454143E-002  -4.7251221733334292E-003   1.1187829186567411E-002
   1.0979814532715237E-002  -5.1748681452186140E-003   1.6763735671628199E-002
   8.7914357919763042E-003  -7.8229739825403655E-003   2.3312769491633994E-002
   6.6030570512372322E-003  -1.2669439685298926E-002   3.0834930646582950E-002
   4.4146783104984655E-003  -1.9714265253494290E-002   3.9330219136477496E-002
   8.8750776071482296E-003  -4.4441091140794975E-003   2.0709533914263015E-002
   7.5880614568054894E-003  -5.6589939233000486E-003   2.5877040954454741E-002
   6.3010453064626937E-003  -9.3581798218440454E-003   3.1874145840494007E-002
   5.0140291561199882E-003  -1.5541666809711609E-002   3.8700848572382207E-002
   3.7270130057772688E-003  -2.4209454886901849E-002   4.6357149150117793E-002
   6.5866577179014008E-003  -4.1630960548254548E-003   2.9609070416566463E-002
   6.0574746688584757E-003  -6.1431197013820382E-003   3.4082236788002263E-002
   5.5282916198155507E-003  -1.0893385661147864E-002   3.9241471516189674E-002
   4.9991085707725147E-003  -1.8413893934124050E-002   4.5086774601129115E-002
   4.4699255217296452E-003  -2.8704644520309408E-002   5.1618146042820445E-002
   7.8781050989403134E-002  -1.5621824208206403E-002   3.0951514207589403E-002
   7.4960318845390395E-002  -1.6615132843594393E-002   3.0222727972967878E-002
   7.1139586701377655E-002  -1.7273265045314526E-002   2.9773969388149552E-002
   6.7318854557364916E-002  -1.7596220813366693E-002   2.9605238453134050E-002
   6.3498122413352176E-002  -1.7584000147750967E-002   2.9716535167921609E-002
   7.2254964800585381E-002  -1.7089757438160769E-002   3.4195137427032452E-002
   6.8724102094531309E-002  -1.7261700368378680E-002   3.3714305240585218E-002
   6.5193239388477167E-002  -1.7283047176659544E-002   3.3533184280252343E-002
   6.1662376682423116E-002  -1.7153797863003341E-002   3.3651774546033755E-002
   5.8131513976369037E-002  -1.6873952427410105E-002   3.4070076037929248E-002
   6.5724104593983729E-002  -1.8557690668115134E-002   3.8352416507511131E-002
   6.2502794902199510E-002  -1.7908267893162966E-002   3.7934958057507434E-002
   5.9281485210415374E-002  -1.7292829308004666E-002   3.7836894409929052E-002
   5.6060175518631176E-002  -1.6711374912640097E-002   3.8058225564776310E-002
   5.2838865826847020E-002  -1.6163904707069299E-002   3.8598951522049174E-002
   5.9188470369598366E-002  -2.0025623898069514E-002   4.3423351449025191E-002
   5.6296397268395332E-002  -1.8554835417947307E-002   4.2884686423733880E-002
   5.3404324167192277E-002  -1.7302611439349708E-002   4.2685099777179561E-002
   5.0512251065989250E-002  -1.6268951962276772E-002   4.2824591509361937E-002
   4.7620177964786209E-002  -1.5453856986728520E-002   4.3303161620281007E-002
   5.2648062127429118E-002  -2.1493557128023866E-002   4.9407942251574521E-002
   5.0104909193118469E-002  -1.9201402942731566E-002   4.8563490339265214E-002
   4.7561756258807819E-002  -1.7312393570694778E-002   4.8077800382003766E-002
   4.5018603324497170E-002  -1.5826529011913525E-002   4.7950872379790399E-002
   4.2475450390186520E-002  -1.4743809266387631E-002   4.8182706332625003E-002
   6.3498122413352176E-002  -1.7584000147750967E-002   2.9716535167921609E-002
   6.1996616503350394E-002  -1.7348647950078150E-002   2.9463285667728600E-002
   6.0495110593348611E-002  -1.7002209121958350E-002   2.9329813756851064E-002
   5.8993604683346856E-002  -1.6544683663392144E-002   2.9316119435288279E-002
   5.7492098773345046E-002  -1.5976071574379247E-002   2.9422202703040856E-002
   5.8131513976369037E-002  -1.6873952427410105E-002   3.4070076037929248E-002
   5.6746777850686686E-002  -1.6486751669530786E-002   3.3975379596742905E-002
   5.5362041725004418E-002  -1.6035436389016063E-002   3.3994445134880188E-002
   5.3977305599322074E-002  -1.5520006585865985E-002   3.4127272652341452E-002
   5.2592569473639800E-002  -1.4940462260080667E-002   3.4373862149126660E-002
   5.2838865826847020E-002  -1.6163904707069299E-002   3.8598951522049174E-002
   5.1564883875492823E-002  -1.5624855388983491E-002   3.8615836032057850E-002
   5.0290901924138695E-002  -1.5068663656073719E-002   3.8740466911399082E-002
   4.9016919972784526E-002  -1.4495329508339937E-002   3.8972844160072607E-002
   4.7742938021430370E-002  -1.3904852945782170E-002   3.9312967778078828E-002
   4.7620177964786209E-002  -1.5453856986728520E-002   4.3303161620281007E-002
   4.6450934577768853E-002  -1.4762959108436245E-002   4.3384654973673602E-002
   4.5281691190751511E-002  -1.4101890923131265E-002   4.3567879086407219E-002
   4.4112447803734127E-002  -1.3470652430813737E-002   4.3852833958482190E-002
   4.2943204416716813E-002  -1.2869243631483687E-002   4.4239519589898170E-002
   4.2475450390186520E-002  -1.4743809266387631E-002   4.8182706332625003E-002
   4.1404929957514658E-002  -1.3901062827888888E-002   4.8281836421590035E-002
   4.0334409524842782E-002  -1.3135118190189116E-002   4.8476681659904874E-002
   3.9263889092170906E-002  -1.2445975353287626E-002   4.8767242047569423E-002
   3.8193368659499016E-002  -1.1833634317185093E-002   4.9153517584583861E-002
   5.7492098773345046E-002  -1.5976071574379247E-002   2.9422202703040856E-002
   5.4672446981473249E-002  -1.5344424729337808E-002   2.8905922537940998E-002
   5.1852795189601453E-002  -1.4697795002686392E-002   2.8627501209675416E-002
   4.9033143397729656E-002  -1.4036182394424633E-002   2.8586938718244942E-002
   4.6213491605857859E-002  -1.3359586904552911E-002   2.8784235063648855E-002
   5.2592569473639800E-002  -1.4940462260080667E-002   3.4373862149126660E-002
   5.0007153333493107E-002  -1.4322542659375243E-002   3.3917666100820393E-002
   4.7421737193346372E-002  -1.3691987031464847E-002   3.3692082519129932E-002
   4.4836321053199672E-002  -1.3048795376349356E-002   3.3697111404054937E-002
   4.2250904913052945E-002  -1.2392967694029033E-002   3.3932752755595097E-002
   4.7742938021430370E-002  -1.3904852945782170E-002   3.9312967778078828E-002
   4.5384511162789652E-002  -1.3300660589412525E-002   3.8914508992161492E-002
   4.3026084304148893E-002  -1.2686179060243150E-002   3.8739416302640273E-002
   4.0667657445508133E-002  -1.2061408358273972E-002   3.8787689709515703E-002
   3.8309230586867415E-002  -1.1426348483504906E-002   3.9059329212787278E-002
   4.2943204416716813E-002  -1.2869243631483687E-002   4.4239519589898170E-002
   4.0804520469362907E-002  -1.2278778519449939E-002   4.3896451211964081E-002
   3.8665836522008987E-002  -1.1680371089021445E-002   4.3769502560207327E-002
   3.6527152574655074E-002  -1.1074021340198558E-002   4.3858673634627907E-002
   3.4388468627301161E-002  -1.0459729272981014E-002   4.4163964435225606E-002
   3.8193368659499016E-002  -1.1833634317185093E-002   4.9153517584583861E-002
   3.6267181253212849E-002  -1.1256896449487241E-002   4.8863492760228056E-002
   3.4340993846926682E-002  -1.0674563117799934E-002   4.8782341291830594E-002
   3.2414806440640515E-002  -1.0086634322123263E-002   4.8910063179391117E-002
   3.0488619034354320E-002  -9.4931100624567888E-003   4.9246658422909872E-002
   4.6213491605857859E-002  -1.3359586904552911E-002   2.8784235063648855E-002
   4.4107847084927182E-002  -1.2683888954135358E-002   2.8335974142313591E-002
   4.2002202563996505E-002  -1.2024968964237090E-002   2.8004378456583906E-002
   3.9896558043065827E-002  -1.1382826934856812E-002   2.7789448006460007E-002
   3.7790913522135150E-002  -1.0757462865995771E-002   2.7691182791941493E-002
   4.2250904913052945E-002  -1.2392967694029033E-002   3.3932752755595097E-002
   4.0267978010808697E-002  -1.1733338783854574E-002   3.3500550817951891E-002
   3.8285051108564339E-002  -1.1078743445177217E-002   3.3197118882075216E-002
   3.6302124206320022E-002  -1.0429181677996748E-002   3.3022456947965670E-002
   3.4319197304075733E-002  -9.7846534823133879E-003   3.2976565015623516E-002
   3.8309230586867415E-002  -1.1426348483504906E-002   3.9059329212787278E-002
   3.6461126069470669E-002  -1.0782788613573707E-002   3.8654930647857952E-002
   3.4613021552073950E-002  -1.0132517926117572E-002   3.8391406850856478E-002
   3.2764917034677189E-002  -9.4755364211367415E-003   3.8268757821783253E-002
   3.0916812517280498E-002  -8.8118440986311719E-003   3.8286983560638227E-002
   3.4388468627301161E-002  -1.0459729272981014E-002   4.4163964435225606E-002
   3.2687291260913236E-002  -9.8322384432926596E-003   4.3799113632031692E-002
   3.0986113894525259E-002  -9.1862924070578687E-003   4.3587242362927138E-002
   2.9284936528137309E-002  -8.5218911642767625E-003   4.3528350627911772E-002
   2.7583759161749356E-002  -7.8390347149488171E-003   4.3622438426986092E-002
   3.0488619034354320E-002  -9.4931100624567888E-003   4.9246658422909872E-002
   2.8946473585136329E-002  -8.8816882730118341E-003   4.8933099770473332E-002
   2.7404328135918365E-002  -8.2400668879981653E-003   4.8784625418287264E-002
   2.5862182686700375E-002  -7.5682459074166986E-003   4.8801235366351781E-002
   2.4320037237482439E-002  -6.8662253312666843E-003   4.8982929614666992E-002
   3.7790913522135150E-002  -1.0757462865995771E-002   2.7691182791941493E-002
   3.5352401037689218E-002  -1.0127149853390915E-002   2.7137153997146890E-002
   3.2913888553243315E-002  -9.4701609927808905E-003   2.6717519726282724E-002
   3.0475376068797411E-002  -8.7864962841653141E-003   2.6432279979349188E-002
   2.8036863584351479E-002  -8.0761557275439433E-003   2.6281434756346256E-002
   3.4319197304075733E-002  -9.7846534823133879E-003   3.2976565015623516E-002
   3.2019520259449707E-002  -9.1362869147392223E-003   3.2516001649623760E-002
   2.9719843214823627E-002  -8.4752100318861157E-003   3.2198714639333798E-002
   2.7420166170197574E-002  -7.8014228337547620E-003   3.2024703984752767E-002
   2.5120489125571521E-002  -7.1149253203444118E-003   3.1993969685880697E-002
   3.0916812517280498E-002  -8.8118440986311719E-003   3.8286983560638227E-002
   2.8764852744252778E-002  -8.1454239760872515E-003   3.7905920090707368E-002
   2.6612892971225030E-002  -7.4802590709915490E-003   3.7677014808264353E-002
   2.4460933198197352E-002  -6.8163493833442064E-003   3.7600267713308592E-002
   2.2308973425169618E-002  -6.1536949131449914E-003   3.7675678805840579E-002
   2.7583759161749356E-002  -7.8390347149488171E-003   4.3622438426986092E-002
   2.5588398492098458E-002  -7.1545610374353086E-003   4.3306909320396991E-002
   2.3593037822447604E-002  -6.4853081100968227E-003   4.3152420233073960E-002
   2.1597677152796702E-002  -5.8312759329333750E-003   4.3158971165016970E-002
   1.9602316483145848E-002  -5.1924645059451824E-003   4.3326562116226083E-002
   2.4320037237482439E-002  -6.8662253312666843E-003   4.8982929614666992E-002
   2.2490157502986829E-002  -6.1636980987835321E-003   4.8718969338692852E-002
   2.0660277768491220E-002  -5.4903571492021797E-003   4.8624930913763131E-002
   1.8830398033995624E-002  -4.8462024825230918E-003   4.8700814339878024E-002
   1.7000518299500084E-002  -4.2312340987459285E-003   4.8946619617037279E-002
   2.8036863584351479E-002  -8.0761557275439433E-003   2.6281434756346256E-002
   2.5697171136711883E-002  -7.3287024416426316E-003   2.5691126416836019E-002
   2.3357478689072314E-002  -6.5336995451863444E-003   2.5048691095324704E-002
   2.1017786241432732E-002  -5.6911470381753038E-003   2.4354128791812119E-002
   1.8678093793793149E-002  -4.8010449206093986E-003   2.3607439506297734E-002
   2.5120489125571521E-002  -7.1149253203444118E-003   3.1993969685880697E-002
   2.2767596831686582E-002  -6.4180155498653746E-003   3.1575279145211688E-002
   2.0414704537801531E-002  -5.7129915805270715E-003   3.1182315894053125E-002
   1.8061812243916425E-002  -4.9998534123300575E-003   3.0815079932405370E-002
   1.5708919950031486E-002  -4.2786010452735557E-003   3.0473571260267784E-002
   2.2308973425169618E-002  -6.1536949131449914E-003   3.7675678805840579E-002
   2.0020735556551122E-002  -5.5073286580881176E-003   3.7389170652317005E-002
   1.7732497687932579E-002  -4.8922836158680205E-003   3.7206244059815596E-002
   1.5444259819314115E-002  -4.3085597864845893E-003   3.7126899028336810E-002
   1.3156021950695540E-002  -3.7561571699375462E-003   3.7151135557880355E-002
   1.9602316483145848E-002  -5.1924645059451824E-003   4.3326562116226083E-002
   1.7456587311305730E-002  -4.5966417663108605E-003   4.3132800938152249E-002
   1.5310858139465649E-002  -4.0715756512089696E-003   4.3120475592612284E-002
   1.3165128967625509E-002  -3.6172661606392320E-003   4.3289586079607159E-002
   1.1019399795785451E-002  -3.2337132946015645E-003   4.3640132399136042E-002
   1.7000518299500084E-002  -4.2312340987459285E-003   4.8946619617037279E-002
   1.5075152095950339E-002  -3.6859548745335480E-003   4.8806170002716920E-002
   1.3149785892400609E-002  -3.2508676865497521E-003   4.8925010492443022E-002
   1.1224419688850844E-002  -2.9259725347937221E-003   4.9303141086215585E-002
   9.2990534853011342E-003  -2.7112694192656939E-003   4.9940561784033943E-002
   1.8678093793793149E-002  -4.8010449206093986E-003   2.3607439506297734E-002
   1.5655234774820226E-002  -4.0757654243656627E-003   2.4398632321893654E-002
   1.2632375755847275E-002  -3.7276807813201862E-003   2.5662635078803564E-002
   9.6095167368743795E-003  -3.7567909914737879E-003   2.7399447777027908E-002
   6.5866577179014008E-003  -4.1630960548254548E-003   2.9609070416566463E-002
   1.5708919950031486E-002  -4.2786010452735557E-003   3.0473571260267784E-002
   1.3140508837443499E-002  -3.7707839138056976E-003   3.1256588123742657E-002
   1.0572097724855539E-002  -3.6979514523732826E-003   3.2475690858673328E-002
   8.0036866122676492E-003  -4.0601036609770602E-003   3.4130879465059924E-002
   5.4352754996795927E-003  -4.8572405396167806E-003   3.6222153942901847E-002
   1.3156021950695540E-002  -3.7561571699375462E-003   3.7151135557880355E-002
   1.1005334674633979E-002  -3.4658024032455381E-003   3.7868186652397468E-002
   8.8546473985724045E-003  -3.6682221234265178E-003   3.8984599548511578E-002
   6.7039601225108575E-003  -4.3634163304806725E-003   4.0500374246222673E-002
   4.5532728464492689E-003  -5.5513850244077179E-003   4.2415510745530821E-002
   1.1019399795785451E-002  -3.2337132946015645E-003   4.3640132399136042E-002
   9.2497122863916779E-003  -3.1608208926854758E-003   4.4233427907857989E-002
   7.4800247769977700E-003  -3.6384927944795725E-003   4.5189361148317918E-002
   5.7103372676039869E-003  -4.6667289999841148E-003   4.6507932120516446E-002
   3.9406497582100894E-003  -6.2455295091987384E-003   4.8189140824453823E-002
   9.2990534853011342E-003  -2.7112694192656939E-003   4.9940561784033943E-002
   7.8736416727164527E-003  -2.8558393821254136E-003   5.0352311890123347E-002
   6.4482298601317434E-003  -3.6087634655328771E-003   5.1089975658092757E-002
   5.0228180475470757E-003  -4.9700416694875085E-003   5.2153553087941867E-002
   3.5974062349623526E-003  -6.9396739939898699E-003   5.3543044179670374E-002
   6.5866577179014008E-003  -4.1630960548254548E-003   2.9609070416566463E-002
   6.0574746688584757E-003  -6.1431197013820382E-003   3.4082236788002263E-002
   5.5282916198155507E-003  -1.0893385661147864E-002   3.9241471516189674E-002
   4.9991085707725147E-003  -1.8413893934124050E-002   4.5086774601129115E-002
   4.4699255217296452E-003  -2.8704644520309408E-002   5.1618146042820445E-002
   5.4352754996795927E-003  -4.8572405396167806E-003   3.6222153942901847E-002
   5.4883012352837379E-003  -6.9901556606548065E-003   3.8357433243238648E-002
   5.5413269708877999E-003  -1.1359642596454000E-002   4.0971061756118199E-002
   5.5943527064918203E-003  -1.7965701347014765E-002   4.4063039481539917E-002
   5.6473784420959516E-003  -2.6808331912336447E-002   4.7633366419503886E-002
   4.5532728464492689E-003  -5.5513850244077179E-003   4.2415510745530821E-002
   4.9807882224909700E-003  -7.8371916199276304E-003   4.2746573473217614E-002
   5.4083035985327127E-003  -1.1825899531760234E-002   4.3348266269237254E-002
   5.8358189745744277E-003  -1.7517508759905643E-002   4.4220589133589665E-002
   6.2633343506161010E-003  -2.4912019304363708E-002   4.5363542066275686E-002
   3.9406497582100894E-003  -6.2455295091987384E-003   4.8189140824453823E-002
   4.5349356304802378E-003  -8.6842275792005375E-003   4.7249657477938717E-002
   5.1292215027502440E-003  -1.2292156467066419E-002   4.6373085055547186E-002
   5.7235073750202918E-003  -1.7069316172796438E-002   4.5559423557279870E-002
   6.3177932472902876E-003  -2.3015706696390970E-002   4.4808672983135706E-002
   3.5974062349623526E-003  -6.9396739939898699E-003   5.3543044179670374E-002
   4.1507434592514270E-003  -9.5312635384732225E-003   5.1866685257402456E-002
   4.7040806835404181E-003  -1.2758413402372576E-002   5.0045518115048593E-002
   5.2574179078294231E-003  -1.6621123585687451E-002   4.8079542752608811E-002
   5.8107551321184836E-003  -2.1119394088418009E-002   4.5968759170083473E-002
   5.2648062127429118E-002  -2.1493557128023866E-002   4.9407942251574521E-002
   5.0104909193118469E-002  -1.9201402942731566E-002   4.8563490339265214E-002
   4.7561756258807819E-002  -1.7312393570694778E-002   4.8077800382003766E-002
   4.5018603324497170E-002  -1.5826529011913525E-002   4.7950872379790399E-002
   4.2475450390186520E-002  -1.4743809266387631E-002   4.8182706332625003E-002
   4.6084406473368450E-002  -1.6712109850944623E-002   5.4539603561437500E-002
   4.3896151639277042E-002  -1.5517617280739804E-002   5.3385977674489299E-002
   4.1707896805185579E-002  -1.4447158524901305E-002   5.2583386032931556E-002
   3.9519641971094144E-002  -1.3500733583428959E-002   5.2131828636764119E-002
   3.7331387137002695E-002  -1.2678342456323016E-002   5.2031305485987223E-002
   3.9479030013308741E-002  -1.1930662573865436E-002   5.8434047756768442E-002
   3.7637945569778890E-002  -1.1833831618748000E-002   5.7250358894070652E-002
   3.5796861126249024E-002  -1.1581923479107678E-002   5.6409976567105641E-002
   3.3955776682719173E-002  -1.1174938154944424E-002   5.5912900775873443E-002
   3.2114692239189307E-002  -1.0612875646258291E-002   5.5759131520373983E-002
   3.2831932747249916E-002  -7.1492152967861933E-003   6.1091274837567218E-002
   3.1330290984624053E-002  -8.1500459567562036E-003   6.0156633998009218E-002
   2.9828649221998165E-002  -8.7166884333141556E-003   5.9557571984526145E-002
   2.8327007459372278E-002  -8.8491427264599295E-003   5.9294088797118304E-002
   2.6825365696746394E-002  -8.5474088361935929E-003   5.9366184435785695E-002
   2.6143114675192008E-002  -2.3677680197070061E-003   6.2511284803834111E-002
   2.4973187883812475E-002  -4.4662602947644070E-003   6.2104802986304719E-002
   2.3803261092432970E-002  -5.8514533875206193E-003   6.2026172285192999E-002
   2.2633334301053451E-002  -6.5233472979753064E-003   6.2275392700498797E-002
   2.1463407509673946E-002  -6.4819420261288951E-003   6.2852464232222127E-002
   4.2475450390186520E-002  -1.4743809266387631E-002   4.8182706332625003E-002
   4.1404929957514658E-002  -1.3901062827888888E-002   4.8281836421590035E-002
   4.0334409524842782E-002  -1.3135118190189116E-002   4.8476681659904874E-002
   3.9263889092170906E-002  -1.2445975353287626E-002   4.8767242047569423E-002
   3.8193368659499016E-002  -1.1833634317185093E-002   4.9153517584583861E-002
   3.7331387137002695E-002  -1.2678342456323016E-002   5.2031305485987223E-002
   3.6362610086250455E-002  -1.1952849248022437E-002   5.1990550250870723E-002
   3.5393833035498208E-002  -1.1297118062966537E-002   5.2057566630243718E-002
   3.4425055984745975E-002  -1.0711148901155354E-002   5.2232354624106289E-002
   3.3456278933993694E-002  -1.0194941762588727E-002   5.2514914232458243E-002
   3.2114692239189307E-002  -1.0612875646258291E-002   5.5759131520373983E-002
   3.1259715035496349E-002  -1.0004635668155931E-002   5.5585530738730300E-002
   3.0404737831803391E-002  -9.4591179357441796E-003   5.5531758036715659E-002
   2.9549760628110447E-002  -8.9763224490229700E-003   5.5597813414330198E-002
   2.8694783424417475E-002  -8.5562492079923058E-003   5.5783696871573835E-002
   2.6825365696746394E-002  -8.5474088361935929E-003   5.9366184435785695E-002
   2.6096244805252373E-002  -8.0564220882893972E-003   5.9066777885168766E-002
   2.5367123913758338E-002  -7.6211178085217948E-003   5.8899255879320517E-002
   2.4638003022264335E-002  -7.2414959968906140E-003   5.8863618418241073E-002
   2.3908882130770283E-002  -6.9175566533958843E-003   5.8959865501930324E-002
   2.1463407509673946E-002  -6.4819420261288951E-003   6.2852464232222127E-002
   2.0872199395518487E-002  -6.1082085084230020E-003   6.2434291690185995E-002
   2.0280991281363056E-002  -5.7831176812992435E-003   6.2160060158058333E-002
   1.9689783167207611E-002  -5.5066695447583414E-003   6.2029769635838977E-002
   1.9098575053052166E-002  -5.2788640987994628E-003   6.2043420123528037E-002
   3.8193368659499016E-002  -1.1833634317185093E-002   4.9153517584583861E-002
   3.6267181253212849E-002  -1.1256896449487241E-002   4.8863492760228056E-002
   3.4340993846926682E-002  -1.0674563117799934E-002   4.8782341291830594E-002
   3.2414806440640515E-002  -1.0086634322123263E-002   4.8910063179391117E-002
   3.0488619034354320E-002  -9.4931100624567888E-003   4.9246658422909872E-002
   3.3456278933993694E-002  -1.0194941762588727E-002   5.2514914232458243E-002
   3.1745007681530948E-002  -9.7084767175902309E-003   5.2214463071945827E-002
   3.0033736429068161E-002  -9.2117338364832990E-003   5.2134970863121993E-002
   2.8322465176605374E-002  -8.7047131192679802E-003   5.2276437605986770E-002
   2.6611193924142615E-002  -8.1874145659440734E-003   5.2638863300540351E-002
   2.8694783424417475E-002  -8.5562492079923058E-003   5.5783696871573835E-002
   2.7210513921508576E-002  -8.1600569856932204E-003   5.5477501747023511E-002
   2.5726244418599678E-002  -7.7489045551667052E-003   5.5404351169892424E-002
   2.4241974915690780E-002  -7.3227919164128054E-003   5.5564245140180414E-002
   2.2757705412781881E-002  -6.8817190694314134E-003   5.5957183657887599E-002
   2.3908882130770283E-002  -6.9175566533958843E-003   5.8959865501930324E-002
   2.2663699973145733E-002  -6.6116372537961821E-003   5.8652608785461392E-002
   2.1418517815521201E-002  -6.2860752738501738E-003   5.8590482212142053E-002
   2.0173335657896668E-002  -5.9408707135576323E-003   5.8773485781972265E-002
   1.8928153500272146E-002  -5.5760235729187257E-003   5.9201619494951979E-002
   1.9098575053052166E-002  -5.2788640987994628E-003   6.2043420123528037E-002
   1.8104565836442474E-002  -5.0632175218991438E-003   6.1739784187259283E-002
   1.7110556619832774E-002  -4.8232459925334620E-003   6.1693363989870659E-002
   1.6116547403223078E-002  -4.5589495107023169E-003   6.1904159531362010E-002
   1.5122538186613355E-002  -4.2703280764059270E-003   6.2372170811733518E-002
   3.0488619034354320E-002  -9.4931100624567888E-003   4.9246658422909872E-002
   2.8946473585136329E-002  -8.8816882730118341E-003   4.8933099770473332E-002
   2.7404328135918365E-002  -8.2400668879981653E-003   4.8784625418287264E-002
   2.5862182686700375E-002  -7.5682459074166986E-003   4.8801235366351781E-002
   2.4320037237482439E-002  -6.8662253312666843E-003   4.8982929614666992E-002
   2.6611193924142615E-002  -8.1874145659440734E-003   5.2638863300540351E-002
   2.5237734386568733E-002  -7.6533307159533659E-003   5.2379589034745044E-002
   2.3864274848994900E-002  -7.0959541087370626E-003   5.2292602291987622E-002
   2.2490815311421049E-002  -6.5152847442952952E-003   5.2377903072267737E-002
   2.1117355773847185E-002  -5.9113226226280569E-003   5.2635491375585597E-002
   2.2757705412781881E-002  -6.8817190694314134E-003   5.5957183657887599E-002
   2.1560135009639221E-002  -6.4249731588948977E-003   5.5745286940391020E-002
   2.0362564606496603E-002  -5.9518413294757377E-003   5.5712880968719319E-002
   1.9164994203353977E-002  -5.4623235811740584E-003   5.5859965742872247E-002
   1.7967423800211324E-002  -4.9564199139894849E-003   5.6186541262850082E-002
   1.8928153500272146E-002  -5.5760235729187257E-003   5.9201619494951979E-002
   1.7913675454347789E-002  -5.1966156018365961E-003   5.9030193487411210E-002
   1.6899197408423498E-002  -4.8077285502145239E-003   5.9045461448482439E-002
   1.5884719362499196E-002  -4.4093624180527383E-003   5.9247423378165569E-002
   1.4870241316574849E-002  -4.0015172053509962E-003   5.9636079276460204E-002
   1.5122538186613355E-002  -4.2703280764059270E-003   6.2372170811733518E-002
   1.4298355720694461E-002  -3.9682580447780724E-003   6.2234308675805816E-002
   1.3474173254775554E-002  -3.6636157709532546E-003   6.2290343731277065E-002
   1.2649990788856633E-002  -3.3564012549314043E-003   6.2540275978147319E-002
   1.1825808322937725E-002  -3.0466144967123965E-003   6.2984105416416414E-002
   2.4320037237482439E-002  -6.8662253312666843E-003   4.8982929614666992E-002
   2.2490157502986829E-002  -6.1636980987835321E-003   4.8718969338692852E-002
   2.0660277768491220E-002  -5.4903571492021797E-003   4.8624930913763131E-002
   1.8830398033995624E-002  -4.8462024825230918E-003   4.8700814339878024E-002
   1.7000518299500084E-002  -4.2312340987459285E-003   4.8946619617037279E-002
   2.1117355773847185E-002  -5.9113226226280569E-003   5.2635491375585597E-002
   1.9467407531714123E-002  -5.3080583452559393E-003   5.2407352866569723E-002
   1.7817459289581061E-002  -4.7294825136998397E-003   5.2369155491234415E-002
   1.6167511047447986E-002  -4.1755951279598899E-003   5.2520899249579325E-002
   1.4517562805314937E-002  -3.6463961880358609E-003   5.2862584141604940E-002
   1.7967423800211324E-002  -4.9564199139894849E-003   5.6186541262850082E-002
   1.6517426333076748E-002  -4.4524185917287074E-003   5.5998722357878533E-002
   1.5067428865942138E-002  -3.9686078781977357E-003   5.6020863869223406E-002
   1.3617431398807552E-002  -3.5049877733968025E-003   5.6252965796884831E-002
   1.2167433931672945E-002  -3.0615582773257377E-003   5.6695028140862747E-002
   1.4870241316574849E-002  -4.0015172053509962E-003   5.9636079276460204E-002
   1.3640213907074674E-002  -3.5967788382011839E-003   5.9493077812619304E-002
   1.2410186497574485E-002  -3.2077332426954028E-003   5.9580056047730423E-002
   1.1180159088074293E-002  -2.8343804188335469E-003   5.9897013981794048E-002
   9.9501316785741162E-003  -2.4767203666156978E-003   6.0443951614810240E-002
   1.1825808322937725E-002  -3.0466144967123965E-003   6.2984105416416414E-002
   1.0835770253707910E-002  -2.7411390846739381E-003   6.2890419230791639E-002
   9.8457321844780954E-003  -2.4468586071932086E-003   6.3046732026755314E-002
   8.8556941152482735E-003  -2.1637730642704925E-003   6.3453043804307468E-002
   7.8656560460184377E-003  -1.8918824559056580E-003   6.4109354563447574E-002
   1.7000518299500084E-002  -4.2312340987459285E-003   4.8946619617037279E-002
   1.5075152095950339E-002  -3.6859548745335480E-003   4.8806170002716920E-002
   1.3149785892400609E-002  -3.2508676865497521E-003   4.8925010492443022E-002
   1.1224419688850844E-002  -2.9259725347937221E-003   4.9303141086215585E-002
   9.2990534853011342E-003  -2.7112694192656939E-003   4.9940561784033943E-002
   1.4517562805314937E-002  -3.6463961880358609E-003   5.2862584141604940E-002
   1.2849106636385485E-002  -3.1846490755846890E-003   5.2742377455722689E-002
   1.1180650467456060E-002  -2.8331171722637549E-003   5.2876700735034671E-002
   9.5121942985266217E-003  -2.5918004780727810E-003   5.3265553979541150E-002
   7.8437381295972108E-003  -2.4606989930120449E-003   5.3908937189241612E-002
   1.2167433931672945E-002  -3.0615582773257377E-003   5.6695028140862747E-002
   1.0751127658511744E-002  -2.6833432766356358E-003   5.6595041210516422E-002
   9.3348213853505675E-003  -2.4153666579778410E-003   5.6744824106512520E-002
   7.9185151121893543E-003  -2.2576284213518330E-003   5.7144376828850763E-002
   6.5022088390281896E-003  -2.2101285667580628E-003   5.7793699377531177E-002
   9.9501316785741162E-003  -2.4767203666156978E-003   6.0443951614810240E-002
   8.7812151623291208E-003  -2.1820374776867352E-003   6.0364161267098107E-002
   7.6122986460841488E-003  -1.9976161436918854E-003   6.0529380606876064E-002
   6.4433821298391369E-003  -1.9234563646308329E-003   6.0939609634144271E-002
   5.2744656135941814E-003  -1.9595581405042473E-003   6.1594848348902782E-002
   7.8656560460184377E-003  -1.8918824559056580E-003   6.4109354563447574E-002
   6.9393691478376179E-003  -1.6807316787377236E-003   6.4049737625467618E-002
   6.0130822496567565E-003  -1.5798656294059299E-003   6.4230370236125767E-002
   5.0867953514759159E-003  -1.5892843079101659E-003   6.4651252395421993E-002
   4.1605084532950753E-003  -1.7089877142503207E-003   6.5312384103356380E-002
   9.2990534853011342E-003  -2.7112694192656939E-003   4.9940561784033943E-002
   7.8736416727164527E-003  -2.8558393821254136E-003   5.0352311890123347E-002
   6.4482298601317434E-003  -3.6087634655328771E-003   5.1089975658092757E-002
   5.0228180475470757E-003  -4.9700416694875085E-003   5.2153553087941867E-002
   3.5974062349623526E-003  -6.9396739939898699E-003   5.3543044179670374E-002
   7.8437381295972108E-003  -2.4606989930120449E-003   5.3908937189241612E-002
   6.7186167938240865E-003  -2.6419528746616239E-003   5.3847425352978817E-002
   5.5934954580509760E-003  -3.3377022806016787E-003   5.4060580808458880E-002
   4.4683741222778725E-003  -4.5479472108331462E-003   5.4548403555682856E-002
   3.3432527865047690E-003  -6.2726876653548258E-003   5.5310893594649579E-002
   6.5022088390281896E-003  -2.2101285667580628E-003   5.7793699377531177E-002
   5.6261316099302031E-003  -2.4280663671971681E-003   5.7352784195172452E-002
   4.7500543808321957E-003  -3.0666410956707996E-003   5.7135289934420561E-002
   3.8739771517341919E-003  -4.1258527521783363E-003   5.7141216595275442E-002
   2.9978999226362019E-003  -5.6057013367200592E-003   5.7370564177737143E-002
   5.2744656135941814E-003  -1.9595581405042473E-003   6.1594848348902782E-002
   4.5961861210347711E-003  -2.2141798597332674E-003   6.0868388416704951E-002
   3.9179066284753556E-003  -2.7955799107396498E-003   6.0314103035977285E-002
   3.2396271359159427E-003  -3.7037582935235281E-003   5.9931992206720006E-002
   2.5613476433565575E-003  -4.9387150080853759E-003   5.9722055928933336E-002
   4.1605084532950753E-003  -1.7089877142503207E-003   6.5312384103356380E-002
   3.6287803271377872E-003  -2.0002933522688116E-003   6.4394238017575822E-002
   3.0970522009805129E-003  -2.5245187258087498E-003   6.3597020113129454E-002
   2.5653240748232387E-003  -3.2816638348692265E-003   6.2920730390016638E-002
   2.0335959486659505E-003  -4.2717286794502485E-003   6.2365368848237734E-002
   3.5974062349623526E-003  -6.9396739939898699E-003   5.3543044179670374E-002
   4.1507434592514270E-003  -9.5312635384732225E-003   5.1866685257402456E-002
   4.7040806835404181E-003  -1.2758413402372576E-002   5.0045518115048593E-002
   5.2574179078294231E-003  -1.6621123585687451E-002   4.8079542752608811E-002
   5.8107551321184836E-003  -2.1119394088418009E-002   4.5968759170083473E-002
   3.3432527865047690E-003  -6.2726876653548258E-003   5.5310893594649579E-002
   3.7690569694370235E-003  -8.5420540211904039E-003   5.2955452136823455E-002
   4.1948611523692086E-003  -1.1386176655361874E-002   5.0489752816369915E-002
   4.6206653353014146E-003  -1.4805055567869006E-002   4.7913795633287320E-002
   5.0464695182336761E-003  -1.8798690758712766E-002   4.5227580587577920E-002
   2.9978999226362019E-003  -5.6057013367200592E-003   5.7370564177737143E-002
   3.3307214216694095E-003  -7.5528445039072523E-003   5.4396844225432811E-002
   3.6635429207025824E-003  -1.0013939908350741E-002   5.1347416767957968E-002
   3.9963644197357935E-003  -1.2988987550050953E-002   4.8222281805313384E-002
   4.3291859187689352E-003  -1.6477987429007301E-002   4.5021439337498359E-002
   2.5613476433565575E-003  -4.9387150080853759E-003   5.9722055928933336E-002
   2.8357368159485589E-003  -6.5636349866240451E-003   5.6190861523229642E-002
   3.1101259885405585E-003  -8.6417031613398240E-003   5.2618509969814237E-002
   3.3845151611325156E-003  -1.1172919532232260E-002   4.9005001268686552E-002
   3.6589043337245317E-003  -1.4157284099302059E-002   4.5350335419846038E-002
   2.0335959486659505E-003  -4.2717286794502485E-003   6.2365368848237734E-002
   2.2841031522745081E-003  -5.5744254693413930E-003   5.8337504030215426E-002
   2.5346103558830796E-003  -7.2694664143287402E-003   5.4303032421938680E-002
   2.7851175594916233E-003  -9.3568515144141912E-003   5.0261954023406386E-002
   3.0356247631002087E-003  -1.1836580769596594E-002   4.6214268834620764E-002
   2.6143114675192008E-002  -2.3677680197070061E-003   6.2511284803834111E-002
   2.4973187883812475E-002  -4.4662602947644070E-003   6.2104802986304719E-002
   2.3803261092432970E-002  -5.8514533875206193E-003   6.2026172285192999E-002
   2.2633334301053451E-002  -6.5233472979753064E-003   6.2275392700498797E-002
   2.1463407509673946E-002  -6.4819420261288951E-003   6.2852464232222127E-002
   1.9466950997309010E-002  -2.5582417760311449E-003   6.1367566617236913E-002
   1.8618664232593396E-002  -3.6327019459198029E-003   6.1558652180755902E-002
   1.7770377467877775E-002  -4.3469635452036970E-003   6.2065166681185280E-002
   1.6922090703162165E-002  -4.7010265738824941E-003   6.2887110118524853E-002
   1.6073803938446533E-002  -4.6948910319565829E-003   6.4024482492774620E-002
   1.2857816913774939E-002  -2.7487155323553114E-003   6.1424430841656760E-002
   1.2318747996215892E-002  -2.7991435970752404E-003   6.1859983174527761E-002
   1.1779679078656881E-002  -2.8424737028867261E-003   6.2598542264801715E-002
   1.1240610161097845E-002  -2.8787058497896558E-003   6.3640108112478527E-002
   1.0701541243538816E-002  -2.9078400377842428E-003   6.4984680717558363E-002
   6.3157124245897533E-003  -2.9391892886794641E-003   6.2681877477093584E-002
   6.0734391746799996E-003  -1.9655852482306710E-003   6.3008795967619963E-002
   5.8311659247702648E-003  -1.3379838605697518E-003   6.3626299036042194E-002
   5.5888926748605258E-003  -1.0563851256968860E-003   6.4534386682360001E-002
   5.3466194249507815E-003  -1.1207890436119167E-003   6.5733058906573327E-002
  -1.5936247024651157E-004  -3.1296630450036167E-003   6.5139906523547397E-002
  -1.1726223201427577E-004  -1.1320268993860461E-003   6.5005090560032841E-002
  -7.5161993782039971E-005   1.6650598174719478E-004   6.5148436994906855E-002
  -3.3061755549807642E-005   7.6593559839607112E-004   6.5569945828169107E-002
   9.0384826824246867E-006   6.6626195056040949E-004   6.6269617059819541E-002
   2.1463407509673946E-002  -6.4819420261288951E-003   6.2852464232222127E-002
   2.0872199395518487E-002  -6.1082085084230020E-003   6.2434291690185995E-002
   2.0280991281363056E-002  -5.7831176812992435E-003   6.2160060158058333E-002
   1.9689783167207611E-002  -5.5066695447583414E-003   6.2029769635838977E-002
   1.9098575053052166E-002  -5.2788640987994628E-003   6.2043420123528037E-002
   1.6073803938446533E-002  -4.6948910319565829E-003   6.4024482492774620E-002
   1.5626331570888448E-002  -4.5102265126733265E-003   6.3597553910510696E-002
   1.5178859203330359E-002  -4.3287026092803382E-003   6.3314155811533143E-002
   1.4731386835772265E-002  -4.1503193217779163E-003   6.3174288195841782E-002
   1.4283914468214177E-002  -3.9750766501656098E-003   6.3177951063436877E-002
   1.0701541243538816E-002  -2.9078400377842428E-003   6.4984680717558363E-002
   1.0397394095955949E-002  -2.9122445169237482E-003   6.4594498169758735E-002
   1.0093246948373078E-002  -2.8742875372614884E-003   6.4347435578623283E-002
   9.7890998007902057E-003  -2.7939690987974913E-003   6.4243492944151881E-002
   9.4849526532073437E-003  -2.6712892015317846E-003   6.4282670266344807E-002
   5.3466194249507815E-003  -1.1207890436119167E-003   6.5733058906573327E-002
   5.1853869707210003E-003  -1.3142625211740658E-003   6.5425124467930140E-002
   5.0241545164912164E-003  -1.4198724652423889E-003   6.5259899459328891E-002
   4.8629220622614343E-003  -1.4376188758170663E-003   6.5237383880769689E-002
   4.7016896080316522E-003  -1.3675017528979733E-003   6.5357577732252509E-002
   9.0384826824246867E-006   6.6626195056040949E-004   6.6269617059819541E-002
  -9.6898048163977790E-006   2.8371947457553337E-004   6.6089432805024773E-002
  -2.8418092315223714E-005   3.4542606776419293E-005   6.6051547453649828E-002
  -4.7146379814047047E-005  -8.1268652836686411E-005   6.6155961005694749E-002
  -6.5874667312872115E-005  -6.3714304264106403E-005   6.6402673461159634E-002
   1.9098575053052166E-002  -5.2788640987994628E-003   6.2043420123528037E-002
   1.8104565836442474E-002  -5.0632175218991438E-003   6.1739784187259283E-002
   1.7110556619832774E-002  -4.8232459925334620E-003   6.1693363989870659E-002
   1.6116547403223078E-002  -4.5589495107023169E-003   6.1904159531362010E-002
   1.5122538186613355E-002  -4.2703280764059270E-003   6.2372170811733518E-002
   1.4283914468214177E-002  -3.9750766501656098E-003   6.3177951063436877E-002
   1.3546378302835158E-002  -3.7951424819684110E-003   6.2907695490112575E-002
   1.2808842137456155E-002  -3.6026847047114924E-003   6.2893170280369670E-002
   1.2071305972077133E-002  -3.3977033183941220E-003   6.3134375434207787E-002
   1.1333769806698119E-002  -3.1801983230168029E-003   6.3631310951627662E-002
   9.4849526532073437E-003  -2.6712892015317846E-003   6.4282670266344807E-002
   9.0024041637602331E-003  -2.5270674420378725E-003   6.4033993712559731E-002
   8.5198556743131242E-003  -2.3821234168891967E-003   6.4039562147057166E-002
   8.0373071848660188E-003  -2.2364571260858734E-003   6.4299375569837267E-002
   7.5547586954189047E-003  -2.0900685696278454E-003   6.4813433980899726E-002
   4.7016896080316522E-003  -1.3675017528979733E-003   6.5357577732252509E-002
   4.4726434192176728E-003  -1.2589924021072368E-003   6.5118678854601306E-002
   4.2435972304036909E-003  -1.1615621290671473E-003   6.5132539589933730E-002
   4.0145510415897047E-003  -1.0752109337776516E-003   6.5399159938249879E-002
   3.7855048527757288E-003  -9.9993881623891556E-004   6.5918539899549919E-002
  -6.5874667312872115E-005  -6.3714304264106403E-005   6.6402673461159634E-002
  -4.2903930792509426E-005   9.0826378233987981E-006   6.6161750916236883E-002
  -1.9933194272150206E-005   5.8999158755110304E-005   6.6172102608999028E-002
   3.0375422482090131E-006   8.6035258530608311E-005   6.6433728539446138E-002
   2.6008278768571702E-005   9.0190937150180783E-005   6.6946628707578337E-002
   1.5122538186613355E-002  -4.2703280764059270E-003   6.2372170811733518E-002
   1.4298355720694461E-002  -3.9682580447780724E-003   6.2234308675805816E-002
   1.3474173254775554E-002  -3.6636157709532546E-003   6.2290343731277065E-002
   1.2649990788856633E-002  -3.3564012549314043E-003   6.2540275978147319E-002
   1.1825808322937725E-002  -3.0466144967123965E-003   6.2984105416416414E-002
   1.1333769806698119E-002  -3.1801983230168029E-003   6.3631310951627662E-002
   1.0706012546651815E-002  -2.9562334773962362E-003   6.3507218265621251E-002
   1.0078255286605484E-002  -2.7318725403495253E-003   6.3582078799961084E-002
   9.4504980265591662E-003  -2.5071155118762574E-003   6.3855892554647159E-002
   8.8227407665128627E-003  -2.2819623919767551E-003   6.4328659529679699E-002
   7.5547586954189047E-003  -2.0900685696278454E-003   6.4813433980899726E-002
   7.1284826701924764E-003  -1.9442089100145110E-003   6.4700934594043955E-002
   6.7022066449660446E-003  -1.8001293097456850E-003   6.4792444456481843E-002
   6.2759306197396128E-003  -1.6578297688212215E-003   6.5087963568213197E-002
   5.8496545945131845E-003  -1.5173102872410582E-003   6.5587491929238156E-002
   3.7855048527757288E-003  -9.9993881623891556E-004   6.5918539899549919E-002
   3.5657660913164576E-003  -9.3218434263278582E-004   6.5815457661074300E-002
   3.3460273298572011E-003  -8.6838607914178911E-004   6.5921440700839162E-002
   3.1262885683979299E-003  -8.0854402576613013E-004   6.6236489018845018E-002
   2.9065498069386665E-003  -7.5265818250555561E-004   6.6760602615091674E-002
   2.6008278768571702E-005   9.0190937150180783E-005   6.6946628707578337E-002
   1.7862810023760306E-005   7.9840224749050392E-005   6.6850787466711692E-002
   9.7173412789558489E-006   6.3357151461954087E-005   6.6969067533033139E-002
   1.5718725341496570E-006   4.0741717288812068E-005   6.7301468906542664E-002
  -6.5735962106600043E-006   1.1993922230280063E-005   6.7847991587240419E-002
   1.1825808322937725E-002  -3.0466144967123965E-003   6.2984105416416414E-002
   1.0835770253707910E-002  -2.7411390846739381E-003   6.2890419230791639E-002
   9.8457321844780954E-003  -2.4468586071932086E-003   6.3046732026755314E-002
   8.8556941152482735E-003  -2.1637730642704925E-003   6.3453043804307468E-002
   7.8656560460184377E-003  -1.8918824559056580E-003   6.4109354563447574E-002
   8.8227407665128627E-003  -2.2819623919767551E-003   6.4328659529679699E-002
   8.0824379976577390E-003  -2.0593436857264669E-003   6.4256361120624883E-002
   7.3421352288026223E-003  -1.8421898982016738E-003   6.4433534330731373E-002
   6.6018324599475160E-003  -1.6305010294013628E-003   6.4860179159998879E-002
   5.8615296910924097E-003  -1.4242770793263526E-003   6.5536295608427386E-002
   5.8496545945131845E-003  -1.5173102872410582E-003   6.5587491929238156E-002
   5.3585597636054867E-003  -1.3775482867793010E-003   6.5542311312586254E-002
   4.8674649326978063E-003  -1.2375211892097920E-003   6.5746074952668362E-002
   4.3763701017901138E-003  -1.0972289945324516E-003   6.6198782849484328E-002
   3.8852752708824281E-003  -9.5667170274710278E-004   6.6900435003033942E-002
   2.9065498069386665E-003  -7.5265818250555561E-004   6.6760602615091674E-002
   2.6641355515511361E-003  -6.9575288783198241E-004   6.6748269806675795E-002
   2.4217212961635945E-003  -6.3285248021808377E-004   6.6984353892566198E-002
   2.1793070407760584E-003  -5.6395695966332017E-004   6.7468854872763287E-002
   1.9368927853885224E-003  -4.8906632616782519E-004   6.8201772747266826E-002
  -6.5735962106600043E-006   1.1993922230280063E-005   6.7847991587240419E-002
  -8.3463850531623196E-007  -1.3957488884830394E-005   6.7874236602893157E-002
   4.9043192000136626E-006  -2.8183771226347742E-005   6.8148371150425158E-002
   1.0643276905352231E-005  -3.0684924794403823E-005   6.8670395229836395E-002
   1.6382234610687330E-005  -2.1460949588547606E-005   6.9440308841126730E-002
   7.8656560460184377E-003  -1.8918824559056580E-003   6.4109354563447574E-002
   6.9393691478376179E-003  -1.6807316787377236E-003   6.4049737625467618E-002
   6.0130822496567565E-003  -1.5798656294059299E-003   6.4230370236125767E-002
   5.0867953514759159E-003  -1.5892843079101659E-003   6.4651252395421993E-002
   4.1605084532950753E-003  -1.7089877142503207E-003   6.5312384103356380E-002
   5.8615296910924097E-003  -1.4242770793263526E-003   6.5536295608427386E-002
   5.1730143628018060E-003  -1.2627053668843313E-003   6.5405010484227366E-002
   4.4844990345112232E-003  -1.1849732109825428E-003   6.5509018951169395E-002
   3.7959837062206368E-003  -1.1910806116219863E-003   6.5848321009254335E-002
   3.1074683779300366E-003  -1.2810275688016626E-003   6.6422916658481435E-002
   3.8852752708824281E-003  -9.5667170274710278E-004   6.6900435003033942E-002
   3.4295755549863596E-003  -8.4467905503060603E-004   6.6723926863908933E-002
   2.9738758390902877E-003  -7.9008079255937780E-004   6.6777756358430695E-002
   2.5181761231942105E-003  -7.9287691533358462E-004   6.7061923486599173E-002
   2.0624764072981472E-003  -8.5306742335294894E-004   6.7576428248414117E-002
   1.9368927853885224E-003  -4.8906632616782519E-004   6.8201772747266826E-002
   1.7090527243912353E-003  -4.2665274317688073E-004   6.8006486764512569E-002
   1.4812126633939474E-003  -3.9518837413621277E-004   6.8036582457909334E-002
   1.2533726023966668E-003  -3.9467321904529395E-004   6.8292059827456925E-002
   1.0255325413993724E-003  -4.2510727790426306E-004   6.8772918873155287E-002
   1.6382234610687330E-005  -2.1460949588547606E-005   6.9440308841126730E-002
   1.1445871016452225E-005  -8.6264313234329926E-006   6.9252690186038413E-002
   6.5095074222171201E-006  -2.9595571279794619E-007   6.9285497249605144E-002
   1.5731438279820154E-006   3.5304772430036491E-006   6.9538730031827145E-002
  -3.3632197662530894E-006   2.8528675444228213E-006   7.0012388532704306E-002
   4.1605084532950753E-003  -1.7089877142503207E-003   6.5312384103356380E-002
   3.6287803271377872E-003  -2.0002933522688116E-003   6.4394238017575822E-002
   3.0970522009805129E-003  -2.5245187258087498E-003   6.3597020113129454E-002
   2.5653240748232387E-003  -3.2816638348692265E-003   6.2920730390016638E-002
   2.0335959486659505E-003  -4.2717286794502485E-003   6.2365368848237734E-002
   3.1074683779300366E-003  -1.2810275688016626E-003   6.6422916658481435E-002
   2.6997418098659021E-003  -1.5001000883850812E-003   6.5312226402299278E-002
   2.2920152418017814E-003  -1.8935841762352801E-003   6.4328611080969933E-002
   1.8842886737376607E-003  -2.4614798323520579E-003   6.3472070694493149E-002
   1.4765621056735262E-003  -3.2037870567358517E-003   6.2742605242868343E-002
   2.0624764072981472E-003  -8.5306742335294894E-004   6.7576428248414117E-002
   1.7848981508457318E-003  -9.9990682450129542E-004   6.6331701989085196E-002
   1.5073198943933060E-003  -1.2626496266621295E-003   6.5220197418127249E-002
   1.2297416379408802E-003  -1.6412958298353299E-003   6.4241914535540401E-002
   9.5216338148846474E-004  -2.1358454340212329E-003   6.3396853341324333E-002
   1.0255325413993724E-003  -4.2510727790426306E-004   6.8772918873155287E-002
   8.8424935007723471E-004  -4.9971356061748184E-004   6.7452664777933380E-002
   7.4296615875510483E-004  -6.3171507708870839E-004   6.6271779124600874E-002
   6.0168296743296108E-004  -8.2111182731871464E-004   6.5230261913158075E-002
   4.6039977611082340E-004  -1.0679038113065031E-003   6.4328113143604662E-002
  -3.3632197662530894E-006   2.8528675444228213E-006   7.0012388532704306E-002
  -2.2045924395544536E-006   4.7970326627622129E-007   6.8675114768843470E-002
  -1.0459651128419400E-006  -7.8052751570356627E-007   6.7483356200390865E-002
   1.1266221386016517E-007  -9.2782480164838033E-007   6.6437112827346628E-002
   1.2712895405692093E-006   3.7811407893606486E-008   6.5536384649710011E-002
   2.0335959486659505E-003  -4.2717286794502485E-003   6.2365368848237734E-002
   2.2841031522745081E-003  -5.5744254693413930E-003   5.8337504030215426E-002
   2.5346103558830796E-003  -7.2694664143287402E-003   5.4303032421938680E-002
   2.7851175594916233E-003  -9.3568515144141912E-003   5.0261954023406386E-002
   3.0356247631002087E-003  -1.1836580769596594E-002   4.6214268834620764E-002
   1.4765621056735262E-003  -3.2037870567358517E-003   6.2742605242868343E-002
   1.7064096724240252E-003  -4.1804780580482759E-003   5.8389972626705533E-002
   1.9362572391745519E-003  -5.4515250449519437E-003   5.4002627527081071E-002
   2.1661048059250648E-003  -7.0169280174468829E-003   4.9580569943994679E-002
   2.3959523726755638E-003  -8.8766869755327882E-003   4.5123799877447190E-002
   9.5216338148846474E-004  -2.1358454340212329E-003   6.3396853341324333E-002
   1.1332456181738851E-003  -2.7865306467556583E-003   5.8817441096527090E-002
   1.3143278548592950E-003  -3.6335836755751194E-003   5.4175210675061231E-002
   1.4954100915447396E-003  -4.6770045204796787E-003   4.9470162076927074E-002
   1.6764923282301392E-003  -5.9167931814689823E-003   4.4702295302123995E-002
   4.6039977611082340E-004  -1.0679038113065031E-003   6.4328113143604662E-002
   5.6461098952409645E-004  -1.3925832354634571E-003   5.9619909439679764E-002
   6.6882220293736170E-004  -1.8156423061984200E-003   5.4820781865878764E-002
   7.7303341635063388E-004  -2.3370810235122004E-003   4.9930730422202141E-002
   8.7724462976388612E-004  -2.9568993874052873E-003   4.4949755108650208E-002
   1.2712895405692093E-006   3.7811407893606486E-008   6.5536384649710011E-002
   5.0578647463328519E-007   1.3641758297433526E-006   6.0797377656163221E-002
  -2.5971659129916946E-007   2.2990631783070814E-006   5.5939341099533524E-002
  -1.0252196572420325E-006   2.8424734545631769E-006   5.0962274979821226E-002
  -1.7907227231606093E-006   2.9944066586296003E-006   4.5866179297026299E-002
  -1.5936247024651157E-004  -3.1296630450036167E-003   6.5139906523547397E-002
  -1.1726223201427577E-004  -1.1320268993860461E-003   6.5005090560032841E-002
  -7.5161993782039971E-005   1.6650598174719478E-004   6.5148436994906855E-002
  -3.3061755549807642E-005   7.6593559839607112E-004   6.5569945828169107E-002
   9.0384826824246867E-006   6.6626195056040949E-004   6.6269617059819541E-002
  -6.6144717880958805E-003  -4.2822997891545089E-005   6.6038816013455459E-002
  -6.2910532329132317E-003   1.0549158191338615E-003   6.5331686222421470E-002
  -5.9676346777305760E-003   1.7550152892307769E-003   6.4909030666900014E-002
  -5.6442161225479289E-003   2.0574754123990208E-003   6.4770849346890993E-002
  -5.3207975673652784E-003   1.9622961886385792E-003   6.4917142262394589E-002
  -1.3096679546320414E-002   3.0440170492206098E-003   6.5887096215993507E-002
  -1.2485630837063135E-002   3.2418585376539355E-003   6.4909116514995785E-002
  -1.1874582127805873E-002   3.3435245967144006E-003   6.4221922886634739E-002
  -1.1263533418548601E-002   3.3490152264020016E-003   6.3825515330910382E-002
  -1.0652484709291338E-002   3.2583304267168045E-003   6.3719893847822659E-002
  -1.9605985744920080E-002   6.1308570963327369E-003   6.4684747131161541E-002
  -1.8700995044463979E-002   5.4288012561739124E-003   6.3737381437755564E-002
  -1.7796004344007917E-002   4.9320339041980313E-003   6.3087113654110849E-002
  -1.6891013643551851E-002   4.6405550404050502E-003   6.2733943780226828E-002
  -1.5986022943095764E-002   4.5543646647949465E-003   6.2677871816103820E-002
  -2.6142390383894869E-002   9.2176971434448363E-003   6.2431768758959394E-002
  -2.4937145855115819E-002   7.6157439746938338E-003   6.1816480990701417E-002
  -2.3731901326336711E-002   6.5205432116816064E-003   6.1504602969328581E-002
  -2.2526656797557651E-002   5.9320948544079738E-003   6.1496134694840748E-002
  -2.1321412268778563E-002   5.8503989028731995E-003   6.1791076167238113E-002
   9.0384826824246867E-006   6.6626195056040949E-004   6.6269617059819541E-002
  -9.6898048163977790E-006   2.8371947457553337E-004   6.6089432805024773E-002
  -2.8418092315223714E-005   3.4542606776419293E-005   6.6051547453649828E-002
  -4.7146379814047047E-005  -8.1268652836686411E-005   6.6155961005694749E-002
  -6.5874667312872115E-005  -6.3714304264106403E-005   6.6402673461159634E-002
  -5.3207975673652784E-003   1.9622961886385792E-003   6.4917142262394589E-002
  -5.1957433723704644E-003   1.7021235362524034E-003   6.4837099543726601E-002
  -5.0706891773756695E-003   1.5096033735433056E-003   6.4902322886625965E-002
  -4.9456349823808624E-003   1.3847357005112512E-003   6.5112812291092670E-002
  -4.8205807873860605E-003   1.3275205171563442E-003   6.5468567757126728E-002
  -1.0652484709291338E-002   3.2583304267168045E-003   6.3719893847822659E-002
  -1.0380680873655432E-002   3.1205275979293151E-003   6.3674279546772752E-002
  -1.0108877038019531E-002   2.9846641403100879E-003   6.3776898465437576E-002
  -9.8370732023836255E-003   2.8507400538591906E-003   6.4027750603817324E-002
  -9.5652693667477289E-003   2.7187553385766838E-003   6.4426835961911885E-002
  -1.5986022943095764E-002   4.5543646647949465E-003   6.2677871816103820E-002
  -1.5564502308671289E-002   4.5389316596062615E-003   6.2600972814163131E-002
  -1.5142981674246821E-002   4.4597249070768945E-003   6.2675274190084798E-002
  -1.4721461039822347E-002   4.3167444072072124E-003   6.2900775943868836E-002
  -1.4299940405397874E-002   4.1099901599970234E-003   6.3277478075515106E-002
  -2.1321412268778563E-002   5.8503989028731995E-003   6.1791076167238113E-002
  -2.0747207677418038E-002   5.9573357212830413E-003   6.1617179345897971E-002
  -2.0173003086057531E-002   5.9347856738437288E-003   6.1597450060567632E-002
  -1.9598798494697013E-002   5.7827487605550607E-003   6.1731888311247124E-002
  -1.9024593903336495E-002   5.5012249814174741E-003   6.2020494097936363E-002
  -6.5874667312872115E-005  -6.3714304264106403E-005   6.6402673461159634E-002
  -4.2903930792509426E-005   9.0826378233987981E-006   6.6161750916236883E-002
  -1.9933194272150206E-005   5.8999158755110304E-005   6.6172102608999028E-002
   3.0375422482090131E-006   8.6035258530608311E-005   6.6433728539446138E-002
   2.6008278768571702E-005   9.0190937150180783E-005   6.6946628707578337E-002
  -4.8205807873860605E-003   1.3275205171563442E-003   6.5468567757126728E-002
  -4.5494157643495257E-003   1.2974724236573809E-003   6.5216483436186273E-002
  -4.2782507413129927E-003   1.2541060201937126E-003   6.5209513450593254E-002
  -4.0070857182764544E-003   1.1974213067652284E-003   6.5447657800347628E-002
  -3.7359206952399249E-003   1.1274182833717061E-003   6.5930916485449464E-002
  -9.5652693667477289E-003   2.7187553385766838E-003   6.4426835961911885E-002
  -9.0520699595325778E-003   2.5858622094914185E-003   6.4173151976144843E-002
  -8.5388705523174319E-003   2.4492128816323774E-003   6.4158422423387707E-002
  -8.0256711451022859E-003   2.3088073549996282E-003   6.4382647303640392E-002
  -7.5124717378871365E-003   2.1646456295930372E-003   6.4845826616902788E-002
  -1.4299940405397874E-002   4.1099901599970234E-003   6.3277478075515106E-002
  -1.3550866516341667E-002   3.8742519953253451E-003   6.3031756536112621E-002
  -1.2801792627285462E-002   3.6443197430710110E-003   6.3018829527382483E-002
  -1.2052718738229261E-002   3.4201934032341381E-003   6.3238697049324610E-002
  -1.1303644849173060E-002   3.2018729758142989E-003   6.3691359101938919E-002
  -1.9024593903336495E-002   5.5012249814174741E-003   6.2020494097936363E-002
  -1.8045805434776793E-002   5.1626417811594938E-003   6.1792297116089467E-002
  -1.7067016966217097E-002   4.8394266045097001E-003   6.1790734762577404E-002
  -1.6088228497657401E-002   4.5315794514686064E-003   6.2015807037400034E-002
  -1.5109440029097698E-002   4.2391003220357826E-003   6.2467513940557273E-002
   2.6008278768571702E-005   9.0190937150180783E-005   6.6946628707578337E-002
   1.7862810023760306E-005   7.9840224749050392E-005   6.6850787466711692E-002
   9.7173412789558489E-006   6.3357151461954087E-005   6.6969067533033139E-002
   1.5718725341496570E-006   4.0741717288812068E-005   6.7301468906542664E-002
  -6.5735962106600043E-006   1.1993922230280063E-005   6.7847991587240419E-002
  -3.7359206952399249E-003   1.1274182833717061E-003   6.5930916485449464E-002
  -3.5316567668448474E-003   1.0480078882442456E-003   6.5812926868701355E-002
  -3.3273928384497751E-003   9.6310105961339154E-004   6.5905634739044927E-002
  -3.1231289100546967E-003   8.7269779747958798E-004   6.6209040096480321E-002
  -2.9188649816596253E-003   7.7679810184272391E-004   6.6723142941007230E-002
  -7.5124717378871365E-003   2.1646456295930372E-003   6.4845826616902788E-002
  -7.0992222324485999E-003   2.0161755517392743E-003   6.4706324551655980E-002
  -6.6859727270100625E-003   1.8628449677650441E-003   6.4774096153404431E-002
  -6.2727232215715328E-003   1.7046538776701956E-003   6.5049141422148099E-002
  -5.8594737161329884E-003   1.5416022814549457E-003   6.5531460357886984E-002
  -1.1303644849173060E-002   3.2018729758142989E-003   6.3691359101938919E-002
  -1.0684833586787497E-002   2.9843432152344418E-003   6.3530980515575888E-002
  -1.0066022324401944E-002   2.7625888759167556E-003   6.3574451776111707E-002
  -9.4472110620163786E-003   2.5366099578608874E-003   6.3821772883546332E-002
  -8.8283997996308275E-003   2.3064064610673896E-003   6.4272943837879765E-002
  -1.5109440029097698E-002   4.2391003220357826E-003   6.2467513940557273E-002
  -1.4288490829861535E-002   3.9525108787294982E-003   6.2286894760460843E-002
  -1.3467541630625385E-002   3.6623327840681896E-003   6.2306701607166670E-002
  -1.2646592431389228E-002   3.3685660380514820E-003   6.2526934480675062E-002
  -1.1825643232153064E-002   3.0712106406797224E-003   6.2947593380985656E-002
  -6.5735962106600043E-006   1.1993922230280063E-005   6.7847991587240419E-002
  -8.3463850531623196E-007  -1.3957488884830394E-005   6.7874236602893157E-002
   4.9043192000136626E-006  -2.8183771226347742E-005   6.8148371150425158E-002
   1.0643276905352231E-005  -3.0684924794403823E-005   6.8670395229836395E-002
   1.6382234610687330E-005  -2.1460949588547606E-005   6.9440308841126730E-002
  -2.9188649816596253E-003   7.7679810184272391E-004   6.6723142941007230E-002
  -2.6658984556913803E-003   6.8309338026817379E-004   6.6731214399220085E-002
  -2.4129319297231337E-003   5.9927504032233903E-004   6.6985851462079693E-002
  -2.1599654037548913E-003   5.2534308200511554E-004   6.7487054129585819E-002
  -1.9069988777866559E-003   4.6129750531664904E-004   6.8234822401738338E-002
  -5.8594737161329884E-003   1.5416022814549457E-003   6.5531460357886984E-002
  -5.3606035491345185E-003   1.3801442494211502E-003   6.5519519511515301E-002
  -4.8617333821360355E-003   1.2267338518711229E-003   6.5752820342557569E-002
  -4.3628632151375586E-003   1.0813710888043539E-003   6.6231362851013664E-002
  -3.8639930481390826E-003   9.4405596022151261E-004   6.6955147036883683E-002
  -8.8283997996308275E-003   2.3064064610673896E-003   6.4272943837879765E-002
  -8.0849499188347697E-003   2.0771951185741405E-003   6.4239151939778472E-002
  -7.3415000380386980E-003   1.8541926634195807E-003   6.4449277791858314E-002
  -6.5980501572426358E-003   1.6373990956036772E-003   6.4903321394119681E-002
  -5.8546002764465676E-003   1.4268144151265427E-003   6.5601282746562101E-002
  -1.1825643232153064E-002   3.0712106406797224E-003   6.2947593380985656E-002
  -1.0838937564792095E-002   2.7742459877270753E-003   6.2890111684009820E-002
  -9.8522318974311185E-003   2.4816514749685104E-003   6.3075223809982484E-002
  -8.8655262300701386E-003   2.1934271024029797E-003   6.3502929758903870E-002
  -7.8788205627091656E-003   1.9095728700315728E-003   6.4173229530773757E-002
   1.6382234610687330E-005  -2.1460949588547606E-005   6.9440308841126730E-002
   1.1445871016452225E-005  -8.6264313234329926E-006   6.9252690186038413E-002
   6.5095074222171201E-006  -2.9595571279794619E-007   6.9285497249605144E-002
   1.5731438279820154E-006   3.5304772430036491E-006   6.9538730031827145E-002
  -3.3632197662530894E-006   2.8528675444228213E-006   7.0012388532704306E-002
  -1.9069988777866559E-003   4.6129750531664904E-004   6.8234822401738338E-002
  -1.6881883055777057E-003   4.1492542850574132E-004   6.8027390193579562E-002
  -1.4693777333687486E-003   3.9401396982299830E-004   6.8047026138372019E-002
  -1.2505671611597949E-003   3.9856312926795506E-004   6.8293730236115333E-002
  -1.0317565889508412E-003   4.2857290684050753E-004   6.8767502486810017E-002
  -3.8639930481390826E-003   9.4405596022151261E-004   6.6955147036883683E-002
  -3.4147931058309310E-003   8.3847728833522095E-004   6.6757865936436539E-002
  -2.9655931635228002E-003   7.8832389535900271E-004   6.6794295423236463E-002
  -2.5163932212146616E-003   7.9359578129279199E-004   6.7064435497283692E-002
  -2.0671932789065178E-003   8.5429294613625917E-004   6.7568286158577989E-002
  -5.8546002764465676E-003   1.4268144151265427E-003   6.5601282746562101E-002
  -5.1683685297432506E-003   1.2620291481649365E-003   6.5444117414608732E-002
  -4.4821367830399118E-003   1.1826338208949030E-003   6.5527305104198658E-002
  -3.7959050363365761E-003   1.1886284333175751E-003   6.5850845815331821E-002
  -3.1096732896332552E-003   1.2800129854321773E-003   6.6414739548008195E-002
  -7.8788205627091656E-003   1.9095728700315728E-003   6.4173229530773757E-002
  -6.9489145773146271E-003   1.6855810079939304E-003   6.4086144628096475E-002
  -6.0190085919201095E-003   1.5769437464308034E-003   6.4246055181258754E-002
  -5.0891026065255900E-003   1.5836610853424138E-003   6.4652961190260011E-002
  -4.1591966211310533E-003   1.7057330247280955E-003   6.5306862655100550E-002
  -3.3632197662530894E-006   2.8528675444228213E-006   7.0012388532704306E-002
  -2.2045924395544536E-006   4.7970326627622129E-007   6.8675114768843470E-002
  -1.0459651128419400E-006  -7.8052751570356627E-007   6.7483356200390865E-002
   1.1266221386016517E-007  -9.2782480164838033E-007   6.6437112827346628E-002
   1.2712895405692093E-006   3.7811407893606486E-008   6.5536384649710011E-002
  -1.0317565889508412E-003   4.2857290684050753E-004   6.8767502486810017E-002
  -8.8836629397986283E-004   5.0066105770524283E-004   6.7449806405390889E-002
  -7.4497599900886884E-004   6.3144533702710892E-004   6.6271058463852478E-002
  -6.0158570403789219E-004   8.2092574480641806E-004   6.5231258662194327E-002
  -4.5819540906689646E-004   1.0691022810429551E-003   6.4330407000416368E-002
  -2.0671932789065178E-003   8.5429294613625917E-004   6.7568286158577989E-002
  -1.7881383718189401E-003   1.0008424121438486E-003   6.6327750954561865E-002
  -1.5090834647313598E-003   1.2636712015702406E-003   6.5219596834898377E-002
  -1.2300285576437699E-003   1.6427793144145920E-003   6.4243823799587735E-002
  -9.5097365055620171E-004   2.1381667506777391E-003   6.3400431848629729E-002
  -3.1096732896332552E-003   1.2800129854321773E-003   6.6414739548008195E-002
  -2.7015208259567659E-003   1.5010237665825793E-003   6.5308948416356177E-002
  -2.2933683622802827E-003   1.8958970661131017E-003   6.4328971313529160E-002
  -1.8852158986037966E-003   2.4646328840227123E-003   6.3474808239527433E-002
  -1.4770634349273106E-003   3.2072312203127729E-003   6.2746459194350401E-002
  -4.1591966211310533E-003   1.7057330247280955E-003   6.5306862655100550E-002
  -3.6285136563933562E-003   2.0012051210214210E-003   6.4393398790773881E-002
  -3.0978306916556557E-003   2.5281229306559072E-003   6.3599181899744728E-002
  -2.5671477269179604E-003   3.2864864536309296E-003   6.2924211982012979E-002
  -2.0364647621802581E-003   4.2762956899473625E-003   6.2368489037578412E-002
   1.2712895405692093E-006   3.7811407893606486E-008   6.5536384649710011E-002
   5.0578647463328519E-007   1.3641758297433526E-006   6.0797377656163221E-002
  -2.5971659129916946E-007   2.2990631783070814E-006   5.5939341099533524E-002
  -1.0252196572420325E-006   2.8424734545631769E-006   5.0962274979821226E-002
  -1.7907227231606093E-006   2.9944066586296003E-006   4.5866179297026299E-002
  -4.5819540906689646E-004   1.0691022810429551E-003   6.4330407000416368E-002
  -5.6381007058132690E-004   1.3956136152712406E-003   5.9621059863848858E-002
  -6.6942473209577295E-004   1.8200984170259893E-003   5.4821043973467043E-002
  -7.7503939361020166E-004   2.3425566863066669E-003   4.9930359329270368E-002
  -8.8065405512464945E-004   2.9629884231141546E-003   4.4949005931260722E-002
  -9.5097365055620171E-004   2.1381667506777391E-003   6.3400431848629729E-002
  -1.1330766612506742E-003   2.7898630547127934E-003   5.8819109513640333E-002
  -1.3151796719451372E-003   3.6378977708729915E-003   5.4175479234105248E-002
  -1.4972826826396288E-003   4.6822708991586005E-003   4.9469541010024105E-002
  -1.6793856933340727E-003   5.9229824395696795E-003   4.4701294841397288E-002
  -1.4770634349273106E-003   3.2072312203127729E-003   6.2746459194350401E-002
  -1.7072939855333875E-003   4.1841124941542074E-003   5.8391526605538514E-002
  -1.9375245361394498E-003   5.4556971247202227E-003   5.4002646881449123E-002
  -2.1677550867455269E-003   7.0219851120107302E-003   4.9579820022082013E-002
  -2.3979856373515752E-003   8.8829764560250934E-003   4.5123046027438329E-002
  -2.0364647621802581E-003   4.2762956899473625E-003   6.2368489037578412E-002
  -2.2864620434294505E-003   5.5783619335960655E-003   5.8338311139542354E-002
  -2.5364593246786603E-003   7.2734964785676759E-003   5.4302546915497407E-002
  -2.7864566059278822E-003   9.3616993248622493E-003   5.0261196365443794E-002
  -3.0364538871770624E-003   1.1842970472480729E-002   4.6214259489381515E-002
  -2.6142390383894869E-002   9.2176971434448363E-003   6.2431768758959394E-002
  -2.4937145855115819E-002   7.6157439746938338E-003   6.1816480990701417E-002
  -2.3731901326336711E-002   6.5205432116816064E-003   6.1504602969328581E-002
  -2.2526656797557651E-002   5.9320948544079738E-003   6.1496134694840748E-002
  -2.1321412268778563E-002   5.8503989028731995E-003   6.1791076167238113E-002
  -3.2702470820695370E-002   1.0308027423102051E-002   5.8303982298959389E-002
  -3.1190738379063124E-002   9.2883173230874638E-003   5.8060148656097044E-002
  -2.9679005937430850E-002   8.5391130467420556E-003   5.8125881092056186E-002
  -2.8167273495798562E-002   8.0604145940658435E-003   5.8501179606836595E-002
  -2.6655541054166315E-002   7.8522219650588310E-003   5.9186044200438104E-002
  -3.9282804412772147E-002   1.1398357702759293E-002   5.4876562198730161E-002
  -3.7458427726350482E-002   1.0960890671481011E-002   5.4767936099194295E-002
  -3.5634051039928852E-002   1.0557682881802477E-002   5.4975032410415889E-002
  -3.3809674353507187E-002   1.0188734333723602E-002   5.5497851132394957E-002
  -3.1985297667085556E-002   9.8540450272444624E-003   5.6336392265131499E-002
  -4.5883391160125131E-002   1.2488687982416508E-002   5.2149508458272265E-002
  -4.3740213896977916E-002   1.2633464019874599E-002   5.1939843319993143E-002
  -4.1597036633830721E-002   1.2576252716862940E-002   5.2052056924407737E-002
  -3.9453859370683513E-002   1.2317054073381389E-002   5.2486149271515958E-002
  -3.7310682107536346E-002   1.1855868089430177E-002   5.3242120361317764E-002
  -5.2504231062754342E-002   1.3579018262073750E-002   5.0122821077585311E-002
  -5.0036096890945403E-002   1.4306037368268076E-002   4.9575870318493587E-002
  -4.7567962719136478E-002   1.4594822551923334E-002   4.9356954634031641E-002
  -4.5099828547327532E-002   1.4445373813039213E-002   4.9466074024199544E-002
  -4.2631694375518614E-002   1.3857691151615781E-002   4.9903228488997309E-002
  -2.1321412268778563E-002   5.8503989028731995E-003   6.1791076167238113E-002
  -2.0747207677418038E-002   5.9573357212830413E-003   6.1617179345897971E-002
  -2.0173003086057531E-002   5.9347856738437288E-003   6.1597450060567632E-002
  -1.9598798494697013E-002   5.7827487605550607E-003   6.1731888311247124E-002
  -1.9024593903336495E-002   5.5012249814174741E-003   6.2020494097936363E-002
  -2.6655541054166315E-002   7.8522219650588310E-003   5.9186044200438104E-002
  -2.5933078951169669E-002   7.7414022497988427E-003   5.8907986096180767E-002
  -2.5210616848173033E-002   7.5548225383638493E-003   5.8772275479185898E-002
  -2.4488154745176412E-002   7.2924828307540327E-003   5.8778912349453413E-002
  -2.3765692642179752E-002   6.9543831269688328E-003   5.8927896706983451E-002
  -3.1985297667085556E-002   9.8540450272444624E-003   5.6336392265131499E-002
  -3.1126398101200100E-002   9.5254687783148106E-003   5.6007899747630922E-002
  -3.0267498535314696E-002   9.1748594028841363E-003   5.5809934668645533E-002
  -2.9408598969429260E-002   8.8022169009527272E-003   5.5742497028175179E-002
  -2.8549699403543839E-002   8.4075412725203025E-003   5.5805586826220083E-002
  -3.7310682107536346E-002   1.1855868089430177E-002   5.3242120361317764E-002
  -3.6327165127509414E-002   1.1309535306830640E-002   5.2916920300248256E-002
  -3.5343648147482525E-002   1.0794896267404396E-002   5.2710427628946580E-002
  -3.4360131167455614E-002   1.0311950971151477E-002   5.2622642347412714E-002
  -3.3376614187428696E-002   9.8606994180717722E-003   5.2653564455646742E-002
  -4.2631694375518614E-002   1.3857691151615781E-002   4.9903228488997309E-002
  -4.1535380030097532E-002   1.3093601835346580E-002   4.9635047754032879E-002
  -4.0439065684676492E-002   1.2414933131924669E-002   4.9473754360089134E-002
  -3.9342751339255452E-002   1.1821685041350258E-002   4.9419348307165697E-002
  -3.8246436993834385E-002   1.1313857563623131E-002   4.9471829595262862E-002
  -1.9024593903336495E-002   5.5012249814174741E-003   6.2020494097936363E-002
  -1.8045805434776793E-002   5.1626417811594938E-003   6.1792297116089467E-002
  -1.7067016966217097E-002   4.8394266045097001E-003   6.1790734762577404E-002
  -1.6088228497657401E-002   4.5315794514686064E-003   6.2015807037400034E-002
  -1.5109440029097698E-002   4.2391003220357826E-003   6.2467513940557273E-002
  -2.3765692642179752E-002   6.9543831269688328E-003   5.8927896706983451E-002
  -2.2557661750359115E-002   6.5797179449789411E-003   5.8668398029228741E-002
  -2.1349630858538460E-002   6.2076818027543140E-003   5.8640749569661310E-002
  -2.0141599966717820E-002   5.8382747002945733E-003   5.8844951328281117E-002
  -1.8933569074897200E-002   5.4714966376002150E-003   5.9281003305087898E-002
  -2.8549699403543839E-002   8.4075412725203025E-003   5.5805586826220083E-002
  -2.7107210498609789E-002   7.9967941087985273E-003   5.5502047468714510E-002
  -2.5664721593675749E-002   7.5759370009985949E-003   5.5435573919248540E-002
  -2.4222232688741720E-002   7.1449699491205956E-003   5.5606166177822297E-002
  -2.2779743783807663E-002   6.7038929531647029E-003   5.6013824244435462E-002
  -3.3376614187428696E-002   9.8606994180717722E-003   5.2653564455646742E-002
  -3.1694451679528800E-002   9.4138702726180440E-003   5.2293245434546790E-002
  -3.0012289171628920E-002   8.9441921992430423E-003   5.2175207811338976E-002
  -2.8330126663729020E-002   8.4516651979467013E-003   5.2299451586023310E-002
  -2.6647964155829141E-002   7.9362892687292186E-003   5.2665976758599659E-002
  -3.8246436993834385E-002   1.1313857563623131E-002   4.9471829595262862E-002
  -3.6319385293116194E-002   1.0830946436437588E-002   4.9041991926725537E-002
  -3.4392333592397996E-002   1.0312447397487490E-002   4.8859651245932723E-002
  -3.2465281891679812E-002   9.7583604467726126E-003   4.8924807552884475E-002
  -3.0538230190961607E-002   9.1686855842936232E-003   4.9237460847580738E-002
  -1.5109440029097698E-002   4.2391003220357826E-003   6.2467513940557273E-002
  -1.4288490829861535E-002   3.9525108787294982E-003   6.2286894760460843E-002
  -1.3467541630625385E-002   3.6623327840681896E-003   6.2306701607166670E-002
  -1.2646592431389228E-002   3.3685660380514820E-003   6.2526934480675062E-002
  -1.1825643232153064E-002   3.0712106406797224E-003   6.2947593380985656E-002
  -1.8933569074897200E-002   5.4714966376002150E-003   5.9281003305087898E-002
  -1.7916464749945467E-002   5.1042936670350758E-003   5.9070533807362713E-002
  -1.6899360424993758E-002   4.7336118409633671E-003   5.9051948534266152E-002
  -1.5882256100042035E-002   4.3594511593849465E-003   5.9225247485798327E-002
  -1.4865151775090318E-002   3.9818116222996025E-003   5.9590430661959293E-002
  -2.2779743783807663E-002   6.7038929531647029E-003   5.6013824244435462E-002
  -2.1575026135314049E-002   6.2560764553406534E-003   5.5773614224930004E-002
  -2.0370308486820438E-002   5.8048908978584335E-003   5.5716746627879538E-002
  -1.9165590838326824E-002   5.3503362807180779E-003   5.5843221453284089E-002
  -1.7960873189833214E-002   4.8924126039194271E-003   5.6153038701143909E-002
  -2.6647964155829141E-002   7.9362892687292186E-003   5.2665976758599659E-002
  -2.5264174985967263E-002   7.4078592436461199E-003   5.2396136013162425E-002
  -2.3880385816105403E-002   6.8761699547534444E-003   5.2301095888006695E-002
  -2.2496596646243525E-002   6.3412214020512093E-003   5.2380856383132376E-002
  -2.1112807476381657E-002   5.8030135855393905E-003   5.2635417498539457E-002
  -3.0538230190961607E-002   9.1686855842936232E-003   4.9237460847580738E-002
  -2.8983911301905141E-002   8.5596420319517530E-003   4.8938099172060323E-002
  -2.7429592412848661E-002   7.9474490116486218E-003   4.8804996314647742E-002
  -2.5875273523792208E-002   7.3321065233847155E-003   4.8838152275342966E-002
  -2.4320954634735714E-002   6.7136145671591319E-003   4.9037567054145859E-002
  -1.1825643232153064E-002   3.0712106406797224E-003   6.2947593380985656E-002
  -1.0838937564792095E-002   2.7742459877270753E-003   6.2890111684009820E-002
  -9.8522318974311185E-003   2.4816514749685104E-003   6.3075223809982484E-002
  -8.8655262300701386E-003   2.1934271024029797E-003   6.3502929758903870E-002
  -7.8788205627091656E-003   1.9095728700315728E-003   6.4173229530773757E-002
  -1.4865151775090318E-002   3.9818116222996025E-003   5.9590430661959293E-002
  -1.3644126673398621E-002   3.6043401149538079E-003   5.9472554232149422E-002
  -1.2423101571706858E-002   3.2306835225930919E-003   5.9580722848052631E-002
  -1.1202076470015107E-002   2.8608418452175516E-003   5.9914936509668823E-002
  -9.9810513683233695E-003   2.4948150828274507E-003   6.0475195216997790E-002
  -1.7960873189833214E-002   4.8924126039194271E-003   5.6153038701143909E-002
  -1.6522077431046327E-002   4.4344342421802352E-003   5.5974212313291666E-002
  -1.5083281672259453E-002   3.9797155702177706E-003   5.6004882193916819E-002
  -1.3644485913472577E-002   3.5282565880321755E-003   5.6245048343019265E-002
  -1.2205690154685723E-002   3.0800572956234396E-003   5.6694710760598788E-002
  -2.1112807476381657E-002   5.8030135855393905E-003   5.2635417498539457E-002
  -1.9472789837735309E-002   5.2645283694067041E-003   5.2395085927436413E-002
  -1.7832772199088940E-002   4.7287476178426227E-003   5.2347701847575021E-002
  -1.6192754560442564E-002   4.1956713308469954E-003   5.2493265258955285E-002
  -1.4552736921796225E-002   3.6652995084194839E-003   5.2831776161577207E-002
  -2.4320954634735714E-002   6.7136145671591319E-003   4.9037567054145859E-002
  -2.2496263893465512E-002   6.0946224966333951E-003   4.8735175074583470E-002
  -2.0671573152195297E-002   5.4777796654671418E-003   4.8609181809027124E-002
  -1.8846882410925067E-002   4.8630860736613990E-003   4.8659587257476905E-002
  -1.7022191669654879E-002   4.2505417212154173E-003   4.8886391419932562E-002
  -7.8788205627091656E-003   1.9095728700315728E-003   6.4173229530773757E-002
  -6.9489145773146271E-003   1.6855810079939304E-003   6.4086144628096475E-002
  -6.0190085919201095E-003   1.5769437464308034E-003   6.4246055181258754E-002
  -5.0891026065255900E-003   1.5836610853424138E-003   6.4652961190260011E-002
  -4.1591966211310533E-003   1.7057330247280955E-003   6.5306862655100550E-002
  -9.9810513683233695E-003   2.4948150828274507E-003   6.0475195216997790E-002
  -8.8033269556489907E-003   2.1881272723205947E-003   6.0381634099640924E-002
  -7.6256025429746188E-003   1.9963024505946225E-003   6.0536714381004580E-002
  -6.4478781303002313E-003   1.9193406176494648E-003   6.0940436061088718E-002
  -5.2701537176258681E-003   1.9572417734858849E-003   6.1592799139893573E-002
  -1.2205690154685723E-002   3.0800572956234396E-003   5.6694710760598788E-002
  -1.0778501371850203E-002   2.6906735366468981E-003   5.6594181816869121E-002
  -9.3513125890146813E-003   2.4156611547579976E-003   5.6743940214740912E-002
  -7.9241238061791511E-003   2.2550201499570710E-003   5.7143985954214618E-002
  -6.4969350233436435E-003   2.2087505222437853E-003   5.7794319035290198E-002
  -1.4552736921796225E-002   3.6652995084194839E-003   5.2831776161577207E-002
  -1.2874437825918251E-002   3.1932198009732710E-003   5.2723787779780887E-002
  -1.1196138730040290E-002   2.8350198589214282E-003   5.2867732682467680E-002
  -9.5178396341623148E-003   2.5906996822642886E-003   5.3263610869637504E-002
  -7.8395405382843536E-003   2.4602592710016857E-003   5.3911422341290441E-002
  -1.7022191669654879E-002   4.2505417212154173E-003   4.8886391419932562E-002
  -1.5091136317853165E-002   3.6957660652998103E-003   4.8770451988376595E-002
  -1.3160080966051452E-002   3.2543785630851363E-003   4.8908091784185093E-002
  -1.1229025614249759E-002   2.9263792145717699E-003   4.9299310807357832E-002
  -9.2979702624480243E-003   2.7117680197595861E-003   4.9944109057895036E-002
  -4.1591966211310533E-003   1.7057330247280955E-003   6.5306862655100550E-002
  -3.6285136563933562E-003   2.0012051210214210E-003   6.4393398790773881E-002
  -3.0978306916556557E-003   2.5281229306559072E-003   6.3599181899744728E-002
  -2.5671477269179604E-003   3.2864864536309296E-003   6.2924211982012979E-002
  -2.0364647621802581E-003   4.2762956899473625E-003   6.2368489037578412E-002
  -5.2701537176258681E-003   1.9572417734858849E-003   6.1592799139893573E-002
  -4.5941844544479908E-003   2.2153569163728681E-003   6.0868055740817106E-002
  -3.9182151912700719E-003   2.7990370445790114E-003   6.0314637965323825E-002
  -3.2422459280921877E-003   3.7082821581057718E-003   5.9932545813413479E-002
  -2.5662766649143035E-003   4.9430922569517755E-003   5.9721779285085930E-002
  -6.4969350233436435E-003   2.2087505222437853E-003   5.7794319035290198E-002
  -5.6236008114399130E-003   2.4295087117239822E-003   5.7352415373442905E-002
  -4.7502665995361832E-003   3.0699511585025874E-003   5.7133915985464495E-002
  -3.8769323876324600E-003   4.1300778625803988E-003   5.7138820871354634E-002
  -3.0035981757287212E-003   5.6098888239567435E-003   5.7367130031113545E-002
  -7.8395405382843536E-003   2.4602592710016857E-003   5.3911422341290441E-002
  -6.7167627273691504E-003   2.6436605070751518E-003   5.3846477688651695E-002
  -5.5939849164539316E-003   3.3408652724260940E-003   5.4057015960166897E-002
  -4.4712071055387215E-003   4.5518735670549114E-003   5.4543037155836527E-002
  -3.3484292946235100E-003   6.2766853909615450E-003   5.5304541275660424E-002
  -9.2979702624480243E-003   2.7117680197595861E-003   4.9944109057895036E-002
  -7.8736702022357274E-003   2.8578123024264879E-003   5.0350242686442948E-002
  -6.4493701420233751E-003   3.6117793863493508E-003   5.1083937889430941E-002
  -5.0250700818110644E-003   4.9736692715296668E-003   5.2145194666858824E-002
  -3.6007700215987259E-003   6.9434819579661244E-003   5.3534013018726734E-002
  -2.0364647621802581E-003   4.2762956899473625E-003   6.2368489037578412E-002
  -2.2864620434294505E-003   5.5783619335960655E-003   5.8338311139542354E-002
  -2.5364593246786603E-003   7.2734964785676759E-003   5.4302546915497407E-002
  -2.7864566059278822E-003   9.3616993248622493E-003   5.0261196365443794E-002
  -3.0364538871770624E-003   1.1842970472480729E-002   4.6214259489381515E-002
  -2.5662766649143035E-003   4.9430922569517755E-003   5.9721779285085930E-002
  -2.8393731431974427E-003   6.5675403011183908E-003   5.6189968511266675E-002
  -3.1124696214805854E-003   8.6456992506049324E-003   5.2617545669388255E-002
  -3.3855660997637368E-003   1.1177569105411775E-002   4.9004510759450642E-002
  -3.6586625780468604E-003   1.4163149865539015E-002   4.5350863781453921E-002
  -3.0035981757287212E-003   5.6098888239567435E-003   5.7367130031113545E-002
  -3.3348195930958929E-003   7.5567186686408272E-003   5.4394328985507112E-002
  -3.6660410104630671E-003   1.0017902022642300E-002   5.1345890129791599E-002
  -3.9972624278302102E-003   1.2993438885961189E-002   4.8221813463967075E-002
  -4.3284838451974096E-003   1.6483329258596857E-002   4.5022098988033443E-002
  -3.3484292946235100E-003   6.2766853909615450E-003   5.5304541275660424E-002
  -3.7728013931248162E-003   8.5458970361635411E-003   5.2951392562264180E-002
  -4.1971734916260682E-003   1.1390104794679723E-002   5.0487580296708856E-002
  -4.6215455901272764E-003   1.4809308666510548E-002   4.7913104478994606E-002
  -5.0459176886285973E-003   1.8803508651655032E-002   4.5227965109121165E-002
  -3.6007700215987259E-003   6.9434819579661244E-003   5.3534013018726734E-002
  -4.1533185432841430E-003   9.5350754036858110E-003   5.1861159241537669E-002
  -4.7058670649695739E-003   1.2762307566717090E-002   5.0042616170139387E-002
  -5.2584155866550672E-003   1.6625178447060060E-002   4.8078383804531943E-002
  -5.8109641083404218E-003   2.1123688044712985E-002   4.5968462144715616E-002
  -5.2504231062754342E-002   1.3579018262073750E-002   5.0122821077585311E-002
  -5.0036096890945403E-002   1.4306037368268076E-002   4.9575870318493587E-002
  -4.7567962719136478E-002   1.4594822551923334E-002   4.9356954634031641E-002
  -4.5099828547327532E-002   1.4445373813039213E-002   4.9466074024199544E-002
  -4.2631694375518614E-002   1.3857691151615781E-002   4.9903228488997309E-002
  -5.9116363526127494E-002   1.6135261682467095E-002   4.5824819177599896E-002
  -5.6319694453981495E-002   1.6234411660155629E-002   4.4980640125053567E-002
  -5.3523025381835544E-002   1.6101003254482771E-002   4.4465495798551358E-002
  -5.0726356309689510E-002   1.5735036465448798E-002   4.4279386198093559E-002
  -4.7929687237543595E-002   1.5136511293053379E-002   4.4422311323679853E-002
  -6.5690827955712017E-002   1.8691505102860440E-002   4.0796110379519510E-002
  -6.2564624331814589E-002   1.8162785952043070E-002   3.9860378572696559E-002
  -5.9438420707917231E-002   1.7607183957042354E-002   3.9254681143332242E-002
  -5.6312217084019879E-002   1.7024699117858304E-002   3.8979018091426496E-002
  -5.3186013460122430E-002   1.6415331434490893E-002   3.9033389416979411E-002
  -7.2227624351508146E-002   2.1247748523253798E-002   3.5036694683344360E-002
  -6.8770886524444866E-002   2.0091160243930511E-002   3.4215085661422603E-002
  -6.5314148697381738E-002   1.9113364659601863E-002   3.3724510668374098E-002
  -6.1857410870318486E-002   1.8314361770267903E-002   3.3564969704198436E-002
  -5.8400673043255275E-002   1.7694151575928477E-002   3.3736462768895845E-002
  -7.8726752713515646E-002   2.3803991943647129E-002   2.8546572089074185E-002
  -7.4938481031872256E-002   2.2019534535818008E-002   2.8044761391231743E-002
  -7.1150209350228810E-002   2.0619545362161387E-002   2.7874984373676887E-002
  -6.7361937668585420E-002   1.9604024422677422E-002   2.8037241036409463E-002
  -6.3573665986942002E-002   1.8972971717365950E-002   2.8531531379429320E-002
  -4.2631694375518614E-002   1.3857691151615781E-002   4.9903228488997309E-002
  -4.1535380030097532E-002   1.3093601835346580E-002   4.9635047754032879E-002
  -4.0439065684676492E-002   1.2414933131924669E-002   4.9473754360089134E-002
  -3.9342751339255452E-002   1.1821685041350258E-002   4.9419348307165697E-002
  -3.8246436993834385E-002   1.1313857563623131E-002   4.9471829595262862E-002
  -4.7929687237543595E-002   1.5136511293053379E-002   4.4422311323679853E-002
  -4.6726981435946793E-002   1.4444797506980828E-002   4.4261102227744153E-002
  -4.5524275634349923E-002   1.3799264876915504E-002   4.4205788703139487E-002
  -4.4321569832753108E-002   1.3199913402857266E-002   4.4256370749866006E-002
  -4.3118864031156244E-002   1.2646743084806233E-002   4.4412848367923335E-002
  -5.3186013460122430E-002   1.6415331434490893E-002   3.9033389416979411E-002
  -5.1877907972039325E-002   1.5795993178615186E-002   3.8939912503232088E-002
  -5.0569802483956185E-002   1.5183596621906444E-002   3.8951339391126306E-002
  -4.9261696995873044E-002   1.4578141764364382E-002   3.9067670080662226E-002
  -4.7953591507789883E-002   1.3979628605989225E-002   3.9288904571839700E-002
  -5.8400673043255275E-002   1.7694151575928477E-002   3.3736462768895845E-002
  -5.6988159638375266E-002   1.7147188850249545E-002   3.3671478580496655E-002
  -5.5575646233495202E-002   1.6567928366897165E-002   3.3710406424049516E-002
  -5.4163132828615124E-002   1.5956370125871554E-002   3.3853246299554676E-002
  -5.2750619423735073E-002   1.5312514127172189E-002   3.4099998207011803E-002
  -6.3573665986942002E-002   1.8972971717365950E-002   2.8531531379429320E-002
  -6.2057736434954491E-002   1.8498384521883793E-002   2.8455800459537828E-002
  -6.0541806882967023E-002   1.7952260111888163E-002   2.8482989801908970E-002
  -5.9025877330979519E-002   1.7334598487378380E-002   2.8613099406543108E-002
  -5.7509947778992043E-002   1.6645399648355264E-002   2.8846129273439713E-002
  -3.8246436993834385E-002   1.1313857563623131E-002   4.9471829595262862E-002
  -3.6319385293116194E-002   1.0830946436437588E-002   4.9041991926725537E-002
  -3.4392333592397996E-002   1.0312447397487490E-002   4.8859651245932723E-002
  -3.2465281891679812E-002   9.7583604467726126E-003   4.8924807552884475E-002
  -3.0538230190961607E-002   9.1686855842936232E-003   4.9237460847580738E-002
  -4.3118864031156244E-002   1.2646743084806233E-002   4.4412848367923335E-002
  -4.0950290767694721E-002   1.2104568011414990E-002   4.3984845545847251E-002
  -3.8781717504233135E-002   1.1538202271336034E-002   4.3792388861513251E-002
  -3.6613144240771583E-002   1.0947645864569443E-002   4.3835478314921454E-002
  -3.4444570977309963E-002   1.0332898791115597E-002   4.4114113906072006E-002
  -4.7953591507789883E-002   1.3979628605989225E-002   3.9288904571839700E-002
  -4.5555447531587218E-002   1.3378189586392156E-002   3.8874133841301658E-002
  -4.3157303555384607E-002   1.2763957145184524E-002   3.8682958398503497E-002
  -4.0759159579181942E-002   1.2136931282366273E-002   3.8715378243445217E-002
  -3.8361015602979276E-002   1.1497111997937570E-002   3.8971393376126928E-002
  -5.2750619423735073E-002   1.5312514127172189E-002   3.4099998207011803E-002
  -5.0134855584793699E-002   1.4651811161369439E-002   3.3709856813088773E-002
  -4.7519091745852240E-002   1.3989712019033068E-002   3.3531359856903475E-002
  -4.4903327906910838E-002   1.3326216700162992E-002   3.3564507338455646E-002
  -4.2287564067969352E-002   1.2661325204759544E-002   3.3809299257745576E-002
  -5.7509947778992043E-002   1.6645399648355264E-002   2.8846129273439713E-002
  -5.4688514927314108E-002   1.5925432736346695E-002   2.8492014461208692E-002
  -5.1867082075636201E-002   1.5215466892881488E-002   2.8337593236713227E-002
  -4.9045649223958279E-002   1.4515502117959721E-002   2.8382865599952914E-002
  -4.6224216372280358E-002   1.3825538411581517E-002   2.8627831550927962E-002
  -3.0538230190961607E-002   9.1686855842936232E-003   4.9237460847580738E-002
  -2.8983911301905141E-002   8.5596420319517530E-003   4.8938099172060323E-002
  -2.7429592412848661E-002   7.9474490116486218E-003   4.8804996314647742E-002
  -2.5875273523792208E-002   7.3321065233847155E-003   4.8838152275342966E-002
  -2.4320954634735714E-002   6.7136145671591319E-003   4.9037567054145859E-002
  -3.4444570977309963E-002   1.0332898791115597E-002   4.4114113906072006E-002
  -3.2730790990156543E-002   9.7027092537811388E-003   4.3792928806702602E-002
  -3.1017011003003095E-002   9.0658254553729473E-003   4.3624407085419453E-002
  -2.9303231015849661E-002   8.4222473958913448E-003   4.3608548742222517E-002
  -2.7589451028696241E-002   7.7719750753361128E-003   4.3745353777111529E-002
  -3.8361015602979276E-002   1.1497111997937570E-002   3.8971393376126928E-002
  -3.6501369957750406E-002   1.0845776475610552E-002   3.8624840059796148E-002
  -3.4641724312521618E-002   1.0184201899097495E-002   3.8417354681529889E-002
  -3.2782078667292824E-002   9.5123882683983071E-003   3.8348937241328290E-002
  -3.0922433022063961E-002   8.8303355835130937E-003   3.8419587739191075E-002
  -4.2287564067969352E-002   1.2661325204759544E-002   3.3809299257745576E-002
  -4.0295648204686819E-002   1.1988843697439841E-002   3.3433832931340848E-002
  -3.8303732341404204E-002   1.1302578342821765E-002   3.3183839102979139E-002
  -3.6311816478121643E-002   1.0602529140905158E-002   3.3059317772660191E-002
  -3.4319900614838993E-002   9.8886960916901301E-003   3.3060268940384580E-002
  -4.6224216372280358E-002   1.3825538411581517E-002   2.8627831550927962E-002
  -4.4113625730965639E-002   1.3131910919269407E-002   2.8219907421336843E-002
  -4.2003035089650864E-002   1.2420954786546479E-002   2.7923860349767127E-002
  -3.9892444448336076E-002   1.1692670013412065E-002   2.7739690336218620E-002
  -3.7781853807021343E-002   1.0947056599866944E-002   2.7667397380691572E-002
  -2.4320954634735714E-002   6.7136145671591319E-003   4.9037567054145859E-002
  -2.2496263893465512E-002   6.0946224966333951E-003   4.8735175074583470E-002
  -2.0671573152195297E-002   5.4777796654671418E-003   4.8609181809027124E-002
  -1.8846882410925067E-002   4.8630860736613990E-003   4.8659587257476905E-002
  -1.7022191669654879E-002   4.2505417212154173E-003   4.8886391419932562E-002
  -2.7589451028696241E-002   7.7719750753361128E-003   4.3745353777111529E-002
  -2.5593856172657213E-002   7.1208885040873193E-003   4.3376589098427787E-002
  -2.3598261316618213E-002   6.4748676925243387E-003   4.3173233935275362E-002
  -2.1602666460579220E-002   5.8339126406476635E-003   4.3135288287654644E-002
  -1.9607071604540185E-002   5.1980233484567595E-003   4.3262752155565409E-002
  -3.0922433022063961E-002   8.8303355835130937E-003   3.8419587739191075E-002
  -2.8766923249730639E-002   8.1471545115410215E-003   3.7987366881711920E-002
  -2.6611413477397296E-002   7.4719557195812025E-003   3.7709566341289760E-002
  -2.4455903705063980E-002   6.8047392076337060E-003   3.7586186117924594E-002
  -2.2300393932730624E-002   6.1455049756984903E-003   3.7617226211616728E-002
  -3.4319900614838993E-002   9.8886960916901301E-003   3.3060268940384580E-002
  -3.2015465124685817E-002   9.1734205189948348E-003   3.2567508424436092E-002
  -2.9711029634532635E-002   8.4690437466382884E-003   3.2218179027070304E-002
  -2.7406594144379456E-002   7.7755657746199150E-003   3.2012280748287186E-002
  -2.5102158654226277E-002   7.0929866029399713E-003   3.1949813588086587E-002
  -3.7781853807021343E-002   1.0947056599866944E-002   2.7667397380691572E-002
  -3.5339481797522776E-002   1.0199686526448593E-002   2.7117013726600192E-002
  -3.2897109788024168E-002   9.4661317736949857E-003   2.6699071992617007E-002
  -3.0454737778525608E-002   8.7463923416058326E-003   2.6413572178741879E-002
  -2.8012365769026992E-002   8.0404682301816743E-003   2.6260514284975001E-002
  -1.7022191669654879E-002   4.2505417212154173E-003   4.8886391419932562E-002
  -1.5091136317853165E-002   3.6957660652998103E-003   4.8770451988376595E-002
  -1.3160080966051452E-002   3.2543785630851363E-003   4.8908091784185093E-002
  -1.1229025614249759E-002   2.9263792145717699E-003   4.9299310807357832E-002
  -9.2979702624480243E-003   2.7117680197595861E-003   4.9944109057895036E-002
  -1.9607071604540185E-002   5.1980233484567595E-003   4.3262752155565409E-002
  -1.7460764129054167E-002   4.6003470721385220E-003   4.3092417439904107E-002
  -1.5314456653568190E-002   4.0740310678790692E-003   4.3099007744247214E-002
  -1.3168149178082147E-002   3.6190753356788175E-003   4.3282523068594383E-002
  -1.1021841702596138E-002   3.2354798755369618E-003   4.3642963412945657E-002
  -2.2300393932730624E-002   6.1455049756984903E-003   3.7617226211616728E-002
  -2.0015488540920542E-002   5.5049280789775945E-003   3.7350468330207970E-002
  -1.7730583149110465E-002   4.8936835726733630E-003   3.7183981261443261E-002
  -1.5445677757300378E-002   4.3117714567856499E-003   3.7117765005322517E-002
  -1.3160772365490313E-002   3.7591917313146150E-003   3.7151819561845739E-002
  -2.5102158654226277E-002   7.0929866029399713E-003   3.1949813588086587E-002
  -2.2755309553452296E-002   6.4095090858163756E-003   3.1544604659288211E-002
  -2.0408460452678287E-002   5.7133360774675318E-003   3.1163012335773434E-002
  -1.8061611351904261E-002   5.0044675778925345E-003   3.0805036617542494E-002
  -1.5714762251130349E-002   4.2829035870919629E-003   3.0470677504595055E-002
  -2.8012365769026992E-002   8.0404682301816743E-003   2.6260514284975001E-002
  -2.5680227166649333E-002   7.3140900926554897E-003   2.5674826427144470E-002
  -2.3348088564271674E-002   6.5329885822617284E-003   2.5036100967237351E-002
  -2.1015949961893987E-002   5.6971636989995647E-003   2.4344337905254060E-002
  -1.8683811359516356E-002   4.8066154428696439E-003   2.3599537241194124E-002
  -9.2979702624480243E-003   2.7117680197595861E-003   4.9944109057895036E-002
  -7.8736702022357274E-003   2.8578123024264879E-003   5.0350242686442948E-002
  -6.4493701420233751E-003   3.6117793863493508E-003   5.1083937889430941E-002
  -5.0250700818110644E-003   4.9736692715296668E-003   5.2145194666858824E-002
  -3.6007700215987259E-003   6.9434819579661244E-003   5.3534013018726734E-002
  -1.1021841702596138E-002   3.2354798755369618E-003   4.3642963412945657E-002
  -9.2518202972704522E-003   3.1628399052930356E-003   4.4231434343917519E-002
  -7.4817988919446965E-003   3.6407506427849623E-003   4.5183786390676189E-002
  -5.7117774866189824E-003   4.6692120880135329E-003   4.6500019553221764E-002
  -3.9417560812932545E-003   6.2482242409782618E-003   4.8180133831553951E-002
  -1.3160772365490313E-002   3.7591917313146150E-003   3.7151819561845739E-002
  -1.1008710073704246E-002   3.4678675081597221E-003   3.7865255701721223E-002
  -8.8566477819182823E-003   3.6697218992208097E-003   3.8978892498730391E-002
  -6.7045854901322394E-003   4.3647549044975135E-003   4.0492729952873278E-002
  -4.5525231983461964E-003   5.5529665239906212E-003   4.2406768064149891E-002
  -1.5714762251130349E-002   4.2829035870919629E-003   3.0470677504595055E-002
  -1.3144339531537153E-002   3.7728951110265058E-003   3.1251706759853864E-002
  -1.0573916811943898E-002   3.6986931556564281E-003   3.2469256213593020E-002
  -8.0034940923507554E-003   4.0602977209816590E-003   3.4123325865812848E-002
  -5.4330713727575013E-003   4.8577088070028696E-003   3.6213915716513292E-002
  -1.8683811359516356E-002   4.8066154428696439E-003   2.3599537241194124E-002
  -1.5658708670769073E-002   4.0779227138930674E-003   2.4390787518315693E-002
  -1.2633605982021789E-002   3.7276644120921576E-003   2.5654877535264520E-002
  -9.6085032932745201E-003   3.7558405374656656E-003   2.7391807292041020E-002
  -6.5834006045272231E-003   4.1624510900153400E-003   2.9601576788644834E-002
  -3.6007700215987259E-003   6.9434819579661244E-003   5.3534013018726734E-002
  -4.1533185432841430E-003   9.5350754036858110E-003   5.1861159241537669E-002
  -4.7058670649695739E-003   1.2762307566717090E-002   5.0042616170139387E-002
  -5.2584155866550672E-003   1.6625178447060060E-002   4.8078383804531943E-002
  -5.8109641083404218E-003   2.1123688044712985E-002   4.5968462144715616E-002
  -3.9417560812932545E-003   6.2482242409782618E-003   4.8180133831553951E-002
  -4.5360455285699680E-003   8.6871356955922074E-003   4.7243890672061473E-002
  -5.1303349758466607E-003   1.2295295045768651E-002   4.6369854955595369E-002
  -5.7246244231233014E-003   1.7072702291507758E-002   4.5558026682156166E-002
  -6.3189138703999559E-003   2.3019357432809473E-002   4.4808405851743727E-002
  -4.5525231983461964E-003   5.5529665239906212E-003   4.2406768064149891E-002
  -4.9806568339782337E-003   7.8391959874982708E-003   4.2740744700605238E-002
  -5.4087904696102120E-003   1.1828282524820016E-002   4.3344825517322993E-002
  -5.8369241052423620E-003   1.7520226135955906E-002   4.4219010514303769E-002
  -6.2650577408742275E-003   2.4915026820905739E-002   4.5363299691546732E-002
  -5.4330713727575013E-003   4.8577088070028696E-003   3.6213915716513292E-002
  -5.4871524595089625E-003   6.9912562794041677E-003   3.8351721327167881E-002
  -5.5412335462603707E-003   1.1361270003871590E-002   4.0967527855321158E-002
  -5.5953146330117512E-003   1.7967749980404162E-002   4.4061335300972851E-002
  -5.6493957197631846E-003   2.6810696209002116E-002   4.7633143664123162E-002
  -6.5834006045272231E-003   4.1624510900153400E-003   2.9601576788644834E-002
  -6.0555324051621562E-003   6.1433165713102866E-003   3.4076820551750542E-002
  -5.5276642057970338E-003   1.0894257482922831E-002   3.9237961969590507E-002
  -4.9997960064319530E-003   1.8415273824852058E-002   4.5085001042165229E-002
  -4.4719278070668445E-003   2.8706365597098493E-002   5.1617937769473876E-002
  -7.8726752713515646E-002   2.3803991943647129E-002   2.8546572089074185E-002
  -7.4938481031872256E-002   2.2019534535818008E-002   2.8044761391231743E-002
  -7.1150209350228810E-002   2.0619545362161387E-002   2.7874984373676887E-002
  -6.7361937668585420E-002   1.9604024422677422E-002   2.8037241036409463E-002
  -6.3573665986942002E-002   1.8972971717365950E-002   2.8531531379429320E-002
  -8.5143608126889869E-002   2.4701908493179048E-002   2.0916160883468815E-002
  -8.1050456170949040E-002   2.3637932957101454E-002   2.0755779825294612E-002
  -7.6957304215008265E-002   2.2672899551210698E-002   2.0873125635427564E-002
  -7.2864152259067533E-002   2.1806808275507027E-002   2.1268198313867948E-002
  -6.8771000303126731E-002   2.1039659129990340E-002   2.1940997860615569E-002
  -9.1433585676785362E-002   2.5599825042710994E-002   1.4148994601607859E-002
  -8.7089860258527496E-002   2.5256331378384927E-002   1.4044517079116040E-002
  -8.2746134840269603E-002   2.4726253740260030E-002   1.4163459612951450E-002
  -7.8402409422011599E-002   2.4009592128336657E-002   1.4505822203114086E-002
  -7.4058684003753705E-002   2.3106346542614759E-002   1.5071604849603626E-002
  -9.7596685363202818E-002   2.6497741592242954E-002   8.2450732434910835E-003
  -9.3056693294607834E-002   2.6874729799668193E-002   7.9109731526963781E-003
  -8.8516701226012878E-002   2.6779607929309324E-002   7.7459863062483928E-003
  -8.3976709157417798E-002   2.6212375981166332E-002   7.7501127041478711E-003
  -7.9436717088822828E-002   2.5173033955239052E-002   7.9233523463938769E-003
 -0.10363290718614171        2.7395658141774804E-002   3.2043968091186592E-003
  -9.8950955279189845E-002   2.8493128220951736E-002   2.3551480460351493E-003
  -9.4269003372237981E-002   2.8832962118358701E-002   1.6207057153185267E-003
  -8.9587051465286005E-002   2.8415159833995861E-002   1.0010698169688331E-003
  -8.4905099558334141E-002   2.7239721367863456E-002   4.9624035098594366E-004
  -6.3573665986942002E-002   1.8972971717365950E-002   2.8531531379429320E-002
  -6.2057736434954491E-002   1.8498384521883793E-002   2.8455800459537828E-002
  -6.0541806882967023E-002   1.7952260111888163E-002   2.8482989801908970E-002
  -5.9025877330979519E-002   1.7334598487378380E-002   2.8613099406543108E-002
  -5.7509947778992043E-002   1.6645399648355264E-002   2.8846129273439713E-002
  -6.8771000303126731E-002   2.1039659129990340E-002   2.1940997860615569E-002
  -6.7140758903504072E-002   2.0320503848645241E-002   2.1749063333475635E-002
  -6.5510517503881427E-002   1.9598394165456459E-002   2.1682832239343183E-002
  -6.3880276104258796E-002   1.8873330080424095E-002   2.1742304578218533E-002
  -6.2250034704636109E-002   1.8145311593548041E-002   2.1927480350101392E-002
  -7.4058684003753705E-002   2.3106346542614759E-002   1.5071604849603626E-002
  -7.2291347585750967E-002   2.2142623175406606E-002   1.4832049527885208E-002
  -7.0524011167748257E-002   2.1244528219024866E-002   1.4740980809919493E-002
  -6.8756674749745506E-002   2.0412061673469588E-002   1.4798398695706254E-002
  -6.6989338331742795E-002   1.9645223538740736E-002   1.5004303185245441E-002
  -7.9436717088822828E-002   2.5173033955239052E-002   7.9233523463938769E-003
  -7.7509502481695136E-002   2.3964742502167791E-002   7.7047590427670141E-003
  -7.5582287874567444E-002   2.2890662272593496E-002   7.6574355136378586E-003
  -7.3655073267439725E-002   2.1950793266515136E-002   7.7813817590060633E-003
  -7.1727858660312060E-002   2.1145135483933639E-002   8.0765977788714548E-003
  -8.4905099558334141E-002   2.7239721367863456E-002   4.9624035098594366E-004
  -8.2795223591336620E-002   2.5786861828929475E-002   3.6719187812084275E-004
  -8.0685347624339043E-002   2.4536796326161653E-002   4.3219635049851490E-004
  -7.8575471657341495E-002   2.3489524859560705E-002   6.9125376811807193E-004
  -7.6465595690343946E-002   2.2645047429126319E-002   1.1443641309800689E-003
  -5.7509947778992043E-002   1.6645399648355264E-002   2.8846129273439713E-002
  -5.4688514927314108E-002   1.5925432736346695E-002   2.8492014461208692E-002
  -5.1867082075636201E-002   1.5215466892881488E-002   2.8337593236713227E-002
  -4.9045649223958279E-002   1.4515502117959721E-002   2.8382865599952914E-002
  -4.6224216372280358E-002   1.3825538411581517E-002   2.8627831550927962E-002
  -6.2250034704636109E-002   1.8145311593548041E-002   2.1927480350101392E-002
  -5.9226827616396929E-002   1.7410256959220161E-002   2.1575671072975589E-002
  -5.6203620528157777E-002   1.6664084431832565E-002   2.1427716681236927E-002
  -5.3180413439918611E-002   1.5906794011385318E-002   2.1483617174885443E-002
  -5.0157206351679445E-002   1.5138385697878010E-002   2.1743372553921281E-002
  -6.6989338331742795E-002   1.9645223538740736E-002   1.5004303185245441E-002
  -6.3760195709290493E-002   1.8895081182093584E-002   1.4633680481621558E-002
  -6.0531053086838225E-002   1.8112701970783539E-002   1.4471073961036793E-002
  -5.7301910464385930E-002   1.7298085904810530E-002   1.4516483623491071E-002
  -5.4072767841933655E-002   1.6451232984174502E-002   1.4769909468984210E-002
  -7.1727858660312060E-002   2.1145135483933639E-002   8.0765977788714548E-003
  -6.8288619205994855E-002   2.0379905404966862E-002   7.6660426871466222E-003
  -6.4849379751677566E-002   1.9561319509734564E-002   7.4676650761125053E-003
  -6.1410140297360340E-002   1.8689377798235821E-002   7.4814649457691602E-003
  -5.7970900843043092E-002   1.7764080270470994E-002   7.7074422961168829E-003
  -7.6465595690343946E-002   2.2645047429126319E-002   1.1443641309800689E-003
  -7.2812098106509904E-002   2.1864729627840473E-002   6.7275768955071813E-004
  -6.9158600522675862E-002   2.1009937048685451E-002   4.1749002646399025E-004
  -6.5505102938841819E-002   2.0080669691661189E-002   3.7856114172019756E-004
  -6.1851605355007777E-002   1.9076927556767487E-002   5.5597103531890291E-004
  -4.6224216372280358E-002   1.3825538411581517E-002   2.8627831550927962E-002
  -4.4113625730965639E-002   1.3131910919269407E-002   2.8219907421336843E-002
  -4.2003035089650864E-002   1.2420954786546479E-002   2.7923860349767127E-002
  -3.9892444448336076E-002   1.1692670013412065E-002   2.7739690336218620E-002
  -3.7781853807021343E-002   1.0947056599866944E-002   2.7667397380691572E-002
  -5.0157206351679445E-002   1.5138385697878010E-002   2.1743372553921281E-002
  -4.7926240200588846E-002   1.4365549838653680E-002   2.1353842445836435E-002
  -4.5695274049498288E-002   1.3594976781054535E-002   2.1093186299282002E-002
  -4.3464307898407738E-002   1.2826666525080785E-002   2.0961404114257634E-002
  -4.1233341747317132E-002   1.2060619070732248E-002   2.0958495890763540E-002
  -5.4072767841933655E-002   1.6451232984174502E-002   1.4769909468984210E-002
  -5.1704429277558424E-002   1.5599188758037924E-002   1.4418364824442018E-002
  -4.9336090713183234E-002   1.4768998775562869E-002   1.4212691044939094E-002
  -4.6967752148808016E-002   1.3960663036749338E-002   1.4152888130475091E-002
  -4.4599413584432805E-002   1.3174181541597496E-002   1.4238956081050136E-002
  -5.7970900843043092E-002   1.7764080270470994E-002   7.7074422961168829E-003
  -5.5448192961874435E-002   1.6832827677422071E-002   7.4134745571536459E-003
  -5.2925485080705645E-002   1.5943020770071176E-002   7.2823745867382564E-003
  -5.0402777199536973E-002   1.5094659548417808E-002   7.3141423848708375E-003
  -4.7880069318368204E-002   1.4287744012462439E-002   7.5087779515514291E-003
  -6.1851605355007777E-002   1.9076927556767487E-002   5.5597103531890291E-004
  -5.9157531253536622E-002   1.8066466596806441E-002   3.3917164397090360E-004
  -5.6463457152065577E-002   1.7117042764579316E-002   3.0223692467942764E-004
  -5.3769383050594532E-002   1.6228656060086735E-002   4.4516687744516198E-004
  -5.1075308949123377E-002   1.5401306483327826E-002   7.6796150226754456E-004
  -3.7781853807021343E-002   1.0947056599866944E-002   2.7667397380691572E-002
  -3.5339481797522776E-002   1.0199686526448593E-002   2.7117013726600192E-002
  -3.2897109788024168E-002   9.4661317736949857E-003   2.6699071992617007E-002
  -3.0454737778525608E-002   8.7463923416058326E-003   2.6413572178741879E-002
  -2.8012365769026992E-002   8.0404682301816743E-003   2.6260514284975001E-002
  -4.1233341747317132E-002   1.2060619070732248E-002   2.0958495890763540E-002
  -3.8668171807071910E-002   1.1297028402299014E-002   2.0492117395926213E-002
  -3.6103001866826634E-002   1.0536088504071742E-002   2.0138892842473805E-002
  -3.3537831926581385E-002   9.7777993760505034E-003   1.9898822230406996E-002
  -3.0972661986336136E-002   9.0221610182349421E-003   1.9771905559725078E-002
  -4.4599413584432805E-002   1.3174181541597496E-002   1.4238956081050136E-002
  -4.1930733692163782E-002   1.2394370278149575E-002   1.3845418195007800E-002
  -3.9262053799894739E-002   1.1606045234448720E-002   1.3545746271627759E-002
  -3.6593373907625688E-002   1.0809206410494786E-002   1.3339940310910230E-002
  -3.3924694015356652E-002   1.0003853806287932E-002   1.3228000312854704E-002
  -4.7880069318368204E-002   1.4287744012462439E-002   7.5087779515514291E-003
  -4.5127167452798364E-002   1.3491712154000232E-002   7.1769161238458869E-003
  -4.2374265587228531E-002   1.2676001964825587E-002   6.9196322800786914E-003
  -3.9621363721658677E-002   1.1840613444939595E-002   6.7369264202514524E-003
  -3.6868461856088865E-002   1.0985546594341172E-002   6.6287985443633998E-003
  -5.1075308949123377E-002   1.5401306483327826E-002   7.6796150226754456E-004
  -4.8257473088975655E-002   1.4589054029850224E-002   4.8661118243914503E-004
  -4.5439637228827934E-002   1.3745958695201954E-002   2.6055086782636461E-004
  -4.2621801368680212E-002   1.2872020479383725E-002   8.9780558431111490E-005
  -3.9803965508532491E-002   1.1967239382394412E-002  -2.5699745748508640E-005
  -2.8012365769026992E-002   8.0404682301816743E-003   2.6260514284975001E-002
  -2.5680227166649333E-002   7.3140900926554897E-003   2.5674826427144470E-002
  -2.3348088564271674E-002   6.5329885822617284E-003   2.5036100967237351E-002
  -2.1015949961893987E-002   5.6971636989995647E-003   2.4344337905254060E-002
  -1.8683811359516356E-002   4.8066154428696439E-003   2.3599537241194124E-002
  -3.0972661986336136E-002   9.0221610182349421E-003   1.9771905559725078E-002
  -2.8676593493161998E-002   8.2678762414758467E-003   1.9184115892575737E-002
  -2.6380524999987873E-002   7.5136478566247833E-003   1.8577223609095667E-002
  -2.4084456506813720E-002   6.7594758636806695E-003   1.7951228709284978E-002
  -2.1788388013639609E-002   6.0053602626446434E-003   1.7306131193143559E-002
  -3.3924694015356652E-002   1.0003853806287932E-002   1.3228000312854704E-002
  -3.1630760645640348E-002   9.2216623902960371E-003   1.2692888601161967E-002
  -2.9336827275924064E-002   8.4943071309874912E-003   1.2172609258884443E-002
  -2.7042893906207746E-002   7.8217880283616599E-003   1.1667162286021777E-002
  -2.4748960536491421E-002   7.2041050824193098E-003   1.1176547682574367E-002
  -3.6868461856088865E-002   1.0985546594341172E-002   6.6287985443633998E-003
  -3.4542728624084591E-002   1.0175448539116255E-002   6.2011445529030207E-003
  -3.2216995392080283E-002   9.4749664053501506E-003   5.8222579166035231E-003
  -2.9891262160075947E-002   8.8841001930428740E-003   5.4921386354646485E-003
  -2.7565528928071698E-002   8.4028499021939762E-003   5.2107867094867699E-003
  -3.9803965508532491E-002   1.1967239382394412E-002  -2.5699745748508640E-005
  -3.7412497428494396E-002   1.1129234687936473E-002  -2.9111625220112902E-004
  -3.5021029348456467E-002   1.0455625679713865E-002  -4.7383041774687329E-004
  -3.2629561268418483E-002   9.9464123577237967E-003  -5.7384224238669207E-004
  -3.0238093188380444E-002   9.6015947219689757E-003  -5.9115172611945432E-004
  -1.8683811359516356E-002   4.8066154428696439E-003   2.3599537241194124E-002
  -1.5658708670769073E-002   4.0779227138930674E-003   2.4390787518315693E-002
  -1.2633605982021789E-002   3.7276644120921576E-003   2.5654877535264520E-002
  -9.6085032932745201E-003   3.7558405374656656E-003   2.7391807292041020E-002
  -6.5834006045272231E-003   4.1624510900153400E-003   2.9601576788644834E-002
  -2.1788388013639609E-002   6.0053602626446434E-003   1.7306131193143559E-002
  -1.8559193099432145E-002   5.3421890640878988E-003   1.8252771507282439E-002
  -1.5329998185224597E-002   4.8608502785836560E-003   1.9134756532514785E-002
  -1.2100803271017063E-002   4.5613439061308950E-003   1.9952086268839431E-002
  -8.8716083568095849E-003   4.4436699467303997E-003   2.0704760716257598E-002
  -2.4748960536491421E-002   7.2041050824193098E-003   1.1176547682574367E-002
  -2.1853168425558275E-002   6.6064554142824528E-003   1.2081976019607976E-002
  -1.8957376314625199E-002   5.9940361450748214E-003   1.2385254038999677E-002
  -1.6061584203692147E-002   5.3668472747957913E-003   1.2086381740750066E-002
  -1.3165792092758977E-002   4.7248888034457925E-003   1.1185359124858185E-002
  -2.7565528928071698E-002   8.4028499021939762E-003   5.2107867094867699E-003
  -2.5540634649147669E-002   7.8707217644778116E-003   5.8784010552916030E-003
  -2.3515740370223553E-002   7.1272220115662088E-003   5.4063700547200971E-003
  -2.1490846091299545E-002   6.1723506434610761E-003   3.7946937077726617E-003
  -1.9465951812375409E-002   5.0061076601606858E-003   1.0433720144484987E-003
  -3.0238093188380444E-002   9.6015947219689757E-003  -5.9115172611945432E-004
  -2.9621591770200073E-002   9.1349881146721712E-003  -3.5795338566657620E-004
  -2.9005090352019702E-002   8.2604078780575962E-003  -1.8018954203246618E-003
  -2.8388588933839276E-002   6.9778540121251675E-003  -4.9229778300933086E-003
  -2.7772087515658961E-002   5.2873265168762451E-003  -9.7212006149731689E-003
  -6.5834006045272231E-003   4.1624510900153400E-003   2.9601576788644834E-002
  -6.0555324051621562E-003   6.1433165713102866E-003   3.4076820551750542E-002
  -5.5276642057970338E-003   1.0894257482922831E-002   3.9237961969590507E-002
  -4.9997960064319530E-003   1.8415273824852058E-002   4.5085001042165229E-002
  -4.4719278070668445E-003   2.8706365597098493E-002   5.1617937769473876E-002
  -8.8716083568095849E-003   4.4436699467303997E-003   2.0704760716257598E-002
  -7.5858686826409533E-003   5.6590426387690407E-003   2.5873170475836926E-002
  -6.3001290084723077E-003   9.3586762206342711E-003   3.1871425530288988E-002
  -5.0143893343034887E-003   1.5542570692325043E-002   3.8699525879613811E-002
  -3.7286496601349195E-003   2.4210726053842890E-002   4.6357471523811089E-002
  -1.3165792092758977E-002   4.7248888034457925E-003   1.1185359124858185E-002
  -1.0978233303648374E-002   5.1747687062273506E-003   1.6761120340421126E-002
  -8.7906745145378828E-003   7.8230949583454890E-003   2.3310674490994665E-002
  -6.6031157254272908E-003   1.2669867559798195E-002   3.0834021576579163E-002
  -4.4155569363167890E-003   1.9715086510587509E-002   3.9331161597175313E-002
  -1.9465951812375409E-002   5.0061076601606858E-003   1.0433720144484987E-003
  -1.6232626268184731E-002   4.6904947736857716E-003   6.7406701455034815E-003
  -1.2999300723994028E-002   6.2875136960561517E-003   1.3555708851707843E-002
  -9.7659751798032865E-003   9.7971644272717082E-003   2.1488488133061708E-002
  -6.5326496356126473E-003   1.5219446967332018E-002   3.0539007989564465E-002
  -2.7772087515658961E-002   5.2873265168762451E-003  -9.7212006149731689E-003
  -2.3349047576249782E-002   4.2062208411444146E-003  -4.1881801089161397E-003
  -1.8926007636840658E-002   4.7519324337683688E-003   2.6065286124281051E-003
  -1.4502967697431507E-002   6.9244612947443884E-003   1.0662925549060051E-002
  -1.0079927758022356E-002   1.0723807424076526E-002   1.9981010700980129E-002
 </DataArray>
 </PointData>
 </Piece>
 </UnstructuredGrid>
 </VTKFile>
