 <VTKFile type="UnstructuredGrid"  version="0.1"   >
 <UnstructuredGrid>
 <Piece  NumberOfPoints="            25 "  NumberOfCells="           16 ">
 <Points>
 <DataArray  type="Float64" NumberOfComponents="3"  format="ascii" >
   0.0000000000000000        0.0000000000000000        0.0000000000000000     
  0.25000000000000000        0.0000000000000000        0.0000000000000000     
  0.50000000000000000        0.0000000000000000        0.0000000000000000     
  0.75000000000000000        0.0000000000000000        0.0000000000000000     
   1.0000000000000000        0.0000000000000000        0.0000000000000000     
   0.0000000000000000       0.25000000000000000        0.0000000000000000     
  0.25000000000000000       0.25000000000000000        0.0000000000000000     
  0.50000000000000000       0.25000000000000000        0.0000000000000000     
  0.75000000000000000       0.25000000000000000        0.0000000000000000     
   1.0000000000000000       0.25000000000000000        0.0000000000000000     
   0.0000000000000000       0.50000000000000000        0.0000000000000000     
  0.25000000000000000       0.50000000000000000        0.0000000000000000     
  0.50000000000000000       0.50000000000000000        0.0000000000000000     
  0.75000000000000000       0.50000000000000000        0.0000000000000000     
   1.0000000000000000       0.50000000000000000        0.0000000000000000     
   0.0000000000000000       0.75000000000000000        0.0000000000000000     
  0.25000000000000000       0.75000000000000000        0.0000000000000000     
  0.50000000000000000       0.75000000000000000        0.0000000000000000     
  0.75000000000000000       0.75000000000000000        0.0000000000000000     
   1.0000000000000000       0.75000000000000000        0.0000000000000000     
   0.0000000000000000        1.0000000000000000        0.0000000000000000     
  0.25000000000000000        1.0000000000000000        0.0000000000000000     
  0.50000000000000000        1.0000000000000000        0.0000000000000000     
  0.75000000000000000        1.0000000000000000        0.0000000000000000     
   1.0000000000000000        1.0000000000000000        0.0000000000000000     
 </DataArray>
 </Points>
 <Cells>
 <DataArray  type="Int32"  Name="connectivity"  format="ascii">
           0           1           6           5
           1           2           7           6
           2           3           8           7
           3           4           9           8
           5           6          11          10
           6           7          12          11
           7           8          13          12
           8           9          14          13
          10          11          16          15
          11          12          17          16
          12          13          18          17
          13          14          19          18
          15          16          21          20
          16          17          22          21
          17          18          23          22
          18          19          24          23
 </DataArray>
 <DataArray  type="Int32"  Name="offsets"  format="ascii"> 
           4
           8
          12
          16
          20
          24
          28
          32
          36
          40
          44
          48
          52
          56
          60
          64
 </DataArray>
 <DataArray  type="UInt8"  Name="types"  format="ascii">
 9
 9
 9
 9
 9
 9
 9
 9
 9
 9
 9
 9
 9
 9
 9
 9
 </DataArray>
 </Cells> 
 <PointData>
 <DataArray  type="Float64" Name="disp" NumberOfComponents="3" format="ascii">
   0.0000000000000000        0.0000000000000000        0.0000000000000000     
   3.2090843733807495E-002   2.3712005526684628E-002   0.0000000000000000     
   5.8415321882422690E-002   5.7341494904875501E-002   0.0000000000000000     
   7.8973434445845578E-002  0.10088846813457261        0.0000000000000000     
   9.3765181424076166E-002  0.15435292521577595        0.0000000000000000     
   0.0000000000000000        0.0000000000000000        0.0000000000000000     
   1.6045421866874222E-002   1.9274008234289132E-002   0.0000000000000000     
   2.9207660941163303E-002   5.1241373032654268E-002   0.0000000000000000     
   3.9486717222867243E-002   9.5902094395095408E-002   0.0000000000000000     
   4.6882590711986041E-002  0.15325617232161257        0.0000000000000000     
   0.0000000000000000        0.0000000000000000        0.0000000000000000     
  -2.8146755759461684E-014   1.7794675803493306E-002   0.0000000000000000     
  -3.5896632888388069E-014   4.9207999075218896E-002   0.0000000000000000     
  -2.3251366110255134E-014   9.4239969815176766E-002   0.0000000000000000     
   9.7873098514611456E-015  0.15289058802336691        0.0000000000000000     
   0.0000000000000000        0.0000000000000000        0.0000000000000000     
  -1.6045421866899608E-002   1.9274008234297160E-002   0.0000000000000000     
  -2.9207660941174916E-002   5.1241373032569391E-002   0.0000000000000000     
  -3.9486717222825901E-002   9.5902094394816700E-002   0.0000000000000000     
  -4.6882590711852586E-002  0.15325617232103905        0.0000000000000000     
   0.0000000000000000        0.0000000000000000        0.0000000000000000     
  -3.2090843733740174E-002   2.3712005526700688E-002   0.0000000000000000     
  -5.8415321882253742E-002   5.7341494904705748E-002   0.0000000000000000     
  -7.8973434445540711E-002  0.10088846813401518        0.0000000000000000     
  -9.3765181423601074E-002  0.15435292521462898        0.0000000000000000     
 </DataArray>
 <DataArray  type="Float64" Name="stress" NumberOfComponents="3" format="ascii">
   9223919083.8866768        2767175725.1660028        1731070486.2398314     
   7234935039.3633614        750321378.24212742        1165414669.4297559     
   5538790313.9696159       -290401904.91651392        865898802.70657003     
   4135484907.7054396       -354994124.30992293        832522886.07027447     
   3025018820.5708351        556544720.06190228        1065286919.5208679     
   4611959541.9340992        1383587862.5802298        1193291995.5924118     
   3617467519.6755042        375160689.11969233        883870583.02239823     
   2769395156.9796972       -145200952.46488333        840589120.53912473     
   2067742453.8466790       -177497062.17349684        1063447608.1425905     
   1512509410.2764487        278272359.99384969        1552446045.8327968     
  -1.0112789726503212E-002  -3.0338369179509633E-003   1014032498.7117386     
  -4.4159845194488533E-003  -3.6129524280761795E-004   790022554.22054124     
  -2.7123678760885184E-003  -1.0998688223920625E-002   832152559.81593454     
  -5.0020427360570443E-003  -3.4946358993406111E-002   1140422515.4979181     
  -1.1284380023808197E-002  -7.2203598411557407E-002   1714832421.2664914     
  -4611959541.9459600       -1383587862.5837879        1193291995.5978115     
  -3617467519.6763997       -375160689.11803389        883870583.02418625     
  -2769395156.9776139        145200952.44513762        840589120.53700089     
  -2067742453.8496020        177497062.10572946        1063447608.1362566     
  -1512509410.2923656       -278272360.13626212        1552446045.8219519     
  -9223919083.8734436       -2767175725.1620331        1731070486.2506309     
  -7234935039.3404474       -750321378.23332620        1165414669.4333324     
  -5538790313.9450064        290401904.90352702        865898802.70232368     
  -4135484907.6871219        354994124.24852729        832522886.05760646     
  -3025018820.5667934       -556544720.19832623        1065286919.4991789     
 </DataArray>
 <DataArray  type="Float64" Name="VM" NumberOfComponents="1" format="ascii">
   8729464752.5035572     
   7180063705.8032932     
   5883905920.0669327     
   4558027222.5003405     
   3343864725.1745620     
   4590781230.3811626     
   3770061911.1117396     
   3195703658.8755560     
   2840219132.2505207     
   3028943187.8241763     
   1756355808.2947533     
   1368359203.0353158     
   1441330513.2496979     
   1975269738.9378998     
   2970176880.0999193     
   4590781230.3947868     
   3770061911.1144428     
   3195703658.8625746     
   2840219132.2167220     
   3028943187.7922444     
   8729464752.4989357     
   7180063705.7866573     
   5883905920.0345316     
   4558027222.4434328     
   3343864725.1115112     
 </DataArray>
 <DataArray  type="Float64" Name="strain" NumberOfComponents="3" format="ascii">
  0.13989610610561459        0.0000000000000000        7.5013054403726034E-002
  0.11683064376484538       -2.3669318892781347E-002   5.0501302341956086E-002
   9.3765181424076166E-002  -3.2533983318456645E-002   3.7522281450618034E-002
   7.0699719083306939E-002  -2.6593993277025912E-002   3.6075991729711897E-002
   4.7634256742537739E-002  -5.8493487684891377E-003   4.6162433179237614E-002
   6.9948053052667172E-002   0.0000000000000000        5.1709319809004513E-002
   5.8415321882326607E-002  -1.1834659446382647E-002   3.8301058597637258E-002
   4.6882590711986041E-002  -1.6266991659313210E-002   3.6425528556695404E-002
   3.5349859541645469E-002  -1.3296996638791678E-002   4.6082729686178922E-002
   2.3817128371304896E-002  -2.9246743848180823E-003   6.7272661986087862E-002
  -1.5337731085196538E-013   0.0000000000000000        4.3941408277508670E-002
  -7.1793265776776138E-014   1.6058335217117303E-014   3.4234310682890123E-002
   9.7873098514611456E-015  -1.6974963101823448E-013   3.6059944258690496E-002
   9.1364416032746476E-014  -5.5742910287648328E-013   4.9418309004909781E-002
   1.7294499166098376E-013  -1.1469714067402492E-012   7.4309404921547959E-002
  -6.9948053052847056E-002   0.0000000000000000        5.1709319809238499E-002
  -5.8415321882349831E-002   1.1834659446414767E-002   3.8301058597714738E-002
  -4.6882590711852586E-002   1.6266991658973697E-002   3.6425528556603373E-002
  -3.5349859541355347E-002   1.3296996637676833E-002   4.6082729685904454E-002
  -2.3817128370858115E-002   2.9246743825241256E-003   6.7272661985617918E-002
 -0.13989610610541389        0.0000000000000000        7.5013054404194007E-002
 -0.11683064376450748        2.3669318892813464E-002   5.0501302342111073E-002
  -9.3765181423601074E-002   3.2533983318117146E-002   3.7522281450434028E-002
  -7.0699719082694665E-002   2.6593993275911061E-002   3.6075991729162947E-002
  -4.7634256741788256E-002   5.8493487661951948E-003   4.6162433178297754E-002
 </DataArray>
 </PointData>
 </Piece>
 <Piece  NumberOfPoints="            25 "  NumberOfCells="           16 ">
 <Points>
 <DataArray  type="Float64" NumberOfComponents="3"  format="ascii" >
  0.50000000000000000        0.0000000000000000        0.0000000000000000     
  0.75000000000000000        0.0000000000000000        0.0000000000000000     
   1.0000000000000000        0.0000000000000000        0.0000000000000000     
   1.2500000000000000        0.0000000000000000        0.0000000000000000     
   1.5000000000000000        0.0000000000000000        0.0000000000000000     
  0.50000000000000000       0.25000000000000000        0.0000000000000000     
  0.75000000000000000       0.25000000000000000        0.0000000000000000     
   1.0000000000000000       0.25000000000000000        0.0000000000000000     
   1.2500000000000000       0.25000000000000000        0.0000000000000000     
   1.5000000000000000       0.25000000000000000        0.0000000000000000     
  0.50000000000000000       0.50000000000000000        0.0000000000000000     
  0.75000000000000000       0.50000000000000000        0.0000000000000000     
   1.0000000000000000       0.50000000000000000        0.0000000000000000     
   1.2500000000000000       0.50000000000000000        0.0000000000000000     
   1.5000000000000000       0.50000000000000000        0.0000000000000000     
  0.50000000000000000       0.75000000000000000        0.0000000000000000     
  0.75000000000000000       0.75000000000000000        0.0000000000000000     
   1.0000000000000000       0.75000000000000000        0.0000000000000000     
   1.2500000000000000       0.75000000000000000        0.0000000000000000     
   1.5000000000000000       0.75000000000000000        0.0000000000000000     
  0.50000000000000000        1.0000000000000000        0.0000000000000000     
  0.75000000000000000        1.0000000000000000        0.0000000000000000     
   1.0000000000000000        1.0000000000000000        0.0000000000000000     
   1.2500000000000000        1.0000000000000000        0.0000000000000000     
   1.5000000000000000        1.0000000000000000        0.0000000000000000     
 </DataArray>
 </Points>
 <Cells>
 <DataArray  type="Int32"  Name="connectivity"  format="ascii">
           0           1           6           5
           1           2           7           6
           2           3           8           7
           3           4           9           8
           5           6          11          10
           6           7          12          11
           7           8          13          12
           8           9          14          13
          10          11          16          15
          11          12          17          16
          12          13          18          17
          13          14          19          18
          15          16          21          20
          16          17          22          21
          17          18          23          22
          18          19          24          23
 </DataArray>
 <DataArray  type="Int32"  Name="offsets"  format="ascii"> 
           4
           8
          12
          16
          20
          24
          28
          32
          36
          40
          44
          48
          52
          56
          60
          64
 </DataArray>
 <DataArray  type="UInt8"  Name="types"  format="ascii">
 9
 9
 9
 9
 9
 9
 9
 9
 9
 9
 9
 9
 9
 9
 9
 9
 </DataArray>
 </Cells> 
 <PointData>
 <DataArray  type="Float64" Name="disp" NumberOfComponents="3" format="ascii">
   5.8393820358587215E-002   5.5967753482825400E-002   0.0000000000000000     
   7.8982580255379131E-002  0.10147279775586501        0.0000000000000000     
   9.3743679899936858E-002  0.15297918379371356        0.0000000000000000     
  0.10267711929226041       0.21048691159637101        0.0000000000000000     
  0.10578289843234975       0.27399598116383739        0.0000000000000000     
   2.9196910179241788E-002   4.8600628770001313E-002   0.0000000000000000     
   3.9491290127632320E-002   9.7025351706696489E-002   0.0000000000000000     
   4.6871839949915318E-002  0.15061542805895328        0.0000000000000000     
   5.1338559646090770E-002  0.20937085782677170        0.0000000000000000     
   5.2891449216158702E-002  0.27329164101015169        0.0000000000000000     
   1.1624382012520584E-014   4.6144920532582109E-002   0.0000000000000000     
  -2.4478682969508725E-014   9.5542869690401766E-002   0.0000000000000000     
  -4.0378290988574150E-014  0.14982750948072998        0.0000000000000000     
  -3.6069888395551253E-014  0.20899883990356677        0.0000000000000000     
  -1.1553258350005535E-014  0.27305686095891213        0.0000000000000000     
  -2.9196910179103273E-002   4.8600628770567783E-002   0.0000000000000000     
  -3.9491290127591255E-002   9.7025351706980831E-002   0.0000000000000000     
  -4.6871839949930216E-002  0.15061542805904365        0.0000000000000000     
  -5.1338559646120122E-002  0.20937085782675618        0.0000000000000000     
  -5.2891449216161013E-002  0.27329164101011860        0.0000000000000000     
  -5.8393820358102914E-002   5.5967753483958327E-002   0.0000000000000000     
  -7.8982580255068019E-002  0.10147279775643370        0.0000000000000000     
  -9.3743679899754198E-002  0.15297918379389427        0.0000000000000000     
 -0.10267711929216142       0.21048691159634011        0.0000000000000000     
 -0.10578289843228968       0.27399598116377116        0.0000000000000000     
 </DataArray>
 <DataArray  type="Float64" Name="stress" NumberOfComponents="3" format="ascii">
   5421294102.2640142       -731091677.44716072        1228381219.4983478     
   4192338817.8443589       -165481090.39199233        832100771.78328538     
   2875191355.9205303        106155571.64925933        704789258.78755558     
   1469851716.4925232        83818308.676589549        846446680.51115918     
  -23680100.439656876       -232492879.30999568        1257073036.9540966     
   2710647051.1405201       -365545838.68703878        1536474096.8886073     
   2096169408.9276328       -82740545.177301049        1063025493.8560785     
   1437595677.9644022        53077785.831291020        858545825.54298317     
   734925858.25082839        41909154.338738769        923035091.94932055     
  -11840050.213089507       -116246439.65496126        1256493293.0750926     
   1.0223324018845013E-002   7.1042622334377969E-002   1639171722.6824162     
   4.3908100598623150E-003   3.5437449678007472E-002   1140000401.2118907     
   2.0463026877366500E-003   1.1456883976322586E-002   909798014.46089792     
   3.1887953815940436E-003  -8.9791955921907172E-004   948564562.42944038     
   7.8196606698990052E-003  -1.6275900041637340E-003   1256300045.1175151     
  -2710647051.1268754        365545838.82708359        1536474096.8797758     
  -2096169408.9253664        82740545.246220469        1063025493.8507229     
  -1437595677.9665372       -53077785.810242653        858545825.54130411     
  -734925858.25039136       -41909154.342316389        923035091.95151865     
   11840050.223075334        116246439.65001336        1256493293.0813699     
  -5421294102.2707758        731091677.58108401        1228381219.4806838     
  -4192338817.8616385        165481090.45505095        832100771.77257442     
  -2875191355.9413509       -106155571.63381791        704789258.78419900     
  -1469851716.5099130       -83818308.685515642        846446680.51555860     
   23680100.432676002        232492879.29995447        1257073036.9666529     
 </DataArray>
 <DataArray  type="Float64" Name="VM" NumberOfComponents="1" format="ascii">
   6197995566.6717300     
   4513758593.1193237     
   3076192525.5858908     
   2047853764.6298666     
   2188562562.9769201     
   3943900974.5378876     
   2822105595.1510372     
   2050487013.5691047     
   1751300549.8862302     
   2179129010.5147438     
   2839128706.0161467     
   1974538615.5478992     
   1575816385.6715593     
   1642962016.3871307     
   2175975507.6946092     
   3943900974.5786624     
   2822105595.1708851     
   2050487013.5752983     
   1751300549.8888628     
   2179129010.5251398     
   6197995566.7419090     
   4513758593.1613617     
   3076192525.6093678     
   2047853764.6446095     
   2188562562.9978395     
 </DataArray>
 <DataArray  type="Float64" Name="strain" NumberOfComponents="3" format="ascii">
   9.4010360091636047E-002  -3.9291331802106089E-002   5.3229852844928399E-002
   7.0699719082699286E-002  -2.3719712262421672E-002   3.6057700110609034E-002
   4.7389078073762539E-002  -1.2606697252114996E-002   3.0540867880794076E-002
   2.4078437064825771E-002  -5.9522867711861230E-003   3.6679356155483567E-002
   7.6779605588903066E-004  -3.7564808196349775E-003   5.4473164934677520E-002
   4.7005180045777195E-002  -1.9645665900486581E-002   6.6580544198506314E-002
   3.5349859541347055E-002  -1.1859856130926515E-002   4.6064438067096737E-002
   2.3694539036916915E-002  -6.3033486259671603E-003   3.7203652440195939E-002
   1.2039218532486778E-002  -2.9761433856084953E-003   3.9998187317803892E-002
   3.8389802805664786E-004  -1.8782404098505734E-003   5.4448042699920679E-002
  -1.8482437802447294E-013   1.1329270854787410E-012   7.1030774649571374E-002
  -1.0400708072566545E-013   5.6867011100081299E-013   4.9400017385848601E-002
  -2.3179375086002096E-014   1.8071655283335986E-013   3.9424580626638908E-002
   5.7636187489329416E-014  -3.0909302894954749E-014   4.1104464371942415E-002
   1.3846562785246874E-013  -6.6224803418890588E-014   5.4439668621758988E-002
  -4.7005180046250004E-002   1.9645665902752435E-002   6.6580544198123620E-002
  -3.5349859541653879E-002   1.1859856132063841E-002   4.6064438066864659E-002
  -2.3694539037057739E-002   6.3033486263286420E-003   3.7203652440123178E-002
  -1.2039218532461607E-002   2.9761433855466837E-003   3.9998187317899142E-002
  -3.8389802786547786E-004   1.8782404097181793E-003   5.4448042700192698E-002
  -9.4010360092418352E-002   3.9291331804371943E-002   5.3229852844162970E-002
  -7.0699719083302567E-002   2.3719712263559040E-002   3.6057700110144891E-002
  -4.7389078074186762E-002   1.2606697252476456E-002   3.0540867880648626E-002
  -2.4078437065070974E-002   5.9522867711243044E-003   3.6679356155674206E-002
  -7.6779605595517220E-004   3.7564808195025279E-003   5.4473164935221627E-002
 </DataArray>
 </PointData>
 </Piece>
 </UnstructuredGrid>
 </VTKFile>
