 <VTKFile type="UnstructuredGrid"  version="0.1"   >
 <UnstructuredGrid>
 <Piece  NumberOfPoints="           100 "  NumberOfCells="           64 ">
 <Points>
 <DataArray  type="Float64" NumberOfComponents="3"  format="ascii" >
   0.0000000000000000        0.0000000000000000        0.0000000000000000     
  0.12500000000000000        0.0000000000000000        0.0000000000000000     
  0.25000000000000000        0.0000000000000000        0.0000000000000000     
  0.37500000000000000        0.0000000000000000        0.0000000000000000     
  0.50000000000000000        0.0000000000000000        0.0000000000000000     
   0.0000000000000000       0.12500000000000000        0.0000000000000000     
  0.12500000000000000       0.12500000000000000        0.0000000000000000     
  0.25000000000000000       0.12500000000000000        0.0000000000000000     
  0.37500000000000000       0.12500000000000000        0.0000000000000000     
  0.50000000000000000       0.12500000000000000        0.0000000000000000     
   0.0000000000000000       0.25000000000000000        0.0000000000000000     
  0.12500000000000000       0.25000000000000000        0.0000000000000000     
  0.25000000000000000       0.25000000000000000        0.0000000000000000     
  0.37500000000000000       0.25000000000000000        0.0000000000000000     
  0.50000000000000000       0.25000000000000000        0.0000000000000000     
   0.0000000000000000       0.37500000000000000        0.0000000000000000     
  0.12500000000000000       0.37500000000000000        0.0000000000000000     
  0.25000000000000000       0.37500000000000000        0.0000000000000000     
  0.37500000000000000       0.37500000000000000        0.0000000000000000     
  0.50000000000000000       0.37500000000000000        0.0000000000000000     
   0.0000000000000000       0.50000000000000000        0.0000000000000000     
  0.12500000000000000       0.50000000000000000        0.0000000000000000     
  0.25000000000000000       0.50000000000000000        0.0000000000000000     
  0.37500000000000000       0.50000000000000000        0.0000000000000000     
  0.50000000000000000       0.50000000000000000        0.0000000000000000     
  0.50000000000000000        0.0000000000000000        0.0000000000000000     
  0.62500000000000000        0.0000000000000000        0.0000000000000000     
  0.75000000000000000        0.0000000000000000        0.0000000000000000     
  0.87500000000000000        0.0000000000000000        0.0000000000000000     
   1.0000000000000000        0.0000000000000000        0.0000000000000000     
  0.50000000000000000       0.12500000000000000        0.0000000000000000     
  0.62500000000000000       0.12500000000000000        0.0000000000000000     
  0.75000000000000000       0.12500000000000000        0.0000000000000000     
  0.87500000000000000       0.12500000000000000        0.0000000000000000     
   1.0000000000000000       0.12500000000000000        0.0000000000000000     
  0.50000000000000000       0.25000000000000000        0.0000000000000000     
  0.62500000000000000       0.25000000000000000        0.0000000000000000     
  0.75000000000000000       0.25000000000000000        0.0000000000000000     
  0.87500000000000000       0.25000000000000000        0.0000000000000000     
   1.0000000000000000       0.25000000000000000        0.0000000000000000     
  0.50000000000000000       0.37500000000000000        0.0000000000000000     
  0.62500000000000000       0.37500000000000000        0.0000000000000000     
  0.75000000000000000       0.37500000000000000        0.0000000000000000     
  0.87500000000000000       0.37500000000000000        0.0000000000000000     
   1.0000000000000000       0.37500000000000000        0.0000000000000000     
  0.50000000000000000       0.50000000000000000        0.0000000000000000     
  0.62500000000000000       0.50000000000000000        0.0000000000000000     
  0.75000000000000000       0.50000000000000000        0.0000000000000000     
  0.87500000000000000       0.50000000000000000        0.0000000000000000     
   1.0000000000000000       0.50000000000000000        0.0000000000000000     
   0.0000000000000000       0.50000000000000000        0.0000000000000000     
  0.12500000000000000       0.50000000000000000        0.0000000000000000     
  0.25000000000000000       0.50000000000000000        0.0000000000000000     
  0.37500000000000000       0.50000000000000000        0.0000000000000000     
  0.50000000000000000       0.50000000000000000        0.0000000000000000     
   0.0000000000000000       0.62500000000000000        0.0000000000000000     
  0.12500000000000000       0.62500000000000000        0.0000000000000000     
  0.25000000000000000       0.62500000000000000        0.0000000000000000     
  0.37500000000000000       0.62500000000000000        0.0000000000000000     
  0.50000000000000000       0.62500000000000000        0.0000000000000000     
   0.0000000000000000       0.75000000000000000        0.0000000000000000     
  0.12500000000000000       0.75000000000000000        0.0000000000000000     
  0.25000000000000000       0.75000000000000000        0.0000000000000000     
  0.37500000000000000       0.75000000000000000        0.0000000000000000     
  0.50000000000000000       0.75000000000000000        0.0000000000000000     
   0.0000000000000000       0.87500000000000000        0.0000000000000000     
  0.12500000000000000       0.87500000000000000        0.0000000000000000     
  0.25000000000000000       0.87500000000000000        0.0000000000000000     
  0.37500000000000000       0.87500000000000000        0.0000000000000000     
  0.50000000000000000       0.87500000000000000        0.0000000000000000     
   0.0000000000000000        1.0000000000000000        0.0000000000000000     
  0.12500000000000000        1.0000000000000000        0.0000000000000000     
  0.25000000000000000        1.0000000000000000        0.0000000000000000     
  0.37500000000000000        1.0000000000000000        0.0000000000000000     
  0.50000000000000000        1.0000000000000000        0.0000000000000000     
  0.50000000000000000       0.50000000000000000        0.0000000000000000     
  0.62500000000000000       0.50000000000000000        0.0000000000000000     
  0.75000000000000000       0.50000000000000000        0.0000000000000000     
  0.87500000000000000       0.50000000000000000        0.0000000000000000     
   1.0000000000000000       0.50000000000000000        0.0000000000000000     
  0.50000000000000000       0.62500000000000000        0.0000000000000000     
  0.62500000000000000       0.62500000000000000        0.0000000000000000     
  0.75000000000000000       0.62500000000000000        0.0000000000000000     
  0.87500000000000000       0.62500000000000000        0.0000000000000000     
   1.0000000000000000       0.62500000000000000        0.0000000000000000     
  0.50000000000000000       0.75000000000000000        0.0000000000000000     
  0.62500000000000000       0.75000000000000000        0.0000000000000000     
  0.75000000000000000       0.75000000000000000        0.0000000000000000     
  0.87500000000000000       0.75000000000000000        0.0000000000000000     
   1.0000000000000000       0.75000000000000000        0.0000000000000000     
  0.50000000000000000       0.87500000000000000        0.0000000000000000     
  0.62500000000000000       0.87500000000000000        0.0000000000000000     
  0.75000000000000000       0.87500000000000000        0.0000000000000000     
  0.87500000000000000       0.87500000000000000        0.0000000000000000     
   1.0000000000000000       0.87500000000000000        0.0000000000000000     
  0.50000000000000000        1.0000000000000000        0.0000000000000000     
  0.62500000000000000        1.0000000000000000        0.0000000000000000     
  0.75000000000000000        1.0000000000000000        0.0000000000000000     
  0.87500000000000000        1.0000000000000000        0.0000000000000000     
   1.0000000000000000        1.0000000000000000        0.0000000000000000     
 </DataArray>
 </Points>
 <Cells>
 <DataArray  type="Int32"  Name="connectivity"  format="ascii">
           0           1           6           5
           1           2           7           6
           2           3           8           7
           3           4           9           8
           5           6          11          10
           6           7          12          11
           7           8          13          12
           8           9          14          13
          10          11          16          15
          11          12          17          16
          12          13          18          17
          13          14          19          18
          15          16          21          20
          16          17          22          21
          17          18          23          22
          18          19          24          23
          25          26          31          30
          26          27          32          31
          27          28          33          32
          28          29          34          33
          30          31          36          35
          31          32          37          36
          32          33          38          37
          33          34          39          38
          35          36          41          40
          36          37          42          41
          37          38          43          42
          38          39          44          43
          40          41          46          45
          41          42          47          46
          42          43          48          47
          43          44          49          48
          50          51          56          55
          51          52          57          56
          52          53          58          57
          53          54          59          58
          55          56          61          60
          56          57          62          61
          57          58          63          62
          58          59          64          63
          60          61          66          65
          61          62          67          66
          62          63          68          67
          63          64          69          68
          65          66          71          70
          66          67          72          71
          67          68          73          72
          68          69          74          73
          75          76          81          80
          76          77          82          81
          77          78          83          82
          78          79          84          83
          80          81          86          85
          81          82          87          86
          82          83          88          87
          83          84          89          88
          85          86          91          90
          86          87          92          91
          87          88          93          92
          88          89          94          93
          90          91          96          95
          91          92          97          96
          92          93          98          97
          93          94          99          98
 </DataArray>
 <DataArray  type="Int32"  Name="offsets"  format="ascii"> 
           4
           8
          12
          16
          20
          24
          28
          32
          36
          40
          44
          48
          52
          56
          60
          64
          68
          72
          76
          80
          84
          88
          92
          96
         100
         104
         108
         112
         116
         120
         124
         128
         132
         136
         140
         144
         148
         152
         156
         160
         164
         168
         172
         176
         180
         184
         188
         192
         196
         200
         204
         208
         212
         216
         220
         224
         228
         232
         236
         240
         244
         248
         252
         256
 </DataArray>
 <DataArray  type="UInt8"  Name="types"  format="ascii">
 9
 9
 9
 9
 9
 9
 9
 9
 9
 9
 9
 9
 9
 9
 9
 9
 9
 9
 9
 9
 9
 9
 9
 9
 9
 9
 9
 9
 9
 9
 9
 9
 9
 9
 9
 9
 9
 9
 9
 9
 9
 9
 9
 9
 9
 9
 9
 9
 9
 9
 9
 9
 9
 9
 9
 9
 9
 9
 9
 9
 9
 9
 9
 9
 </DataArray>
 </Cells> 
 <PointData>
 <DataArray  type="Float64" Name="disp" NumberOfComponents="3" format="ascii">
   0.0000000000000000        0.0000000000000000        0.0000000000000000     
   1.9084757247072249E-002   1.1664815096459977E-002   0.0000000000000000     
   3.6137932136116699E-002   2.5841289785098046E-002   0.0000000000000000     
   5.1159524667133353E-002   4.2529424065914201E-002   0.0000000000000000     
   6.4149534840122202E-002   6.1729217938908440E-002   0.0000000000000000     
   0.0000000000000000        0.0000000000000000        0.0000000000000000     
   1.2688030721157560E-002   9.3309253537754693E-003   0.0000000000000000     
   2.4537489835058567E-002   2.2148588087985598E-002   0.0000000000000000     
   3.5548377341703026E-002   3.8452988202630385E-002   0.0000000000000000     
   4.5720693241090932E-002   5.8244125697709835E-002   0.0000000000000000     
   0.0000000000000000        0.0000000000000000        0.0000000000000000     
   7.3749956713398627E-003   7.6638612518588421E-003   0.0000000000000000     
   1.4647687045351552E-002   1.9510944018620118E-002   0.0000000000000000     
   2.1818074122035069E-002   3.5541248300283837E-002   0.0000000000000000     
   2.8886156901390420E-002   5.5754774096849979E-002   0.0000000000000000     
   0.0000000000000000        0.0000000000000000        0.0000000000000000     
   3.1456520976191542E-003   6.6636227907100947E-003   0.0000000000000000     
   6.4685237669956505E-003   1.7928357577001605E-002   0.0000000000000000     
   9.9686150081294885E-003   3.3794204358874529E-002   0.0000000000000000     
   1.3645925821020671E-002   5.4261163136328859E-002   0.0000000000000000     
   0.0000000000000000        0.0000000000000000        0.0000000000000000     
  -4.5621059013845056E-015   6.3302099703292283E-003   0.0000000000000000     
  -9.1359211862318546E-015   1.7400828763130052E-002   0.0000000000000000     
  -1.3721662694976544E-014   3.3211856378402474E-002   0.0000000000000000     
  -1.8318246225446089E-014   5.3763292816146495E-002   0.0000000000000000     
   6.4149534840122202E-002   6.1729217938908440E-002   0.0000000000000000     
   7.5337482823060353E-002   8.3672141136265213E-002   0.0000000000000000     
   8.4952888783924901E-002  0.10858966339016894        0.0000000000000000     
   9.2995752722715819E-002  0.13648178470061964        0.0000000000000000     
   9.9466074639433133E-002  0.16734850506761728        0.0000000000000000     
   4.5720693241090932E-002   5.8244125697709835E-002   0.0000000000000000     
   5.4750582136727267E-002   8.1066113162006528E-002   0.0000000000000000     
   6.2334188632117017E-002  0.10646306318430303        0.0000000000000000     
   6.8471512727260181E-002  0.13443497576459937        0.0000000000000000     
   7.3162554422156745E-002  0.16498185090289549        0.0000000000000000     
   2.8886156901390420E-002   5.5754774096849979E-002   0.0000000000000000     
   3.5332034770769620E-002   7.9204664608956740E-002   0.0000000000000000     
   4.0635807117524680E-002  0.10494406303724230        0.0000000000000000     
   4.4797473941655605E-002  0.13297296938170663        0.0000000000000000     
   4.7817035243162401E-002  0.16329138364234974        0.0000000000000000     
   1.3645925821020671E-002   5.4261163136328859E-002   0.0000000000000000     
   1.7081840725187394E-002   7.8087795477115862E-002   0.0000000000000000     
   1.9857744240147874E-002  0.10403266294898671        0.0000000000000000     
   2.1973636365902105E-002  0.13209576555194141        0.0000000000000000     
   2.3429517102450087E-002  0.16227710328598000        0.0000000000000000     
  -1.8318246225446089E-014   5.3763292816146495E-002   0.0000000000000000     
  -1.9387703248385790E-014   7.7715505766483839E-002   0.0000000000000000     
  -1.3389354729109737E-014  0.10372886291953626        0.0000000000000000     
  -3.2154725930488848E-016  0.13180336427530373        0.0000000000000000     
   1.9807072648703183E-014  0.16193900983378628        0.0000000000000000     
   0.0000000000000000        0.0000000000000000        0.0000000000000000     
  -4.5621059013845056E-015   6.3302099703292283E-003   0.0000000000000000     
  -9.1359211862318546E-015   1.7400828763130052E-002   0.0000000000000000     
  -1.3721662694976544E-014   3.3211856378402474E-002   0.0000000000000000     
  -1.8318246225446089E-014   5.3763292816146495E-002   0.0000000000000000     
   0.0000000000000000        0.0000000000000000        0.0000000000000000     
  -3.1456520976267570E-003   6.6636227907151983E-003   0.0000000000000000     
  -6.4685237670106307E-003   1.7928357577004436E-002   0.0000000000000000     
  -9.9686150081516184E-003   3.3794204358867708E-002   0.0000000000000000     
  -1.3645925821049724E-002   5.4261163136305024E-002   0.0000000000000000     
   0.0000000000000000        0.0000000000000000        0.0000000000000000     
  -7.3749956713429002E-003   7.6638612518669571E-003   0.0000000000000000     
  -1.4647687045356655E-002   1.9510944018623709E-002   0.0000000000000000     
  -2.1818074122041259E-002   3.5541248300270264E-002   0.0000000000000000     
  -2.8886156901396721E-002   5.5754774096806604E-002   0.0000000000000000     
   0.0000000000000000        0.0000000000000000        0.0000000000000000     
  -1.2688030721152991E-002   9.3309253537845090E-003   0.0000000000000000     
  -2.4537489835047204E-002   2.2148588087987885E-002   0.0000000000000000     
  -3.5548377341682647E-002   3.8452988202610124E-002   0.0000000000000000     
  -4.5720693241059311E-002   5.8244125697651243E-002   0.0000000000000000     
   0.0000000000000000        0.0000000000000000        0.0000000000000000     
  -1.9084757247057028E-002   1.1664815096467850E-002   0.0000000000000000     
  -3.6137932136082289E-002   2.5841289785096953E-002   0.0000000000000000     
  -5.1159524667075774E-002   4.2529424065887306E-002   0.0000000000000000     
  -6.4149534840037492E-002   6.1729217938838919E-002   0.0000000000000000     
  -1.8318246225446089E-014   5.3763292816146495E-002   0.0000000000000000     
  -1.9387703248385790E-014   7.7715505766483839E-002   0.0000000000000000     
  -1.3389354729109737E-014  0.10372886291953626        0.0000000000000000     
  -3.2154725930488848E-016  0.13180336427530373        0.0000000000000000     
   1.9807072648703183E-014  0.16193900983378628        0.0000000000000000     
  -1.3645925821049724E-002   5.4261163136305024E-002   0.0000000000000000     
  -1.7081840725216669E-002   7.8087795477066180E-002   0.0000000000000000     
  -1.9857744240164212E-002  0.10403266294890098        0.0000000000000000     
  -2.1973636365892325E-002  0.13209576555180938        0.0000000000000000     
  -2.3429517102401015E-002  0.16227710328579148        0.0000000000000000     
  -2.8886156901396721E-002   5.5754774096806604E-002   0.0000000000000000     
  -3.5332034770770397E-002   7.9204664608868297E-002   0.0000000000000000     
  -4.0635807117509665E-002  0.10494406303709083        0.0000000000000000     
  -4.4797473941614520E-002  0.13297296938147429        0.0000000000000000     
  -4.7817035243084963E-002  0.16329138364201859        0.0000000000000000     
  -4.5720693241059311E-002   5.8244125697651243E-002   0.0000000000000000     
  -5.4750582136680541E-002   8.1066113161890149E-002   0.0000000000000000     
  -6.2334188632049738E-002  0.10646306318410585        0.0000000000000000     
  -6.8471512727166908E-002  0.13443497576429828        0.0000000000000000     
  -7.3162554422032039E-002  0.16498185090246753        0.0000000000000000     
  -6.4149534840037492E-002   6.1729217938838919E-002   0.0000000000000000     
  -7.5337482822947152E-002   8.3672141136131820E-002   0.0000000000000000     
  -8.4952888783784500E-002  0.10858966338994600        0.0000000000000000     
  -9.2995752722549549E-002  0.13648178470028149        0.0000000000000000     
  -9.9466074639242244E-002  0.16734850506713833        0.0000000000000000     
 </DataArray>
 <DataArray  type="Float64" Name="stress" NumberOfComponents="3" format="ascii">
   10602487081.891594        3180746124.5674782        1921658824.6838646     
   9108804553.3913746        1452336135.7445571        1104382639.1235390     
   7791462623.3326273        311728141.72654247        549515525.16801620     
   6650461291.7153530       -241077857.48656273        257057482.81729558     
   5685800558.5395508       -206081861.89476204        227008512.07137820     
   6913749375.7112103        2074124812.7133632        1400779691.7338104     
   6154866905.0579939        886231148.81312525        963583985.74645019     
   5528239883.2357149        139188981.01601243        704475485.36213326     
   5033868310.2443752       -167001690.67797565        623454190.58085799     
   4671752186.0839710       -32340866.268837929        720520101.40262520     
   3917088960.0020819        1175126688.0006244        1028723168.1983304     
   3652086930.0479841        455473463.87870526        920175267.23831189     
   3475255199.3142891        29721237.158127546        905392705.87957561     
   3386593767.8009958       -102129992.16110826        984375484.12212205     
   3386102635.5081053        59919775.920998096        1157123601.9659507     
   1612505834.7642109        483751750.42926323        805489254.07742524     
   1600464628.3613448        160063080.94129616        974156483.59912431     
   1632508571.5683472       -16675089.847111583        1152267186.7203455     
   1708637664.3852165       -46462761.935959935        1339821363.4410894     
   1828851906.8119540        70700064.674750149        1536819013.7613556     
  -2.4035260960995576E-003  -7.2105782882986725E-004   731077949.37109470     
  -1.9230324750179246E-003   8.9862869892573505E-004   1125527634.8288875     
  -2.1098621933806267E-003   2.9442451224301314E-004   1445098927.8844421     
  -2.9639008738156216E-003  -2.5333758671450238E-003   1689791828.5377591     
  -4.4844622520906546E-003  -7.5843063514473025E-003   1859606336.7888391     
   5685800558.5395508       -206081861.89476204        227008512.07137820     
   5015304615.2663240        74998895.845594883        417072993.06635904     
   4272535320.9215927        115168483.34760523        614023811.40213549     
   3457492675.5053573       -85573099.388731480        817860967.07870376     
   2570176679.0176187       -527225852.36341417        1028584460.0960732     
   4671752186.0839710       -32340866.268837929        720520101.40262520     
   4028110531.7363195        136238792.96686196        758168255.47407186     
   3330263864.0848107        124135074.52304494        835549009.49470353     
   2578212183.1294503       -68652021.600286603        952662363.46451497     
   1771955488.8702312       -442122495.40314031        1109508317.3835094     
   3386102635.5081053        59919775.920998096        1157123601.9659507     
   2863161734.6814203        144152276.03066194        1063435156.5094556     
   2304084158.3185277        107929191.01963627        1042325573.6105289     
   1708869906.4194283       -48749479.112079978        1093794853.2691722     
   1077518978.9841228       -325883734.36448270        1217842995.4853861     
   1828851906.8119540        70700064.674750149        1536819013.7613556     
   1520458224.1016276        98739345.036993980        1332873696.1725066     
   1193996203.6227431        66550832.837377787        1234353503.7496152     
   849465845.37529945       -25865471.924101830        1241258436.4926796     
   486867149.35929704       -178509569.24744371        1353588494.4017029     
  -4.4844622520906546E-003  -7.5843063514473025E-003   1859606336.7888391     
  -3.0596118587407246E-003  -1.4142773490783285E-002   1566483874.4632273     
  -2.5449136845498042E-003  -2.3733173164825722E-002   1411632799.9119592     
  -2.9410840178103088E-003  -3.6360755294951357E-002   1395053113.1350369     
  -4.2456880502148853E-003  -5.2016449755557248E-002   1516744814.1324558     
  -2.4035260960995576E-003  -7.2105782882986725E-004   731077949.37109470     
  -1.9230324750179246E-003   8.9862869892573505E-004   1125527634.8288875     
  -2.1098621933806267E-003   2.9442451224301314E-004   1445098927.8844421     
  -2.9639008738156216E-003  -2.5333758671450238E-003   1689791828.5377591     
  -4.4844622520906546E-003  -7.5843063514473025E-003   1859606336.7888391     
  -1612505834.7682812       -483751750.43048441        805489254.07904828     
  -1600464628.3646536       -160063080.94034088        974156483.59994733     
  -1632508571.5718942        16675089.846909642        1152267186.7204611     
  -1708637664.3900015        46462761.931267619        1339821363.4405897     
  -1828851906.8189776       -70700064.687267840        1536819013.7603323     
  -3917088960.0039420       -1175126688.0011826        1028723168.2009958     
  -3652086930.0490189       -455473463.87807119        920175267.23976731     
  -3475255199.3151627       -29721237.158521175        905392705.88000572     
  -3386593767.8023748        102129992.15746713        984375484.12171102     
  -3386102635.5106568       -59919775.930106044        1157123601.9648833     
  -6913749375.7093868       -2074124812.7128162        1400779691.7369368     
  -6154866905.0550165       -886231148.81229067        963583985.74834669     
  -5528239883.2319164       -139188981.01599765        704475485.36307514     
  -5033868310.2400846        167001690.67606592        623454190.58112371     
  -4671752186.0795221        32340866.263898134        720520101.40249109     
  -10602487081.884615       -3180746124.5653844        1921658824.6868718     
  -9108804553.3826485       -1452336135.7430015        1104382639.1256855     
  -7791462623.3221550       -311728141.72551823        549515525.16967058     
  -6650461291.7031269        241077857.48706388        257057482.81882706     
  -5685800558.5255718        206081861.89474845        227008512.07315546     
  -4.4844622520906546E-003  -7.5843063514473025E-003   1859606336.7888391     
  -3.0596118587407246E-003  -1.4142773490783285E-002   1566483874.4632273     
  -2.5449136845498042E-003  -2.3733173164825722E-002   1411632799.9119592     
  -2.9410840178103088E-003  -3.6360755294951357E-002   1395053113.1350369     
  -4.2456880502148853E-003  -5.2016449755557248E-002   1516744814.1324558     
  -1828851906.8189776       -70700064.687267840        1536819013.7603323     
  -1520458224.1052718       -98739345.059315979        1332873696.1703026     
  -1193996203.6244240       -66550832.874229193        1234353503.7458732     
  -849465845.37643576        25865471.867995203        1241258436.4870446     
  -486867149.36130494        178509569.16735992        1353588494.3938172     
  -3386102635.5106568       -59919775.930106044        1157123601.9648833     
  -2863161734.6810780       -144152276.04656577        1063435156.5064945     
  -2304084158.3163071       -107929191.04572439        1042325573.6049622     
  -1708869906.4163439        48749479.072430015        1093794853.2602899     
  -1077518978.9811869        325883734.30789119        1217842995.4724746     
  -4671752186.0795221        32340866.263898134        720520101.40249109     
  -4028110531.7304797       -136238792.97589898        758168255.47180188     
  -3330263864.0781922       -124135074.53821707        835549009.48922849     
  -2578212183.1226654        68652021.576939464        952662363.45476842     
  -1771955488.8638940        442122495.36956894        1109508317.3684232     
  -5685800558.5255718        206081861.89474845        227008512.07315546     
  -5015304615.2534771       -74998895.847306490        417072993.06622642     
  -4272535320.9100866       -115168483.35171819        614023811.39867020     
  -3457492675.4954038        85573099.381517410        817860967.07048237     
  -2570176679.0094223        527225852.35241044        1028584460.0816686     
 </DataArray>
 <DataArray  type="Float64" Name="VM" NumberOfComponents="1" format="ascii">
   9994217150.4116230     
   8689622412.8290195     
   7699425174.4810390     
   6788834107.1126270     
   5804923486.5255003     
   6606700861.5600157     
   5999886648.3296509     
   5594657883.3118372     
   5232061699.8742914     
   4851273088.7962208     
   3911041670.4011841     
   3797622138.1044707     
   3799236900.2097235     
   3838268614.8298340     
   3909372330.3436041     
   2000144274.3837342     
   2275494337.6720996     
   2583746026.7506704     
   2895920119.6229582     
   3210270376.6626678     
   1266264152.6040034     
   1949471048.8464630     
   2502984765.0591664     
   2926805301.2421155     
   3220932657.3953104     
   5804923486.5255003     
   5030369027.6610374     
   4348199185.6429453     
   3776789166.1147509     
   3378283118.0555882     
   4851273088.7962208     
   4173716312.6689687     
   3575904194.7469878     
   3090564248.8190799     
   2794950099.1951532     
   3909372330.3436041     
   3346405043.2115035     
   2886364908.2968750     
   2568088964.5225086     
   2463294126.1799679     
   3210270376.6626678     
   2738808224.4177637     
   2433409176.9609904     
   2316549286.8842268     
   2419177787.8198662     
   3220932657.3953104     
   2713229659.8076568     
   2445019731.0782242     
   2416302871.2070169     
   2627079080.1940269     
   1266264152.6040034     
   1949471048.8464630     
   2502984765.0591664     
   2926805301.2421155     
   3220932657.3953104     
   2000144274.3882875     
   2275494337.6756363     
   2583746026.7530122     
   2895920119.6236668     
   3210270376.6618319     
   3911041670.4047589     
   3797622138.1066904     
   3799236900.2106500     
   3838268614.8290496     
   3909372330.3410416     
   6606700861.5604973     
   5999886648.3280354     
   5594657883.3084936     
   5232061699.8692102     
   4851273088.7894497     
   9994217150.4075089     
   8689622412.8219757     
   7699425174.4714842     
   6788834107.1008711     
   5804923486.5117617     
   3220932657.3953104     
   2713229659.8076568     
   2445019731.0782242     
   2416302871.2070169     
   2627079080.1940269     
   3210270376.6618319     
   2738808224.4111118     
   2433409176.9480648     
   2316549286.8646784     
   2419177787.7931399     
   3909372330.3410416     
   3346405043.2022767     
   2886364908.2796760     
   2568088964.4951329     
   2463294126.1394749     
   4851273088.7894497     
   4173716312.6581249     
   3575904194.7305632     
   3090564248.7940745     
   2794950099.1567159     
   5804923486.5117617     
   5030369027.6474638     
   4348199185.6284122     
   3776789166.0967197     
   3378283118.0296526     
 </DataArray>
 <DataArray  type="Float64" Name="strain" NumberOfComponents="3" format="ascii">
  0.16080438740868919        0.0000000000000000        8.3271882402967470E-002
  0.14455172854446680       -2.1338420504547592E-002   4.7856581028686694E-002
  0.12829906968024440       -3.3761844087887426E-002   2.3812339423947369E-002
  0.11204641081602203       -3.7270270750019478E-002   1.1139157588749475E-002
   9.5793751951799649E-002  -3.1863700490943787E-002   9.8370355230930559E-003
  0.10485853219828670        0.0000000000000000        6.0700453308465116E-002
   9.8149959340234266E-002  -1.6003815378404545E-002   4.1755306049012841E-002
   9.1441386482181863E-002  -2.5321383065911703E-002   3.0527271032359110E-002
   8.4732813624129460E-002  -2.7952703062521470E-002   2.7016348258503846E-002
   7.8024240766077044E-002  -2.3897775368233821E-002   3.1222537727447094E-002
   5.9409182560031575E-002   0.0000000000000000        4.4578003955260986E-002
   5.8590748181406208E-002  -1.0669210252261500E-002   3.9874261580326850E-002
   5.7772313802780841E-002  -1.6880922043935983E-002   3.9233683921448277E-002
   5.6953879424155474E-002  -1.8635135375023450E-002   4.2656270978625288E-002
   5.6135445045530100E-002  -1.5931850245523894E-002   5.0142022751857862E-002
   2.4456338493923865E-002   0.0000000000000000        3.4904534343355095E-002
   2.5874095067982602E-002  -5.3346051261184552E-003   4.2213447622628721E-002
   2.7291851642041343E-002  -8.4404610219602615E-003   4.9931578091214970E-002
   2.8709608216100076E-002  -9.3175676875254156E-003   5.8058925749113872E-002
   3.0127364790158814E-002  -7.9659251228139331E-003   6.6595490596325413E-002
  -3.6453479124176624E-014   0.0000000000000000        3.1680044472747436E-002
  -3.6543684744927418E-014   2.4592307357185206E-014   4.8772864175918453E-002
  -3.6636492450892177E-014   1.5456386170953351E-014   6.2620953541659155E-002
  -3.6731468561201908E-014  -2.7403426750005622E-014   7.3224312569969557E-002
  -3.6819505777607731E-014  -1.0398279459700177E-013   8.0582941260849694E-002
   9.5793751951799649E-002  -3.1863700490943787E-002   9.8370355230930559E-003
   8.3213415775210756E-002  -2.3826541478905037E-002   1.8073163032875560E-002
   7.0633079598621848E-002  -1.9443201882147876E-002   2.6607698494092540E-002
   5.8052743422032940E-002  -1.8713681700672308E-002   3.5440641906743828E-002
   4.5472407245444046E-002  -2.1637980934478329E-002   4.4571993270829835E-002
   7.8024240766077044E-002  -2.3897775368233821E-002   3.1222537727447094E-002
   6.6453981564104356E-002  -1.7869906109233901E-002   3.2853957737209782E-002
   5.4883722362131619E-002  -1.4582401411706638E-002   3.6207123744770489E-002
   4.3313463160158938E-002  -1.4035261275652029E-002   4.1282035750128981E-002
   3.1743203958186222E-002  -1.6228485701070161E-002   4.8078693753285412E-002
   5.6135445045530100E-002  -1.5931850245523894E-002   5.0142022751857862E-002
   4.6998600864537027E-002  -1.1913270739562736E-002   4.6082190115409739E-002
   3.7861756683543947E-002  -9.7216009412653681E-003   4.5167441523122923E-002
   2.8724912502550871E-002  -9.3568408506318063E-003   4.7397776974997467E-002
   1.9588068321557794E-002  -1.0818990467661993E-002   5.2773196471033401E-002
   3.0127364790158814E-002  -7.9659251228139331E-003   6.6595490596325413E-002
   2.4847273676508824E-002  -5.9566353698915714E-003   5.7757860167475285E-002
   1.9567182562858831E-002  -4.8608004708240865E-003   5.3488651829149997E-002
   1.4287091449208835E-002  -4.6784204256115278E-003   5.3787865581349445E-002
   9.0070003355588353E-003  -5.4094952342538805E-003   5.8655501424073796E-002
  -3.6819505777607731E-014  -1.0398279459700177E-013   8.0582941260849694E-002
   1.9720336474904343E-014  -2.2041483221935110E-013   6.7880967893406516E-002
   7.6250637748298544E-014  -3.8282831765767966E-013   6.1170754662851566E-002
   1.3278570951125168E-013  -5.9130716816013784E-013   6.0452301569184935E-002
   1.8932078127420482E-013  -8.4571238900821299E-013   6.5725608612406422E-002
  -3.6453479124176624E-014   0.0000000000000000        3.1680044472747436E-002
  -3.6543684744927418E-014   2.4592307357185206E-014   4.8772864175918453E-002
  -3.6636492450892177E-014   1.5456386170953351E-014   6.2620953541659155E-002
  -3.6731468561201908E-014  -2.7403426750005622E-014   7.3224312569969557E-002
  -3.6819505777607731E-014  -1.0398279459700177E-013   8.0582941260849694E-002
  -2.4456338493985600E-002   0.0000000000000000        3.4904534343425428E-002
  -2.5874095068042523E-002   5.3346051261509196E-003   4.2213447622664386E-002
  -2.7291851642099449E-002   8.4404610219746302E-003   4.9931578091219987E-002
  -2.8709608216156365E-002   9.3175676874711344E-003   5.8058925749092216E-002
  -3.0127364790213287E-002   7.9659251226404243E-003   6.6595490596281073E-002
  -5.9409182560059788E-002   0.0000000000000000        4.4578003955376484E-002
  -5.8590748181426622E-002   1.0669210252277241E-002   3.9874261580389918E-002
  -5.7772313802793442E-002   1.6880922043933797E-002   3.9233683921466915E-002
  -5.6953879424160248E-002   1.8635135374969660E-002   4.2656270978607476E-002
  -5.6135445045527081E-002   1.5931850245384849E-002   5.0142022751811607E-002
 -0.10485853219825904        0.0000000000000000        6.0700453308600598E-002
  -9.8149959340188817E-002   1.6003815378403570E-002   4.1755306049095026E-002
  -9.1441386482118622E-002   2.5321383065892954E-002   3.0527271032399925E-002
  -8.4732813624048400E-002   2.7952703062468186E-002   2.7016348258515361E-002
  -7.8024240765978192E-002   2.3897775368129245E-002   3.1222537727441279E-002
 -0.16080438740858333        0.0000000000000000        8.3271882403097783E-002
 -0.14455172854432916        2.1338420504529890E-002   4.7856581028779703E-002
 -0.12829906968007498        3.3761844087852134E-002   2.3812339424019058E-002
 -0.11204641081582078        3.7270270749966708E-002   1.1139157588815840E-002
  -9.5793751951566614E-002   3.1863700490873670E-002   9.8370355231700707E-003
  -3.6819505777607731E-014  -1.0398279459700177E-013   8.0582941260849694E-002
   1.9720336474904343E-014  -2.2041483221935110E-013   6.7880967893406516E-002
   7.6250637748298544E-014  -3.8282831765767966E-013   6.1170754662851566E-002
   1.3278570951125168E-013  -5.9130716816013784E-013   6.0452301569184935E-002
   1.8932078127420482E-013  -8.4571238900821299E-013   6.5725608612406422E-002
  -3.0127364790213287E-002   7.9659251226404243E-003   6.6595490596281073E-002
  -2.4847273676457948E-002   5.9566353695377581E-003   5.7757860167379778E-002
  -1.9567182562702588E-002   4.8608004702183003E-003   5.3488651828987835E-002
  -1.4287091448947239E-002   4.6784204246820994E-003   5.3787865581105265E-002
  -9.0070003351918823E-003   5.4094952329291901E-003   5.8655501423732076E-002
  -5.6135445045527081E-002   1.5931850245384849E-002   5.0142022751811607E-002
  -4.6998600864451796E-002   1.1913270739295958E-002   4.6082190115281432E-002
  -3.7861756683376498E-002   9.7216009408194626E-003   4.5167441522881699E-002
  -2.8724912502301216E-002   9.3568408499555538E-003   4.7397776974612560E-002
  -1.9588068321225904E-002   1.0818990466704120E-002   5.2773196470473897E-002
  -7.8024240765978192E-002   2.3897775368129245E-002   3.1222537727441279E-002
  -6.6453981563961831E-002   1.7869906109054080E-002   3.2853957737111417E-002
  -5.4883722361945456E-002   1.4582401411420679E-002   3.6207123744533234E-002
  -4.3313463159929122E-002   1.4035261275228986E-002   4.1282035749706632E-002
  -3.1743203957912747E-002   1.6228485700478953E-002   4.8078693752631671E-002
  -9.5793751951566614E-002   3.1863700490873670E-002   9.8370355231700707E-003
  -8.3213415774988087E-002   2.3826541478812278E-002   1.8073163032869811E-002
  -7.0633079598409518E-002   1.9443201882021796E-002   2.6607698493942376E-002
  -5.8052743421830984E-002   1.8713681700502308E-002   3.5440641906387571E-002
  -4.5472407245252422E-002   2.1637980934253953E-002   4.4571993270205640E-002
 </DataArray>
 </PointData>
 </Piece>
 <Piece  NumberOfPoints="           100 "  NumberOfCells="           64 ">
 <Points>
 <DataArray  type="Float64" NumberOfComponents="3"  format="ascii" >
  0.50000000000000000        0.0000000000000000        0.0000000000000000     
  0.62500000000000000        0.0000000000000000        0.0000000000000000     
  0.75000000000000000        0.0000000000000000        0.0000000000000000     
  0.87500000000000000        0.0000000000000000        0.0000000000000000     
   1.0000000000000000        0.0000000000000000        0.0000000000000000     
  0.50000000000000000       0.12500000000000000        0.0000000000000000     
  0.62500000000000000       0.12500000000000000        0.0000000000000000     
  0.75000000000000000       0.12500000000000000        0.0000000000000000     
  0.87500000000000000       0.12500000000000000        0.0000000000000000     
   1.0000000000000000       0.12500000000000000        0.0000000000000000     
  0.50000000000000000       0.25000000000000000        0.0000000000000000     
  0.62500000000000000       0.25000000000000000        0.0000000000000000     
  0.75000000000000000       0.25000000000000000        0.0000000000000000     
  0.87500000000000000       0.25000000000000000        0.0000000000000000     
   1.0000000000000000       0.25000000000000000        0.0000000000000000     
  0.50000000000000000       0.37500000000000000        0.0000000000000000     
  0.62500000000000000       0.37500000000000000        0.0000000000000000     
  0.75000000000000000       0.37500000000000000        0.0000000000000000     
  0.87500000000000000       0.37500000000000000        0.0000000000000000     
   1.0000000000000000       0.37500000000000000        0.0000000000000000     
  0.50000000000000000       0.50000000000000000        0.0000000000000000     
  0.62500000000000000       0.50000000000000000        0.0000000000000000     
  0.75000000000000000       0.50000000000000000        0.0000000000000000     
  0.87500000000000000       0.50000000000000000        0.0000000000000000     
   1.0000000000000000       0.50000000000000000        0.0000000000000000     
   1.0000000000000000        0.0000000000000000        0.0000000000000000     
   1.1250000000000000        0.0000000000000000        0.0000000000000000     
   1.2500000000000000        0.0000000000000000        0.0000000000000000     
   1.3750000000000000        0.0000000000000000        0.0000000000000000     
   1.5000000000000000        0.0000000000000000        0.0000000000000000     
   1.0000000000000000       0.12500000000000000        0.0000000000000000     
   1.1250000000000000       0.12500000000000000        0.0000000000000000     
   1.2500000000000000       0.12500000000000000        0.0000000000000000     
   1.3750000000000000       0.12500000000000000        0.0000000000000000     
   1.5000000000000000       0.12500000000000000        0.0000000000000000     
   1.0000000000000000       0.25000000000000000        0.0000000000000000     
   1.1250000000000000       0.25000000000000000        0.0000000000000000     
   1.2500000000000000       0.25000000000000000        0.0000000000000000     
   1.3750000000000000       0.25000000000000000        0.0000000000000000     
   1.5000000000000000       0.25000000000000000        0.0000000000000000     
   1.0000000000000000       0.37500000000000000        0.0000000000000000     
   1.1250000000000000       0.37500000000000000        0.0000000000000000     
   1.2500000000000000       0.37500000000000000        0.0000000000000000     
   1.3750000000000000       0.37500000000000000        0.0000000000000000     
   1.5000000000000000       0.37500000000000000        0.0000000000000000     
   1.0000000000000000       0.50000000000000000        0.0000000000000000     
   1.1250000000000000       0.50000000000000000        0.0000000000000000     
   1.2500000000000000       0.50000000000000000        0.0000000000000000     
   1.3750000000000000       0.50000000000000000        0.0000000000000000     
   1.5000000000000000       0.50000000000000000        0.0000000000000000     
  0.50000000000000000       0.50000000000000000        0.0000000000000000     
  0.62500000000000000       0.50000000000000000        0.0000000000000000     
  0.75000000000000000       0.50000000000000000        0.0000000000000000     
  0.87500000000000000       0.50000000000000000        0.0000000000000000     
   1.0000000000000000       0.50000000000000000        0.0000000000000000     
  0.50000000000000000       0.62500000000000000        0.0000000000000000     
  0.62500000000000000       0.62500000000000000        0.0000000000000000     
  0.75000000000000000       0.62500000000000000        0.0000000000000000     
  0.87500000000000000       0.62500000000000000        0.0000000000000000     
   1.0000000000000000       0.62500000000000000        0.0000000000000000     
  0.50000000000000000       0.75000000000000000        0.0000000000000000     
  0.62500000000000000       0.75000000000000000        0.0000000000000000     
  0.75000000000000000       0.75000000000000000        0.0000000000000000     
  0.87500000000000000       0.75000000000000000        0.0000000000000000     
   1.0000000000000000       0.75000000000000000        0.0000000000000000     
  0.50000000000000000       0.87500000000000000        0.0000000000000000     
  0.62500000000000000       0.87500000000000000        0.0000000000000000     
  0.75000000000000000       0.87500000000000000        0.0000000000000000     
  0.87500000000000000       0.87500000000000000        0.0000000000000000     
   1.0000000000000000       0.87500000000000000        0.0000000000000000     
  0.50000000000000000        1.0000000000000000        0.0000000000000000     
  0.62500000000000000        1.0000000000000000        0.0000000000000000     
  0.75000000000000000        1.0000000000000000        0.0000000000000000     
  0.87500000000000000        1.0000000000000000        0.0000000000000000     
   1.0000000000000000        1.0000000000000000        0.0000000000000000     
   1.0000000000000000       0.50000000000000000        0.0000000000000000     
   1.1250000000000000       0.50000000000000000        0.0000000000000000     
   1.2500000000000000       0.50000000000000000        0.0000000000000000     
   1.3750000000000000       0.50000000000000000        0.0000000000000000     
   1.5000000000000000       0.50000000000000000        0.0000000000000000     
   1.0000000000000000       0.62500000000000000        0.0000000000000000     
   1.1250000000000000       0.62500000000000000        0.0000000000000000     
   1.2500000000000000       0.62500000000000000        0.0000000000000000     
   1.3750000000000000       0.62500000000000000        0.0000000000000000     
   1.5000000000000000       0.62500000000000000        0.0000000000000000     
   1.0000000000000000       0.75000000000000000        0.0000000000000000     
   1.1250000000000000       0.75000000000000000        0.0000000000000000     
   1.2500000000000000       0.75000000000000000        0.0000000000000000     
   1.3750000000000000       0.75000000000000000        0.0000000000000000     
   1.5000000000000000       0.75000000000000000        0.0000000000000000     
   1.0000000000000000       0.87500000000000000        0.0000000000000000     
   1.1250000000000000       0.87500000000000000        0.0000000000000000     
   1.2500000000000000       0.87500000000000000        0.0000000000000000     
   1.3750000000000000       0.87500000000000000        0.0000000000000000     
   1.5000000000000000       0.87500000000000000        0.0000000000000000     
   1.0000000000000000        1.0000000000000000        0.0000000000000000     
   1.1250000000000000        1.0000000000000000        0.0000000000000000     
   1.2500000000000000        1.0000000000000000        0.0000000000000000     
   1.3750000000000000        1.0000000000000000        0.0000000000000000     
   1.5000000000000000        1.0000000000000000        0.0000000000000000     
 </DataArray>
 </Points>
 <Cells>
 <DataArray  type="Int32"  Name="connectivity"  format="ascii">
           0           1           6           5
           1           2           7           6
           2           3           8           7
           3           4           9           8
           5           6          11          10
           6           7          12          11
           7           8          13          12
           8           9          14          13
          10          11          16          15
          11          12          17          16
          12          13          18          17
          13          14          19          18
          15          16          21          20
          16          17          22          21
          17          18          23          22
          18          19          24          23
          25          26          31          30
          26          27          32          31
          27          28          33          32
          28          29          34          33
          30          31          36          35
          31          32          37          36
          32          33          38          37
          33          34          39          38
          35          36          41          40
          36          37          42          41
          37          38          43          42
          38          39          44          43
          40          41          46          45
          41          42          47          46
          42          43          48          47
          43          44          49          48
          50          51          56          55
          51          52          57          56
          52          53          58          57
          53          54          59          58
          55          56          61          60
          56          57          62          61
          57          58          63          62
          58          59          64          63
          60          61          66          65
          61          62          67          66
          62          63          68          67
          63          64          69          68
          65          66          71          70
          66          67          72          71
          67          68          73          72
          68          69          74          73
          75          76          81          80
          76          77          82          81
          77          78          83          82
          78          79          84          83
          80          81          86          85
          81          82          87          86
          82          83          88          87
          83          84          89          88
          85          86          91          90
          86          87          92          91
          87          88          93          92
          88          89          94          93
          90          91          96          95
          91          92          97          96
          92          93          98          97
          93          94          99          98
 </DataArray>
 <DataArray  type="Int32"  Name="offsets"  format="ascii"> 
           4
           8
          12
          16
          20
          24
          28
          32
          36
          40
          44
          48
          52
          56
          60
          64
          68
          72
          76
          80
          84
          88
          92
          96
         100
         104
         108
         112
         116
         120
         124
         128
         132
         136
         140
         144
         148
         152
         156
         160
         164
         168
         172
         176
         180
         184
         188
         192
         196
         200
         204
         208
         212
         216
         220
         224
         228
         232
         236
         240
         244
         248
         252
         256
 </DataArray>
 <DataArray  type="UInt8"  Name="types"  format="ascii">
 9
 9
 9
 9
 9
 9
 9
 9
 9
 9
 9
 9
 9
 9
 9
 9
 9
 9
 9
 9
 9
 9
 9
 9
 9
 9
 9
 9
 9
 9
 9
 9
 9
 9
 9
 9
 9
 9
 9
 9
 9
 9
 9
 9
 9
 9
 9
 9
 9
 9
 9
 9
 9
 9
 9
 9
 9
 9
 9
 9
 9
 9
 9
 9
 </DataArray>
 </Cells> 
 <PointData>
 <DataArray  type="Float64" Name="disp" NumberOfComponents="3" format="ascii">
   7.0288107275563644E-002   6.0403126770733860E-002   0.0000000000000000     
   7.9886387724399766E-002   8.3763664307405505E-002   0.0000000000000000     
   8.8513184661668937E-002  0.10915372467441410        0.0000000000000000     
   9.6168498087371171E-002  0.13657330787175967        0.0000000000000000     
  0.10285232800150643       0.16602241389944222        0.0000000000000000     
   4.6805617420478313E-002   5.7802857764972654E-002   0.0000000000000000     
   5.5160576738169070E-002   8.1096568262913546E-002   0.0000000000000000     
   6.2474263893328233E-002  0.10665075929642459        0.0000000000000000     
   6.8746678885955786E-002  0.13446543086550580        0.0000000000000000     
   7.3977821716051745E-002  0.16454058297015717        0.0000000000000000     
   2.7263436256192410E-002   5.5945522760887892E-002   0.0000000000000000     
   3.3604241788692119E-002   7.9191499659726328E-002   0.0000000000000000     
   3.9042426193600911E-002  0.10486292688358888        0.0000000000000000     
   4.3577989470918767E-002  0.13295980443247554        0.0000000000000000     
   4.7210931620645692E-002  0.16348213230638634        0.0000000000000000     
   1.1661563782705952E-002   5.4831121758479588E-002   0.0000000000000000     
   1.5217382875968941E-002   7.8048458497843837E-002   0.0000000000000000     
   1.8217671562486992E-002  0.10379022743590695        0.0000000000000000     
   2.0662429842260098E-002  0.13205642857266892        0.0000000000000000     
   2.2551657715288272E-002  0.16284706190812975        0.0000000000000000     
   1.8932772016810873E-014   5.4459654757747722E-002   0.0000000000000000     
  -4.8572257327350599E-016   7.7667444777266101E-002   0.0000000000000000     
  -1.3529108389143119E-014  0.10343266095337882        0.0000000000000000     
  -2.0199120154273942E-014  0.13175530328608587        0.0000000000000000     
  -2.0497492592141953E-014  0.16263537177538734        0.0000000000000000     
  0.10285232800150643       0.16602241389944222        0.0000000000000000     
  0.10836822132876822       0.19725565779883122        0.0000000000000000     
  0.11251972499385003       0.23002765461129615        0.0000000000000000     
  0.11530683899675187       0.26433840433683709        0.0000000000000000     
  0.11672956333747368       0.30018790697545394        0.0000000000000000     
   7.3977821716051745E-002  0.16454058297015717        0.0000000000000000     
   7.8135415002735437E-002  0.19629390021401574        0.0000000000000000     
   8.1187181365126232E-002  0.22914306720071856        0.0000000000000000     
   8.3133120803224145E-002  0.26308808393026567        0.0000000000000000     
   8.3973233317029133E-002  0.29812895040265708        0.0000000000000000     
   4.7210931620645692E-002  0.16348213230638634        0.0000000000000000     
   4.9996442672593552E-002  0.19560693051057754        0.0000000000000000     
   5.1989712656574226E-002  0.22851121905030547        0.0000000000000000     
   5.3190741572587706E-002  0.26219499792557005        0.0000000000000000     
   5.3599529420634007E-002  0.29665826713637133        0.0000000000000000     
   2.2551657715288272E-002  0.16284706190812975        0.0000000000000000     
   2.3951304338342555E-002  0.19519474868851661        0.0000000000000000     
   2.4927318868193986E-002  0.22813211016005677        0.0000000000000000     
   2.5479701304842561E-002  0.26165914632275017        0.0000000000000000     
   2.5608451648288299E-002  0.29577585717659682        0.0000000000000000     
  -2.0497492592141953E-014  0.16263537177538734        0.0000000000000000     
  -1.7548462682981381E-014  0.19505735474783292        0.0000000000000000     
  -1.4479736853978409E-014  0.22800574052997249        0.0000000000000000     
  -1.1295218232953985E-014  0.26148052912180603        0.0000000000000000     
  -7.9901363303491735E-015  0.29548172052333355        0.0000000000000000     
   1.8932772016810873E-014   5.4459654757747722E-002   0.0000000000000000     
  -4.8572257327350599E-016   7.7667444777266101E-002   0.0000000000000000     
  -1.3529108389143119E-014  0.10343266095337882        0.0000000000000000     
  -2.0199120154273942E-014  0.13175530328608587        0.0000000000000000     
  -2.0497492592141953E-014  0.16263537177538734        0.0000000000000000     
  -1.1661563782658290E-002   5.4831121758669291E-002   0.0000000000000000     
  -1.5217382875959336E-002   7.8048458497977119E-002   0.0000000000000000     
  -1.8217671562503451E-002  0.10379022743599425        0.0000000000000000     
  -2.0662429842290664E-002  0.13205642857272068        0.0000000000000000     
  -2.2551657715320948E-002  0.16284706190815645        0.0000000000000000     
  -2.7263436256115370E-002   5.5945522761221243E-002   0.0000000000000000     
  -3.3604241788650777E-002   7.9191499659960946E-002   0.0000000000000000     
  -3.9042426193585597E-002  0.10486292688374303        0.0000000000000000     
  -4.3577989470919794E-002  0.13295980443256755        0.0000000000000000     
  -4.7210931620653394E-002  0.16348213230643444        0.0000000000000000     
  -4.6805617420352295E-002   5.7802857765403601E-002   0.0000000000000000     
  -5.5160576738074833E-002   8.1096568263217594E-002   0.0000000000000000     
  -6.2474263893259926E-002  0.10665075929662521        0.0000000000000000     
  -6.8746678885907603E-002  0.13446543086562648        0.0000000000000000     
  -7.3977821716017855E-002  0.16454058297022131        0.0000000000000000     
  -7.0288107275369077E-002   6.0403126771216349E-002   0.0000000000000000     
  -7.9886387724231470E-002   8.3763664307747052E-002   0.0000000000000000     
  -8.8513184661526467E-002  0.10915372467464075        0.0000000000000000     
  -9.6168498087254084E-002  0.13657330787189739        0.0000000000000000     
 -0.10285232800141429       0.16602241389951708        0.0000000000000000     
  -2.0497492592141953E-014  0.16263537177538734        0.0000000000000000     
  -1.7548462682981381E-014  0.19505735474783292        0.0000000000000000     
  -1.4479736853978409E-014  0.22800574052997249        0.0000000000000000     
  -1.1295218232953985E-014  0.26148052912180603        0.0000000000000000     
  -7.9901363303491735E-015  0.29548172052333355        0.0000000000000000     
  -2.2551657715320948E-002  0.16284706190815645        0.0000000000000000     
  -2.3951304338371067E-002  0.19519474868852593        0.0000000000000000     
  -2.4927318868217758E-002  0.22813211016005353        0.0000000000000000     
  -2.5479701304861036E-002  0.26165914632273923        0.0000000000000000     
  -2.5608451648300886E-002  0.29577585717658306        0.0000000000000000     
  -4.7210931620653394E-002  0.16348213230643444        0.0000000000000000     
  -4.9996442672602309E-002  0.19560693051059508        0.0000000000000000     
  -5.1989712656582462E-002  0.22851121905030070        0.0000000000000000     
  -5.3190741572593819E-002  0.26219499792555134        0.0000000000000000     
  -5.3599529420636421E-002  0.29665826713634702        0.0000000000000000     
  -7.3977821716017855E-002  0.16454058297022131        0.0000000000000000     
  -7.8135415002711289E-002  0.19629390021404033        0.0000000000000000     
  -8.1187181365108579E-002  0.22914306720071401        0.0000000000000000     
  -8.3133120803209656E-002  0.26308808393024236        0.0000000000000000     
  -8.3973233317014603E-002  0.29812895040262527        0.0000000000000000     
 -0.10285232800141429       0.16602241389951708        0.0000000000000000     
 -0.10836822132869800       0.19725565779886176        0.0000000000000000     
 -0.11251972499379607       0.23002765461129343        0.0000000000000000     
 -0.11530683899670856       0.26433840433681222        0.0000000000000000     
 -0.11672956333743542       0.30018790697541803        0.0000000000000000     
 </DataArray>
 <DataArray  type="Float64" Name="stress" NumberOfComponents="3" format="ascii">
   4848791948.6451550        28204301.425819397       -573575645.35050452     
   4324275567.5653734       -165810016.99966121       -357276932.81860864     
   3841527361.7489810       -220597084.54717684       -173102865.31759906     
   3400547331.1959772       -136156901.21673441       -21053442.847478710     
   3001335475.9063635        87510532.991679072        98871334.591754034     
   4328943189.8793850        228857994.60078311        120209486.85603729     
   3770636592.1440449        33871462.200210810        236838978.06870466     
   3243656125.8564787       -56694632.041110039        359824997.03300565     
   2748001791.0166883       -42840288.123181939        489167543.74893963     
   2283673587.6246719        75434493.953992009        624866618.21650600     
   3347528278.8507528        291041842.09688926        823610753.98895824     
   2865377672.4099140        128066958.10624647        828388639.43084800     
   2404111153.6012335        34705699.556135178        878004225.40689182     
   1963728722.4247141        10958066.446558237        972457511.91708875     
   1544230378.8803566        56824058.777522504        1111748498.9614379     
   1904547215.5592608        214755843.91413796        1536628156.0482626     
   1608498808.3629808        116776470.71843857        1417372051.2678237     
   1322892444.9832463        53603910.244557142        1381434819.8040590     
   1047728125.4200579        25238162.492497206        1428816461.6569681     
   783005849.67341590        31679227.462259710        1559516976.8265514     
   4.9077042795964507E-003   5.2527304850047536E-002   2259261693.0339484     
   3.2460755695128910E-003   3.6789756223139493E-002   2003789213.5796297     
   2.5154557923802766E-003   2.4156958484848716E-002   1870116780.2245061     
   2.7164339916646270E-003   1.4628099555833707E-002   1858244392.9685783     
   3.8494848334599176E-003   8.2075372139692824E-003   1968172051.8118455     
   3001335475.9063635        87510532.991679072        98871334.591754034     
   2375711492.8460178        185120715.61184335        133457913.59053706     
   1669989479.6275408        15737464.371569872        210700094.80490792     
   884169436.25092506       -420639220.72916573        330597878.23486888     
   18251362.716174245       -1124009339.6903527        493151263.88041514     
   2283673587.6246719        75434493.953992009        624866618.21650600     
   1770920825.3006787        135581698.40932614        575142053.02031279     
   1198094540.3581932       -4516172.5303130150        578231204.21299708     
   565194732.79721940       -344859118.86491692        634134071.79455054     
  -127778597.38225111       -885447140.59450173        742850655.76497996     
   1544230378.8803566        56824058.777522504        1111748498.9614379     
   1173372020.6449564        88215240.073691607        1001074715.0331904     
   762464647.33070970       -13890295.559626222        953372761.66709507     
   311508258.93761331       -249492548.12244308        968642638.86316669     
  -179497144.53432855       -618591517.61474633        1046884346.6213919     
   783005849.67341590        31679227.462259710        1559516976.8265514     
   583065078.87885344        43021340.604944080        1411255899.6291621     
   363099800.54508770       -12384904.716382876        1336124767.1672161     
   123110014.67211685       -134539508.50172728        1334123579.4407153     
  -136904278.74005872       -323442470.75108665        1405252336.4496582     
   3.8494848334599176E-003   8.2075372139692824E-003   1968172051.8118455     
   2.3672913446365169E-003   3.0774604476479449E-003   1805685606.8082333     
   1.3245814701489367E-003  -5.8767093755398908E-004   1726487220.7133491     
   7.2201859875502370E-004  -2.7849517563866429E-003   1730576893.5271947     
   5.5761256418123935E-004  -3.5230975645996481E-003   1817954625.2497714     
   4.9077042795964507E-003   5.2527304850047536E-002   2259261693.0339484     
   3.2460755695128910E-003   3.6789756223139493E-002   2003789213.5796297     
   2.5154557923802766E-003   2.4156958484848716E-002   1870116780.2245061     
   2.7164339916646270E-003   1.4628099555833707E-002   1858244392.9685783     
   3.8494848334599176E-003   8.2075372139692824E-003   1968172051.8118455     
  -1904547215.5561163       -214755843.83318973        1536628156.0404954     
  -1608498808.3613291       -116776470.66163385        1417372051.2622766     
  -1322892444.9816408       -53603910.207073510        1381434819.8004482     
  -1047728125.4170532       -25238162.469516397        1428816461.6550100     
  -783005849.66756642       -31679227.448957443        1559516976.8259623     
  -3347528278.8530440       -291041842.03967834        823610753.97627723     
  -2865377672.4126782       -128066958.06608784        828388639.42212129     
  -2404111153.6034446       -34705699.529601216        878004225.40155077     
  -1963728722.4253421       -10958066.430222511        972457511.91456628     
  -1544230378.8783669       -56824058.767938673        1111748498.9611664     
  -4328943189.8858786       -228857994.56693769        120209486.84129158     
  -3770636592.1508031       -33871462.176571846        236838978.05916157     
  -3243656125.8628912        56694632.056580544        359824997.02781302     
  -2748001791.0221424        42840288.132527590        489167543.74724525     
  -2283673587.6285553       -75434493.948734999        624866618.21745765     
  -4848791948.6546173       -28204301.414970398       -573575645.36445940     
  -4324275567.5757036        165810017.00690579       -357276932.82659954     
  -3841527361.7599850        220597084.55146909       -173102865.32076401     
  -3400547331.2074647        136156901.21870589       -21053442.846950646     
  -3001335475.9181304       -87510532.991350651        98871334.594837472     
   3.8494848334599176E-003   8.2075372139692824E-003   1968172051.8118455     
   2.3672913446365169E-003   3.0774604476479449E-003   1805685606.8082333     
   1.3245814701489367E-003  -5.8767093755398908E-004   1726487220.7133491     
   7.2201859875502370E-004  -2.7849517563866429E-003   1730576893.5271947     
   5.5761256418123935E-004  -3.5230975645996481E-003   1817954625.2497714     
  -783005849.66756642       -31679227.448957443        1559516976.8259623     
  -583065078.87512088       -43021340.599618524        1411255899.6288276     
  -363099800.54281628        12384904.715919778        1336124767.1672618     
  -123110014.67064607        134539508.49767616        1334123579.4412618     
   136904278.74138555        323442470.74563611        1405252336.4508333     
  -1544230378.8783669       -56824058.767938673        1111748498.9611664     
  -1173372020.6438851       -88215240.069704413        1001074715.0331695     
  -762464647.33012021        13890295.559476614        953372761.66758180     
  -311508258.93706447        249492548.11962140        968642638.86439836     
   179497144.53527689        618591517.61072087        1046884346.6236250     
  -2283673587.6285553       -75434493.948734999        624866618.21745765     
  -1770920825.3039258       -135581698.40717787        575142053.02126110     
  -1198094540.3605847        4516172.5300861597        578231204.21431088     
  -565194732.79853225        344859118.86305380        634134071.79660439     
   127778597.38222840        885447140.59171546        742850655.76814950     
  -3001335475.9181304       -87510532.991350651        98871334.594837472     
  -2375711492.8552341       -185120715.61201608        133457913.59309974     
  -1669989479.6342134       -15737464.372259855        210700094.80744740     
  -884169436.25504708        420639220.72797388        330597878.23788190     
  -18251362.717753947        1124009339.6886399        493151263.88440299     
 </DataArray>
 <DataArray  type="Float64" Name="VM" NumberOfComponents="1" format="ascii">
   4935766315.0732803     
   4452729586.6156425     
   3967785161.3879404     
   3470821024.3221564     
   2963503144.5144491     
   4224306194.8573112     
   3776163226.8432970     
   3331191876.8064489     
   2896364787.0701113     
   2493985270.1926827     
   3514453607.1866512     
   3149367136.8684573     
   2830228405.0147200     
   2582992981.4315457     
   2451138750.4028449     
   3216844073.6409512     
   2905150760.5920587     
   2721597339.1382480     
   2682625188.1824136     
   2808126834.1529713     
   3913156039.9288793     
   3470664725.5784030     
   3239137279.4359641     
   3218573701.5015645     
   3408973991.7752013     
   2963503144.5144491     
   2300416138.2337279     
   1701768115.7453172     
   1287825360.8130431     
   1419098064.7255316     
   2493985270.1926827     
   1976563597.9248793     
   1563302818.2918227     
   1356341962.1974974     
   1530582929.9211614     
   2451138750.4028449     
   2070634271.9449732     
   1821783468.5031309     
   1746942644.0813394     
   1895188588.2725720     
   2808126834.1529713     
   2508318385.5556498     
   2343540054.6536317     
   2321524777.2929759     
   2450159085.1498790     
   3408973991.7752013     
   3127539213.4876986     
   2990363584.8939028     
   2997447105.9938169     
   3148789776.7874422     
   3913156039.9288793     
   3470664725.5784030     
   3239137279.4359641     
   3218573701.5015645     
   3408973991.7752013     
   3216844073.6466222     
   2905150760.5965004     
   2721597339.1403565     
   2682625188.1823969     
   2808126834.1520963     
   3514453607.2023325     
   3149367136.8806658     
   2830228405.0225582     
   2582992981.4353132     
   2451138750.4040418     
   4224306194.8780394     
   3776163226.8598094     
   3331191876.8188596     
   2896364787.0790391     
   2493985270.1991429     
   4935766315.0926809     
   4452729586.6315784     
   3967785161.4016304     
   3470821024.3346705     
   2963503144.5266576     
   3408973991.7752013     
   3127539213.4876986     
   2990363584.8939028     
   2997447105.9938169     
   3148789776.7874422     
   2808126834.1520963     
   2508318385.5547771     
   2343540054.6533136     
   2321524777.2934551     
   2450159085.1513205     
   2451138750.4040418     
   2070634271.9453187     
   1821783468.5036135     
   1746942644.0825965     
   1895188588.2750845     
   2493985270.1991429     
   1976563597.9293199     
   1563302818.2950292     
   1356341962.2002301     
   1530582929.9242854     
   2963503144.5266576     
   2300416138.2432456     
   1701768115.7524455     
   1287825360.8180685     
   1419098064.7289672     
 </DataArray>
 <DataArray  type="Float64" Name="strain" NumberOfComponents="3" format="ascii">
   8.0672177636956832E-002  -2.3773888052795455E-002  -2.4854944631855197E-002
   7.2900309544421199E-002  -2.4384878121154557E-002  -1.5482000422139708E-002
   6.5128441451885566E-002  -2.2884254884531184E-002  -7.5011241637626264E-003
   5.7356573359349960E-002  -1.9272018342925461E-002  -9.1231585672407745E-004
   4.9584705266814327E-002  -1.3548168496337165E-002   4.2844244989760083E-003
   7.1004763191652498E-002  -1.7830416039383873E-002   5.2090777637616159E-003
   6.2674585891399695E-002  -1.8288658590716711E-002   1.0263022382977202E-002
   5.4344408591146864E-002  -1.7163191163300895E-002   1.5592416538096912E-002
   4.6014231290894048E-002  -1.4454013757136473E-002   2.1197260229120718E-002
   3.7684053990641245E-002  -1.0161126372223495E-002   2.7077553456048592E-002
   5.4336928770361434E-002  -1.1886944025972276E-002   3.5689799339521523E-002
   4.7115959749634000E-002  -1.2192439060278795E-002   3.5896841042003413E-002
   3.9894990728906551E-002  -1.1442127442070581E-002   3.8046849767631979E-002
   3.2674021708179110E-002  -9.6360091713476002E-003   4.2139825516407180E-002
   2.5453052687451662E-002  -6.7740842481097407E-003   4.8175768288328980E-002
   3.0668674373083661E-002  -5.9434720125606730E-003   6.6587220095424712E-002
   2.6224431119124154E-002  -6.0962195298409280E-003   6.1419455554939030E-002
   2.1780187865164655E-002  -5.7210637208402800E-003   5.9862175524842555E-002
   1.7335944611205148E-002  -4.8180045855586700E-003   6.1915380005135287E-002
   1.2891701357245633E-002  -3.3870421239960841E-003   6.7579068995817226E-002
  -1.8084145292363019E-013   8.5091655943614342E-013   9.7901340031471093E-002
  -1.2984752162381596E-013   5.9693222587142714E-013   8.6830865921783948E-002
  -7.8860529217905651E-014   3.9003869578557726E-013   8.1038393809728604E-002
  -2.7866597918091429E-014   2.3021948930557201E-013   8.0523923695305061E-002
   2.3120394487818885E-014   1.1754486273218845E-013   8.5287455578513305E-002
   4.9584705266814327E-002  -1.3548168496337165E-002   4.2844244989760083E-003
   3.8669587969374419E-002  -8.7932122040327021E-003   5.7831762555899391E-003
   2.7754470671934497E-002  -8.0876563252782058E-003   9.1303374415460103E-003
   1.6839353374494583E-002  -1.1431500860074054E-002   1.4325908056844319E-002
   5.9242360770546676E-003  -1.8824745808420085E-002   2.1369888101484658E-002
   3.7684053990641245E-002  -1.0161126372223495E-002   2.7077553456048592E-002
   2.8837438596298018E-002  -6.5949091530146248E-003   2.4922822297546887E-002
   1.9990823201954784E-002  -6.0657422439628489E-003   2.5056685515896543E-002
   1.1144207807611575E-002  -8.5736256450680455E-003   2.7479143111097191E-002
   2.2975924132683234E-003  -1.4118559356330440E-002   3.2190195083149131E-002
   2.5453052687451662E-002  -6.7740842481097407E-003   4.8175768288328980E-002
   1.9115124143714149E-002  -4.3966061019965891E-003   4.3379904318104914E-002
   1.2777195599976626E-002  -4.0438281626473185E-003   4.1312819672240784E-002
   6.4392670562391039E-003  -5.7157504300621182E-003   4.1974514350737221E-002
   1.0133851250158921E-004  -9.4123729042407955E-003   4.5364988353593649E-002
   1.2891701357245633E-002  -3.3870421239960841E-003   6.7579068995817226E-002
   9.5026446116228368E-003  -2.1983030509785326E-003   6.1154422317263687E-002
   6.1135878660000418E-003  -2.0219140813318194E-003   5.7898739910579367E-002
   2.7245311203772508E-003  -2.8578752150560391E-003   5.7812021775764326E-002
  -6.6452562524554545E-004  -4.7061864521511509E-003   6.0894267912818517E-002
   2.3120394487818885E-014   1.1754486273218845E-013   8.5287455578513305E-002
   2.4067553505702222E-014   3.9454550737616501E-014   7.8246376295023443E-002
   2.5014712523585558E-014  -1.6417422976644502E-014   7.4814446230911796E-002
   2.5958402094516941E-014  -5.0025955600219163E-014   7.4991665386178435E-002
   2.6909030559352232E-014  -6.1506355564233672E-014   7.8778033760823429E-002
  -1.8084145292363019E-013   8.5091655943614342E-013   9.7901340031471093E-002
  -1.2984752162381596E-013   5.9693222587142714E-013   8.6830865921783948E-002
  -7.8860529217905651E-014   3.9003869578557726E-013   8.1038393809728604E-002
  -2.7866597918091429E-014   2.3021948930557201E-013   8.0523923695305061E-002
   2.3120394487818885E-014   1.1754486273218845E-013   8.5287455578513305E-002
  -3.0668674373435990E-002   5.9434720138940855E-003   6.6587220095088134E-002
  -2.6224431119380647E-002   6.0962195307794134E-003   6.1419455554698653E-002
  -2.1780187865325314E-002   5.7210637214569794E-003   5.9862175524686090E-002
  -1.7335944611269971E-002   4.8180045859266595E-003   6.1915380005050438E-002
  -1.2891701357214652E-002   3.3870421241885412E-003   6.7579068995791705E-002
  -5.4336928770685675E-002   1.1886944026937248E-002   3.5689799338972011E-002
  -4.7115959749880865E-002   1.2192439060961926E-002   3.5896841041625258E-002
  -3.9894990729076069E-002   1.1442127442523870E-002   3.8046849767400533E-002
  -3.2674021708271252E-002   9.6360091716230015E-003   4.2139825516297871E-002
  -2.5453052687466424E-002   6.7740842482595237E-003   4.8175768288317211E-002
  -7.1004763191929943E-002   1.7830416039980427E-002   5.2090777631226349E-003
  -6.2674585891630524E-002   1.8288658591144487E-002   1.0263022382563668E-002
  -5.4344408591331092E-002   1.7163191163590798E-002   1.5592416537871898E-002
  -4.6014231291031674E-002   1.4454013757319504E-002   2.1197260229047294E-002
  -3.7684053990732248E-002   1.0161126372330527E-002   2.7077553456089833E-002
  -8.0672177637168774E-002   2.3773888053023579E-002  -2.4854944632459908E-002
  -7.2900309544629588E-002   2.4384878121326947E-002  -1.5482000422485979E-002
  -6.5128441452090430E-002   2.2884254884657743E-002  -7.5011241638997736E-003
  -5.7356573359551272E-002   1.9272018343015753E-002  -9.1231585670119471E-004
  -4.9584705267012086E-002   1.3548168496401475E-002   4.2844244991096236E-003
   2.3120394487818885E-014   1.1754486273218845E-013   8.5287455578513305E-002
   2.4067553505702222E-014   3.9454550737616501E-014   7.8246376295023443E-002
   2.5014712523585558E-014  -1.6417422976644502E-014   7.4814446230911796E-002
   2.5958402094516941E-014  -5.0025955600219163E-014   7.4991665386178435E-002
   2.6909030559352232E-014  -6.1506355564233672E-014   7.8778033760823429E-002
  -1.2891701357214652E-002   3.3870421241885412E-003   6.7579068995791705E-002
  -9.5026446115872559E-003   2.1983030510486293E-003   6.1154422317249192E-002
  -6.1135878659598700E-003   2.0219140813127444E-003   5.7898739910581344E-002
  -2.7245311203324823E-003   2.8578752149811667E-003   5.7812021775788008E-002
   6.6452562529491221E-004   4.7061864520536734E-003   6.0894267912869449E-002
  -2.5453052687466424E-002   6.7740842482595237E-003   4.8175768288317211E-002
  -1.9115124143716231E-002   4.3966061020576860E-003   4.3379904318104012E-002
  -1.2777195599966054E-002   4.0438281626418784E-003   4.1312819672261879E-002
  -6.4392670562158482E-003   5.7157504300123455E-003   4.1974514350790595E-002
  -1.0133851246565614E-004   9.4123729041689641E-003   4.5364988353690419E-002
  -3.7684053990732248E-002   1.0161126372330527E-002   2.7077553456089833E-002
  -2.8837438596362872E-002   6.5949091530666630E-003   2.4922822297587979E-002
  -1.9990823201993510E-002   6.0657422439710264E-003   2.5056685515953470E-002
  -1.1144207807624141E-002   8.5736256450435581E-003   2.7479143111186193E-002
  -2.2975924132547709E-003   1.4118559356284116E-002   3.2190195083286480E-002
  -4.9584705267012086E-002   1.3548168496401475E-002   4.2844244991096236E-003
  -3.8669587969527158E-002   8.7932122040759036E-003   5.7831762557009891E-003
  -2.7754470672042258E-002   8.0876563253000702E-003   9.1303374416560543E-003
  -1.6839353374557324E-002   1.1431500860074802E-002   1.4325908056974883E-002
  -5.9242360770724312E-003   1.8824745808399435E-002   2.1369888101657464E-002
 </DataArray>
 </PointData>
 </Piece>
 </UnstructuredGrid>
 </VTKFile>
