 <VTKFile type="UnstructuredGrid"  version="0.1"   >
 <UnstructuredGrid>
 <Piece  NumberOfPoints="          1600 "  NumberOfCells="         1024 ">
 <Points>
 <DataArray  type="Float64" NumberOfComponents="3"  format="ascii" >
   0.0000000000000000        0.0000000000000000        0.0000000000000000     
   3.1250000000000000E-002   0.0000000000000000        0.0000000000000000     
   6.2500000000000000E-002   0.0000000000000000        0.0000000000000000     
   9.3750000000000000E-002   0.0000000000000000        0.0000000000000000     
  0.12500000000000000        0.0000000000000000        0.0000000000000000     
   0.0000000000000000        3.1250000000000000E-002   0.0000000000000000     
   3.1250000000000000E-002   3.1250000000000000E-002   0.0000000000000000     
   6.2500000000000000E-002   3.1250000000000000E-002   0.0000000000000000     
   9.3750000000000000E-002   3.1250000000000000E-002   0.0000000000000000     
  0.12500000000000000        3.1250000000000000E-002   0.0000000000000000     
   0.0000000000000000        6.2500000000000000E-002   0.0000000000000000     
   3.1250000000000000E-002   6.2500000000000000E-002   0.0000000000000000     
   6.2500000000000000E-002   6.2500000000000000E-002   0.0000000000000000     
   9.3750000000000000E-002   6.2500000000000000E-002   0.0000000000000000     
  0.12500000000000000        6.2500000000000000E-002   0.0000000000000000     
   0.0000000000000000        9.3750000000000000E-002   0.0000000000000000     
   3.1250000000000000E-002   9.3750000000000000E-002   0.0000000000000000     
   6.2500000000000000E-002   9.3750000000000000E-002   0.0000000000000000     
   9.3750000000000000E-002   9.3750000000000000E-002   0.0000000000000000     
  0.12500000000000000        9.3750000000000000E-002   0.0000000000000000     
   0.0000000000000000       0.12500000000000000        0.0000000000000000     
   3.1250000000000000E-002  0.12500000000000000        0.0000000000000000     
   6.2500000000000000E-002  0.12500000000000000        0.0000000000000000     
   9.3750000000000000E-002  0.12500000000000000        0.0000000000000000     
  0.12500000000000000       0.12500000000000000        0.0000000000000000     
  0.12500000000000000        0.0000000000000000        0.0000000000000000     
  0.15625000000000000        0.0000000000000000        0.0000000000000000     
  0.18750000000000000        0.0000000000000000        0.0000000000000000     
  0.21875000000000000        0.0000000000000000        0.0000000000000000     
  0.25000000000000000        0.0000000000000000        0.0000000000000000     
  0.12500000000000000        3.1250000000000000E-002   0.0000000000000000     
  0.15625000000000000        3.1250000000000000E-002   0.0000000000000000     
  0.18750000000000000        3.1250000000000000E-002   0.0000000000000000     
  0.21875000000000000        3.1250000000000000E-002   0.0000000000000000     
  0.25000000000000000        3.1250000000000000E-002   0.0000000000000000     
  0.12500000000000000        6.2500000000000000E-002   0.0000000000000000     
  0.15625000000000000        6.2500000000000000E-002   0.0000000000000000     
  0.18750000000000000        6.2500000000000000E-002   0.0000000000000000     
  0.21875000000000000        6.2500000000000000E-002   0.0000000000000000     
  0.25000000000000000        6.2500000000000000E-002   0.0000000000000000     
  0.12500000000000000        9.3750000000000000E-002   0.0000000000000000     
  0.15625000000000000        9.3750000000000000E-002   0.0000000000000000     
  0.18750000000000000        9.3750000000000000E-002   0.0000000000000000     
  0.21875000000000000        9.3750000000000000E-002   0.0000000000000000     
  0.25000000000000000        9.3750000000000000E-002   0.0000000000000000     
  0.12500000000000000       0.12500000000000000        0.0000000000000000     
  0.15625000000000000       0.12500000000000000        0.0000000000000000     
  0.18750000000000000       0.12500000000000000        0.0000000000000000     
  0.21875000000000000       0.12500000000000000        0.0000000000000000     
  0.25000000000000000       0.12500000000000000        0.0000000000000000     
  0.25000000000000000        0.0000000000000000        0.0000000000000000     
  0.28125000000000000        0.0000000000000000        0.0000000000000000     
  0.31250000000000000        0.0000000000000000        0.0000000000000000     
  0.34375000000000000        0.0000000000000000        0.0000000000000000     
  0.37500000000000000        0.0000000000000000        0.0000000000000000     
  0.25000000000000000        3.1250000000000000E-002   0.0000000000000000     
  0.28125000000000000        3.1250000000000000E-002   0.0000000000000000     
  0.31250000000000000        3.1250000000000000E-002   0.0000000000000000     
  0.34375000000000000        3.1250000000000000E-002   0.0000000000000000     
  0.37500000000000000        3.1250000000000000E-002   0.0000000000000000     
  0.25000000000000000        6.2500000000000000E-002   0.0000000000000000     
  0.28125000000000000        6.2500000000000000E-002   0.0000000000000000     
  0.31250000000000000        6.2500000000000000E-002   0.0000000000000000     
  0.34375000000000000        6.2500000000000000E-002   0.0000000000000000     
  0.37500000000000000        6.2500000000000000E-002   0.0000000000000000     
  0.25000000000000000        9.3750000000000000E-002   0.0000000000000000     
  0.28125000000000000        9.3750000000000000E-002   0.0000000000000000     
  0.31250000000000000        9.3750000000000000E-002   0.0000000000000000     
  0.34375000000000000        9.3750000000000000E-002   0.0000000000000000     
  0.37500000000000000        9.3750000000000000E-002   0.0000000000000000     
  0.25000000000000000       0.12500000000000000        0.0000000000000000     
  0.28125000000000000       0.12500000000000000        0.0000000000000000     
  0.31250000000000000       0.12500000000000000        0.0000000000000000     
  0.34375000000000000       0.12500000000000000        0.0000000000000000     
  0.37500000000000000       0.12500000000000000        0.0000000000000000     
  0.37500000000000000        0.0000000000000000        0.0000000000000000     
  0.40625000000000000        0.0000000000000000        0.0000000000000000     
  0.43750000000000000        0.0000000000000000        0.0000000000000000     
  0.46875000000000000        0.0000000000000000        0.0000000000000000     
  0.50000000000000000        0.0000000000000000        0.0000000000000000     
  0.37500000000000000        3.1250000000000000E-002   0.0000000000000000     
  0.40625000000000000        3.1250000000000000E-002   0.0000000000000000     
  0.43750000000000000        3.1250000000000000E-002   0.0000000000000000     
  0.46875000000000000        3.1250000000000000E-002   0.0000000000000000     
  0.50000000000000000        3.1250000000000000E-002   0.0000000000000000     
  0.37500000000000000        6.2500000000000000E-002   0.0000000000000000     
  0.40625000000000000        6.2500000000000000E-002   0.0000000000000000     
  0.43750000000000000        6.2500000000000000E-002   0.0000000000000000     
  0.46875000000000000        6.2500000000000000E-002   0.0000000000000000     
  0.50000000000000000        6.2500000000000000E-002   0.0000000000000000     
  0.37500000000000000        9.3750000000000000E-002   0.0000000000000000     
  0.40625000000000000        9.3750000000000000E-002   0.0000000000000000     
  0.43750000000000000        9.3750000000000000E-002   0.0000000000000000     
  0.46875000000000000        9.3750000000000000E-002   0.0000000000000000     
  0.50000000000000000        9.3750000000000000E-002   0.0000000000000000     
  0.37500000000000000       0.12500000000000000        0.0000000000000000     
  0.40625000000000000       0.12500000000000000        0.0000000000000000     
  0.43750000000000000       0.12500000000000000        0.0000000000000000     
  0.46875000000000000       0.12500000000000000        0.0000000000000000     
  0.50000000000000000       0.12500000000000000        0.0000000000000000     
  0.50000000000000000        0.0000000000000000        0.0000000000000000     
  0.53125000000000000        0.0000000000000000        0.0000000000000000     
  0.56250000000000000        0.0000000000000000        0.0000000000000000     
  0.59375000000000000        0.0000000000000000        0.0000000000000000     
  0.62500000000000000        0.0000000000000000        0.0000000000000000     
  0.50000000000000000        3.1250000000000000E-002   0.0000000000000000     
  0.53125000000000000        3.1250000000000000E-002   0.0000000000000000     
  0.56250000000000000        3.1250000000000000E-002   0.0000000000000000     
  0.59375000000000000        3.1250000000000000E-002   0.0000000000000000     
  0.62500000000000000        3.1250000000000000E-002   0.0000000000000000     
  0.50000000000000000        6.2500000000000000E-002   0.0000000000000000     
  0.53125000000000000        6.2500000000000000E-002   0.0000000000000000     
  0.56250000000000000        6.2500000000000000E-002   0.0000000000000000     
  0.59375000000000000        6.2500000000000000E-002   0.0000000000000000     
  0.62500000000000000        6.2500000000000000E-002   0.0000000000000000     
  0.50000000000000000        9.3750000000000000E-002   0.0000000000000000     
  0.53125000000000000        9.3750000000000000E-002   0.0000000000000000     
  0.56250000000000000        9.3750000000000000E-002   0.0000000000000000     
  0.59375000000000000        9.3750000000000000E-002   0.0000000000000000     
  0.62500000000000000        9.3750000000000000E-002   0.0000000000000000     
  0.50000000000000000       0.12500000000000000        0.0000000000000000     
  0.53125000000000000       0.12500000000000000        0.0000000000000000     
  0.56250000000000000       0.12500000000000000        0.0000000000000000     
  0.59375000000000000       0.12500000000000000        0.0000000000000000     
  0.62500000000000000       0.12500000000000000        0.0000000000000000     
  0.62500000000000000        0.0000000000000000        0.0000000000000000     
  0.65625000000000000        0.0000000000000000        0.0000000000000000     
  0.68750000000000000        0.0000000000000000        0.0000000000000000     
  0.71875000000000000        0.0000000000000000        0.0000000000000000     
  0.75000000000000000        0.0000000000000000        0.0000000000000000     
  0.62500000000000000        3.1250000000000000E-002   0.0000000000000000     
  0.65625000000000000        3.1250000000000000E-002   0.0000000000000000     
  0.68750000000000000        3.1250000000000000E-002   0.0000000000000000     
  0.71875000000000000        3.1250000000000000E-002   0.0000000000000000     
  0.75000000000000000        3.1250000000000000E-002   0.0000000000000000     
  0.62500000000000000        6.2500000000000000E-002   0.0000000000000000     
  0.65625000000000000        6.2500000000000000E-002   0.0000000000000000     
  0.68750000000000000        6.2500000000000000E-002   0.0000000000000000     
  0.71875000000000000        6.2500000000000000E-002   0.0000000000000000     
  0.75000000000000000        6.2500000000000000E-002   0.0000000000000000     
  0.62500000000000000        9.3750000000000000E-002   0.0000000000000000     
  0.65625000000000000        9.3750000000000000E-002   0.0000000000000000     
  0.68750000000000000        9.3750000000000000E-002   0.0000000000000000     
  0.71875000000000000        9.3750000000000000E-002   0.0000000000000000     
  0.75000000000000000        9.3750000000000000E-002   0.0000000000000000     
  0.62500000000000000       0.12500000000000000        0.0000000000000000     
  0.65625000000000000       0.12500000000000000        0.0000000000000000     
  0.68750000000000000       0.12500000000000000        0.0000000000000000     
  0.71875000000000000       0.12500000000000000        0.0000000000000000     
  0.75000000000000000       0.12500000000000000        0.0000000000000000     
  0.75000000000000000        0.0000000000000000        0.0000000000000000     
  0.78125000000000000        0.0000000000000000        0.0000000000000000     
  0.81250000000000000        0.0000000000000000        0.0000000000000000     
  0.84375000000000000        0.0000000000000000        0.0000000000000000     
  0.87500000000000000        0.0000000000000000        0.0000000000000000     
  0.75000000000000000        3.1250000000000000E-002   0.0000000000000000     
  0.78125000000000000        3.1250000000000000E-002   0.0000000000000000     
  0.81250000000000000        3.1250000000000000E-002   0.0000000000000000     
  0.84375000000000000        3.1250000000000000E-002   0.0000000000000000     
  0.87500000000000000        3.1250000000000000E-002   0.0000000000000000     
  0.75000000000000000        6.2500000000000000E-002   0.0000000000000000     
  0.78125000000000000        6.2500000000000000E-002   0.0000000000000000     
  0.81250000000000000        6.2500000000000000E-002   0.0000000000000000     
  0.84375000000000000        6.2500000000000000E-002   0.0000000000000000     
  0.87500000000000000        6.2500000000000000E-002   0.0000000000000000     
  0.75000000000000000        9.3750000000000000E-002   0.0000000000000000     
  0.78125000000000000        9.3750000000000000E-002   0.0000000000000000     
  0.81250000000000000        9.3750000000000000E-002   0.0000000000000000     
  0.84375000000000000        9.3750000000000000E-002   0.0000000000000000     
  0.87500000000000000        9.3750000000000000E-002   0.0000000000000000     
  0.75000000000000000       0.12500000000000000        0.0000000000000000     
  0.78125000000000000       0.12500000000000000        0.0000000000000000     
  0.81250000000000000       0.12500000000000000        0.0000000000000000     
  0.84375000000000000       0.12500000000000000        0.0000000000000000     
  0.87500000000000000       0.12500000000000000        0.0000000000000000     
  0.87500000000000000        0.0000000000000000        0.0000000000000000     
  0.90625000000000000        0.0000000000000000        0.0000000000000000     
  0.93750000000000000        0.0000000000000000        0.0000000000000000     
  0.96875000000000000        0.0000000000000000        0.0000000000000000     
   1.0000000000000000        0.0000000000000000        0.0000000000000000     
  0.87500000000000000        3.1250000000000000E-002   0.0000000000000000     
  0.90625000000000000        3.1250000000000000E-002   0.0000000000000000     
  0.93750000000000000        3.1250000000000000E-002   0.0000000000000000     
  0.96875000000000000        3.1250000000000000E-002   0.0000000000000000     
   1.0000000000000000        3.1250000000000000E-002   0.0000000000000000     
  0.87500000000000000        6.2500000000000000E-002   0.0000000000000000     
  0.90625000000000000        6.2500000000000000E-002   0.0000000000000000     
  0.93750000000000000        6.2500000000000000E-002   0.0000000000000000     
  0.96875000000000000        6.2500000000000000E-002   0.0000000000000000     
   1.0000000000000000        6.2500000000000000E-002   0.0000000000000000     
  0.87500000000000000        9.3750000000000000E-002   0.0000000000000000     
  0.90625000000000000        9.3750000000000000E-002   0.0000000000000000     
  0.93750000000000000        9.3750000000000000E-002   0.0000000000000000     
  0.96875000000000000        9.3750000000000000E-002   0.0000000000000000     
   1.0000000000000000        9.3750000000000000E-002   0.0000000000000000     
  0.87500000000000000       0.12500000000000000        0.0000000000000000     
  0.90625000000000000       0.12500000000000000        0.0000000000000000     
  0.93750000000000000       0.12500000000000000        0.0000000000000000     
  0.96875000000000000       0.12500000000000000        0.0000000000000000     
   1.0000000000000000       0.12500000000000000        0.0000000000000000     
   0.0000000000000000       0.12500000000000000        0.0000000000000000     
   3.1250000000000000E-002  0.12500000000000000        0.0000000000000000     
   6.2500000000000000E-002  0.12500000000000000        0.0000000000000000     
   9.3750000000000000E-002  0.12500000000000000        0.0000000000000000     
  0.12500000000000000       0.12500000000000000        0.0000000000000000     
   0.0000000000000000       0.15625000000000000        0.0000000000000000     
   3.1250000000000000E-002  0.15625000000000000        0.0000000000000000     
   6.2500000000000000E-002  0.15625000000000000        0.0000000000000000     
   9.3750000000000000E-002  0.15625000000000000        0.0000000000000000     
  0.12500000000000000       0.15625000000000000        0.0000000000000000     
   0.0000000000000000       0.18750000000000000        0.0000000000000000     
   3.1250000000000000E-002  0.18750000000000000        0.0000000000000000     
   6.2500000000000000E-002  0.18750000000000000        0.0000000000000000     
   9.3750000000000000E-002  0.18750000000000000        0.0000000000000000     
  0.12500000000000000       0.18750000000000000        0.0000000000000000     
   0.0000000000000000       0.21875000000000000        0.0000000000000000     
   3.1250000000000000E-002  0.21875000000000000        0.0000000000000000     
   6.2500000000000000E-002  0.21875000000000000        0.0000000000000000     
   9.3750000000000000E-002  0.21875000000000000        0.0000000000000000     
  0.12500000000000000       0.21875000000000000        0.0000000000000000     
   0.0000000000000000       0.25000000000000000        0.0000000000000000     
   3.1250000000000000E-002  0.25000000000000000        0.0000000000000000     
   6.2500000000000000E-002  0.25000000000000000        0.0000000000000000     
   9.3750000000000000E-002  0.25000000000000000        0.0000000000000000     
  0.12500000000000000       0.25000000000000000        0.0000000000000000     
  0.12500000000000000       0.12500000000000000        0.0000000000000000     
  0.15625000000000000       0.12500000000000000        0.0000000000000000     
  0.18750000000000000       0.12500000000000000        0.0000000000000000     
  0.21875000000000000       0.12500000000000000        0.0000000000000000     
  0.25000000000000000       0.12500000000000000        0.0000000000000000     
  0.12500000000000000       0.15625000000000000        0.0000000000000000     
  0.15625000000000000       0.15625000000000000        0.0000000000000000     
  0.18750000000000000       0.15625000000000000        0.0000000000000000     
  0.21875000000000000       0.15625000000000000        0.0000000000000000     
  0.25000000000000000       0.15625000000000000        0.0000000000000000     
  0.12500000000000000       0.18750000000000000        0.0000000000000000     
  0.15625000000000000       0.18750000000000000        0.0000000000000000     
  0.18750000000000000       0.18750000000000000        0.0000000000000000     
  0.21875000000000000       0.18750000000000000        0.0000000000000000     
  0.25000000000000000       0.18750000000000000        0.0000000000000000     
  0.12500000000000000       0.21875000000000000        0.0000000000000000     
  0.15625000000000000       0.21875000000000000        0.0000000000000000     
  0.18750000000000000       0.21875000000000000        0.0000000000000000     
  0.21875000000000000       0.21875000000000000        0.0000000000000000     
  0.25000000000000000       0.21875000000000000        0.0000000000000000     
  0.12500000000000000       0.25000000000000000        0.0000000000000000     
  0.15625000000000000       0.25000000000000000        0.0000000000000000     
  0.18750000000000000       0.25000000000000000        0.0000000000000000     
  0.21875000000000000       0.25000000000000000        0.0000000000000000     
  0.25000000000000000       0.25000000000000000        0.0000000000000000     
  0.25000000000000000       0.12500000000000000        0.0000000000000000     
  0.28125000000000000       0.12500000000000000        0.0000000000000000     
  0.31250000000000000       0.12500000000000000        0.0000000000000000     
  0.34375000000000000       0.12500000000000000        0.0000000000000000     
  0.37500000000000000       0.12500000000000000        0.0000000000000000     
  0.25000000000000000       0.15625000000000000        0.0000000000000000     
  0.28125000000000000       0.15625000000000000        0.0000000000000000     
  0.31250000000000000       0.15625000000000000        0.0000000000000000     
  0.34375000000000000       0.15625000000000000        0.0000000000000000     
  0.37500000000000000       0.15625000000000000        0.0000000000000000     
  0.25000000000000000       0.18750000000000000        0.0000000000000000     
  0.28125000000000000       0.18750000000000000        0.0000000000000000     
  0.31250000000000000       0.18750000000000000        0.0000000000000000     
  0.34375000000000000       0.18750000000000000        0.0000000000000000     
  0.37500000000000000       0.18750000000000000        0.0000000000000000     
  0.25000000000000000       0.21875000000000000        0.0000000000000000     
  0.28125000000000000       0.21875000000000000        0.0000000000000000     
  0.31250000000000000       0.21875000000000000        0.0000000000000000     
  0.34375000000000000       0.21875000000000000        0.0000000000000000     
  0.37500000000000000       0.21875000000000000        0.0000000000000000     
  0.25000000000000000       0.25000000000000000        0.0000000000000000     
  0.28125000000000000       0.25000000000000000        0.0000000000000000     
  0.31250000000000000       0.25000000000000000        0.0000000000000000     
  0.34375000000000000       0.25000000000000000        0.0000000000000000     
  0.37500000000000000       0.25000000000000000        0.0000000000000000     
  0.37500000000000000       0.12500000000000000        0.0000000000000000     
  0.40625000000000000       0.12500000000000000        0.0000000000000000     
  0.43750000000000000       0.12500000000000000        0.0000000000000000     
  0.46875000000000000       0.12500000000000000        0.0000000000000000     
  0.50000000000000000       0.12500000000000000        0.0000000000000000     
  0.37500000000000000       0.15625000000000000        0.0000000000000000     
  0.40625000000000000       0.15625000000000000        0.0000000000000000     
  0.43750000000000000       0.15625000000000000        0.0000000000000000     
  0.46875000000000000       0.15625000000000000        0.0000000000000000     
  0.50000000000000000       0.15625000000000000        0.0000000000000000     
  0.37500000000000000       0.18750000000000000        0.0000000000000000     
  0.40625000000000000       0.18750000000000000        0.0000000000000000     
  0.43750000000000000       0.18750000000000000        0.0000000000000000     
  0.46875000000000000       0.18750000000000000        0.0000000000000000     
  0.50000000000000000       0.18750000000000000        0.0000000000000000     
  0.37500000000000000       0.21875000000000000        0.0000000000000000     
  0.40625000000000000       0.21875000000000000        0.0000000000000000     
  0.43750000000000000       0.21875000000000000        0.0000000000000000     
  0.46875000000000000       0.21875000000000000        0.0000000000000000     
  0.50000000000000000       0.21875000000000000        0.0000000000000000     
  0.37500000000000000       0.25000000000000000        0.0000000000000000     
  0.40625000000000000       0.25000000000000000        0.0000000000000000     
  0.43750000000000000       0.25000000000000000        0.0000000000000000     
  0.46875000000000000       0.25000000000000000        0.0000000000000000     
  0.50000000000000000       0.25000000000000000        0.0000000000000000     
  0.50000000000000000       0.12500000000000000        0.0000000000000000     
  0.53125000000000000       0.12500000000000000        0.0000000000000000     
  0.56250000000000000       0.12500000000000000        0.0000000000000000     
  0.59375000000000000       0.12500000000000000        0.0000000000000000     
  0.62500000000000000       0.12500000000000000        0.0000000000000000     
  0.50000000000000000       0.15625000000000000        0.0000000000000000     
  0.53125000000000000       0.15625000000000000        0.0000000000000000     
  0.56250000000000000       0.15625000000000000        0.0000000000000000     
  0.59375000000000000       0.15625000000000000        0.0000000000000000     
  0.62500000000000000       0.15625000000000000        0.0000000000000000     
  0.50000000000000000       0.18750000000000000        0.0000000000000000     
  0.53125000000000000       0.18750000000000000        0.0000000000000000     
  0.56250000000000000       0.18750000000000000        0.0000000000000000     
  0.59375000000000000       0.18750000000000000        0.0000000000000000     
  0.62500000000000000       0.18750000000000000        0.0000000000000000     
  0.50000000000000000       0.21875000000000000        0.0000000000000000     
  0.53125000000000000       0.21875000000000000        0.0000000000000000     
  0.56250000000000000       0.21875000000000000        0.0000000000000000     
  0.59375000000000000       0.21875000000000000        0.0000000000000000     
  0.62500000000000000       0.21875000000000000        0.0000000000000000     
  0.50000000000000000       0.25000000000000000        0.0000000000000000     
  0.53125000000000000       0.25000000000000000        0.0000000000000000     
  0.56250000000000000       0.25000000000000000        0.0000000000000000     
  0.59375000000000000       0.25000000000000000        0.0000000000000000     
  0.62500000000000000       0.25000000000000000        0.0000000000000000     
  0.62500000000000000       0.12500000000000000        0.0000000000000000     
  0.65625000000000000       0.12500000000000000        0.0000000000000000     
  0.68750000000000000       0.12500000000000000        0.0000000000000000     
  0.71875000000000000       0.12500000000000000        0.0000000000000000     
  0.75000000000000000       0.12500000000000000        0.0000000000000000     
  0.62500000000000000       0.15625000000000000        0.0000000000000000     
  0.65625000000000000       0.15625000000000000        0.0000000000000000     
  0.68750000000000000       0.15625000000000000        0.0000000000000000     
  0.71875000000000000       0.15625000000000000        0.0000000000000000     
  0.75000000000000000       0.15625000000000000        0.0000000000000000     
  0.62500000000000000       0.18750000000000000        0.0000000000000000     
  0.65625000000000000       0.18750000000000000        0.0000000000000000     
  0.68750000000000000       0.18750000000000000        0.0000000000000000     
  0.71875000000000000       0.18750000000000000        0.0000000000000000     
  0.75000000000000000       0.18750000000000000        0.0000000000000000     
  0.62500000000000000       0.21875000000000000        0.0000000000000000     
  0.65625000000000000       0.21875000000000000        0.0000000000000000     
  0.68750000000000000       0.21875000000000000        0.0000000000000000     
  0.71875000000000000       0.21875000000000000        0.0000000000000000     
  0.75000000000000000       0.21875000000000000        0.0000000000000000     
  0.62500000000000000       0.25000000000000000        0.0000000000000000     
  0.65625000000000000       0.25000000000000000        0.0000000000000000     
  0.68750000000000000       0.25000000000000000        0.0000000000000000     
  0.71875000000000000       0.25000000000000000        0.0000000000000000     
  0.75000000000000000       0.25000000000000000        0.0000000000000000     
  0.75000000000000000       0.12500000000000000        0.0000000000000000     
  0.78125000000000000       0.12500000000000000        0.0000000000000000     
  0.81250000000000000       0.12500000000000000        0.0000000000000000     
  0.84375000000000000       0.12500000000000000        0.0000000000000000     
  0.87500000000000000       0.12500000000000000        0.0000000000000000     
  0.75000000000000000       0.15625000000000000        0.0000000000000000     
  0.78125000000000000       0.15625000000000000        0.0000000000000000     
  0.81250000000000000       0.15625000000000000        0.0000000000000000     
  0.84375000000000000       0.15625000000000000        0.0000000000000000     
  0.87500000000000000       0.15625000000000000        0.0000000000000000     
  0.75000000000000000       0.18750000000000000        0.0000000000000000     
  0.78125000000000000       0.18750000000000000        0.0000000000000000     
  0.81250000000000000       0.18750000000000000        0.0000000000000000     
  0.84375000000000000       0.18750000000000000        0.0000000000000000     
  0.87500000000000000       0.18750000000000000        0.0000000000000000     
  0.75000000000000000       0.21875000000000000        0.0000000000000000     
  0.78125000000000000       0.21875000000000000        0.0000000000000000     
  0.81250000000000000       0.21875000000000000        0.0000000000000000     
  0.84375000000000000       0.21875000000000000        0.0000000000000000     
  0.87500000000000000       0.21875000000000000        0.0000000000000000     
  0.75000000000000000       0.25000000000000000        0.0000000000000000     
  0.78125000000000000       0.25000000000000000        0.0000000000000000     
  0.81250000000000000       0.25000000000000000        0.0000000000000000     
  0.84375000000000000       0.25000000000000000        0.0000000000000000     
  0.87500000000000000       0.25000000000000000        0.0000000000000000     
  0.87500000000000000       0.12500000000000000        0.0000000000000000     
  0.90625000000000000       0.12500000000000000        0.0000000000000000     
  0.93750000000000000       0.12500000000000000        0.0000000000000000     
  0.96875000000000000       0.12500000000000000        0.0000000000000000     
   1.0000000000000000       0.12500000000000000        0.0000000000000000     
  0.87500000000000000       0.15625000000000000        0.0000000000000000     
  0.90625000000000000       0.15625000000000000        0.0000000000000000     
  0.93750000000000000       0.15625000000000000        0.0000000000000000     
  0.96875000000000000       0.15625000000000000        0.0000000000000000     
   1.0000000000000000       0.15625000000000000        0.0000000000000000     
  0.87500000000000000       0.18750000000000000        0.0000000000000000     
  0.90625000000000000       0.18750000000000000        0.0000000000000000     
  0.93750000000000000       0.18750000000000000        0.0000000000000000     
  0.96875000000000000       0.18750000000000000        0.0000000000000000     
   1.0000000000000000       0.18750000000000000        0.0000000000000000     
  0.87500000000000000       0.21875000000000000        0.0000000000000000     
  0.90625000000000000       0.21875000000000000        0.0000000000000000     
  0.93750000000000000       0.21875000000000000        0.0000000000000000     
  0.96875000000000000       0.21875000000000000        0.0000000000000000     
   1.0000000000000000       0.21875000000000000        0.0000000000000000     
  0.87500000000000000       0.25000000000000000        0.0000000000000000     
  0.90625000000000000       0.25000000000000000        0.0000000000000000     
  0.93750000000000000       0.25000000000000000        0.0000000000000000     
  0.96875000000000000       0.25000000000000000        0.0000000000000000     
   1.0000000000000000       0.25000000000000000        0.0000000000000000     
   0.0000000000000000       0.25000000000000000        0.0000000000000000     
   3.1250000000000000E-002  0.25000000000000000        0.0000000000000000     
   6.2500000000000000E-002  0.25000000000000000        0.0000000000000000     
   9.3750000000000000E-002  0.25000000000000000        0.0000000000000000     
  0.12500000000000000       0.25000000000000000        0.0000000000000000     
   0.0000000000000000       0.28125000000000000        0.0000000000000000     
   3.1250000000000000E-002  0.28125000000000000        0.0000000000000000     
   6.2500000000000000E-002  0.28125000000000000        0.0000000000000000     
   9.3750000000000000E-002  0.28125000000000000        0.0000000000000000     
  0.12500000000000000       0.28125000000000000        0.0000000000000000     
   0.0000000000000000       0.31250000000000000        0.0000000000000000     
   3.1250000000000000E-002  0.31250000000000000        0.0000000000000000     
   6.2500000000000000E-002  0.31250000000000000        0.0000000000000000     
   9.3750000000000000E-002  0.31250000000000000        0.0000000000000000     
  0.12500000000000000       0.31250000000000000        0.0000000000000000     
   0.0000000000000000       0.34375000000000000        0.0000000000000000     
   3.1250000000000000E-002  0.34375000000000000        0.0000000000000000     
   6.2500000000000000E-002  0.34375000000000000        0.0000000000000000     
   9.3750000000000000E-002  0.34375000000000000        0.0000000000000000     
  0.12500000000000000       0.34375000000000000        0.0000000000000000     
   0.0000000000000000       0.37500000000000000        0.0000000000000000     
   3.1250000000000000E-002  0.37500000000000000        0.0000000000000000     
   6.2500000000000000E-002  0.37500000000000000        0.0000000000000000     
   9.3750000000000000E-002  0.37500000000000000        0.0000000000000000     
  0.12500000000000000       0.37500000000000000        0.0000000000000000     
  0.12500000000000000       0.25000000000000000        0.0000000000000000     
  0.15625000000000000       0.25000000000000000        0.0000000000000000     
  0.18750000000000000       0.25000000000000000        0.0000000000000000     
  0.21875000000000000       0.25000000000000000        0.0000000000000000     
  0.25000000000000000       0.25000000000000000        0.0000000000000000     
  0.12500000000000000       0.28125000000000000        0.0000000000000000     
  0.15625000000000000       0.28125000000000000        0.0000000000000000     
  0.18750000000000000       0.28125000000000000        0.0000000000000000     
  0.21875000000000000       0.28125000000000000        0.0000000000000000     
  0.25000000000000000       0.28125000000000000        0.0000000000000000     
  0.12500000000000000       0.31250000000000000        0.0000000000000000     
  0.15625000000000000       0.31250000000000000        0.0000000000000000     
  0.18750000000000000       0.31250000000000000        0.0000000000000000     
  0.21875000000000000       0.31250000000000000        0.0000000000000000     
  0.25000000000000000       0.31250000000000000        0.0000000000000000     
  0.12500000000000000       0.34375000000000000        0.0000000000000000     
  0.15625000000000000       0.34375000000000000        0.0000000000000000     
  0.18750000000000000       0.34375000000000000        0.0000000000000000     
  0.21875000000000000       0.34375000000000000        0.0000000000000000     
  0.25000000000000000       0.34375000000000000        0.0000000000000000     
  0.12500000000000000       0.37500000000000000        0.0000000000000000     
  0.15625000000000000       0.37500000000000000        0.0000000000000000     
  0.18750000000000000       0.37500000000000000        0.0000000000000000     
  0.21875000000000000       0.37500000000000000        0.0000000000000000     
  0.25000000000000000       0.37500000000000000        0.0000000000000000     
  0.25000000000000000       0.25000000000000000        0.0000000000000000     
  0.28125000000000000       0.25000000000000000        0.0000000000000000     
  0.31250000000000000       0.25000000000000000        0.0000000000000000     
  0.34375000000000000       0.25000000000000000        0.0000000000000000     
  0.37500000000000000       0.25000000000000000        0.0000000000000000     
  0.25000000000000000       0.28125000000000000        0.0000000000000000     
  0.28125000000000000       0.28125000000000000        0.0000000000000000     
  0.31250000000000000       0.28125000000000000        0.0000000000000000     
  0.34375000000000000       0.28125000000000000        0.0000000000000000     
  0.37500000000000000       0.28125000000000000        0.0000000000000000     
  0.25000000000000000       0.31250000000000000        0.0000000000000000     
  0.28125000000000000       0.31250000000000000        0.0000000000000000     
  0.31250000000000000       0.31250000000000000        0.0000000000000000     
  0.34375000000000000       0.31250000000000000        0.0000000000000000     
  0.37500000000000000       0.31250000000000000        0.0000000000000000     
  0.25000000000000000       0.34375000000000000        0.0000000000000000     
  0.28125000000000000       0.34375000000000000        0.0000000000000000     
  0.31250000000000000       0.34375000000000000        0.0000000000000000     
  0.34375000000000000       0.34375000000000000        0.0000000000000000     
  0.37500000000000000       0.34375000000000000        0.0000000000000000     
  0.25000000000000000       0.37500000000000000        0.0000000000000000     
  0.28125000000000000       0.37500000000000000        0.0000000000000000     
  0.31250000000000000       0.37500000000000000        0.0000000000000000     
  0.34375000000000000       0.37500000000000000        0.0000000000000000     
  0.37500000000000000       0.37500000000000000        0.0000000000000000     
  0.37500000000000000       0.25000000000000000        0.0000000000000000     
  0.40625000000000000       0.25000000000000000        0.0000000000000000     
  0.43750000000000000       0.25000000000000000        0.0000000000000000     
  0.46875000000000000       0.25000000000000000        0.0000000000000000     
  0.50000000000000000       0.25000000000000000        0.0000000000000000     
  0.37500000000000000       0.28125000000000000        0.0000000000000000     
  0.40625000000000000       0.28125000000000000        0.0000000000000000     
  0.43750000000000000       0.28125000000000000        0.0000000000000000     
  0.46875000000000000       0.28125000000000000        0.0000000000000000     
  0.50000000000000000       0.28125000000000000        0.0000000000000000     
  0.37500000000000000       0.31250000000000000        0.0000000000000000     
  0.40625000000000000       0.31250000000000000        0.0000000000000000     
  0.43750000000000000       0.31250000000000000        0.0000000000000000     
  0.46875000000000000       0.31250000000000000        0.0000000000000000     
  0.50000000000000000       0.31250000000000000        0.0000000000000000     
  0.37500000000000000       0.34375000000000000        0.0000000000000000     
  0.40625000000000000       0.34375000000000000        0.0000000000000000     
  0.43750000000000000       0.34375000000000000        0.0000000000000000     
  0.46875000000000000       0.34375000000000000        0.0000000000000000     
  0.50000000000000000       0.34375000000000000        0.0000000000000000     
  0.37500000000000000       0.37500000000000000        0.0000000000000000     
  0.40625000000000000       0.37500000000000000        0.0000000000000000     
  0.43750000000000000       0.37500000000000000        0.0000000000000000     
  0.46875000000000000       0.37500000000000000        0.0000000000000000     
  0.50000000000000000       0.37500000000000000        0.0000000000000000     
  0.50000000000000000       0.25000000000000000        0.0000000000000000     
  0.53125000000000000       0.25000000000000000        0.0000000000000000     
  0.56250000000000000       0.25000000000000000        0.0000000000000000     
  0.59375000000000000       0.25000000000000000        0.0000000000000000     
  0.62500000000000000       0.25000000000000000        0.0000000000000000     
  0.50000000000000000       0.28125000000000000        0.0000000000000000     
  0.53125000000000000       0.28125000000000000        0.0000000000000000     
  0.56250000000000000       0.28125000000000000        0.0000000000000000     
  0.59375000000000000       0.28125000000000000        0.0000000000000000     
  0.62500000000000000       0.28125000000000000        0.0000000000000000     
  0.50000000000000000       0.31250000000000000        0.0000000000000000     
  0.53125000000000000       0.31250000000000000        0.0000000000000000     
  0.56250000000000000       0.31250000000000000        0.0000000000000000     
  0.59375000000000000       0.31250000000000000        0.0000000000000000     
  0.62500000000000000       0.31250000000000000        0.0000000000000000     
  0.50000000000000000       0.34375000000000000        0.0000000000000000     
  0.53125000000000000       0.34375000000000000        0.0000000000000000     
  0.56250000000000000       0.34375000000000000        0.0000000000000000     
  0.59375000000000000       0.34375000000000000        0.0000000000000000     
  0.62500000000000000       0.34375000000000000        0.0000000000000000     
  0.50000000000000000       0.37500000000000000        0.0000000000000000     
  0.53125000000000000       0.37500000000000000        0.0000000000000000     
  0.56250000000000000       0.37500000000000000        0.0000000000000000     
  0.59375000000000000       0.37500000000000000        0.0000000000000000     
  0.62500000000000000       0.37500000000000000        0.0000000000000000     
  0.62500000000000000       0.25000000000000000        0.0000000000000000     
  0.65625000000000000       0.25000000000000000        0.0000000000000000     
  0.68750000000000000       0.25000000000000000        0.0000000000000000     
  0.71875000000000000       0.25000000000000000        0.0000000000000000     
  0.75000000000000000       0.25000000000000000        0.0000000000000000     
  0.62500000000000000       0.28125000000000000        0.0000000000000000     
  0.65625000000000000       0.28125000000000000        0.0000000000000000     
  0.68750000000000000       0.28125000000000000        0.0000000000000000     
  0.71875000000000000       0.28125000000000000        0.0000000000000000     
  0.75000000000000000       0.28125000000000000        0.0000000000000000     
  0.62500000000000000       0.31250000000000000        0.0000000000000000     
  0.65625000000000000       0.31250000000000000        0.0000000000000000     
  0.68750000000000000       0.31250000000000000        0.0000000000000000     
  0.71875000000000000       0.31250000000000000        0.0000000000000000     
  0.75000000000000000       0.31250000000000000        0.0000000000000000     
  0.62500000000000000       0.34375000000000000        0.0000000000000000     
  0.65625000000000000       0.34375000000000000        0.0000000000000000     
  0.68750000000000000       0.34375000000000000        0.0000000000000000     
  0.71875000000000000       0.34375000000000000        0.0000000000000000     
  0.75000000000000000       0.34375000000000000        0.0000000000000000     
  0.62500000000000000       0.37500000000000000        0.0000000000000000     
  0.65625000000000000       0.37500000000000000        0.0000000000000000     
  0.68750000000000000       0.37500000000000000        0.0000000000000000     
  0.71875000000000000       0.37500000000000000        0.0000000000000000     
  0.75000000000000000       0.37500000000000000        0.0000000000000000     
  0.75000000000000000       0.25000000000000000        0.0000000000000000     
  0.78125000000000000       0.25000000000000000        0.0000000000000000     
  0.81250000000000000       0.25000000000000000        0.0000000000000000     
  0.84375000000000000       0.25000000000000000        0.0000000000000000     
  0.87500000000000000       0.25000000000000000        0.0000000000000000     
  0.75000000000000000       0.28125000000000000        0.0000000000000000     
  0.78125000000000000       0.28125000000000000        0.0000000000000000     
  0.81250000000000000       0.28125000000000000        0.0000000000000000     
  0.84375000000000000       0.28125000000000000        0.0000000000000000     
  0.87500000000000000       0.28125000000000000        0.0000000000000000     
  0.75000000000000000       0.31250000000000000        0.0000000000000000     
  0.78125000000000000       0.31250000000000000        0.0000000000000000     
  0.81250000000000000       0.31250000000000000        0.0000000000000000     
  0.84375000000000000       0.31250000000000000        0.0000000000000000     
  0.87500000000000000       0.31250000000000000        0.0000000000000000     
  0.75000000000000000       0.34375000000000000        0.0000000000000000     
  0.78125000000000000       0.34375000000000000        0.0000000000000000     
  0.81250000000000000       0.34375000000000000        0.0000000000000000     
  0.84375000000000000       0.34375000000000000        0.0000000000000000     
  0.87500000000000000       0.34375000000000000        0.0000000000000000     
  0.75000000000000000       0.37500000000000000        0.0000000000000000     
  0.78125000000000000       0.37500000000000000        0.0000000000000000     
  0.81250000000000000       0.37500000000000000        0.0000000000000000     
  0.84375000000000000       0.37500000000000000        0.0000000000000000     
  0.87500000000000000       0.37500000000000000        0.0000000000000000     
  0.87500000000000000       0.25000000000000000        0.0000000000000000     
  0.90625000000000000       0.25000000000000000        0.0000000000000000     
  0.93750000000000000       0.25000000000000000        0.0000000000000000     
  0.96875000000000000       0.25000000000000000        0.0000000000000000     
   1.0000000000000000       0.25000000000000000        0.0000000000000000     
  0.87500000000000000       0.28125000000000000        0.0000000000000000     
  0.90625000000000000       0.28125000000000000        0.0000000000000000     
  0.93750000000000000       0.28125000000000000        0.0000000000000000     
  0.96875000000000000       0.28125000000000000        0.0000000000000000     
   1.0000000000000000       0.28125000000000000        0.0000000000000000     
  0.87500000000000000       0.31250000000000000        0.0000000000000000     
  0.90625000000000000       0.31250000000000000        0.0000000000000000     
  0.93750000000000000       0.31250000000000000        0.0000000000000000     
  0.96875000000000000       0.31250000000000000        0.0000000000000000     
   1.0000000000000000       0.31250000000000000        0.0000000000000000     
  0.87500000000000000       0.34375000000000000        0.0000000000000000     
  0.90625000000000000       0.34375000000000000        0.0000000000000000     
  0.93750000000000000       0.34375000000000000        0.0000000000000000     
  0.96875000000000000       0.34375000000000000        0.0000000000000000     
   1.0000000000000000       0.34375000000000000        0.0000000000000000     
  0.87500000000000000       0.37500000000000000        0.0000000000000000     
  0.90625000000000000       0.37500000000000000        0.0000000000000000     
  0.93750000000000000       0.37500000000000000        0.0000000000000000     
  0.96875000000000000       0.37500000000000000        0.0000000000000000     
   1.0000000000000000       0.37500000000000000        0.0000000000000000     
   0.0000000000000000       0.37500000000000000        0.0000000000000000     
   3.1250000000000000E-002  0.37500000000000000        0.0000000000000000     
   6.2500000000000000E-002  0.37500000000000000        0.0000000000000000     
   9.3750000000000000E-002  0.37500000000000000        0.0000000000000000     
  0.12500000000000000       0.37500000000000000        0.0000000000000000     
   0.0000000000000000       0.40625000000000000        0.0000000000000000     
   3.1250000000000000E-002  0.40625000000000000        0.0000000000000000     
   6.2500000000000000E-002  0.40625000000000000        0.0000000000000000     
   9.3750000000000000E-002  0.40625000000000000        0.0000000000000000     
  0.12500000000000000       0.40625000000000000        0.0000000000000000     
   0.0000000000000000       0.43750000000000000        0.0000000000000000     
   3.1250000000000000E-002  0.43750000000000000        0.0000000000000000     
   6.2500000000000000E-002  0.43750000000000000        0.0000000000000000     
   9.3750000000000000E-002  0.43750000000000000        0.0000000000000000     
  0.12500000000000000       0.43750000000000000        0.0000000000000000     
   0.0000000000000000       0.46875000000000000        0.0000000000000000     
   3.1250000000000000E-002  0.46875000000000000        0.0000000000000000     
   6.2500000000000000E-002  0.46875000000000000        0.0000000000000000     
   9.3750000000000000E-002  0.46875000000000000        0.0000000000000000     
  0.12500000000000000       0.46875000000000000        0.0000000000000000     
   0.0000000000000000       0.50000000000000000        0.0000000000000000     
   3.1250000000000000E-002  0.50000000000000000        0.0000000000000000     
   6.2500000000000000E-002  0.50000000000000000        0.0000000000000000     
   9.3750000000000000E-002  0.50000000000000000        0.0000000000000000     
  0.12500000000000000       0.50000000000000000        0.0000000000000000     
  0.12500000000000000       0.37500000000000000        0.0000000000000000     
  0.15625000000000000       0.37500000000000000        0.0000000000000000     
  0.18750000000000000       0.37500000000000000        0.0000000000000000     
  0.21875000000000000       0.37500000000000000        0.0000000000000000     
  0.25000000000000000       0.37500000000000000        0.0000000000000000     
  0.12500000000000000       0.40625000000000000        0.0000000000000000     
  0.15625000000000000       0.40625000000000000        0.0000000000000000     
  0.18750000000000000       0.40625000000000000        0.0000000000000000     
  0.21875000000000000       0.40625000000000000        0.0000000000000000     
  0.25000000000000000       0.40625000000000000        0.0000000000000000     
  0.12500000000000000       0.43750000000000000        0.0000000000000000     
  0.15625000000000000       0.43750000000000000        0.0000000000000000     
  0.18750000000000000       0.43750000000000000        0.0000000000000000     
  0.21875000000000000       0.43750000000000000        0.0000000000000000     
  0.25000000000000000       0.43750000000000000        0.0000000000000000     
  0.12500000000000000       0.46875000000000000        0.0000000000000000     
  0.15625000000000000       0.46875000000000000        0.0000000000000000     
  0.18750000000000000       0.46875000000000000        0.0000000000000000     
  0.21875000000000000       0.46875000000000000        0.0000000000000000     
  0.25000000000000000       0.46875000000000000        0.0000000000000000     
  0.12500000000000000       0.50000000000000000        0.0000000000000000     
  0.15625000000000000       0.50000000000000000        0.0000000000000000     
  0.18750000000000000       0.50000000000000000        0.0000000000000000     
  0.21875000000000000       0.50000000000000000        0.0000000000000000     
  0.25000000000000000       0.50000000000000000        0.0000000000000000     
  0.25000000000000000       0.37500000000000000        0.0000000000000000     
  0.28125000000000000       0.37500000000000000        0.0000000000000000     
  0.31250000000000000       0.37500000000000000        0.0000000000000000     
  0.34375000000000000       0.37500000000000000        0.0000000000000000     
  0.37500000000000000       0.37500000000000000        0.0000000000000000     
  0.25000000000000000       0.40625000000000000        0.0000000000000000     
  0.28125000000000000       0.40625000000000000        0.0000000000000000     
  0.31250000000000000       0.40625000000000000        0.0000000000000000     
  0.34375000000000000       0.40625000000000000        0.0000000000000000     
  0.37500000000000000       0.40625000000000000        0.0000000000000000     
  0.25000000000000000       0.43750000000000000        0.0000000000000000     
  0.28125000000000000       0.43750000000000000        0.0000000000000000     
  0.31250000000000000       0.43750000000000000        0.0000000000000000     
  0.34375000000000000       0.43750000000000000        0.0000000000000000     
  0.37500000000000000       0.43750000000000000        0.0000000000000000     
  0.25000000000000000       0.46875000000000000        0.0000000000000000     
  0.28125000000000000       0.46875000000000000        0.0000000000000000     
  0.31250000000000000       0.46875000000000000        0.0000000000000000     
  0.34375000000000000       0.46875000000000000        0.0000000000000000     
  0.37500000000000000       0.46875000000000000        0.0000000000000000     
  0.25000000000000000       0.50000000000000000        0.0000000000000000     
  0.28125000000000000       0.50000000000000000        0.0000000000000000     
  0.31250000000000000       0.50000000000000000        0.0000000000000000     
  0.34375000000000000       0.50000000000000000        0.0000000000000000     
  0.37500000000000000       0.50000000000000000        0.0000000000000000     
  0.37500000000000000       0.37500000000000000        0.0000000000000000     
  0.40625000000000000       0.37500000000000000        0.0000000000000000     
  0.43750000000000000       0.37500000000000000        0.0000000000000000     
  0.46875000000000000       0.37500000000000000        0.0000000000000000     
  0.50000000000000000       0.37500000000000000        0.0000000000000000     
  0.37500000000000000       0.40625000000000000        0.0000000000000000     
  0.40625000000000000       0.40625000000000000        0.0000000000000000     
  0.43750000000000000       0.40625000000000000        0.0000000000000000     
  0.46875000000000000       0.40625000000000000        0.0000000000000000     
  0.50000000000000000       0.40625000000000000        0.0000000000000000     
  0.37500000000000000       0.43750000000000000        0.0000000000000000     
  0.40625000000000000       0.43750000000000000        0.0000000000000000     
  0.43750000000000000       0.43750000000000000        0.0000000000000000     
  0.46875000000000000       0.43750000000000000        0.0000000000000000     
  0.50000000000000000       0.43750000000000000        0.0000000000000000     
  0.37500000000000000       0.46875000000000000        0.0000000000000000     
  0.40625000000000000       0.46875000000000000        0.0000000000000000     
  0.43750000000000000       0.46875000000000000        0.0000000000000000     
  0.46875000000000000       0.46875000000000000        0.0000000000000000     
  0.50000000000000000       0.46875000000000000        0.0000000000000000     
  0.37500000000000000       0.50000000000000000        0.0000000000000000     
  0.40625000000000000       0.50000000000000000        0.0000000000000000     
  0.43750000000000000       0.50000000000000000        0.0000000000000000     
  0.46875000000000000       0.50000000000000000        0.0000000000000000     
  0.50000000000000000       0.50000000000000000        0.0000000000000000     
  0.50000000000000000       0.37500000000000000        0.0000000000000000     
  0.53125000000000000       0.37500000000000000        0.0000000000000000     
  0.56250000000000000       0.37500000000000000        0.0000000000000000     
  0.59375000000000000       0.37500000000000000        0.0000000000000000     
  0.62500000000000000       0.37500000000000000        0.0000000000000000     
  0.50000000000000000       0.40625000000000000        0.0000000000000000     
  0.53125000000000000       0.40625000000000000        0.0000000000000000     
  0.56250000000000000       0.40625000000000000        0.0000000000000000     
  0.59375000000000000       0.40625000000000000        0.0000000000000000     
  0.62500000000000000       0.40625000000000000        0.0000000000000000     
  0.50000000000000000       0.43750000000000000        0.0000000000000000     
  0.53125000000000000       0.43750000000000000        0.0000000000000000     
  0.56250000000000000       0.43750000000000000        0.0000000000000000     
  0.59375000000000000       0.43750000000000000        0.0000000000000000     
  0.62500000000000000       0.43750000000000000        0.0000000000000000     
  0.50000000000000000       0.46875000000000000        0.0000000000000000     
  0.53125000000000000       0.46875000000000000        0.0000000000000000     
  0.56250000000000000       0.46875000000000000        0.0000000000000000     
  0.59375000000000000       0.46875000000000000        0.0000000000000000     
  0.62500000000000000       0.46875000000000000        0.0000000000000000     
  0.50000000000000000       0.50000000000000000        0.0000000000000000     
  0.53125000000000000       0.50000000000000000        0.0000000000000000     
  0.56250000000000000       0.50000000000000000        0.0000000000000000     
  0.59375000000000000       0.50000000000000000        0.0000000000000000     
  0.62500000000000000       0.50000000000000000        0.0000000000000000     
  0.62500000000000000       0.37500000000000000        0.0000000000000000     
  0.65625000000000000       0.37500000000000000        0.0000000000000000     
  0.68750000000000000       0.37500000000000000        0.0000000000000000     
  0.71875000000000000       0.37500000000000000        0.0000000000000000     
  0.75000000000000000       0.37500000000000000        0.0000000000000000     
  0.62500000000000000       0.40625000000000000        0.0000000000000000     
  0.65625000000000000       0.40625000000000000        0.0000000000000000     
  0.68750000000000000       0.40625000000000000        0.0000000000000000     
  0.71875000000000000       0.40625000000000000        0.0000000000000000     
  0.75000000000000000       0.40625000000000000        0.0000000000000000     
  0.62500000000000000       0.43750000000000000        0.0000000000000000     
  0.65625000000000000       0.43750000000000000        0.0000000000000000     
  0.68750000000000000       0.43750000000000000        0.0000000000000000     
  0.71875000000000000       0.43750000000000000        0.0000000000000000     
  0.75000000000000000       0.43750000000000000        0.0000000000000000     
  0.62500000000000000       0.46875000000000000        0.0000000000000000     
  0.65625000000000000       0.46875000000000000        0.0000000000000000     
  0.68750000000000000       0.46875000000000000        0.0000000000000000     
  0.71875000000000000       0.46875000000000000        0.0000000000000000     
  0.75000000000000000       0.46875000000000000        0.0000000000000000     
  0.62500000000000000       0.50000000000000000        0.0000000000000000     
  0.65625000000000000       0.50000000000000000        0.0000000000000000     
  0.68750000000000000       0.50000000000000000        0.0000000000000000     
  0.71875000000000000       0.50000000000000000        0.0000000000000000     
  0.75000000000000000       0.50000000000000000        0.0000000000000000     
  0.75000000000000000       0.37500000000000000        0.0000000000000000     
  0.78125000000000000       0.37500000000000000        0.0000000000000000     
  0.81250000000000000       0.37500000000000000        0.0000000000000000     
  0.84375000000000000       0.37500000000000000        0.0000000000000000     
  0.87500000000000000       0.37500000000000000        0.0000000000000000     
  0.75000000000000000       0.40625000000000000        0.0000000000000000     
  0.78125000000000000       0.40625000000000000        0.0000000000000000     
  0.81250000000000000       0.40625000000000000        0.0000000000000000     
  0.84375000000000000       0.40625000000000000        0.0000000000000000     
  0.87500000000000000       0.40625000000000000        0.0000000000000000     
  0.75000000000000000       0.43750000000000000        0.0000000000000000     
  0.78125000000000000       0.43750000000000000        0.0000000000000000     
  0.81250000000000000       0.43750000000000000        0.0000000000000000     
  0.84375000000000000       0.43750000000000000        0.0000000000000000     
  0.87500000000000000       0.43750000000000000        0.0000000000000000     
  0.75000000000000000       0.46875000000000000        0.0000000000000000     
  0.78125000000000000       0.46875000000000000        0.0000000000000000     
  0.81250000000000000       0.46875000000000000        0.0000000000000000     
  0.84375000000000000       0.46875000000000000        0.0000000000000000     
  0.87500000000000000       0.46875000000000000        0.0000000000000000     
  0.75000000000000000       0.50000000000000000        0.0000000000000000     
  0.78125000000000000       0.50000000000000000        0.0000000000000000     
  0.81250000000000000       0.50000000000000000        0.0000000000000000     
  0.84375000000000000       0.50000000000000000        0.0000000000000000     
  0.87500000000000000       0.50000000000000000        0.0000000000000000     
  0.87500000000000000       0.37500000000000000        0.0000000000000000     
  0.90625000000000000       0.37500000000000000        0.0000000000000000     
  0.93750000000000000       0.37500000000000000        0.0000000000000000     
  0.96875000000000000       0.37500000000000000        0.0000000000000000     
   1.0000000000000000       0.37500000000000000        0.0000000000000000     
  0.87500000000000000       0.40625000000000000        0.0000000000000000     
  0.90625000000000000       0.40625000000000000        0.0000000000000000     
  0.93750000000000000       0.40625000000000000        0.0000000000000000     
  0.96875000000000000       0.40625000000000000        0.0000000000000000     
   1.0000000000000000       0.40625000000000000        0.0000000000000000     
  0.87500000000000000       0.43750000000000000        0.0000000000000000     
  0.90625000000000000       0.43750000000000000        0.0000000000000000     
  0.93750000000000000       0.43750000000000000        0.0000000000000000     
  0.96875000000000000       0.43750000000000000        0.0000000000000000     
   1.0000000000000000       0.43750000000000000        0.0000000000000000     
  0.87500000000000000       0.46875000000000000        0.0000000000000000     
  0.90625000000000000       0.46875000000000000        0.0000000000000000     
  0.93750000000000000       0.46875000000000000        0.0000000000000000     
  0.96875000000000000       0.46875000000000000        0.0000000000000000     
   1.0000000000000000       0.46875000000000000        0.0000000000000000     
  0.87500000000000000       0.50000000000000000        0.0000000000000000     
  0.90625000000000000       0.50000000000000000        0.0000000000000000     
  0.93750000000000000       0.50000000000000000        0.0000000000000000     
  0.96875000000000000       0.50000000000000000        0.0000000000000000     
   1.0000000000000000       0.50000000000000000        0.0000000000000000     
   0.0000000000000000       0.50000000000000000        0.0000000000000000     
   3.1250000000000000E-002  0.50000000000000000        0.0000000000000000     
   6.2500000000000000E-002  0.50000000000000000        0.0000000000000000     
   9.3750000000000000E-002  0.50000000000000000        0.0000000000000000     
  0.12500000000000000       0.50000000000000000        0.0000000000000000     
   0.0000000000000000       0.53125000000000000        0.0000000000000000     
   3.1250000000000000E-002  0.53125000000000000        0.0000000000000000     
   6.2500000000000000E-002  0.53125000000000000        0.0000000000000000     
   9.3750000000000000E-002  0.53125000000000000        0.0000000000000000     
  0.12500000000000000       0.53125000000000000        0.0000000000000000     
   0.0000000000000000       0.56250000000000000        0.0000000000000000     
   3.1250000000000000E-002  0.56250000000000000        0.0000000000000000     
   6.2500000000000000E-002  0.56250000000000000        0.0000000000000000     
   9.3750000000000000E-002  0.56250000000000000        0.0000000000000000     
  0.12500000000000000       0.56250000000000000        0.0000000000000000     
   0.0000000000000000       0.59375000000000000        0.0000000000000000     
   3.1250000000000000E-002  0.59375000000000000        0.0000000000000000     
   6.2500000000000000E-002  0.59375000000000000        0.0000000000000000     
   9.3750000000000000E-002  0.59375000000000000        0.0000000000000000     
  0.12500000000000000       0.59375000000000000        0.0000000000000000     
   0.0000000000000000       0.62500000000000000        0.0000000000000000     
   3.1250000000000000E-002  0.62500000000000000        0.0000000000000000     
   6.2500000000000000E-002  0.62500000000000000        0.0000000000000000     
   9.3750000000000000E-002  0.62500000000000000        0.0000000000000000     
  0.12500000000000000       0.62500000000000000        0.0000000000000000     
  0.12500000000000000       0.50000000000000000        0.0000000000000000     
  0.15625000000000000       0.50000000000000000        0.0000000000000000     
  0.18750000000000000       0.50000000000000000        0.0000000000000000     
  0.21875000000000000       0.50000000000000000        0.0000000000000000     
  0.25000000000000000       0.50000000000000000        0.0000000000000000     
  0.12500000000000000       0.53125000000000000        0.0000000000000000     
  0.15625000000000000       0.53125000000000000        0.0000000000000000     
  0.18750000000000000       0.53125000000000000        0.0000000000000000     
  0.21875000000000000       0.53125000000000000        0.0000000000000000     
  0.25000000000000000       0.53125000000000000        0.0000000000000000     
  0.12500000000000000       0.56250000000000000        0.0000000000000000     
  0.15625000000000000       0.56250000000000000        0.0000000000000000     
  0.18750000000000000       0.56250000000000000        0.0000000000000000     
  0.21875000000000000       0.56250000000000000        0.0000000000000000     
  0.25000000000000000       0.56250000000000000        0.0000000000000000     
  0.12500000000000000       0.59375000000000000        0.0000000000000000     
  0.15625000000000000       0.59375000000000000        0.0000000000000000     
  0.18750000000000000       0.59375000000000000        0.0000000000000000     
  0.21875000000000000       0.59375000000000000        0.0000000000000000     
  0.25000000000000000       0.59375000000000000        0.0000000000000000     
  0.12500000000000000       0.62500000000000000        0.0000000000000000     
  0.15625000000000000       0.62500000000000000        0.0000000000000000     
  0.18750000000000000       0.62500000000000000        0.0000000000000000     
  0.21875000000000000       0.62500000000000000        0.0000000000000000     
  0.25000000000000000       0.62500000000000000        0.0000000000000000     
  0.25000000000000000       0.50000000000000000        0.0000000000000000     
  0.28125000000000000       0.50000000000000000        0.0000000000000000     
  0.31250000000000000       0.50000000000000000        0.0000000000000000     
  0.34375000000000000       0.50000000000000000        0.0000000000000000     
  0.37500000000000000       0.50000000000000000        0.0000000000000000     
  0.25000000000000000       0.53125000000000000        0.0000000000000000     
  0.28125000000000000       0.53125000000000000        0.0000000000000000     
  0.31250000000000000       0.53125000000000000        0.0000000000000000     
  0.34375000000000000       0.53125000000000000        0.0000000000000000     
  0.37500000000000000       0.53125000000000000        0.0000000000000000     
  0.25000000000000000       0.56250000000000000        0.0000000000000000     
  0.28125000000000000       0.56250000000000000        0.0000000000000000     
  0.31250000000000000       0.56250000000000000        0.0000000000000000     
  0.34375000000000000       0.56250000000000000        0.0000000000000000     
  0.37500000000000000       0.56250000000000000        0.0000000000000000     
  0.25000000000000000       0.59375000000000000        0.0000000000000000     
  0.28125000000000000       0.59375000000000000        0.0000000000000000     
  0.31250000000000000       0.59375000000000000        0.0000000000000000     
  0.34375000000000000       0.59375000000000000        0.0000000000000000     
  0.37500000000000000       0.59375000000000000        0.0000000000000000     
  0.25000000000000000       0.62500000000000000        0.0000000000000000     
  0.28125000000000000       0.62500000000000000        0.0000000000000000     
  0.31250000000000000       0.62500000000000000        0.0000000000000000     
  0.34375000000000000       0.62500000000000000        0.0000000000000000     
  0.37500000000000000       0.62500000000000000        0.0000000000000000     
  0.37500000000000000       0.50000000000000000        0.0000000000000000     
  0.40625000000000000       0.50000000000000000        0.0000000000000000     
  0.43750000000000000       0.50000000000000000        0.0000000000000000     
  0.46875000000000000       0.50000000000000000        0.0000000000000000     
  0.50000000000000000       0.50000000000000000        0.0000000000000000     
  0.37500000000000000       0.53125000000000000        0.0000000000000000     
  0.40625000000000000       0.53125000000000000        0.0000000000000000     
  0.43750000000000000       0.53125000000000000        0.0000000000000000     
  0.46875000000000000       0.53125000000000000        0.0000000000000000     
  0.50000000000000000       0.53125000000000000        0.0000000000000000     
  0.37500000000000000       0.56250000000000000        0.0000000000000000     
  0.40625000000000000       0.56250000000000000        0.0000000000000000     
  0.43750000000000000       0.56250000000000000        0.0000000000000000     
  0.46875000000000000       0.56250000000000000        0.0000000000000000     
  0.50000000000000000       0.56250000000000000        0.0000000000000000     
  0.37500000000000000       0.59375000000000000        0.0000000000000000     
  0.40625000000000000       0.59375000000000000        0.0000000000000000     
  0.43750000000000000       0.59375000000000000        0.0000000000000000     
  0.46875000000000000       0.59375000000000000        0.0000000000000000     
  0.50000000000000000       0.59375000000000000        0.0000000000000000     
  0.37500000000000000       0.62500000000000000        0.0000000000000000     
  0.40625000000000000       0.62500000000000000        0.0000000000000000     
  0.43750000000000000       0.62500000000000000        0.0000000000000000     
  0.46875000000000000       0.62500000000000000        0.0000000000000000     
  0.50000000000000000       0.62500000000000000        0.0000000000000000     
  0.50000000000000000       0.50000000000000000        0.0000000000000000     
  0.53125000000000000       0.50000000000000000        0.0000000000000000     
  0.56250000000000000       0.50000000000000000        0.0000000000000000     
  0.59375000000000000       0.50000000000000000        0.0000000000000000     
  0.62500000000000000       0.50000000000000000        0.0000000000000000     
  0.50000000000000000       0.53125000000000000        0.0000000000000000     
  0.53125000000000000       0.53125000000000000        0.0000000000000000     
  0.56250000000000000       0.53125000000000000        0.0000000000000000     
  0.59375000000000000       0.53125000000000000        0.0000000000000000     
  0.62500000000000000       0.53125000000000000        0.0000000000000000     
  0.50000000000000000       0.56250000000000000        0.0000000000000000     
  0.53125000000000000       0.56250000000000000        0.0000000000000000     
  0.56250000000000000       0.56250000000000000        0.0000000000000000     
  0.59375000000000000       0.56250000000000000        0.0000000000000000     
  0.62500000000000000       0.56250000000000000        0.0000000000000000     
  0.50000000000000000       0.59375000000000000        0.0000000000000000     
  0.53125000000000000       0.59375000000000000        0.0000000000000000     
  0.56250000000000000       0.59375000000000000        0.0000000000000000     
  0.59375000000000000       0.59375000000000000        0.0000000000000000     
  0.62500000000000000       0.59375000000000000        0.0000000000000000     
  0.50000000000000000       0.62500000000000000        0.0000000000000000     
  0.53125000000000000       0.62500000000000000        0.0000000000000000     
  0.56250000000000000       0.62500000000000000        0.0000000000000000     
  0.59375000000000000       0.62500000000000000        0.0000000000000000     
  0.62500000000000000       0.62500000000000000        0.0000000000000000     
  0.62500000000000000       0.50000000000000000        0.0000000000000000     
  0.65625000000000000       0.50000000000000000        0.0000000000000000     
  0.68750000000000000       0.50000000000000000        0.0000000000000000     
  0.71875000000000000       0.50000000000000000        0.0000000000000000     
  0.75000000000000000       0.50000000000000000        0.0000000000000000     
  0.62500000000000000       0.53125000000000000        0.0000000000000000     
  0.65625000000000000       0.53125000000000000        0.0000000000000000     
  0.68750000000000000       0.53125000000000000        0.0000000000000000     
  0.71875000000000000       0.53125000000000000        0.0000000000000000     
  0.75000000000000000       0.53125000000000000        0.0000000000000000     
  0.62500000000000000       0.56250000000000000        0.0000000000000000     
  0.65625000000000000       0.56250000000000000        0.0000000000000000     
  0.68750000000000000       0.56250000000000000        0.0000000000000000     
  0.71875000000000000       0.56250000000000000        0.0000000000000000     
  0.75000000000000000       0.56250000000000000        0.0000000000000000     
  0.62500000000000000       0.59375000000000000        0.0000000000000000     
  0.65625000000000000       0.59375000000000000        0.0000000000000000     
  0.68750000000000000       0.59375000000000000        0.0000000000000000     
  0.71875000000000000       0.59375000000000000        0.0000000000000000     
  0.75000000000000000       0.59375000000000000        0.0000000000000000     
  0.62500000000000000       0.62500000000000000        0.0000000000000000     
  0.65625000000000000       0.62500000000000000        0.0000000000000000     
  0.68750000000000000       0.62500000000000000        0.0000000000000000     
  0.71875000000000000       0.62500000000000000        0.0000000000000000     
  0.75000000000000000       0.62500000000000000        0.0000000000000000     
  0.75000000000000000       0.50000000000000000        0.0000000000000000     
  0.78125000000000000       0.50000000000000000        0.0000000000000000     
  0.81250000000000000       0.50000000000000000        0.0000000000000000     
  0.84375000000000000       0.50000000000000000        0.0000000000000000     
  0.87500000000000000       0.50000000000000000        0.0000000000000000     
  0.75000000000000000       0.53125000000000000        0.0000000000000000     
  0.78125000000000000       0.53125000000000000        0.0000000000000000     
  0.81250000000000000       0.53125000000000000        0.0000000000000000     
  0.84375000000000000       0.53125000000000000        0.0000000000000000     
  0.87500000000000000       0.53125000000000000        0.0000000000000000     
  0.75000000000000000       0.56250000000000000        0.0000000000000000     
  0.78125000000000000       0.56250000000000000        0.0000000000000000     
  0.81250000000000000       0.56250000000000000        0.0000000000000000     
  0.84375000000000000       0.56250000000000000        0.0000000000000000     
  0.87500000000000000       0.56250000000000000        0.0000000000000000     
  0.75000000000000000       0.59375000000000000        0.0000000000000000     
  0.78125000000000000       0.59375000000000000        0.0000000000000000     
  0.81250000000000000       0.59375000000000000        0.0000000000000000     
  0.84375000000000000       0.59375000000000000        0.0000000000000000     
  0.87500000000000000       0.59375000000000000        0.0000000000000000     
  0.75000000000000000       0.62500000000000000        0.0000000000000000     
  0.78125000000000000       0.62500000000000000        0.0000000000000000     
  0.81250000000000000       0.62500000000000000        0.0000000000000000     
  0.84375000000000000       0.62500000000000000        0.0000000000000000     
  0.87500000000000000       0.62500000000000000        0.0000000000000000     
  0.87500000000000000       0.50000000000000000        0.0000000000000000     
  0.90625000000000000       0.50000000000000000        0.0000000000000000     
  0.93750000000000000       0.50000000000000000        0.0000000000000000     
  0.96875000000000000       0.50000000000000000        0.0000000000000000     
   1.0000000000000000       0.50000000000000000        0.0000000000000000     
  0.87500000000000000       0.53125000000000000        0.0000000000000000     
  0.90625000000000000       0.53125000000000000        0.0000000000000000     
  0.93750000000000000       0.53125000000000000        0.0000000000000000     
  0.96875000000000000       0.53125000000000000        0.0000000000000000     
   1.0000000000000000       0.53125000000000000        0.0000000000000000     
  0.87500000000000000       0.56250000000000000        0.0000000000000000     
  0.90625000000000000       0.56250000000000000        0.0000000000000000     
  0.93750000000000000       0.56250000000000000        0.0000000000000000     
  0.96875000000000000       0.56250000000000000        0.0000000000000000     
   1.0000000000000000       0.56250000000000000        0.0000000000000000     
  0.87500000000000000       0.59375000000000000        0.0000000000000000     
  0.90625000000000000       0.59375000000000000        0.0000000000000000     
  0.93750000000000000       0.59375000000000000        0.0000000000000000     
  0.96875000000000000       0.59375000000000000        0.0000000000000000     
   1.0000000000000000       0.59375000000000000        0.0000000000000000     
  0.87500000000000000       0.62500000000000000        0.0000000000000000     
  0.90625000000000000       0.62500000000000000        0.0000000000000000     
  0.93750000000000000       0.62500000000000000        0.0000000000000000     
  0.96875000000000000       0.62500000000000000        0.0000000000000000     
   1.0000000000000000       0.62500000000000000        0.0000000000000000     
   0.0000000000000000       0.62500000000000000        0.0000000000000000     
   3.1250000000000000E-002  0.62500000000000000        0.0000000000000000     
   6.2500000000000000E-002  0.62500000000000000        0.0000000000000000     
   9.3750000000000000E-002  0.62500000000000000        0.0000000000000000     
  0.12500000000000000       0.62500000000000000        0.0000000000000000     
   0.0000000000000000       0.65625000000000000        0.0000000000000000     
   3.1250000000000000E-002  0.65625000000000000        0.0000000000000000     
   6.2500000000000000E-002  0.65625000000000000        0.0000000000000000     
   9.3750000000000000E-002  0.65625000000000000        0.0000000000000000     
  0.12500000000000000       0.65625000000000000        0.0000000000000000     
   0.0000000000000000       0.68750000000000000        0.0000000000000000     
   3.1250000000000000E-002  0.68750000000000000        0.0000000000000000     
   6.2500000000000000E-002  0.68750000000000000        0.0000000000000000     
   9.3750000000000000E-002  0.68750000000000000        0.0000000000000000     
  0.12500000000000000       0.68750000000000000        0.0000000000000000     
   0.0000000000000000       0.71875000000000000        0.0000000000000000     
   3.1250000000000000E-002  0.71875000000000000        0.0000000000000000     
   6.2500000000000000E-002  0.71875000000000000        0.0000000000000000     
   9.3750000000000000E-002  0.71875000000000000        0.0000000000000000     
  0.12500000000000000       0.71875000000000000        0.0000000000000000     
   0.0000000000000000       0.75000000000000000        0.0000000000000000     
   3.1250000000000000E-002  0.75000000000000000        0.0000000000000000     
   6.2500000000000000E-002  0.75000000000000000        0.0000000000000000     
   9.3750000000000000E-002  0.75000000000000000        0.0000000000000000     
  0.12500000000000000       0.75000000000000000        0.0000000000000000     
  0.12500000000000000       0.62500000000000000        0.0000000000000000     
  0.15625000000000000       0.62500000000000000        0.0000000000000000     
  0.18750000000000000       0.62500000000000000        0.0000000000000000     
  0.21875000000000000       0.62500000000000000        0.0000000000000000     
  0.25000000000000000       0.62500000000000000        0.0000000000000000     
  0.12500000000000000       0.65625000000000000        0.0000000000000000     
  0.15625000000000000       0.65625000000000000        0.0000000000000000     
  0.18750000000000000       0.65625000000000000        0.0000000000000000     
  0.21875000000000000       0.65625000000000000        0.0000000000000000     
  0.25000000000000000       0.65625000000000000        0.0000000000000000     
  0.12500000000000000       0.68750000000000000        0.0000000000000000     
  0.15625000000000000       0.68750000000000000        0.0000000000000000     
  0.18750000000000000       0.68750000000000000        0.0000000000000000     
  0.21875000000000000       0.68750000000000000        0.0000000000000000     
  0.25000000000000000       0.68750000000000000        0.0000000000000000     
  0.12500000000000000       0.71875000000000000        0.0000000000000000     
  0.15625000000000000       0.71875000000000000        0.0000000000000000     
  0.18750000000000000       0.71875000000000000        0.0000000000000000     
  0.21875000000000000       0.71875000000000000        0.0000000000000000     
  0.25000000000000000       0.71875000000000000        0.0000000000000000     
  0.12500000000000000       0.75000000000000000        0.0000000000000000     
  0.15625000000000000       0.75000000000000000        0.0000000000000000     
  0.18750000000000000       0.75000000000000000        0.0000000000000000     
  0.21875000000000000       0.75000000000000000        0.0000000000000000     
  0.25000000000000000       0.75000000000000000        0.0000000000000000     
  0.25000000000000000       0.62500000000000000        0.0000000000000000     
  0.28125000000000000       0.62500000000000000        0.0000000000000000     
  0.31250000000000000       0.62500000000000000        0.0000000000000000     
  0.34375000000000000       0.62500000000000000        0.0000000000000000     
  0.37500000000000000       0.62500000000000000        0.0000000000000000     
  0.25000000000000000       0.65625000000000000        0.0000000000000000     
  0.28125000000000000       0.65625000000000000        0.0000000000000000     
  0.31250000000000000       0.65625000000000000        0.0000000000000000     
  0.34375000000000000       0.65625000000000000        0.0000000000000000     
  0.37500000000000000       0.65625000000000000        0.0000000000000000     
  0.25000000000000000       0.68750000000000000        0.0000000000000000     
  0.28125000000000000       0.68750000000000000        0.0000000000000000     
  0.31250000000000000       0.68750000000000000        0.0000000000000000     
  0.34375000000000000       0.68750000000000000        0.0000000000000000     
  0.37500000000000000       0.68750000000000000        0.0000000000000000     
  0.25000000000000000       0.71875000000000000        0.0000000000000000     
  0.28125000000000000       0.71875000000000000        0.0000000000000000     
  0.31250000000000000       0.71875000000000000        0.0000000000000000     
  0.34375000000000000       0.71875000000000000        0.0000000000000000     
  0.37500000000000000       0.71875000000000000        0.0000000000000000     
  0.25000000000000000       0.75000000000000000        0.0000000000000000     
  0.28125000000000000       0.75000000000000000        0.0000000000000000     
  0.31250000000000000       0.75000000000000000        0.0000000000000000     
  0.34375000000000000       0.75000000000000000        0.0000000000000000     
  0.37500000000000000       0.75000000000000000        0.0000000000000000     
  0.37500000000000000       0.62500000000000000        0.0000000000000000     
  0.40625000000000000       0.62500000000000000        0.0000000000000000     
  0.43750000000000000       0.62500000000000000        0.0000000000000000     
  0.46875000000000000       0.62500000000000000        0.0000000000000000     
  0.50000000000000000       0.62500000000000000        0.0000000000000000     
  0.37500000000000000       0.65625000000000000        0.0000000000000000     
  0.40625000000000000       0.65625000000000000        0.0000000000000000     
  0.43750000000000000       0.65625000000000000        0.0000000000000000     
  0.46875000000000000       0.65625000000000000        0.0000000000000000     
  0.50000000000000000       0.65625000000000000        0.0000000000000000     
  0.37500000000000000       0.68750000000000000        0.0000000000000000     
  0.40625000000000000       0.68750000000000000        0.0000000000000000     
  0.43750000000000000       0.68750000000000000        0.0000000000000000     
  0.46875000000000000       0.68750000000000000        0.0000000000000000     
  0.50000000000000000       0.68750000000000000        0.0000000000000000     
  0.37500000000000000       0.71875000000000000        0.0000000000000000     
  0.40625000000000000       0.71875000000000000        0.0000000000000000     
  0.43750000000000000       0.71875000000000000        0.0000000000000000     
  0.46875000000000000       0.71875000000000000        0.0000000000000000     
  0.50000000000000000       0.71875000000000000        0.0000000000000000     
  0.37500000000000000       0.75000000000000000        0.0000000000000000     
  0.40625000000000000       0.75000000000000000        0.0000000000000000     
  0.43750000000000000       0.75000000000000000        0.0000000000000000     
  0.46875000000000000       0.75000000000000000        0.0000000000000000     
  0.50000000000000000       0.75000000000000000        0.0000000000000000     
  0.50000000000000000       0.62500000000000000        0.0000000000000000     
  0.53125000000000000       0.62500000000000000        0.0000000000000000     
  0.56250000000000000       0.62500000000000000        0.0000000000000000     
  0.59375000000000000       0.62500000000000000        0.0000000000000000     
  0.62500000000000000       0.62500000000000000        0.0000000000000000     
  0.50000000000000000       0.65625000000000000        0.0000000000000000     
  0.53125000000000000       0.65625000000000000        0.0000000000000000     
  0.56250000000000000       0.65625000000000000        0.0000000000000000     
  0.59375000000000000       0.65625000000000000        0.0000000000000000     
  0.62500000000000000       0.65625000000000000        0.0000000000000000     
  0.50000000000000000       0.68750000000000000        0.0000000000000000     
  0.53125000000000000       0.68750000000000000        0.0000000000000000     
  0.56250000000000000       0.68750000000000000        0.0000000000000000     
  0.59375000000000000       0.68750000000000000        0.0000000000000000     
  0.62500000000000000       0.68750000000000000        0.0000000000000000     
  0.50000000000000000       0.71875000000000000        0.0000000000000000     
  0.53125000000000000       0.71875000000000000        0.0000000000000000     
  0.56250000000000000       0.71875000000000000        0.0000000000000000     
  0.59375000000000000       0.71875000000000000        0.0000000000000000     
  0.62500000000000000       0.71875000000000000        0.0000000000000000     
  0.50000000000000000       0.75000000000000000        0.0000000000000000     
  0.53125000000000000       0.75000000000000000        0.0000000000000000     
  0.56250000000000000       0.75000000000000000        0.0000000000000000     
  0.59375000000000000       0.75000000000000000        0.0000000000000000     
  0.62500000000000000       0.75000000000000000        0.0000000000000000     
  0.62500000000000000       0.62500000000000000        0.0000000000000000     
  0.65625000000000000       0.62500000000000000        0.0000000000000000     
  0.68750000000000000       0.62500000000000000        0.0000000000000000     
  0.71875000000000000       0.62500000000000000        0.0000000000000000     
  0.75000000000000000       0.62500000000000000        0.0000000000000000     
  0.62500000000000000       0.65625000000000000        0.0000000000000000     
  0.65625000000000000       0.65625000000000000        0.0000000000000000     
  0.68750000000000000       0.65625000000000000        0.0000000000000000     
  0.71875000000000000       0.65625000000000000        0.0000000000000000     
  0.75000000000000000       0.65625000000000000        0.0000000000000000     
  0.62500000000000000       0.68750000000000000        0.0000000000000000     
  0.65625000000000000       0.68750000000000000        0.0000000000000000     
  0.68750000000000000       0.68750000000000000        0.0000000000000000     
  0.71875000000000000       0.68750000000000000        0.0000000000000000     
  0.75000000000000000       0.68750000000000000        0.0000000000000000     
  0.62500000000000000       0.71875000000000000        0.0000000000000000     
  0.65625000000000000       0.71875000000000000        0.0000000000000000     
  0.68750000000000000       0.71875000000000000        0.0000000000000000     
  0.71875000000000000       0.71875000000000000        0.0000000000000000     
  0.75000000000000000       0.71875000000000000        0.0000000000000000     
  0.62500000000000000       0.75000000000000000        0.0000000000000000     
  0.65625000000000000       0.75000000000000000        0.0000000000000000     
  0.68750000000000000       0.75000000000000000        0.0000000000000000     
  0.71875000000000000       0.75000000000000000        0.0000000000000000     
  0.75000000000000000       0.75000000000000000        0.0000000000000000     
  0.75000000000000000       0.62500000000000000        0.0000000000000000     
  0.78125000000000000       0.62500000000000000        0.0000000000000000     
  0.81250000000000000       0.62500000000000000        0.0000000000000000     
  0.84375000000000000       0.62500000000000000        0.0000000000000000     
  0.87500000000000000       0.62500000000000000        0.0000000000000000     
  0.75000000000000000       0.65625000000000000        0.0000000000000000     
  0.78125000000000000       0.65625000000000000        0.0000000000000000     
  0.81250000000000000       0.65625000000000000        0.0000000000000000     
  0.84375000000000000       0.65625000000000000        0.0000000000000000     
  0.87500000000000000       0.65625000000000000        0.0000000000000000     
  0.75000000000000000       0.68750000000000000        0.0000000000000000     
  0.78125000000000000       0.68750000000000000        0.0000000000000000     
  0.81250000000000000       0.68750000000000000        0.0000000000000000     
  0.84375000000000000       0.68750000000000000        0.0000000000000000     
  0.87500000000000000       0.68750000000000000        0.0000000000000000     
  0.75000000000000000       0.71875000000000000        0.0000000000000000     
  0.78125000000000000       0.71875000000000000        0.0000000000000000     
  0.81250000000000000       0.71875000000000000        0.0000000000000000     
  0.84375000000000000       0.71875000000000000        0.0000000000000000     
  0.87500000000000000       0.71875000000000000        0.0000000000000000     
  0.75000000000000000       0.75000000000000000        0.0000000000000000     
  0.78125000000000000       0.75000000000000000        0.0000000000000000     
  0.81250000000000000       0.75000000000000000        0.0000000000000000     
  0.84375000000000000       0.75000000000000000        0.0000000000000000     
  0.87500000000000000       0.75000000000000000        0.0000000000000000     
  0.87500000000000000       0.62500000000000000        0.0000000000000000     
  0.90625000000000000       0.62500000000000000        0.0000000000000000     
  0.93750000000000000       0.62500000000000000        0.0000000000000000     
  0.96875000000000000       0.62500000000000000        0.0000000000000000     
   1.0000000000000000       0.62500000000000000        0.0000000000000000     
  0.87500000000000000       0.65625000000000000        0.0000000000000000     
  0.90625000000000000       0.65625000000000000        0.0000000000000000     
  0.93750000000000000       0.65625000000000000        0.0000000000000000     
  0.96875000000000000       0.65625000000000000        0.0000000000000000     
   1.0000000000000000       0.65625000000000000        0.0000000000000000     
  0.87500000000000000       0.68750000000000000        0.0000000000000000     
  0.90625000000000000       0.68750000000000000        0.0000000000000000     
  0.93750000000000000       0.68750000000000000        0.0000000000000000     
  0.96875000000000000       0.68750000000000000        0.0000000000000000     
   1.0000000000000000       0.68750000000000000        0.0000000000000000     
  0.87500000000000000       0.71875000000000000        0.0000000000000000     
  0.90625000000000000       0.71875000000000000        0.0000000000000000     
  0.93750000000000000       0.71875000000000000        0.0000000000000000     
  0.96875000000000000       0.71875000000000000        0.0000000000000000     
   1.0000000000000000       0.71875000000000000        0.0000000000000000     
  0.87500000000000000       0.75000000000000000        0.0000000000000000     
  0.90625000000000000       0.75000000000000000        0.0000000000000000     
  0.93750000000000000       0.75000000000000000        0.0000000000000000     
  0.96875000000000000       0.75000000000000000        0.0000000000000000     
   1.0000000000000000       0.75000000000000000        0.0000000000000000     
   0.0000000000000000       0.75000000000000000        0.0000000000000000     
   3.1250000000000000E-002  0.75000000000000000        0.0000000000000000     
   6.2500000000000000E-002  0.75000000000000000        0.0000000000000000     
   9.3750000000000000E-002  0.75000000000000000        0.0000000000000000     
  0.12500000000000000       0.75000000000000000        0.0000000000000000     
   0.0000000000000000       0.78125000000000000        0.0000000000000000     
   3.1250000000000000E-002  0.78125000000000000        0.0000000000000000     
   6.2500000000000000E-002  0.78125000000000000        0.0000000000000000     
   9.3750000000000000E-002  0.78125000000000000        0.0000000000000000     
  0.12500000000000000       0.78125000000000000        0.0000000000000000     
   0.0000000000000000       0.81250000000000000        0.0000000000000000     
   3.1250000000000000E-002  0.81250000000000000        0.0000000000000000     
   6.2500000000000000E-002  0.81250000000000000        0.0000000000000000     
   9.3750000000000000E-002  0.81250000000000000        0.0000000000000000     
  0.12500000000000000       0.81250000000000000        0.0000000000000000     
   0.0000000000000000       0.84375000000000000        0.0000000000000000     
   3.1250000000000000E-002  0.84375000000000000        0.0000000000000000     
   6.2500000000000000E-002  0.84375000000000000        0.0000000000000000     
   9.3750000000000000E-002  0.84375000000000000        0.0000000000000000     
  0.12500000000000000       0.84375000000000000        0.0000000000000000     
   0.0000000000000000       0.87500000000000000        0.0000000000000000     
   3.1250000000000000E-002  0.87500000000000000        0.0000000000000000     
   6.2500000000000000E-002  0.87500000000000000        0.0000000000000000     
   9.3750000000000000E-002  0.87500000000000000        0.0000000000000000     
  0.12500000000000000       0.87500000000000000        0.0000000000000000     
  0.12500000000000000       0.75000000000000000        0.0000000000000000     
  0.15625000000000000       0.75000000000000000        0.0000000000000000     
  0.18750000000000000       0.75000000000000000        0.0000000000000000     
  0.21875000000000000       0.75000000000000000        0.0000000000000000     
  0.25000000000000000       0.75000000000000000        0.0000000000000000     
  0.12500000000000000       0.78125000000000000        0.0000000000000000     
  0.15625000000000000       0.78125000000000000        0.0000000000000000     
  0.18750000000000000       0.78125000000000000        0.0000000000000000     
  0.21875000000000000       0.78125000000000000        0.0000000000000000     
  0.25000000000000000       0.78125000000000000        0.0000000000000000     
  0.12500000000000000       0.81250000000000000        0.0000000000000000     
  0.15625000000000000       0.81250000000000000        0.0000000000000000     
  0.18750000000000000       0.81250000000000000        0.0000000000000000     
  0.21875000000000000       0.81250000000000000        0.0000000000000000     
  0.25000000000000000       0.81250000000000000        0.0000000000000000     
  0.12500000000000000       0.84375000000000000        0.0000000000000000     
  0.15625000000000000       0.84375000000000000        0.0000000000000000     
  0.18750000000000000       0.84375000000000000        0.0000000000000000     
  0.21875000000000000       0.84375000000000000        0.0000000000000000     
  0.25000000000000000       0.84375000000000000        0.0000000000000000     
  0.12500000000000000       0.87500000000000000        0.0000000000000000     
  0.15625000000000000       0.87500000000000000        0.0000000000000000     
  0.18750000000000000       0.87500000000000000        0.0000000000000000     
  0.21875000000000000       0.87500000000000000        0.0000000000000000     
  0.25000000000000000       0.87500000000000000        0.0000000000000000     
  0.25000000000000000       0.75000000000000000        0.0000000000000000     
  0.28125000000000000       0.75000000000000000        0.0000000000000000     
  0.31250000000000000       0.75000000000000000        0.0000000000000000     
  0.34375000000000000       0.75000000000000000        0.0000000000000000     
  0.37500000000000000       0.75000000000000000        0.0000000000000000     
  0.25000000000000000       0.78125000000000000        0.0000000000000000     
  0.28125000000000000       0.78125000000000000        0.0000000000000000     
  0.31250000000000000       0.78125000000000000        0.0000000000000000     
  0.34375000000000000       0.78125000000000000        0.0000000000000000     
  0.37500000000000000       0.78125000000000000        0.0000000000000000     
  0.25000000000000000       0.81250000000000000        0.0000000000000000     
  0.28125000000000000       0.81250000000000000        0.0000000000000000     
  0.31250000000000000       0.81250000000000000        0.0000000000000000     
  0.34375000000000000       0.81250000000000000        0.0000000000000000     
  0.37500000000000000       0.81250000000000000        0.0000000000000000     
  0.25000000000000000       0.84375000000000000        0.0000000000000000     
  0.28125000000000000       0.84375000000000000        0.0000000000000000     
  0.31250000000000000       0.84375000000000000        0.0000000000000000     
  0.34375000000000000       0.84375000000000000        0.0000000000000000     
  0.37500000000000000       0.84375000000000000        0.0000000000000000     
  0.25000000000000000       0.87500000000000000        0.0000000000000000     
  0.28125000000000000       0.87500000000000000        0.0000000000000000     
  0.31250000000000000       0.87500000000000000        0.0000000000000000     
  0.34375000000000000       0.87500000000000000        0.0000000000000000     
  0.37500000000000000       0.87500000000000000        0.0000000000000000     
  0.37500000000000000       0.75000000000000000        0.0000000000000000     
  0.40625000000000000       0.75000000000000000        0.0000000000000000     
  0.43750000000000000       0.75000000000000000        0.0000000000000000     
  0.46875000000000000       0.75000000000000000        0.0000000000000000     
  0.50000000000000000       0.75000000000000000        0.0000000000000000     
  0.37500000000000000       0.78125000000000000        0.0000000000000000     
  0.40625000000000000       0.78125000000000000        0.0000000000000000     
  0.43750000000000000       0.78125000000000000        0.0000000000000000     
  0.46875000000000000       0.78125000000000000        0.0000000000000000     
  0.50000000000000000       0.78125000000000000        0.0000000000000000     
  0.37500000000000000       0.81250000000000000        0.0000000000000000     
  0.40625000000000000       0.81250000000000000        0.0000000000000000     
  0.43750000000000000       0.81250000000000000        0.0000000000000000     
  0.46875000000000000       0.81250000000000000        0.0000000000000000     
  0.50000000000000000       0.81250000000000000        0.0000000000000000     
  0.37500000000000000       0.84375000000000000        0.0000000000000000     
  0.40625000000000000       0.84375000000000000        0.0000000000000000     
  0.43750000000000000       0.84375000000000000        0.0000000000000000     
  0.46875000000000000       0.84375000000000000        0.0000000000000000     
  0.50000000000000000       0.84375000000000000        0.0000000000000000     
  0.37500000000000000       0.87500000000000000        0.0000000000000000     
  0.40625000000000000       0.87500000000000000        0.0000000000000000     
  0.43750000000000000       0.87500000000000000        0.0000000000000000     
  0.46875000000000000       0.87500000000000000        0.0000000000000000     
  0.50000000000000000       0.87500000000000000        0.0000000000000000     
  0.50000000000000000       0.75000000000000000        0.0000000000000000     
  0.53125000000000000       0.75000000000000000        0.0000000000000000     
  0.56250000000000000       0.75000000000000000        0.0000000000000000     
  0.59375000000000000       0.75000000000000000        0.0000000000000000     
  0.62500000000000000       0.75000000000000000        0.0000000000000000     
  0.50000000000000000       0.78125000000000000        0.0000000000000000     
  0.53125000000000000       0.78125000000000000        0.0000000000000000     
  0.56250000000000000       0.78125000000000000        0.0000000000000000     
  0.59375000000000000       0.78125000000000000        0.0000000000000000     
  0.62500000000000000       0.78125000000000000        0.0000000000000000     
  0.50000000000000000       0.81250000000000000        0.0000000000000000     
  0.53125000000000000       0.81250000000000000        0.0000000000000000     
  0.56250000000000000       0.81250000000000000        0.0000000000000000     
  0.59375000000000000       0.81250000000000000        0.0000000000000000     
  0.62500000000000000       0.81250000000000000        0.0000000000000000     
  0.50000000000000000       0.84375000000000000        0.0000000000000000     
  0.53125000000000000       0.84375000000000000        0.0000000000000000     
  0.56250000000000000       0.84375000000000000        0.0000000000000000     
  0.59375000000000000       0.84375000000000000        0.0000000000000000     
  0.62500000000000000       0.84375000000000000        0.0000000000000000     
  0.50000000000000000       0.87500000000000000        0.0000000000000000     
  0.53125000000000000       0.87500000000000000        0.0000000000000000     
  0.56250000000000000       0.87500000000000000        0.0000000000000000     
  0.59375000000000000       0.87500000000000000        0.0000000000000000     
  0.62500000000000000       0.87500000000000000        0.0000000000000000     
  0.62500000000000000       0.75000000000000000        0.0000000000000000     
  0.65625000000000000       0.75000000000000000        0.0000000000000000     
  0.68750000000000000       0.75000000000000000        0.0000000000000000     
  0.71875000000000000       0.75000000000000000        0.0000000000000000     
  0.75000000000000000       0.75000000000000000        0.0000000000000000     
  0.62500000000000000       0.78125000000000000        0.0000000000000000     
  0.65625000000000000       0.78125000000000000        0.0000000000000000     
  0.68750000000000000       0.78125000000000000        0.0000000000000000     
  0.71875000000000000       0.78125000000000000        0.0000000000000000     
  0.75000000000000000       0.78125000000000000        0.0000000000000000     
  0.62500000000000000       0.81250000000000000        0.0000000000000000     
  0.65625000000000000       0.81250000000000000        0.0000000000000000     
  0.68750000000000000       0.81250000000000000        0.0000000000000000     
  0.71875000000000000       0.81250000000000000        0.0000000000000000     
  0.75000000000000000       0.81250000000000000        0.0000000000000000     
  0.62500000000000000       0.84375000000000000        0.0000000000000000     
  0.65625000000000000       0.84375000000000000        0.0000000000000000     
  0.68750000000000000       0.84375000000000000        0.0000000000000000     
  0.71875000000000000       0.84375000000000000        0.0000000000000000     
  0.75000000000000000       0.84375000000000000        0.0000000000000000     
  0.62500000000000000       0.87500000000000000        0.0000000000000000     
  0.65625000000000000       0.87500000000000000        0.0000000000000000     
  0.68750000000000000       0.87500000000000000        0.0000000000000000     
  0.71875000000000000       0.87500000000000000        0.0000000000000000     
  0.75000000000000000       0.87500000000000000        0.0000000000000000     
  0.75000000000000000       0.75000000000000000        0.0000000000000000     
  0.78125000000000000       0.75000000000000000        0.0000000000000000     
  0.81250000000000000       0.75000000000000000        0.0000000000000000     
  0.84375000000000000       0.75000000000000000        0.0000000000000000     
  0.87500000000000000       0.75000000000000000        0.0000000000000000     
  0.75000000000000000       0.78125000000000000        0.0000000000000000     
  0.78125000000000000       0.78125000000000000        0.0000000000000000     
  0.81250000000000000       0.78125000000000000        0.0000000000000000     
  0.84375000000000000       0.78125000000000000        0.0000000000000000     
  0.87500000000000000       0.78125000000000000        0.0000000000000000     
  0.75000000000000000       0.81250000000000000        0.0000000000000000     
  0.78125000000000000       0.81250000000000000        0.0000000000000000     
  0.81250000000000000       0.81250000000000000        0.0000000000000000     
  0.84375000000000000       0.81250000000000000        0.0000000000000000     
  0.87500000000000000       0.81250000000000000        0.0000000000000000     
  0.75000000000000000       0.84375000000000000        0.0000000000000000     
  0.78125000000000000       0.84375000000000000        0.0000000000000000     
  0.81250000000000000       0.84375000000000000        0.0000000000000000     
  0.84375000000000000       0.84375000000000000        0.0000000000000000     
  0.87500000000000000       0.84375000000000000        0.0000000000000000     
  0.75000000000000000       0.87500000000000000        0.0000000000000000     
  0.78125000000000000       0.87500000000000000        0.0000000000000000     
  0.81250000000000000       0.87500000000000000        0.0000000000000000     
  0.84375000000000000       0.87500000000000000        0.0000000000000000     
  0.87500000000000000       0.87500000000000000        0.0000000000000000     
  0.87500000000000000       0.75000000000000000        0.0000000000000000     
  0.90625000000000000       0.75000000000000000        0.0000000000000000     
  0.93750000000000000       0.75000000000000000        0.0000000000000000     
  0.96875000000000000       0.75000000000000000        0.0000000000000000     
   1.0000000000000000       0.75000000000000000        0.0000000000000000     
  0.87500000000000000       0.78125000000000000        0.0000000000000000     
  0.90625000000000000       0.78125000000000000        0.0000000000000000     
  0.93750000000000000       0.78125000000000000        0.0000000000000000     
  0.96875000000000000       0.78125000000000000        0.0000000000000000     
   1.0000000000000000       0.78125000000000000        0.0000000000000000     
  0.87500000000000000       0.81250000000000000        0.0000000000000000     
  0.90625000000000000       0.81250000000000000        0.0000000000000000     
  0.93750000000000000       0.81250000000000000        0.0000000000000000     
  0.96875000000000000       0.81250000000000000        0.0000000000000000     
   1.0000000000000000       0.81250000000000000        0.0000000000000000     
  0.87500000000000000       0.84375000000000000        0.0000000000000000     
  0.90625000000000000       0.84375000000000000        0.0000000000000000     
  0.93750000000000000       0.84375000000000000        0.0000000000000000     
  0.96875000000000000       0.84375000000000000        0.0000000000000000     
   1.0000000000000000       0.84375000000000000        0.0000000000000000     
  0.87500000000000000       0.87500000000000000        0.0000000000000000     
  0.90625000000000000       0.87500000000000000        0.0000000000000000     
  0.93750000000000000       0.87500000000000000        0.0000000000000000     
  0.96875000000000000       0.87500000000000000        0.0000000000000000     
   1.0000000000000000       0.87500000000000000        0.0000000000000000     
   0.0000000000000000       0.87500000000000000        0.0000000000000000     
   3.1250000000000000E-002  0.87500000000000000        0.0000000000000000     
   6.2500000000000000E-002  0.87500000000000000        0.0000000000000000     
   9.3750000000000000E-002  0.87500000000000000        0.0000000000000000     
  0.12500000000000000       0.87500000000000000        0.0000000000000000     
   0.0000000000000000       0.90625000000000000        0.0000000000000000     
   3.1250000000000000E-002  0.90625000000000000        0.0000000000000000     
   6.2500000000000000E-002  0.90625000000000000        0.0000000000000000     
   9.3750000000000000E-002  0.90625000000000000        0.0000000000000000     
  0.12500000000000000       0.90625000000000000        0.0000000000000000     
   0.0000000000000000       0.93750000000000000        0.0000000000000000     
   3.1250000000000000E-002  0.93750000000000000        0.0000000000000000     
   6.2500000000000000E-002  0.93750000000000000        0.0000000000000000     
   9.3750000000000000E-002  0.93750000000000000        0.0000000000000000     
  0.12500000000000000       0.93750000000000000        0.0000000000000000     
   0.0000000000000000       0.96875000000000000        0.0000000000000000     
   3.1250000000000000E-002  0.96875000000000000        0.0000000000000000     
   6.2500000000000000E-002  0.96875000000000000        0.0000000000000000     
   9.3750000000000000E-002  0.96875000000000000        0.0000000000000000     
  0.12500000000000000       0.96875000000000000        0.0000000000000000     
   0.0000000000000000        1.0000000000000000        0.0000000000000000     
   3.1250000000000000E-002   1.0000000000000000        0.0000000000000000     
   6.2500000000000000E-002   1.0000000000000000        0.0000000000000000     
   9.3750000000000000E-002   1.0000000000000000        0.0000000000000000     
  0.12500000000000000        1.0000000000000000        0.0000000000000000     
  0.12500000000000000       0.87500000000000000        0.0000000000000000     
  0.15625000000000000       0.87500000000000000        0.0000000000000000     
  0.18750000000000000       0.87500000000000000        0.0000000000000000     
  0.21875000000000000       0.87500000000000000        0.0000000000000000     
  0.25000000000000000       0.87500000000000000        0.0000000000000000     
  0.12500000000000000       0.90625000000000000        0.0000000000000000     
  0.15625000000000000       0.90625000000000000        0.0000000000000000     
  0.18750000000000000       0.90625000000000000        0.0000000000000000     
  0.21875000000000000       0.90625000000000000        0.0000000000000000     
  0.25000000000000000       0.90625000000000000        0.0000000000000000     
  0.12500000000000000       0.93750000000000000        0.0000000000000000     
  0.15625000000000000       0.93750000000000000        0.0000000000000000     
  0.18750000000000000       0.93750000000000000        0.0000000000000000     
  0.21875000000000000       0.93750000000000000        0.0000000000000000     
  0.25000000000000000       0.93750000000000000        0.0000000000000000     
  0.12500000000000000       0.96875000000000000        0.0000000000000000     
  0.15625000000000000       0.96875000000000000        0.0000000000000000     
  0.18750000000000000       0.96875000000000000        0.0000000000000000     
  0.21875000000000000       0.96875000000000000        0.0000000000000000     
  0.25000000000000000       0.96875000000000000        0.0000000000000000     
  0.12500000000000000        1.0000000000000000        0.0000000000000000     
  0.15625000000000000        1.0000000000000000        0.0000000000000000     
  0.18750000000000000        1.0000000000000000        0.0000000000000000     
  0.21875000000000000        1.0000000000000000        0.0000000000000000     
  0.25000000000000000        1.0000000000000000        0.0000000000000000     
  0.25000000000000000       0.87500000000000000        0.0000000000000000     
  0.28125000000000000       0.87500000000000000        0.0000000000000000     
  0.31250000000000000       0.87500000000000000        0.0000000000000000     
  0.34375000000000000       0.87500000000000000        0.0000000000000000     
  0.37500000000000000       0.87500000000000000        0.0000000000000000     
  0.25000000000000000       0.90625000000000000        0.0000000000000000     
  0.28125000000000000       0.90625000000000000        0.0000000000000000     
  0.31250000000000000       0.90625000000000000        0.0000000000000000     
  0.34375000000000000       0.90625000000000000        0.0000000000000000     
  0.37500000000000000       0.90625000000000000        0.0000000000000000     
  0.25000000000000000       0.93750000000000000        0.0000000000000000     
  0.28125000000000000       0.93750000000000000        0.0000000000000000     
  0.31250000000000000       0.93750000000000000        0.0000000000000000     
  0.34375000000000000       0.93750000000000000        0.0000000000000000     
  0.37500000000000000       0.93750000000000000        0.0000000000000000     
  0.25000000000000000       0.96875000000000000        0.0000000000000000     
  0.28125000000000000       0.96875000000000000        0.0000000000000000     
  0.31250000000000000       0.96875000000000000        0.0000000000000000     
  0.34375000000000000       0.96875000000000000        0.0000000000000000     
  0.37500000000000000       0.96875000000000000        0.0000000000000000     
  0.25000000000000000        1.0000000000000000        0.0000000000000000     
  0.28125000000000000        1.0000000000000000        0.0000000000000000     
  0.31250000000000000        1.0000000000000000        0.0000000000000000     
  0.34375000000000000        1.0000000000000000        0.0000000000000000     
  0.37500000000000000        1.0000000000000000        0.0000000000000000     
  0.37500000000000000       0.87500000000000000        0.0000000000000000     
  0.40625000000000000       0.87500000000000000        0.0000000000000000     
  0.43750000000000000       0.87500000000000000        0.0000000000000000     
  0.46875000000000000       0.87500000000000000        0.0000000000000000     
  0.50000000000000000       0.87500000000000000        0.0000000000000000     
  0.37500000000000000       0.90625000000000000        0.0000000000000000     
  0.40625000000000000       0.90625000000000000        0.0000000000000000     
  0.43750000000000000       0.90625000000000000        0.0000000000000000     
  0.46875000000000000       0.90625000000000000        0.0000000000000000     
  0.50000000000000000       0.90625000000000000        0.0000000000000000     
  0.37500000000000000       0.93750000000000000        0.0000000000000000     
  0.40625000000000000       0.93750000000000000        0.0000000000000000     
  0.43750000000000000       0.93750000000000000        0.0000000000000000     
  0.46875000000000000       0.93750000000000000        0.0000000000000000     
  0.50000000000000000       0.93750000000000000        0.0000000000000000     
  0.37500000000000000       0.96875000000000000        0.0000000000000000     
  0.40625000000000000       0.96875000000000000        0.0000000000000000     
  0.43750000000000000       0.96875000000000000        0.0000000000000000     
  0.46875000000000000       0.96875000000000000        0.0000000000000000     
  0.50000000000000000       0.96875000000000000        0.0000000000000000     
  0.37500000000000000        1.0000000000000000        0.0000000000000000     
  0.40625000000000000        1.0000000000000000        0.0000000000000000     
  0.43750000000000000        1.0000000000000000        0.0000000000000000     
  0.46875000000000000        1.0000000000000000        0.0000000000000000     
  0.50000000000000000        1.0000000000000000        0.0000000000000000     
  0.50000000000000000       0.87500000000000000        0.0000000000000000     
  0.53125000000000000       0.87500000000000000        0.0000000000000000     
  0.56250000000000000       0.87500000000000000        0.0000000000000000     
  0.59375000000000000       0.87500000000000000        0.0000000000000000     
  0.62500000000000000       0.87500000000000000        0.0000000000000000     
  0.50000000000000000       0.90625000000000000        0.0000000000000000     
  0.53125000000000000       0.90625000000000000        0.0000000000000000     
  0.56250000000000000       0.90625000000000000        0.0000000000000000     
  0.59375000000000000       0.90625000000000000        0.0000000000000000     
  0.62500000000000000       0.90625000000000000        0.0000000000000000     
  0.50000000000000000       0.93750000000000000        0.0000000000000000     
  0.53125000000000000       0.93750000000000000        0.0000000000000000     
  0.56250000000000000       0.93750000000000000        0.0000000000000000     
  0.59375000000000000       0.93750000000000000        0.0000000000000000     
  0.62500000000000000       0.93750000000000000        0.0000000000000000     
  0.50000000000000000       0.96875000000000000        0.0000000000000000     
  0.53125000000000000       0.96875000000000000        0.0000000000000000     
  0.56250000000000000       0.96875000000000000        0.0000000000000000     
  0.59375000000000000       0.96875000000000000        0.0000000000000000     
  0.62500000000000000       0.96875000000000000        0.0000000000000000     
  0.50000000000000000        1.0000000000000000        0.0000000000000000     
  0.53125000000000000        1.0000000000000000        0.0000000000000000     
  0.56250000000000000        1.0000000000000000        0.0000000000000000     
  0.59375000000000000        1.0000000000000000        0.0000000000000000     
  0.62500000000000000        1.0000000000000000        0.0000000000000000     
  0.62500000000000000       0.87500000000000000        0.0000000000000000     
  0.65625000000000000       0.87500000000000000        0.0000000000000000     
  0.68750000000000000       0.87500000000000000        0.0000000000000000     
  0.71875000000000000       0.87500000000000000        0.0000000000000000     
  0.75000000000000000       0.87500000000000000        0.0000000000000000     
  0.62500000000000000       0.90625000000000000        0.0000000000000000     
  0.65625000000000000       0.90625000000000000        0.0000000000000000     
  0.68750000000000000       0.90625000000000000        0.0000000000000000     
  0.71875000000000000       0.90625000000000000        0.0000000000000000     
  0.75000000000000000       0.90625000000000000        0.0000000000000000     
  0.62500000000000000       0.93750000000000000        0.0000000000000000     
  0.65625000000000000       0.93750000000000000        0.0000000000000000     
  0.68750000000000000       0.93750000000000000        0.0000000000000000     
  0.71875000000000000       0.93750000000000000        0.0000000000000000     
  0.75000000000000000       0.93750000000000000        0.0000000000000000     
  0.62500000000000000       0.96875000000000000        0.0000000000000000     
  0.65625000000000000       0.96875000000000000        0.0000000000000000     
  0.68750000000000000       0.96875000000000000        0.0000000000000000     
  0.71875000000000000       0.96875000000000000        0.0000000000000000     
  0.75000000000000000       0.96875000000000000        0.0000000000000000     
  0.62500000000000000        1.0000000000000000        0.0000000000000000     
  0.65625000000000000        1.0000000000000000        0.0000000000000000     
  0.68750000000000000        1.0000000000000000        0.0000000000000000     
  0.71875000000000000        1.0000000000000000        0.0000000000000000     
  0.75000000000000000        1.0000000000000000        0.0000000000000000     
  0.75000000000000000       0.87500000000000000        0.0000000000000000     
  0.78125000000000000       0.87500000000000000        0.0000000000000000     
  0.81250000000000000       0.87500000000000000        0.0000000000000000     
  0.84375000000000000       0.87500000000000000        0.0000000000000000     
  0.87500000000000000       0.87500000000000000        0.0000000000000000     
  0.75000000000000000       0.90625000000000000        0.0000000000000000     
  0.78125000000000000       0.90625000000000000        0.0000000000000000     
  0.81250000000000000       0.90625000000000000        0.0000000000000000     
  0.84375000000000000       0.90625000000000000        0.0000000000000000     
  0.87500000000000000       0.90625000000000000        0.0000000000000000     
  0.75000000000000000       0.93750000000000000        0.0000000000000000     
  0.78125000000000000       0.93750000000000000        0.0000000000000000     
  0.81250000000000000       0.93750000000000000        0.0000000000000000     
  0.84375000000000000       0.93750000000000000        0.0000000000000000     
  0.87500000000000000       0.93750000000000000        0.0000000000000000     
  0.75000000000000000       0.96875000000000000        0.0000000000000000     
  0.78125000000000000       0.96875000000000000        0.0000000000000000     
  0.81250000000000000       0.96875000000000000        0.0000000000000000     
  0.84375000000000000       0.96875000000000000        0.0000000000000000     
  0.87500000000000000       0.96875000000000000        0.0000000000000000     
  0.75000000000000000        1.0000000000000000        0.0000000000000000     
  0.78125000000000000        1.0000000000000000        0.0000000000000000     
  0.81250000000000000        1.0000000000000000        0.0000000000000000     
  0.84375000000000000        1.0000000000000000        0.0000000000000000     
  0.87500000000000000        1.0000000000000000        0.0000000000000000     
  0.87500000000000000       0.87500000000000000        0.0000000000000000     
  0.90625000000000000       0.87500000000000000        0.0000000000000000     
  0.93750000000000000       0.87500000000000000        0.0000000000000000     
  0.96875000000000000       0.87500000000000000        0.0000000000000000     
   1.0000000000000000       0.87500000000000000        0.0000000000000000     
  0.87500000000000000       0.90625000000000000        0.0000000000000000     
  0.90625000000000000       0.90625000000000000        0.0000000000000000     
  0.93750000000000000       0.90625000000000000        0.0000000000000000     
  0.96875000000000000       0.90625000000000000        0.0000000000000000     
   1.0000000000000000       0.90625000000000000        0.0000000000000000     
  0.87500000000000000       0.93750000000000000        0.0000000000000000     
  0.90625000000000000       0.93750000000000000        0.0000000000000000     
  0.93750000000000000       0.93750000000000000        0.0000000000000000     
  0.96875000000000000       0.93750000000000000        0.0000000000000000     
   1.0000000000000000       0.93750000000000000        0.0000000000000000     
  0.87500000000000000       0.96875000000000000        0.0000000000000000     
  0.90625000000000000       0.96875000000000000        0.0000000000000000     
  0.93750000000000000       0.96875000000000000        0.0000000000000000     
  0.96875000000000000       0.96875000000000000        0.0000000000000000     
   1.0000000000000000       0.96875000000000000        0.0000000000000000     
  0.87500000000000000        1.0000000000000000        0.0000000000000000     
  0.90625000000000000        1.0000000000000000        0.0000000000000000     
  0.93750000000000000        1.0000000000000000        0.0000000000000000     
  0.96875000000000000        1.0000000000000000        0.0000000000000000     
   1.0000000000000000        1.0000000000000000        0.0000000000000000     
 </DataArray>
 </Points>
 <Cells>
 <DataArray  type="Int32"  Name="connectivity"  format="ascii">
           0           1           6           5
           1           2           7           6
           2           3           8           7
           3           4           9           8
           5           6          11          10
           6           7          12          11
           7           8          13          12
           8           9          14          13
          10          11          16          15
          11          12          17          16
          12          13          18          17
          13          14          19          18
          15          16          21          20
          16          17          22          21
          17          18          23          22
          18          19          24          23
          25          26          31          30
          26          27          32          31
          27          28          33          32
          28          29          34          33
          30          31          36          35
          31          32          37          36
          32          33          38          37
          33          34          39          38
          35          36          41          40
          36          37          42          41
          37          38          43          42
          38          39          44          43
          40          41          46          45
          41          42          47          46
          42          43          48          47
          43          44          49          48
          50          51          56          55
          51          52          57          56
          52          53          58          57
          53          54          59          58
          55          56          61          60
          56          57          62          61
          57          58          63          62
          58          59          64          63
          60          61          66          65
          61          62          67          66
          62          63          68          67
          63          64          69          68
          65          66          71          70
          66          67          72          71
          67          68          73          72
          68          69          74          73
          75          76          81          80
          76          77          82          81
          77          78          83          82
          78          79          84          83
          80          81          86          85
          81          82          87          86
          82          83          88          87
          83          84          89          88
          85          86          91          90
          86          87          92          91
          87          88          93          92
          88          89          94          93
          90          91          96          95
          91          92          97          96
          92          93          98          97
          93          94          99          98
         100         101         106         105
         101         102         107         106
         102         103         108         107
         103         104         109         108
         105         106         111         110
         106         107         112         111
         107         108         113         112
         108         109         114         113
         110         111         116         115
         111         112         117         116
         112         113         118         117
         113         114         119         118
         115         116         121         120
         116         117         122         121
         117         118         123         122
         118         119         124         123
         125         126         131         130
         126         127         132         131
         127         128         133         132
         128         129         134         133
         130         131         136         135
         131         132         137         136
         132         133         138         137
         133         134         139         138
         135         136         141         140
         136         137         142         141
         137         138         143         142
         138         139         144         143
         140         141         146         145
         141         142         147         146
         142         143         148         147
         143         144         149         148
         150         151         156         155
         151         152         157         156
         152         153         158         157
         153         154         159         158
         155         156         161         160
         156         157         162         161
         157         158         163         162
         158         159         164         163
         160         161         166         165
         161         162         167         166
         162         163         168         167
         163         164         169         168
         165         166         171         170
         166         167         172         171
         167         168         173         172
         168         169         174         173
         175         176         181         180
         176         177         182         181
         177         178         183         182
         178         179         184         183
         180         181         186         185
         181         182         187         186
         182         183         188         187
         183         184         189         188
         185         186         191         190
         186         187         192         191
         187         188         193         192
         188         189         194         193
         190         191         196         195
         191         192         197         196
         192         193         198         197
         193         194         199         198
         200         201         206         205
         201         202         207         206
         202         203         208         207
         203         204         209         208
         205         206         211         210
         206         207         212         211
         207         208         213         212
         208         209         214         213
         210         211         216         215
         211         212         217         216
         212         213         218         217
         213         214         219         218
         215         216         221         220
         216         217         222         221
         217         218         223         222
         218         219         224         223
         225         226         231         230
         226         227         232         231
         227         228         233         232
         228         229         234         233
         230         231         236         235
         231         232         237         236
         232         233         238         237
         233         234         239         238
         235         236         241         240
         236         237         242         241
         237         238         243         242
         238         239         244         243
         240         241         246         245
         241         242         247         246
         242         243         248         247
         243         244         249         248
         250         251         256         255
         251         252         257         256
         252         253         258         257
         253         254         259         258
         255         256         261         260
         256         257         262         261
         257         258         263         262
         258         259         264         263
         260         261         266         265
         261         262         267         266
         262         263         268         267
         263         264         269         268
         265         266         271         270
         266         267         272         271
         267         268         273         272
         268         269         274         273
         275         276         281         280
         276         277         282         281
         277         278         283         282
         278         279         284         283
         280         281         286         285
         281         282         287         286
         282         283         288         287
         283         284         289         288
         285         286         291         290
         286         287         292         291
         287         288         293         292
         288         289         294         293
         290         291         296         295
         291         292         297         296
         292         293         298         297
         293         294         299         298
         300         301         306         305
         301         302         307         306
         302         303         308         307
         303         304         309         308
         305         306         311         310
         306         307         312         311
         307         308         313         312
         308         309         314         313
         310         311         316         315
         311         312         317         316
         312         313         318         317
         313         314         319         318
         315         316         321         320
         316         317         322         321
         317         318         323         322
         318         319         324         323
         325         326         331         330
         326         327         332         331
         327         328         333         332
         328         329         334         333
         330         331         336         335
         331         332         337         336
         332         333         338         337
         333         334         339         338
         335         336         341         340
         336         337         342         341
         337         338         343         342
         338         339         344         343
         340         341         346         345
         341         342         347         346
         342         343         348         347
         343         344         349         348
         350         351         356         355
         351         352         357         356
         352         353         358         357
         353         354         359         358
         355         356         361         360
         356         357         362         361
         357         358         363         362
         358         359         364         363
         360         361         366         365
         361         362         367         366
         362         363         368         367
         363         364         369         368
         365         366         371         370
         366         367         372         371
         367         368         373         372
         368         369         374         373
         375         376         381         380
         376         377         382         381
         377         378         383         382
         378         379         384         383
         380         381         386         385
         381         382         387         386
         382         383         388         387
         383         384         389         388
         385         386         391         390
         386         387         392         391
         387         388         393         392
         388         389         394         393
         390         391         396         395
         391         392         397         396
         392         393         398         397
         393         394         399         398
         400         401         406         405
         401         402         407         406
         402         403         408         407
         403         404         409         408
         405         406         411         410
         406         407         412         411
         407         408         413         412
         408         409         414         413
         410         411         416         415
         411         412         417         416
         412         413         418         417
         413         414         419         418
         415         416         421         420
         416         417         422         421
         417         418         423         422
         418         419         424         423
         425         426         431         430
         426         427         432         431
         427         428         433         432
         428         429         434         433
         430         431         436         435
         431         432         437         436
         432         433         438         437
         433         434         439         438
         435         436         441         440
         436         437         442         441
         437         438         443         442
         438         439         444         443
         440         441         446         445
         441         442         447         446
         442         443         448         447
         443         444         449         448
         450         451         456         455
         451         452         457         456
         452         453         458         457
         453         454         459         458
         455         456         461         460
         456         457         462         461
         457         458         463         462
         458         459         464         463
         460         461         466         465
         461         462         467         466
         462         463         468         467
         463         464         469         468
         465         466         471         470
         466         467         472         471
         467         468         473         472
         468         469         474         473
         475         476         481         480
         476         477         482         481
         477         478         483         482
         478         479         484         483
         480         481         486         485
         481         482         487         486
         482         483         488         487
         483         484         489         488
         485         486         491         490
         486         487         492         491
         487         488         493         492
         488         489         494         493
         490         491         496         495
         491         492         497         496
         492         493         498         497
         493         494         499         498
         500         501         506         505
         501         502         507         506
         502         503         508         507
         503         504         509         508
         505         506         511         510
         506         507         512         511
         507         508         513         512
         508         509         514         513
         510         511         516         515
         511         512         517         516
         512         513         518         517
         513         514         519         518
         515         516         521         520
         516         517         522         521
         517         518         523         522
         518         519         524         523
         525         526         531         530
         526         527         532         531
         527         528         533         532
         528         529         534         533
         530         531         536         535
         531         532         537         536
         532         533         538         537
         533         534         539         538
         535         536         541         540
         536         537         542         541
         537         538         543         542
         538         539         544         543
         540         541         546         545
         541         542         547         546
         542         543         548         547
         543         544         549         548
         550         551         556         555
         551         552         557         556
         552         553         558         557
         553         554         559         558
         555         556         561         560
         556         557         562         561
         557         558         563         562
         558         559         564         563
         560         561         566         565
         561         562         567         566
         562         563         568         567
         563         564         569         568
         565         566         571         570
         566         567         572         571
         567         568         573         572
         568         569         574         573
         575         576         581         580
         576         577         582         581
         577         578         583         582
         578         579         584         583
         580         581         586         585
         581         582         587         586
         582         583         588         587
         583         584         589         588
         585         586         591         590
         586         587         592         591
         587         588         593         592
         588         589         594         593
         590         591         596         595
         591         592         597         596
         592         593         598         597
         593         594         599         598
         600         601         606         605
         601         602         607         606
         602         603         608         607
         603         604         609         608
         605         606         611         610
         606         607         612         611
         607         608         613         612
         608         609         614         613
         610         611         616         615
         611         612         617         616
         612         613         618         617
         613         614         619         618
         615         616         621         620
         616         617         622         621
         617         618         623         622
         618         619         624         623
         625         626         631         630
         626         627         632         631
         627         628         633         632
         628         629         634         633
         630         631         636         635
         631         632         637         636
         632         633         638         637
         633         634         639         638
         635         636         641         640
         636         637         642         641
         637         638         643         642
         638         639         644         643
         640         641         646         645
         641         642         647         646
         642         643         648         647
         643         644         649         648
         650         651         656         655
         651         652         657         656
         652         653         658         657
         653         654         659         658
         655         656         661         660
         656         657         662         661
         657         658         663         662
         658         659         664         663
         660         661         666         665
         661         662         667         666
         662         663         668         667
         663         664         669         668
         665         666         671         670
         666         667         672         671
         667         668         673         672
         668         669         674         673
         675         676         681         680
         676         677         682         681
         677         678         683         682
         678         679         684         683
         680         681         686         685
         681         682         687         686
         682         683         688         687
         683         684         689         688
         685         686         691         690
         686         687         692         691
         687         688         693         692
         688         689         694         693
         690         691         696         695
         691         692         697         696
         692         693         698         697
         693         694         699         698
         700         701         706         705
         701         702         707         706
         702         703         708         707
         703         704         709         708
         705         706         711         710
         706         707         712         711
         707         708         713         712
         708         709         714         713
         710         711         716         715
         711         712         717         716
         712         713         718         717
         713         714         719         718
         715         716         721         720
         716         717         722         721
         717         718         723         722
         718         719         724         723
         725         726         731         730
         726         727         732         731
         727         728         733         732
         728         729         734         733
         730         731         736         735
         731         732         737         736
         732         733         738         737
         733         734         739         738
         735         736         741         740
         736         737         742         741
         737         738         743         742
         738         739         744         743
         740         741         746         745
         741         742         747         746
         742         743         748         747
         743         744         749         748
         750         751         756         755
         751         752         757         756
         752         753         758         757
         753         754         759         758
         755         756         761         760
         756         757         762         761
         757         758         763         762
         758         759         764         763
         760         761         766         765
         761         762         767         766
         762         763         768         767
         763         764         769         768
         765         766         771         770
         766         767         772         771
         767         768         773         772
         768         769         774         773
         775         776         781         780
         776         777         782         781
         777         778         783         782
         778         779         784         783
         780         781         786         785
         781         782         787         786
         782         783         788         787
         783         784         789         788
         785         786         791         790
         786         787         792         791
         787         788         793         792
         788         789         794         793
         790         791         796         795
         791         792         797         796
         792         793         798         797
         793         794         799         798
         800         801         806         805
         801         802         807         806
         802         803         808         807
         803         804         809         808
         805         806         811         810
         806         807         812         811
         807         808         813         812
         808         809         814         813
         810         811         816         815
         811         812         817         816
         812         813         818         817
         813         814         819         818
         815         816         821         820
         816         817         822         821
         817         818         823         822
         818         819         824         823
         825         826         831         830
         826         827         832         831
         827         828         833         832
         828         829         834         833
         830         831         836         835
         831         832         837         836
         832         833         838         837
         833         834         839         838
         835         836         841         840
         836         837         842         841
         837         838         843         842
         838         839         844         843
         840         841         846         845
         841         842         847         846
         842         843         848         847
         843         844         849         848
         850         851         856         855
         851         852         857         856
         852         853         858         857
         853         854         859         858
         855         856         861         860
         856         857         862         861
         857         858         863         862
         858         859         864         863
         860         861         866         865
         861         862         867         866
         862         863         868         867
         863         864         869         868
         865         866         871         870
         866         867         872         871
         867         868         873         872
         868         869         874         873
         875         876         881         880
         876         877         882         881
         877         878         883         882
         878         879         884         883
         880         881         886         885
         881         882         887         886
         882         883         888         887
         883         884         889         888
         885         886         891         890
         886         887         892         891
         887         888         893         892
         888         889         894         893
         890         891         896         895
         891         892         897         896
         892         893         898         897
         893         894         899         898
         900         901         906         905
         901         902         907         906
         902         903         908         907
         903         904         909         908
         905         906         911         910
         906         907         912         911
         907         908         913         912
         908         909         914         913
         910         911         916         915
         911         912         917         916
         912         913         918         917
         913         914         919         918
         915         916         921         920
         916         917         922         921
         917         918         923         922
         918         919         924         923
         925         926         931         930
         926         927         932         931
         927         928         933         932
         928         929         934         933
         930         931         936         935
         931         932         937         936
         932         933         938         937
         933         934         939         938
         935         936         941         940
         936         937         942         941
         937         938         943         942
         938         939         944         943
         940         941         946         945
         941         942         947         946
         942         943         948         947
         943         944         949         948
         950         951         956         955
         951         952         957         956
         952         953         958         957
         953         954         959         958
         955         956         961         960
         956         957         962         961
         957         958         963         962
         958         959         964         963
         960         961         966         965
         961         962         967         966
         962         963         968         967
         963         964         969         968
         965         966         971         970
         966         967         972         971
         967         968         973         972
         968         969         974         973
         975         976         981         980
         976         977         982         981
         977         978         983         982
         978         979         984         983
         980         981         986         985
         981         982         987         986
         982         983         988         987
         983         984         989         988
         985         986         991         990
         986         987         992         991
         987         988         993         992
         988         989         994         993
         990         991         996         995
         991         992         997         996
         992         993         998         997
         993         994         999         998
        1000        1001        1006        1005
        1001        1002        1007        1006
        1002        1003        1008        1007
        1003        1004        1009        1008
        1005        1006        1011        1010
        1006        1007        1012        1011
        1007        1008        1013        1012
        1008        1009        1014        1013
        1010        1011        1016        1015
        1011        1012        1017        1016
        1012        1013        1018        1017
        1013        1014        1019        1018
        1015        1016        1021        1020
        1016        1017        1022        1021
        1017        1018        1023        1022
        1018        1019        1024        1023
        1025        1026        1031        1030
        1026        1027        1032        1031
        1027        1028        1033        1032
        1028        1029        1034        1033
        1030        1031        1036        1035
        1031        1032        1037        1036
        1032        1033        1038        1037
        1033        1034        1039        1038
        1035        1036        1041        1040
        1036        1037        1042        1041
        1037        1038        1043        1042
        1038        1039        1044        1043
        1040        1041        1046        1045
        1041        1042        1047        1046
        1042        1043        1048        1047
        1043        1044        1049        1048
        1050        1051        1056        1055
        1051        1052        1057        1056
        1052        1053        1058        1057
        1053        1054        1059        1058
        1055        1056        1061        1060
        1056        1057        1062        1061
        1057        1058        1063        1062
        1058        1059        1064        1063
        1060        1061        1066        1065
        1061        1062        1067        1066
        1062        1063        1068        1067
        1063        1064        1069        1068
        1065        1066        1071        1070
        1066        1067        1072        1071
        1067        1068        1073        1072
        1068        1069        1074        1073
        1075        1076        1081        1080
        1076        1077        1082        1081
        1077        1078        1083        1082
        1078        1079        1084        1083
        1080        1081        1086        1085
        1081        1082        1087        1086
        1082        1083        1088        1087
        1083        1084        1089        1088
        1085        1086        1091        1090
        1086        1087        1092        1091
        1087        1088        1093        1092
        1088        1089        1094        1093
        1090        1091        1096        1095
        1091        1092        1097        1096
        1092        1093        1098        1097
        1093        1094        1099        1098
        1100        1101        1106        1105
        1101        1102        1107        1106
        1102        1103        1108        1107
        1103        1104        1109        1108
        1105        1106        1111        1110
        1106        1107        1112        1111
        1107        1108        1113        1112
        1108        1109        1114        1113
        1110        1111        1116        1115
        1111        1112        1117        1116
        1112        1113        1118        1117
        1113        1114        1119        1118
        1115        1116        1121        1120
        1116        1117        1122        1121
        1117        1118        1123        1122
        1118        1119        1124        1123
        1125        1126        1131        1130
        1126        1127        1132        1131
        1127        1128        1133        1132
        1128        1129        1134        1133
        1130        1131        1136        1135
        1131        1132        1137        1136
        1132        1133        1138        1137
        1133        1134        1139        1138
        1135        1136        1141        1140
        1136        1137        1142        1141
        1137        1138        1143        1142
        1138        1139        1144        1143
        1140        1141        1146        1145
        1141        1142        1147        1146
        1142        1143        1148        1147
        1143        1144        1149        1148
        1150        1151        1156        1155
        1151        1152        1157        1156
        1152        1153        1158        1157
        1153        1154        1159        1158
        1155        1156        1161        1160
        1156        1157        1162        1161
        1157        1158        1163        1162
        1158        1159        1164        1163
        1160        1161        1166        1165
        1161        1162        1167        1166
        1162        1163        1168        1167
        1163        1164        1169        1168
        1165        1166        1171        1170
        1166        1167        1172        1171
        1167        1168        1173        1172
        1168        1169        1174        1173
        1175        1176        1181        1180
        1176        1177        1182        1181
        1177        1178        1183        1182
        1178        1179        1184        1183
        1180        1181        1186        1185
        1181        1182        1187        1186
        1182        1183        1188        1187
        1183        1184        1189        1188
        1185        1186        1191        1190
        1186        1187        1192        1191
        1187        1188        1193        1192
        1188        1189        1194        1193
        1190        1191        1196        1195
        1191        1192        1197        1196
        1192        1193        1198        1197
        1193        1194        1199        1198
        1200        1201        1206        1205
        1201        1202        1207        1206
        1202        1203        1208        1207
        1203        1204        1209        1208
        1205        1206        1211        1210
        1206        1207        1212        1211
        1207        1208        1213        1212
        1208        1209        1214        1213
        1210        1211        1216        1215
        1211        1212        1217        1216
        1212        1213        1218        1217
        1213        1214        1219        1218
        1215        1216        1221        1220
        1216        1217        1222        1221
        1217        1218        1223        1222
        1218        1219        1224        1223
        1225        1226        1231        1230
        1226        1227        1232        1231
        1227        1228        1233        1232
        1228        1229        1234        1233
        1230        1231        1236        1235
        1231        1232        1237        1236
        1232        1233        1238        1237
        1233        1234        1239        1238
        1235        1236        1241        1240
        1236        1237        1242        1241
        1237        1238        1243        1242
        1238        1239        1244        1243
        1240        1241        1246        1245
        1241        1242        1247        1246
        1242        1243        1248        1247
        1243        1244        1249        1248
        1250        1251        1256        1255
        1251        1252        1257        1256
        1252        1253        1258        1257
        1253        1254        1259        1258
        1255        1256        1261        1260
        1256        1257        1262        1261
        1257        1258        1263        1262
        1258        1259        1264        1263
        1260        1261        1266        1265
        1261        1262        1267        1266
        1262        1263        1268        1267
        1263        1264        1269        1268
        1265        1266        1271        1270
        1266        1267        1272        1271
        1267        1268        1273        1272
        1268        1269        1274        1273
        1275        1276        1281        1280
        1276        1277        1282        1281
        1277        1278        1283        1282
        1278        1279        1284        1283
        1280        1281        1286        1285
        1281        1282        1287        1286
        1282        1283        1288        1287
        1283        1284        1289        1288
        1285        1286        1291        1290
        1286        1287        1292        1291
        1287        1288        1293        1292
        1288        1289        1294        1293
        1290        1291        1296        1295
        1291        1292        1297        1296
        1292        1293        1298        1297
        1293        1294        1299        1298
        1300        1301        1306        1305
        1301        1302        1307        1306
        1302        1303        1308        1307
        1303        1304        1309        1308
        1305        1306        1311        1310
        1306        1307        1312        1311
        1307        1308        1313        1312
        1308        1309        1314        1313
        1310        1311        1316        1315
        1311        1312        1317        1316
        1312        1313        1318        1317
        1313        1314        1319        1318
        1315        1316        1321        1320
        1316        1317        1322        1321
        1317        1318        1323        1322
        1318        1319        1324        1323
        1325        1326        1331        1330
        1326        1327        1332        1331
        1327        1328        1333        1332
        1328        1329        1334        1333
        1330        1331        1336        1335
        1331        1332        1337        1336
        1332        1333        1338        1337
        1333        1334        1339        1338
        1335        1336        1341        1340
        1336        1337        1342        1341
        1337        1338        1343        1342
        1338        1339        1344        1343
        1340        1341        1346        1345
        1341        1342        1347        1346
        1342        1343        1348        1347
        1343        1344        1349        1348
        1350        1351        1356        1355
        1351        1352        1357        1356
        1352        1353        1358        1357
        1353        1354        1359        1358
        1355        1356        1361        1360
        1356        1357        1362        1361
        1357        1358        1363        1362
        1358        1359        1364        1363
        1360        1361        1366        1365
        1361        1362        1367        1366
        1362        1363        1368        1367
        1363        1364        1369        1368
        1365        1366        1371        1370
        1366        1367        1372        1371
        1367        1368        1373        1372
        1368        1369        1374        1373
        1375        1376        1381        1380
        1376        1377        1382        1381
        1377        1378        1383        1382
        1378        1379        1384        1383
        1380        1381        1386        1385
        1381        1382        1387        1386
        1382        1383        1388        1387
        1383        1384        1389        1388
        1385        1386        1391        1390
        1386        1387        1392        1391
        1387        1388        1393        1392
        1388        1389        1394        1393
        1390        1391        1396        1395
        1391        1392        1397        1396
        1392        1393        1398        1397
        1393        1394        1399        1398
        1400        1401        1406        1405
        1401        1402        1407        1406
        1402        1403        1408        1407
        1403        1404        1409        1408
        1405        1406        1411        1410
        1406        1407        1412        1411
        1407        1408        1413        1412
        1408        1409        1414        1413
        1410        1411        1416        1415
        1411        1412        1417        1416
        1412        1413        1418        1417
        1413        1414        1419        1418
        1415        1416        1421        1420
        1416        1417        1422        1421
        1417        1418        1423        1422
        1418        1419        1424        1423
        1425        1426        1431        1430
        1426        1427        1432        1431
        1427        1428        1433        1432
        1428        1429        1434        1433
        1430        1431        1436        1435
        1431        1432        1437        1436
        1432        1433        1438        1437
        1433        1434        1439        1438
        1435        1436        1441        1440
        1436        1437        1442        1441
        1437        1438        1443        1442
        1438        1439        1444        1443
        1440        1441        1446        1445
        1441        1442        1447        1446
        1442        1443        1448        1447
        1443        1444        1449        1448
        1450        1451        1456        1455
        1451        1452        1457        1456
        1452        1453        1458        1457
        1453        1454        1459        1458
        1455        1456        1461        1460
        1456        1457        1462        1461
        1457        1458        1463        1462
        1458        1459        1464        1463
        1460        1461        1466        1465
        1461        1462        1467        1466
        1462        1463        1468        1467
        1463        1464        1469        1468
        1465        1466        1471        1470
        1466        1467        1472        1471
        1467        1468        1473        1472
        1468        1469        1474        1473
        1475        1476        1481        1480
        1476        1477        1482        1481
        1477        1478        1483        1482
        1478        1479        1484        1483
        1480        1481        1486        1485
        1481        1482        1487        1486
        1482        1483        1488        1487
        1483        1484        1489        1488
        1485        1486        1491        1490
        1486        1487        1492        1491
        1487        1488        1493        1492
        1488        1489        1494        1493
        1490        1491        1496        1495
        1491        1492        1497        1496
        1492        1493        1498        1497
        1493        1494        1499        1498
        1500        1501        1506        1505
        1501        1502        1507        1506
        1502        1503        1508        1507
        1503        1504        1509        1508
        1505        1506        1511        1510
        1506        1507        1512        1511
        1507        1508        1513        1512
        1508        1509        1514        1513
        1510        1511        1516        1515
        1511        1512        1517        1516
        1512        1513        1518        1517
        1513        1514        1519        1518
        1515        1516        1521        1520
        1516        1517        1522        1521
        1517        1518        1523        1522
        1518        1519        1524        1523
        1525        1526        1531        1530
        1526        1527        1532        1531
        1527        1528        1533        1532
        1528        1529        1534        1533
        1530        1531        1536        1535
        1531        1532        1537        1536
        1532        1533        1538        1537
        1533        1534        1539        1538
        1535        1536        1541        1540
        1536        1537        1542        1541
        1537        1538        1543        1542
        1538        1539        1544        1543
        1540        1541        1546        1545
        1541        1542        1547        1546
        1542        1543        1548        1547
        1543        1544        1549        1548
        1550        1551        1556        1555
        1551        1552        1557        1556
        1552        1553        1558        1557
        1553        1554        1559        1558
        1555        1556        1561        1560
        1556        1557        1562        1561
        1557        1558        1563        1562
        1558        1559        1564        1563
        1560        1561        1566        1565
        1561        1562        1567        1566
        1562        1563        1568        1567
        1563        1564        1569        1568
        1565        1566        1571        1570
        1566        1567        1572        1571
        1567        1568        1573        1572
        1568        1569        1574        1573
        1575        1576        1581        1580
        1576        1577        1582        1581
        1577        1578        1583        1582
        1578        1579        1584        1583
        1580        1581        1586        1585
        1581        1582        1587        1586
        1582        1583        1588        1587
        1583        1584        1589        1588
        1585        1586        1591        1590
        1586        1587        1592        1591
        1587        1588        1593        1592
        1588        1589        1594        1593
        1590        1591        1596        1595
        1591        1592        1597        1596
        1592        1593        1598        1597
        1593        1594        1599        1598
 </DataArray>
 <DataArray  type="Int32"  Name="offsets"  format="ascii"> 
           4
           8
          12
          16
          20
          24
          28
          32
          36
          40
          44
          48
          52
          56
          60
          64
          68
          72
          76
          80
          84
          88
          92
          96
         100
         104
         108
         112
         116
         120
         124
         128
         132
         136
         140
         144
         148
         152
         156
         160
         164
         168
         172
         176
         180
         184
         188
         192
         196
         200
         204
         208
         212
         216
         220
         224
         228
         232
         236
         240
         244
         248
         252
         256
         260
         264
         268
         272
         276
         280
         284
         288
         292
         296
         300
         304
         308
         312
         316
         320
         324
         328
         332
         336
         340
         344
         348
         352
         356
         360
         364
         368
         372
         376
         380
         384
         388
         392
         396
         400
         404
         408
         412
         416
         420
         424
         428
         432
         436
         440
         444
         448
         452
         456
         460
         464
         468
         472
         476
         480
         484
         488
         492
         496
         500
         504
         508
         512
         516
         520
         524
         528
         532
         536
         540
         544
         548
         552
         556
         560
         564
         568
         572
         576
         580
         584
         588
         592
         596
         600
         604
         608
         612
         616
         620
         624
         628
         632
         636
         640
         644
         648
         652
         656
         660
         664
         668
         672
         676
         680
         684
         688
         692
         696
         700
         704
         708
         712
         716
         720
         724
         728
         732
         736
         740
         744
         748
         752
         756
         760
         764
         768
         772
         776
         780
         784
         788
         792
         796
         800
         804
         808
         812
         816
         820
         824
         828
         832
         836
         840
         844
         848
         852
         856
         860
         864
         868
         872
         876
         880
         884
         888
         892
         896
         900
         904
         908
         912
         916
         920
         924
         928
         932
         936
         940
         944
         948
         952
         956
         960
         964
         968
         972
         976
         980
         984
         988
         992
         996
        1000
        1004
        1008
        1012
        1016
        1020
        1024
        1028
        1032
        1036
        1040
        1044
        1048
        1052
        1056
        1060
        1064
        1068
        1072
        1076
        1080
        1084
        1088
        1092
        1096
        1100
        1104
        1108
        1112
        1116
        1120
        1124
        1128
        1132
        1136
        1140
        1144
        1148
        1152
        1156
        1160
        1164
        1168
        1172
        1176
        1180
        1184
        1188
        1192
        1196
        1200
        1204
        1208
        1212
        1216
        1220
        1224
        1228
        1232
        1236
        1240
        1244
        1248
        1252
        1256
        1260
        1264
        1268
        1272
        1276
        1280
        1284
        1288
        1292
        1296
        1300
        1304
        1308
        1312
        1316
        1320
        1324
        1328
        1332
        1336
        1340
        1344
        1348
        1352
        1356
        1360
        1364
        1368
        1372
        1376
        1380
        1384
        1388
        1392
        1396
        1400
        1404
        1408
        1412
        1416
        1420
        1424
        1428
        1432
        1436
        1440
        1444
        1448
        1452
        1456
        1460
        1464
        1468
        1472
        1476
        1480
        1484
        1488
        1492
        1496
        1500
        1504
        1508
        1512
        1516
        1520
        1524
        1528
        1532
        1536
        1540
        1544
        1548
        1552
        1556
        1560
        1564
        1568
        1572
        1576
        1580
        1584
        1588
        1592
        1596
        1600
        1604
        1608
        1612
        1616
        1620
        1624
        1628
        1632
        1636
        1640
        1644
        1648
        1652
        1656
        1660
        1664
        1668
        1672
        1676
        1680
        1684
        1688
        1692
        1696
        1700
        1704
        1708
        1712
        1716
        1720
        1724
        1728
        1732
        1736
        1740
        1744
        1748
        1752
        1756
        1760
        1764
        1768
        1772
        1776
        1780
        1784
        1788
        1792
        1796
        1800
        1804
        1808
        1812
        1816
        1820
        1824
        1828
        1832
        1836
        1840
        1844
        1848
        1852
        1856
        1860
        1864
        1868
        1872
        1876
        1880
        1884
        1888
        1892
        1896
        1900
        1904
        1908
        1912
        1916
        1920
        1924
        1928
        1932
        1936
        1940
        1944
        1948
        1952
        1956
        1960
        1964
        1968
        1972
        1976
        1980
        1984
        1988
        1992
        1996
        2000
        2004
        2008
        2012
        2016
        2020
        2024
        2028
        2032
        2036
        2040
        2044
        2048
        2052
        2056
        2060
        2064
        2068
        2072
        2076
        2080
        2084
        2088
        2092
        2096
        2100
        2104
        2108
        2112
        2116
        2120
        2124
        2128
        2132
        2136
        2140
        2144
        2148
        2152
        2156
        2160
        2164
        2168
        2172
        2176
        2180
        2184
        2188
        2192
        2196
        2200
        2204
        2208
        2212
        2216
        2220
        2224
        2228
        2232
        2236
        2240
        2244
        2248
        2252
        2256
        2260
        2264
        2268
        2272
        2276
        2280
        2284
        2288
        2292
        2296
        2300
        2304
        2308
        2312
        2316
        2320
        2324
        2328
        2332
        2336
        2340
        2344
        2348
        2352
        2356
        2360
        2364
        2368
        2372
        2376
        2380
        2384
        2388
        2392
        2396
        2400
        2404
        2408
        2412
        2416
        2420
        2424
        2428
        2432
        2436
        2440
        2444
        2448
        2452
        2456
        2460
        2464
        2468
        2472
        2476
        2480
        2484
        2488
        2492
        2496
        2500
        2504
        2508
        2512
        2516
        2520
        2524
        2528
        2532
        2536
        2540
        2544
        2548
        2552
        2556
        2560
        2564
        2568
        2572
        2576
        2580
        2584
        2588
        2592
        2596
        2600
        2604
        2608
        2612
        2616
        2620
        2624
        2628
        2632
        2636
        2640
        2644
        2648
        2652
        2656
        2660
        2664
        2668
        2672
        2676
        2680
        2684
        2688
        2692
        2696
        2700
        2704
        2708
        2712
        2716
        2720
        2724
        2728
        2732
        2736
        2740
        2744
        2748
        2752
        2756
        2760
        2764
        2768
        2772
        2776
        2780
        2784
        2788
        2792
        2796
        2800
        2804
        2808
        2812
        2816
        2820
        2824
        2828
        2832
        2836
        2840
        2844
        2848
        2852
        2856
        2860
        2864
        2868
        2872
        2876
        2880
        2884
        2888
        2892
        2896
        2900
        2904
        2908
        2912
        2916
        2920
        2924
        2928
        2932
        2936
        2940
        2944
        2948
        2952
        2956
        2960
        2964
        2968
        2972
        2976
        2980
        2984
        2988
        2992
        2996
        3000
        3004
        3008
        3012
        3016
        3020
        3024
        3028
        3032
        3036
        3040
        3044
        3048
        3052
        3056
        3060
        3064
        3068
        3072
        3076
        3080
        3084
        3088
        3092
        3096
        3100
        3104
        3108
        3112
        3116
        3120
        3124
        3128
        3132
        3136
        3140
        3144
        3148
        3152
        3156
        3160
        3164
        3168
        3172
        3176
        3180
        3184
        3188
        3192
        3196
        3200
        3204
        3208
        3212
        3216
        3220
        3224
        3228
        3232
        3236
        3240
        3244
        3248
        3252
        3256
        3260
        3264
        3268
        3272
        3276
        3280
        3284
        3288
        3292
        3296
        3300
        3304
        3308
        3312
        3316
        3320
        3324
        3328
        3332
        3336
        3340
        3344
        3348
        3352
        3356
        3360
        3364
        3368
        3372
        3376
        3380
        3384
        3388
        3392
        3396
        3400
        3404
        3408
        3412
        3416
        3420
        3424
        3428
        3432
        3436
        3440
        3444
        3448
        3452
        3456
        3460
        3464
        3468
        3472
        3476
        3480
        3484
        3488
        3492
        3496
        3500
        3504
        3508
        3512
        3516
        3520
        3524
        3528
        3532
        3536
        3540
        3544
        3548
        3552
        3556
        3560
        3564
        3568
        3572
        3576
        3580
        3584
        3588
        3592
        3596
        3600
        3604
        3608
        3612
        3616
        3620
        3624
        3628
        3632
        3636
        3640
        3644
        3648
        3652
        3656
        3660
        3664
        3668
        3672
        3676
        3680
        3684
        3688
        3692
        3696
        3700
        3704
        3708
        3712
        3716
        3720
        3724
        3728
        3732
        3736
        3740
        3744
        3748
        3752
        3756
        3760
        3764
        3768
        3772
        3776
        3780
        3784
        3788
        3792
        3796
        3800
        3804
        3808
        3812
        3816
        3820
        3824
        3828
        3832
        3836
        3840
        3844
        3848
        3852
        3856
        3860
        3864
        3868
        3872
        3876
        3880
        3884
        3888
        3892
        3896
        3900
        3904
        3908
        3912
        3916
        3920
        3924
        3928
        3932
        3936
        3940
        3944
        3948
        3952
        3956
        3960
        3964
        3968
        3972
        3976
        3980
        3984
        3988
        3992
        3996
        4000
        4004
        4008
        4012
        4016
        4020
        4024
        4028
        4032
        4036
        4040
        4044
        4048
        4052
        4056
        4060
        4064
        4068
        4072
        4076
        4080
        4084
        4088
        4092
        4096
 </DataArray>
 <DataArray  type="UInt8"  Name="types"  format="ascii">
 9
 9
 9
 9
 9
 9
 9
 9
 9
 9
 9
 9
 9
 9
 9
 9
 9
 9
 9
 9
 9
 9
 9
 9
 9
 9
 9
 9
 9
 9
 9
 9
 9
 9
 9
 9
 9
 9
 9
 9
 9
 9
 9
 9
 9
 9
 9
 9
 9
 9
 9
 9
 9
 9
 9
 9
 9
 9
 9
 9
 9
 9
 9
 9
 9
 9
 9
 9
 9
 9
 9
 9
 9
 9
 9
 9
 9
 9
 9
 9
 9
 9
 9
 9
 9
 9
 9
 9
 9
 9
 9
 9
 9
 9
 9
 9
 9
 9
 9
 9
 9
 9
 9
 9
 9
 9
 9
 9
 9
 9
 9
 9
 9
 9
 9
 9
 9
 9
 9
 9
 9
 9
 9
 9
 9
 9
 9
 9
 9
 9
 9
 9
 9
 9
 9
 9
 9
 9
 9
 9
 9
 9
 9
 9
 9
 9
 9
 9
 9
 9
 9
 9
 9
 9
 9
 9
 9
 9
 9
 9
 9
 9
 9
 9
 9
 9
 9
 9
 9
 9
 9
 9
 9
 9
 9
 9
 9
 9
 9
 9
 9
 9
 9
 9
 9
 9
 9
 9
 9
 9
 9
 9
 9
 9
 9
 9
 9
 9
 9
 9
 9
 9
 9
 9
 9
 9
 9
 9
 9
 9
 9
 9
 9
 9
 9
 9
 9
 9
 9
 9
 9
 9
 9
 9
 9
 9
 9
 9
 9
 9
 9
 9
 9
 9
 9
 9
 9
 9
 9
 9
 9
 9
 9
 9
 9
 9
 9
 9
 9
 9
 9
 9
 9
 9
 9
 9
 9
 9
 9
 9
 9
 9
 9
 9
 9
 9
 9
 9
 9
 9
 9
 9
 9
 9
 9
 9
 9
 9
 9
 9
 9
 9
 9
 9
 9
 9
 9
 9
 9
 9
 9
 9
 9
 9
 9
 9
 9
 9
 9
 9
 9
 9
 9
 9
 9
 9
 9
 9
 9
 9
 9
 9
 9
 9
 9
 9
 9
 9
 9
 9
 9
 9
 9
 9
 9
 9
 9
 9
 9
 9
 9
 9
 9
 9
 9
 9
 9
 9
 9
 9
 9
 9
 9
 9
 9
 9
 9
 9
 9
 9
 9
 9
 9
 9
 9
 9
 9
 9
 9
 9
 9
 9
 9
 9
 9
 9
 9
 9
 9
 9
 9
 9
 9
 9
 9
 9
 9
 9
 9
 9
 9
 9
 9
 9
 9
 9
 9
 9
 9
 9
 9
 9
 9
 9
 9
 9
 9
 9
 9
 9
 9
 9
 9
 9
 9
 9
 9
 9
 9
 9
 9
 9
 9
 9
 9
 9
 9
 9
 9
 9
 9
 9
 9
 9
 9
 9
 9
 9
 9
 9
 9
 9
 9
 9
 9
 9
 9
 9
 9
 9
 9
 9
 9
 9
 9
 9
 9
 9
 9
 9
 9
 9
 9
 9
 9
 9
 9
 9
 9
 9
 9
 9
 9
 9
 9
 9
 9
 9
 9
 9
 9
 9
 9
 9
 9
 9
 9
 9
 9
 9
 9
 9
 9
 9
 9
 9
 9
 9
 9
 9
 9
 9
 9
 9
 9
 9
 9
 9
 9
 9
 9
 9
 9
 9
 9
 9
 9
 9
 9
 9
 9
 9
 9
 9
 9
 9
 9
 9
 9
 9
 9
 9
 9
 9
 9
 9
 9
 9
 9
 9
 9
 9
 9
 9
 9
 9
 9
 9
 9
 9
 9
 9
 9
 9
 9
 9
 9
 9
 9
 9
 9
 9
 9
 9
 9
 9
 9
 9
 9
 9
 9
 9
 9
 9
 9
 9
 9
 9
 9
 9
 9
 9
 9
 9
 9
 9
 9
 9
 9
 9
 9
 9
 9
 9
 9
 9
 9
 9
 9
 9
 9
 9
 9
 9
 9
 9
 9
 9
 9
 9
 9
 9
 9
 9
 9
 9
 9
 9
 9
 9
 9
 9
 9
 9
 9
 9
 9
 9
 9
 9
 9
 9
 9
 9
 9
 9
 9
 9
 9
 9
 9
 9
 9
 9
 9
 9
 9
 9
 9
 9
 9
 9
 9
 9
 9
 9
 9
 9
 9
 9
 9
 9
 9
 9
 9
 9
 9
 9
 9
 9
 9
 9
 9
 9
 9
 9
 9
 9
 9
 9
 9
 9
 9
 9
 9
 9
 9
 9
 9
 9
 9
 9
 9
 9
 9
 9
 9
 9
 9
 9
 9
 9
 9
 9
 9
 9
 9
 9
 9
 9
 9
 9
 9
 9
 9
 9
 9
 9
 9
 9
 9
 9
 9
 9
 9
 9
 9
 9
 9
 9
 9
 9
 9
 9
 9
 9
 9
 9
 9
 9
 9
 9
 9
 9
 9
 9
 9
 9
 9
 9
 9
 9
 9
 9
 9
 9
 9
 9
 9
 9
 9
 9
 9
 9
 9
 9
 9
 9
 9
 9
 9
 9
 9
 9
 9
 9
 9
 9
 9
 9
 9
 9
 9
 9
 9
 9
 9
 9
 9
 9
 9
 9
 9
 9
 9
 9
 9
 9
 9
 9
 9
 9
 9
 9
 9
 9
 9
 9
 9
 9
 9
 9
 9
 9
 9
 9
 9
 9
 9
 9
 9
 9
 9
 9
 9
 9
 9
 9
 9
 9
 9
 9
 9
 9
 9
 9
 9
 9
 9
 9
 9
 9
 9
 9
 9
 9
 9
 9
 9
 9
 9
 9
 9
 9
 9
 9
 9
 9
 9
 9
 9
 9
 9
 9
 9
 9
 9
 9
 9
 9
 9
 9
 9
 9
 9
 9
 9
 9
 9
 9
 9
 9
 9
 9
 9
 9
 9
 9
 9
 9
 9
 9
 9
 9
 9
 9
 9
 9
 9
 9
 9
 9
 9
 9
 9
 9
 9
 9
 9
 9
 9
 9
 9
 9
 9
 9
 9
 9
 9
 9
 9
 9
 9
 9
 9
 9
 9
 9
 9
 9
 9
 9
 9
 9
 9
 9
 9
 9
 9
 9
 9
 9
 9
 9
 9
 9
 9
 9
 9
 9
 9
 9
 9
 9
 9
 9
 9
 9
 9
 9
 9
 9
 9
 9
 9
 9
 9
 9
 9
 9
 9
 9
 9
 9
 9
 9
 9
 9
 9
 9
 9
 9
 9
 9
 9
 9
 9
 9
 9
 9
 9
 9
 9
 9
 9
 9
 9
 9
 9
 9
 9
 9
 9
 9
 9
 9
 9
 9
 9
 9
 9
 9
 9
 9
 9
 9
 9
 9
 9
 9
 9
 9
 9
 9
 9
 9
 9
 9
 9
 9
 9
 9
 9
 9
 </DataArray>
 </Cells> 
 <PointData>
 <DataArray  type="Float64" Name="disp" NumberOfComponents="3" format="ascii">
   0.0000000000000000        0.0000000000000000        0.0000000000000000     
   6.0959469670182976E-003   3.7904248715641574E-003   0.0000000000000000     
   1.1665979433817862E-002   7.3238360171644420E-003   0.0000000000000000     
   1.6710097400398694E-002   1.0600233436800853E-002   0.0000000000000000     
   2.1228300866760790E-002   1.3619617130473390E-002   0.0000000000000000     
   0.0000000000000000        0.0000000000000000        0.0000000000000000     
   4.8911472557410891E-003   3.0221512194625625E-003   0.0000000000000000     
   9.5736296971285269E-003   6.0605402994972444E-003   0.0000000000000000     
   1.4047447324162313E-002   9.1151672401040464E-003   0.0000000000000000     
   1.8312600136842449E-002   1.2186032041282970E-002   0.0000000000000000     
   0.0000000000000000        0.0000000000000000        0.0000000000000000     
   3.9535698379824799E-003   2.4251295978924428E-003   0.0000000000000000     
   7.9106277354719107E-003   5.0629082812605397E-003   0.0000000000000000     
   1.1871173692468290E-002   7.9133360501042922E-003   0.0000000000000000     
   1.5835207708971618E-002   1.0976412904423697E-002   0.0000000000000000     
   0.0000000000000000        0.0000000000000000        0.0000000000000000     
   3.2832147137424714E-003   1.9993600068537987E-003   0.0000000000000000     
   6.6769735488480114E-003   4.3309399624543278E-003   0.0000000000000000     
   1.0181276505316621E-002   6.9947398668015861E-003   0.0000000000000000     
   1.3796123583148301E-002   9.9907597198955773E-003   0.0000000000000000     
   0.0000000000000000        0.0000000000000000        0.0000000000000000     
   2.8800818830210630E-003   1.7448424463466308E-003   0.0000000000000000     
   5.8726671372568325E-003   3.8646353430786080E-003   0.0000000000000000     
   8.9777557627073075E-003   6.3593786901959323E-003   0.0000000000000000     
   1.2195347759372491E-002   9.2290724876986016E-003   0.0000000000000000     
   2.1228300866760790E-002   1.3619617130473390E-002   0.0000000000000000     
   2.5433445310731561E-002   1.6612583276924206E-002   0.0000000000000000     
   2.9538386210138403E-002   1.9809728054895458E-002   0.0000000000000000     
   3.3543123564981320E-002   2.3211051464387147E-002   0.0000000000000000     
   3.7447657375260311E-002   2.6816553505399267E-002   0.0000000000000000     
   1.8312600136842449E-002   1.2186032041282970E-002   0.0000000000000000     
   2.2407292134115346E-002   1.5341490428540543E-002   0.0000000000000000     
   2.6369727314927420E-002   1.8649898127383296E-002   0.0000000000000000     
   3.0199905679278671E-002   2.2111255137811231E-002   0.0000000000000000     
   3.3897827227169094E-002   2.5725561459824350E-002   0.0000000000000000     
   1.5835207708971618E-002   1.0976412904423697E-002   0.0000000000000000     
   1.9730951571643521E-002   1.4210969449903216E-002   0.0000000000000000     
   2.3486627067145615E-002   1.7575836292227299E-002   0.0000000000000000     
   2.7102234195477921E-002   2.1071013431395950E-002   0.0000000000000000     
   3.0577772956640412E-002   2.4696500867409165E-002   0.0000000000000000     
   1.3796123583148301E-002   9.9907597198955773E-003   0.0000000000000000     
   1.7404423623316082E-002   1.3221020341012225E-002   0.0000000000000000     
   2.0889085466793002E-002   1.6587542549427466E-002   0.0000000000000000     
   2.4250109113579055E-002   2.0090326345141296E-002   0.0000000000000000     
   2.7487494563674251E-002   2.3729371728153720E-002   0.0000000000000000     
   1.2195347759372491E-002   9.2290724876986016E-003   0.0000000000000000     
   1.5427708289133027E-002   1.2371643101867572E-002   0.0000000000000000     
   1.8577102513869560E-002   1.5685016898983797E-002   0.0000000000000000     
   2.1643530433582095E-002   1.9169193879047274E-002   0.0000000000000000     
   2.4626992048270627E-002   2.2824174042058009E-002   0.0000000000000000     
   3.7447657375260311E-002   2.6816553505399267E-002   0.0000000000000000     
   4.1256353023361045E-002   3.0621615969935009E-002   0.0000000000000000     
   4.4973575891669185E-002   3.4621620649997555E-002   0.0000000000000000     
   4.8599325980184724E-002   3.8816567545586898E-002   0.0000000000000000     
   5.2133603288907669E-002   4.3206456656703050E-002   0.0000000000000000     
   3.3897827227169094E-002   2.5725561459824350E-002   0.0000000000000000     
   3.7486649773676592E-002   2.9521666788729539E-002   0.0000000000000000     
   4.0989531133879049E-002   3.3528420819833676E-002   0.0000000000000000     
   4.4406471307776467E-002   3.7745823553136777E-002   0.0000000000000000     
   4.7737470295368845E-002   4.2173874988638838E-002   0.0000000000000000     
   3.0577772956640412E-002   2.4696500867409165E-002   0.0000000000000000     
   3.3942637097508353E-002   2.8496865960305713E-002   0.0000000000000000     
   3.7226220364957041E-002   3.2516676070124352E-002   0.0000000000000000     
   4.0428522758986438E-002   3.6755931196865071E-002   0.0000000000000000     
   4.3549544279596571E-002   4.1214631340527899E-002   0.0000000000000000     
   2.7487494563674251E-002   2.3729371728153720E-002   0.0000000000000000     
   3.0624314994856364E-002   2.7547213484663543E-002   0.0000000000000000     
   3.3683643584903167E-002   3.1586386400869575E-002   0.0000000000000000     
   3.6665480333814643E-002   3.5846890476771809E-002   0.0000000000000000     
   3.9569825241590834E-002   4.0328725712370263E-002   0.0000000000000000     
   2.4626992048270627E-002   2.2824174042058009E-002   0.0000000000000000     
   2.7531683465720588E-002   2.6672709361803028E-002   0.0000000000000000     
   3.0361800793717413E-002   3.0737551812069348E-002   0.0000000000000000     
   3.3117344032261097E-002   3.5018701392856975E-002   0.0000000000000000     
   3.5798313181351640E-002   3.9516158104165915E-002   0.0000000000000000     
   5.2133603288907669E-002   4.3206456656703050E-002   0.0000000000000000     
   5.5573712676277719E-002   4.7795753805280353E-002   0.0000000000000000     
   5.8916959000734556E-002   5.2588924813253168E-002   0.0000000000000000     
   6.2163342262278203E-002   5.7585969680621490E-002   0.0000000000000000     
   6.5312862460908644E-002   6.2786888407385319E-002   0.0000000000000000     
   4.7737470295368845E-002   4.2173874988638838E-002   0.0000000000000000     
   5.0978509145069677E-002   4.6806044354176082E-002   0.0000000000000000     
   5.4125568905292465E-002   5.1635800877584778E-002   0.0000000000000000     
   5.7178649576037195E-002   5.6663144558864918E-002   0.0000000000000000     
   6.0137751157303874E-002   6.1888075398016495E-002   0.0000000000000000     
   4.3549544279596571E-002   4.1214631340527899E-002   0.0000000000000000     
   4.6585225307267983E-002   4.5880263924306025E-002   0.0000000000000000     
   4.9531506222481259E-002   5.0740316371392667E-002   0.0000000000000000     
   5.2388387025236384E-002   5.5794788681787826E-002   0.0000000000000000     
   5.5155867715533373E-002   6.1043680855491500E-002   0.0000000000000000     
   3.9569825241590834E-002   4.0328725712370263E-002   0.0000000000000000     
   4.2393861162872623E-002   4.5018412515670181E-002   0.0000000000000000     
   4.5134770952300930E-002   4.9902471294676828E-002   0.0000000000000000     
   4.7792554609875776E-002   5.4980902049390226E-002   0.0000000000000000     
   5.0367212135597139E-002   6.0253704779810340E-002   0.0000000000000000     
   3.5798313181351640E-002   3.9516158104165915E-002   0.0000000000000000     
   3.8404416711883591E-002   4.4220490128268550E-002   0.0000000000000000     
   4.0935363094751494E-002   4.9122265647437269E-002   0.0000000000000000     
   4.3391152329955357E-002   5.4221484661672092E-002   0.0000000000000000     
   4.5771784417495173E-002   5.9518147170973007E-002   0.0000000000000000     
   6.5312862460908644E-002   6.2786888407385319E-002   0.0000000000000000     
   6.8368691327205910E-002   6.8178429340579272E-002   0.0000000000000000     
   7.1334000591750019E-002   7.3747340827237953E-002   0.0000000000000000     
   7.4208790254540968E-002   7.9493622867361377E-002   0.0000000000000000     
   7.6993060315578787E-002   8.5417275460949543E-002   0.0000000000000000     
   6.0137751157303874E-002   6.1888075398016495E-002   0.0000000000000000     
   6.3007131787644999E-002   6.7301765860467502E-002   0.0000000000000000     
   6.5791049605613078E-002   7.2895388411645945E-002   0.0000000000000000     
   6.8489504611208119E-002   7.8668943051551810E-002   0.0000000000000000     
   7.1102496804430121E-002   8.4622429780185110E-002   0.0000000000000000     
   5.5155867715533373E-002   6.1043680855491500E-002   0.0000000000000000     
   5.7838391717847798E-002   6.6480473395623380E-002   0.0000000000000000     
   6.0440402456655266E-002   7.2098646805303174E-002   0.0000000000000000     
   6.2961899931955723E-002   7.7898201084530896E-002   0.0000000000000000     
   6.5402884143749243E-002   8.3879136233306506E-002   0.0000000000000000     
   5.0367212135597139E-002   6.0253704779810340E-002   0.0000000000000000     
   5.2862471117814308E-002   6.5714551946046931E-002   0.0000000000000000     
   5.5282059144876536E-002   7.1357116008209681E-002   0.0000000000000000     
   5.7625976216783829E-002   7.7181396966298638E-002   0.0000000000000000     
   5.9894222333536196E-002   8.3187394820313759E-002   0.0000000000000000     
   4.5771784417495173E-002   5.9518147170973007E-002   0.0000000000000000     
   4.8079369987544508E-002   6.5004001511738088E-002   0.0000000000000000     
   5.0316019670276914E-002   7.0670796020365426E-002   0.0000000000000000     
   5.2481733465692383E-002   7.6518530696855019E-002   0.0000000000000000     
   5.4576511373790937E-002   8.2547205541206856E-002   0.0000000000000000     
   7.6993060315578787E-002   8.5417275460949543E-002   0.0000000000000000     
   7.9679780314617976E-002   9.1509261079988413E-002   0.0000000000000000     
   8.2261919791413091E-002   9.7760542196464018E-002   0.0000000000000000     
   8.4739478745964145E-002  0.10417111881037634        0.0000000000000000     
   8.7112457178271124E-002  0.11074099092172535        0.0000000000000000     
   7.1102496804430121E-002   8.4622429780185110E-002   0.0000000000000000     
   7.3623414864229644E-002   9.0744849706365274E-002   0.0000000000000000     
   7.6045647469557318E-002   9.7025203938911814E-002   0.0000000000000000     
   7.8369194620413141E-002  0.10346349247782470        0.0000000000000000     
   8.0594056316797100E-002  0.11005971532310393        0.0000000000000000     
   6.5402884143749243E-002   8.3879136233306506E-002   0.0000000000000000     
   6.7757325832079759E-002   9.0029326428938281E-002   0.0000000000000000     
   7.0019195736991308E-002   9.6336645848734498E-002   0.0000000000000000     
   7.2188493858483860E-002  0.10280109449269514        0.0000000000000000     
   7.4265220196557430E-002  0.10942267236082022        0.0000000000000000     
   5.9894222333536196E-002   8.3187394820313759E-002   0.0000000000000000     
   6.2081513218168342E-002   8.9362691247707446E-002   0.0000000000000000     
   6.4182564593715061E-002   9.5694867925932084E-002   0.0000000000000000     
   6.6197376460176302E-002  0.10218392485498767        0.0000000000000000     
   6.8125948817552101E-002  0.10882986203487419        0.0000000000000000     
   5.4576511373790937E-002   8.2547205541206856E-002   0.0000000000000000     
   5.6595977022495386E-002   8.8744944162672770E-002   0.0000000000000000     
   5.8535754039728563E-002   9.5099870170504572E-002   0.0000000000000000     
   6.0395842425490481E-002  0.10161198356470226        0.0000000000000000     
   6.2176242179781127E-002  0.10828128434526582        0.0000000000000000     
   8.7112457178271124E-002  0.11074099092172535        0.0000000000000000     
   8.9391315596069068E-002  0.11745667773037333        0.0000000000000000     
   9.1586514507093042E-002  0.12430469843618246        0.0000000000000000     
   9.3698053911343018E-002  0.13128505303915275        0.0000000000000000     
   9.5725933808819053E-002  0.13839774153928425        0.0000000000000000     
   8.0594056316797100E-002  0.11005971532310393        0.0000000000000000     
   8.2731003353162552E-002  0.11680160137986345        0.0000000000000000     
   8.4790806523962869E-002  0.12367687955321714        0.0000000000000000     
   8.6773465829198038E-002  0.13068554984316497        0.0000000000000000     
   8.8678981268868043E-002  0.13782761224970699        0.0000000000000000     
   7.4265220196557430E-002  0.10942267236082022        0.0000000000000000     
   7.6259906200813257E-002  0.11618983177425184        0.0000000000000000     
   7.8183083320852567E-002  0.12309102505413212        0.0000000000000000     
   8.0034751556675388E-002  0.13012625220046103        0.0000000000000000     
   8.1814910908281718E-002  0.13729551321323857        0.0000000000000000     
   6.8125948817552101E-002  0.10882986203487419        0.0000000000000000     
   6.9978024139021142E-002  0.11562136891353848        0.0000000000000000     
   7.1763344897762163E-002  0.12254713493892738        0.0000000000000000     
   7.3481911093775124E-002  0.12960716011104087        0.0000000000000000     
   7.5133722727060051E-002  0.13680144442987902        0.0000000000000000     
   6.2176242179781127E-002  0.10828128434526582        0.0000000000000000     
   6.3885357167786261E-002  0.11509621279772336        0.0000000000000000     
   6.5531591254691629E-002  0.12204520920760296        0.0000000000000000     
   6.7114944440497218E-002  0.12912827357490458        0.0000000000000000     
   6.8635416725203069E-002  0.13634540589962829        0.0000000000000000     
   9.5725933808819053E-002  0.13839774153928425        0.0000000000000000     
   9.7658699681020700E-002  0.14563208066674502        0.0000000000000000     
   9.9484897009447640E-002  0.15297738715170320        0.0000000000000000     
  0.10120452579409982       0.16043366099415887        0.0000000000000000     
  0.10281758603497725       0.16800090219411190        0.0000000000000000     
   8.8678981268868043E-002  0.13782761224970699        0.0000000000000000     
   9.0494049489543496E-002  0.14509090298320002        0.0000000000000000     
   9.2205367137794939E-002  0.15246325825400103        0.0000000000000000     
   9.3812934213622398E-002  0.15994467806210994        0.0000000000000000     
   9.5316750717025875E-002  0.16753516240752678        0.0000000000000000     
   8.1814910908281718E-002  0.13729551321323857        0.0000000000000000     
   8.3509564006387260E-002  0.14458580573261109        0.0000000000000000     
   8.5104713481707797E-002  0.15198412739872480        0.0000000000000000     
   8.6600359334243315E-002  0.15949047821157972        0.0000000000000000     
   8.7996501563993801E-002  0.16710485817117585        0.0000000000000000     
   7.5133722727060051E-002  0.13680144442987902        0.0000000000000000     
   7.6705243231552034E-002  0.14411678891497809        0.0000000000000000     
   7.8182936041186174E-002  0.15153999458587450        0.0000000000000000     
   7.9566801155962541E-002  0.15907106144256816        0.0000000000000000     
   8.0856838575881038E-002  0.16670998948505913        0.0000000000000000     
   6.8635416725203069E-002  0.13634540589962829        0.0000000000000000     
   7.0081087165037803E-002  0.14368385253030111        0.0000000000000000     
   7.1440034816230139E-002  0.15113085981545005        0.0000000000000000     
   7.2712259678780061E-002  0.15868642775507524        0.0000000000000000     
   7.3897761752687585E-002  0.16635055634917661        0.0000000000000000     
   0.0000000000000000        0.0000000000000000        0.0000000000000000     
   2.8800818830210630E-003   1.7448424463466308E-003   0.0000000000000000     
   5.8726671372568325E-003   3.8646353430786080E-003   0.0000000000000000     
   8.9777557627073075E-003   6.3593786901959323E-003   0.0000000000000000     
   1.2195347759372491E-002   9.2290724876986016E-003   0.0000000000000000     
   0.0000000000000000        0.0000000000000000        0.0000000000000000     
   2.6103313756441569E-003   1.5889232717967799E-003   0.0000000000000000     
   5.2897353038617086E-003   3.5566884101738234E-003   0.0000000000000000     
   8.0382117846526553E-003   5.9032954151311311E-003   0.0000000000000000     
   1.0855760818017000E-002   8.6287442866687016E-003   0.0000000000000000     
   0.0000000000000000        0.0000000000000000        0.0000000000000000     
   2.3401232214376563E-003   1.4589488386300871E-003   0.0000000000000000     
   4.7202048518259800E-003   3.2997931507804164E-003   0.0000000000000000     
   7.1402448911649721E-003   5.5225329364509881E-003   0.0000000000000000     
   9.6002433394546290E-003   8.1271681956418020E-003   0.0000000000000000     
   0.0000000000000000        0.0000000000000000        0.0000000000000000     
   2.0694574204015623E-003   1.3549191468465529E-003   0.0000000000000000     
   4.1640757811496464E-003   3.0939495648983880E-003   0.0000000000000000     
   6.2838550822442536E-003   5.2170912541555049E-003   0.0000000000000000     
   8.4287953236853869E-003   7.7243442146179044E-003   0.0000000000000000     
   0.0000000000000000        0.0000000000000000        0.0000000000000000     
   1.7983339725358733E-003   1.2768341964461772E-003   0.0000000000000000     
   3.6213480918327080E-003   2.9391576525277371E-003   0.0000000000000000     
   5.4690423578905040E-003   4.9869703682446798E-003   0.0000000000000000     
   7.3414167707092619E-003   7.4202723435970045E-003   0.0000000000000000     
   1.2195347759372491E-002   9.2290724876986016E-003   0.0000000000000000     
   1.5427708289133027E-002   1.2371643101867572E-002   0.0000000000000000     
   1.8577102513869560E-002   1.5685016898983797E-002   0.0000000000000000     
   2.1643530433582095E-002   1.9169193879047274E-002   0.0000000000000000     
   2.4626992048270627E-002   2.2824174042058009E-002   0.0000000000000000     
   1.0855760818017000E-002   8.6287442866687016E-003   0.0000000000000000     
   1.3689045241823629E-002   1.1650762030020833E-002   0.0000000000000000     
   1.6484727893941443E-002   1.4887075650421820E-002   0.0000000000000000     
   1.9242808774370439E-002   1.8337685147871666E-002   0.0000000000000000     
   2.1963287883110621E-002   2.2002590522370365E-002   0.0000000000000000     
   9.6002433394546290E-003   8.1271681956418020E-003   0.0000000000000000     
   1.2076674154117168E-002   1.1046301423023586E-002   0.0000000000000000     
   1.4546011292574797E-002   1.4212535113267064E-002   0.0000000000000000     
   1.7008254754827517E-002   1.7625869266372232E-002   0.0000000000000000     
   1.9463404540875327E-002   2.1286303882339101E-002   0.0000000000000000     
   8.4287953236853869E-003   7.7243442146179044E-003   0.0000000000000000     
   1.0590595026013637E-002   1.0558261280875829E-002   0.0000000000000000     
   1.2760952709769614E-002   1.3661395287519525E-002   0.0000000000000000     
   1.4939868374953315E-002   1.7033746234548994E-002   0.0000000000000000     
   1.7127342021564740E-002   2.0675314121964231E-002   0.0000000000000000     
   7.3414167707092619E-003   7.4202723435970045E-003   0.0000000000000000     
   9.2308078575130403E-003   1.0186641603577564E-002   0.0000000000000000     
   1.1129552145525901E-002   1.3233656173179207E-002   0.0000000000000000     
   1.3037649634747843E-002   1.6561316052401936E-002   0.0000000000000000     
   1.4955100325178865E-002   2.0169621241245751E-002   0.0000000000000000     
   2.4626992048270627E-002   2.2824174042058009E-002   0.0000000000000000     
   2.7531683465720588E-002   2.6672709361803028E-002   0.0000000000000000     
   3.0361800793717413E-002   3.0737551812069348E-002   0.0000000000000000     
   3.3117344032261097E-002   3.5018701392856975E-002   0.0000000000000000     
   3.5798313181351640E-002   3.9516158104165915E-002   0.0000000000000000     
   2.1963287883110621E-002   2.2002590522370365E-002   0.0000000000000000     
   2.4629649356635298E-002   2.5879844055880567E-002   0.0000000000000000     
   2.7225377331417777E-002   2.9967498030364921E-002   0.0000000000000000     
   2.9750471807458073E-002   3.4265552445823418E-002   0.0000000000000000     
   3.2204932784756175E-002   3.8774007302256080E-002   0.0000000000000000     
   1.9463404540875327E-002   2.1286303882339101E-002   0.0000000000000000     
   2.1883119514134738E-002   2.5175108031052572E-002   0.0000000000000000     
   2.4239058538022256E-002   2.9273550782397541E-002   0.0000000000000000     
   2.6531221612537889E-002   3.3581632136374023E-002   0.0000000000000000     
   2.8759608737681634E-002   3.8099352092982000E-002   0.0000000000000000     
   1.7127342021564740E-002   2.0675314121964231E-002   0.0000000000000000     
   1.9292093938218909E-002   2.4558501287319037E-002   0.0000000000000000     
   2.1402844413530842E-002   2.8655710068167216E-002   0.0000000000000000     
   2.3459593447500541E-002   3.2966940464508765E-002   0.0000000000000000     
   2.5462341040128001E-002   3.7492192476343680E-002   0.0000000000000000     
   1.4955100325178865E-002   2.0169621241245751E-002   0.0000000000000000     
   1.6856572628887814E-002   2.4030023824679978E-002   0.0000000000000000     
   1.8716734957943532E-002   2.8113975887673944E-002   0.0000000000000000     
   2.0535587312346028E-002   3.2421477430227656E-002   0.0000000000000000     
   2.2313129692095292E-002   3.6952528452341114E-002   0.0000000000000000     
   3.5798313181351640E-002   3.9516158104165915E-002   0.0000000000000000     
   3.8404416711883591E-002   4.4220490128268550E-002   0.0000000000000000     
   4.0935363094751494E-002   4.9122265647437269E-002   0.0000000000000000     
   4.3391152329955357E-002   5.4221484661672092E-002   0.0000000000000000     
   4.5771784417495173E-002   5.9518147170973007E-002   0.0000000000000000     
   3.2204932784756175E-002   3.8774007302256080E-002   0.0000000000000000     
   3.4590687195975682E-002   4.3488390343729783E-002   0.0000000000000000     
   3.6909661973780192E-002   4.8404229314311452E-002   0.0000000000000000     
   3.9161857118169711E-002   5.3521524214001054E-002   0.0000000000000000     
   4.1347272629144227E-002   5.8840275042798623E-002   0.0000000000000000     
   2.8759608737681634E-002   3.8099352092982000E-002   0.0000000000000000     
   3.0926467856823691E-002   4.2824006743682579E-002   0.0000000000000000     
   3.3034046913334295E-002   4.7752892179936814E-002   0.0000000000000000     
   3.5082345907213409E-002   5.2886008401744719E-002   0.0000000000000000     
   3.7071364838461067E-002   5.8223355409106281E-002   0.0000000000000000     
   2.5462341040128001E-002   3.7492192476343680E-002   0.0000000000000000     
   2.7411758694427614E-002   4.2227339328126896E-002   0.0000000000000000     
   2.9308517913413764E-002   4.7168254244313368E-002   0.0000000000000000     
   3.1152618697086458E-002   5.2314937224903060E-002   0.0000000000000000     
   3.2944061045445679E-002   5.7667388269896001E-002   0.0000000000000000     
   2.2313129692095292E-002   3.6952528452341114E-002   0.0000000000000000     
   2.4046559708787454E-002   4.1698388097062777E-002   0.0000000000000000     
   2.5733074974018638E-002   4.6650315507441101E-002   0.0000000000000000     
   2.7372675487788847E-002   5.1808310683476098E-002   0.0000000000000000     
   2.8965361250098073E-002   5.7172373625167770E-002   0.0000000000000000     
   4.5771784417495173E-002   5.9518147170973007E-002   0.0000000000000000     
   4.8079369987544508E-002   6.5004001511738088E-002   0.0000000000000000     
   5.0316019670276914E-002   7.0670796020365426E-002   0.0000000000000000     
   5.2481733465692383E-002   7.6518530696855019E-002   0.0000000000000000     
   5.4576511373790937E-002   8.2547205541206856E-002   0.0000000000000000     
   4.1347272629144227E-002   5.8840275042798623E-002   0.0000000000000000     
   4.3466303373225511E-002   6.4349744901532530E-002   0.0000000000000000     
   4.5519344216935313E-002   7.0039196891031205E-002   0.0000000000000000     
   4.7506395160273628E-002   7.5908631011294608E-002   0.0000000000000000     
   4.9427456203240461E-002   8.1958047262322767E-002   0.0000000000000000     
   3.7071364838461067E-002   5.8223355409106281E-002   0.0000000000000000     
   3.9000486321044428E-002   6.3752704924265852E-002   0.0000000000000000     
   4.0869092968930654E-002   6.9461828669467734E-002   0.0000000000000000     
   4.2677184782119744E-002   7.5350726644711929E-002   0.0000000000000000     
   4.4424761760611706E-002   8.1419398849998478E-002   0.0000000000000000     
   3.2944061045445679E-002   5.7667388269896001E-002   0.0000000000000000     
   3.4681918831001239E-002   6.3212881579938054E-002   0.0000000000000000     
   3.6365265926262928E-002   6.8938691355675055E-002   0.0000000000000000     
   3.7994102331230746E-002   7.4844817597107011E-002   0.0000000000000000     
   3.9568428045904692E-002   8.0931260304233962E-002   0.0000000000000000     
   2.8965361250098073E-002   5.7172373625167770E-002   0.0000000000000000     
   3.0510600903095958E-002   6.2730274868549110E-002   0.0000000000000000     
   3.2007863088932144E-002   6.8469784949653126E-002   0.0000000000000000     
   3.3457147807606627E-002   7.4390903868479824E-002   0.0000000000000000     
   3.4858455059119414E-002   8.0493631625029205E-002   0.0000000000000000     
   5.4576511373790937E-002   8.2547205541206856E-002   0.0000000000000000     
   5.6595977022495386E-002   8.8744944162672770E-002   0.0000000000000000     
   5.8535754039728563E-002   9.5099870170504572E-002   0.0000000000000000     
   6.0395842425490481E-002  0.10161198356470226        0.0000000000000000     
   6.2176242179781127E-002  0.10828128434526582        0.0000000000000000     
   4.9427456203240461E-002   8.1958047262322767E-002   0.0000000000000000     
   5.1278958546766569E-002   8.8176289641507033E-002   0.0000000000000000     
   5.3057333391782750E-002   9.4552202146238731E-002   0.0000000000000000     
   5.4762580738289005E-002  0.10108578477651786        0.0000000000000000     
   5.6394700586285325E-002  0.10777703753234445        0.0000000000000000     
   4.4424761760611706E-002   8.1419398849998478E-002   0.0000000000000000     
   4.6108699092687611E-002   8.7656932151883041E-002   0.0000000000000000     
   4.7725871966628544E-002   9.4052413416921374E-002   0.0000000000000000     
   4.9276280382434506E-002  0.10060584264511349        0.0000000000000000     
   5.0759924340105490E-002  0.10731721983645937        0.0000000000000000     
   3.9568428045904692E-002   8.0931260304233962E-002   0.0000000000000000     
   4.1085198660258511E-002   8.7186871693800808E-002   0.0000000000000000     
   4.2541369764265938E-002   9.3600503982552513E-002   0.0000000000000000     
   4.3936941357926987E-002  0.10017215717048911        0.0000000000000000     
   4.5271913441241637E-002  0.10690183125761056        0.0000000000000000     
   3.4858455059119414E-002   8.0493631625029205E-002   0.0000000000000000     
   3.6208457249479263E-002   8.6766108267260292E-002   0.0000000000000000     
   3.7503826784694931E-002   9.3196473843132122E-002   0.0000000000000000     
   3.8744563664766439E-002   9.9784728352644708E-002   0.0000000000000000     
   3.9930667889693766E-002  0.10653087179579802        0.0000000000000000     
   6.2176242179781127E-002  0.10828128434526582        0.0000000000000000     
   6.3885357167786261E-002  0.11509621279772336        0.0000000000000000     
   6.5531591254691629E-002  0.12204520920760296        0.0000000000000000     
   6.7114944440497218E-002  0.12912827357490458        0.0000000000000000     
   6.8635416725203069E-002  0.13634540589962829        0.0000000000000000     
   5.6394700586285325E-002  0.10777703753234445        0.0000000000000000     
   5.7960702255995318E-002  0.11461402651602726        0.0000000000000000     
   5.9467595067642633E-002  0.12158481782987506        0.0000000000000000     
   6.0915379021227282E-002  0.12868941147388779        0.0000000000000000     
   6.2304054116749219E-002  0.13592780744806557        0.0000000000000000     
   5.0759924340105490E-002  0.10731721983645937        0.0000000000000000     
   5.2182856372535072E-002  0.11417447315767085        0.0000000000000000     
   5.3551129012616862E-002  0.12116553077545979        0.0000000000000000     
   5.4864742260350832E-002  0.12829039268982620        0.0000000000000000     
   5.6123696115737004E-002  0.13554905890077001        0.0000000000000000     
   4.5271913441241637E-002  0.10690183125761056        0.0000000000000000     
   4.6551819517405522E-002  0.11377755272265416        0.0000000000000000     
   4.7782193089614275E-002  0.12078734804435720        0.0000000000000000     
   4.8963034157867895E-002  0.12793121722271975        0.0000000000000000     
   5.0094342722166396E-002  0.13520916025774168        0.0000000000000000     
   3.9930667889693766E-002  0.10653087179579802        0.0000000000000000     
   4.1067591690606670E-002  0.11342326521097719        0.0000000000000000     
   4.2160787298634914E-002  0.12045026963656734        0.0000000000000000     
   4.3210254713778491E-002  0.12761188507256840        0.0000000000000000     
   4.4215993936037416E-002  0.13490811151898049        0.0000000000000000     
   6.8635416725203069E-002  0.13634540589962829        0.0000000000000000     
   7.0081087165037803E-002  0.14368385253030111        0.0000000000000000     
   7.1440034816230139E-002  0.15113085981545005        0.0000000000000000     
   7.2712259678780061E-002  0.15868642775507524        0.0000000000000000     
   7.3897761752687585E-002  0.16635055634917661        0.0000000000000000     
   6.2304054116749219E-002  0.13592780744806557        0.0000000000000000     
   6.3623520240270737E-002  0.14328787539359403        0.0000000000000000     
   6.4863677277854082E-002  0.15075748495165900        0.0000000000000000     
   6.6024525229499240E-002  0.15833663612226040        0.0000000000000000     
   6.7106064095206239E-002  0.16602532890539823        0.0000000000000000     
   5.6123696115737004E-002  0.13554905890077001        0.0000000000000000     
   5.7318966890676996E-002  0.14292973631987096        0.0000000000000000     
   5.8441530897072463E-002  0.15042063185870860        0.0000000000000000     
   5.9491388134923391E-002  0.15802174551728290        0.0000000000000000     
   6.0468538604229800E-002  0.16573307729559394        0.0000000000000000     
   5.0094342722166396E-002  0.13520916025774168        0.0000000000000000     
   5.1167427116256582E-002  0.14260943530913181        0.0000000000000000     
   5.2173595673885284E-002  0.15012030053659883        0.0000000000000000     
   5.3112848395052523E-002  0.15774175594014286        0.0000000000000000     
   5.3985185279758277E-002  0.16547380151976371        0.0000000000000000     
   4.4215993936037416E-002  0.13490811151898049        0.0000000000000000     
   4.5168900917009494E-002  0.14232697236137656        0.0000000000000000     
   4.6059871608292564E-002  0.14985649098532977        0.0000000000000000     
   4.6888906009886613E-002  0.15749666739084014        0.0000000000000000     
   4.7656004121791669E-002  0.16524750157790757        0.0000000000000000     
   0.0000000000000000        0.0000000000000000        0.0000000000000000     
   1.7983339725358733E-003   1.2768341964461772E-003   0.0000000000000000     
   3.6213480918327080E-003   2.9391576525277371E-003   0.0000000000000000     
   5.4690423578905040E-003   4.9869703682446798E-003   0.0000000000000000     
   7.3414167707092619E-003   7.4202723435970045E-003   0.0000000000000000     
   0.0000000000000000        0.0000000000000000        0.0000000000000000     
   1.5350280790804830E-003   1.2175729896234558E-003   0.0000000000000000     
   3.0993757064991948E-003   2.8208964896948023E-003   0.0000000000000000     
   4.6930428822561350E-003   4.8099705002140414E-003   0.0000000000000000     
   6.3160296063513024E-003   7.1847950211811704E-003   0.0000000000000000     
   0.0000000000000000        0.0000000000000000        0.0000000000000000     
   1.2878149412752849E-003   1.1700145285728838E-003   0.0000000000000000     
   2.6055125477731380E-003   2.7246451524259221E-003   0.0000000000000000     
   3.9530928194935590E-003   4.6638918715591155E-003   0.0000000000000000     
   5.3305557564365495E-003   6.9877546859724634E-003   0.0000000000000000     
   0.0000000000000000        0.0000000000000000        0.0000000000000000     
   1.0566945591202785E-003   1.1341588132944614E-003   0.0000000000000000     
   2.1397586156545381E-003   2.6504036407210951E-003   0.0000000000000000     
   3.2491921696027786E-003   4.5487344822799031E-003   0.0000000000000000     
   4.3849952209649998E-003   6.8291513379708834E-003   0.0000000000000000     
   0.0000000000000000        0.0000000000000000        0.0000000000000000     
   8.4166693261546405E-004   1.1100058437881887E-003   0.0000000000000000     
   1.7021139101433946E-003   2.5981719545803235E-003   0.0000000000000000     
   2.5813409325837920E-003   4.4644983323764041E-003   0.0000000000000000     
   3.4793479999366559E-003   6.7089849771764312E-003   0.0000000000000000     
   7.3414167707092619E-003   7.4202723435970045E-003   0.0000000000000000     
   9.2308078575130403E-003   1.0186641603577564E-002   0.0000000000000000     
   1.1129552145525901E-002   1.3233656173179207E-002   0.0000000000000000     
   1.3037649634747843E-002   1.6561316052401936E-002   0.0000000000000000     
   1.4955100325178865E-002   2.0169621241245751E-002   0.0000000000000000     
   6.3160296063513024E-003   7.1847950211811704E-003   0.0000000000000000     
   7.9556438252101121E-003   9.8958129409505227E-003   0.0000000000000000     
   9.5991934852579768E-003   1.2893467147876437E-002   0.0000000000000000     
   1.1246678586494892E-002   1.6177757641958904E-002   0.0000000000000000     
   1.2898099128920865E-002   1.9748684423197937E-002   0.0000000000000000     
   5.3305557564365495E-003   6.9877546859724634E-003   0.0000000000000000     
   6.7234341056995892E-003   9.6501458428164457E-003   0.0000000000000000     
   8.1172606143801625E-003   1.2604977589241537E-002   0.0000000000000000     
   9.5120352824782702E-003   1.5852249925247749E-002   0.0000000000000000     
   1.0907758109993910E-002   1.9391962850835068E-002   0.0000000000000000     
   4.3849952209649998E-003   6.8291513379708834E-003   0.0000000000000000     
   5.5341786989814715E-003   9.4496403091753247E-003   0.0000000000000000     
   6.6837535328924617E-003   1.2368187497274516E-002   0.0000000000000000     
   7.8337197226979703E-003   1.5584792902268456E-002   0.0000000000000000     
   8.9840772683979983E-003   1.9099456524157142E-002   0.0000000000000000     
   3.4793479999366559E-003   6.7089849771764312E-003   0.0000000000000000     
   4.3878776050557582E-003   9.2942963400271649E-003   0.0000000000000000     
   5.2986722407948727E-003   1.2183096871975366E-002   0.0000000000000000     
   6.2117319071539950E-003   1.5375386573021033E-002   0.0000000000000000     
   7.1270566041331303E-003   1.8871165443164171E-002   0.0000000000000000     
   1.4955100325178865E-002   2.0169621241245751E-002   0.0000000000000000     
   1.6856572628887814E-002   2.4030023824679978E-002   0.0000000000000000     
   1.8716734957943532E-002   2.8113975887673944E-002   0.0000000000000000     
   2.0535587312346028E-002   3.2421477430227656E-002   0.0000000000000000     
   2.2313129692095292E-002   3.6952528452341114E-002   0.0000000000000000     
   1.2898099128920865E-002   1.9748684423197937E-002   0.0000000000000000     
   1.4537090906079563E-002   2.3580123247714541E-002   0.0000000000000000     
   1.6147289711514662E-002   2.7645949871629761E-002   0.0000000000000000     
   1.7728695545226165E-002   3.1946164294943583E-002   0.0000000000000000     
   1.9281308407214072E-002   3.6480766517656013E-002   0.0000000000000000     
   1.0907758109993910E-002   1.9391962850835068E-002   0.0000000000000000     
   1.2294184089732277E-002   2.3199247161001909E-002   0.0000000000000000     
   1.3661068214498567E-002   2.7249233650746697E-002   0.0000000000000000     
   1.5008410484292779E-002   3.1541922320069422E-002   0.0000000000000000     
   1.6336210899114911E-002   3.6077313168970088E-002   0.0000000000000000     
   8.9840772683979983E-003   1.9099456524157142E-002   0.0000000000000000     
   1.0127852179845954E-002   2.2887395564542081E-002   0.0000000000000000     
   1.1258070466895240E-002   2.6923827225024760E-002   0.0000000000000000     
   1.2374732129545863E-002   3.1208751505605183E-002   0.0000000000000000     
   1.3477837167797817E-002   3.5742168406283359E-002   0.0000000000000000     
   7.1270566041331303E-003   1.8871165443164171E-002   0.0000000000000000     
   8.0380951764205885E-003   2.2644568458335047E-002   0.0000000000000000     
   8.9382964687046845E-003   2.6669730594463946E-002   0.0000000000000000     
   9.8276604809854149E-003   3.0946651851550867E-002   0.0000000000000000     
   1.0706187213262785E-002   3.5475332229595806E-002   0.0000000000000000     
   2.2313129692095292E-002   3.6952528452341114E-002   0.0000000000000000     
   2.4046559708787454E-002   4.1698388097062777E-002   0.0000000000000000     
   2.5733074974018638E-002   4.6650315507441101E-002   0.0000000000000000     
   2.7372675487788847E-002   5.1808310683476098E-002   0.0000000000000000     
   2.8965361250098073E-002   5.7172373625167770E-002   0.0000000000000000     
   1.9281308407214072E-002   3.6480766517656013E-002   0.0000000000000000     
   2.0798819502286282E-002   4.1235634852715003E-002   0.0000000000000000     
   2.2274920035250716E-002   4.6196647613068513E-002   0.0000000000000000     
   2.3709610006107374E-002   5.1363804798716536E-002   0.0000000000000000     
   2.5102889414856250E-002   5.6737106409659066E-002   0.0000000000000000     
   1.6336210899114911E-002   3.6077313168970088E-002   0.0000000000000000     
   1.7636486677307189E-002   4.0837561397308403E-002   0.0000000000000000     
   1.8901255037211837E-002   4.5804822204944064E-002   0.0000000000000000     
   2.0130515978828842E-002   5.0979095591877056E-002   0.0000000000000000     
   2.1324269502158225E-002   5.6360381558107395E-002   0.0000000000000000     
   1.3477837167797817E-002   3.5742168406283359E-002   0.0000000000000000     
   1.4559561233850169E-002   4.0504167730842970E-002   0.0000000000000000     
   1.5612079979901985E-002   4.5474839283067746E-002   0.0000000000000000     
   1.6635393405953262E-002   5.0654183062957665E-002   0.0000000000000000     
   1.7629501512004004E-002   5.6042199070512735E-002   0.0000000000000000     
   1.0706187213262785E-002   3.5475332229595806E-002   0.0000000000000000     
   1.1568043171915223E-002   4.0235453853318719E-002   0.0000000000000000     
   1.2407394863321168E-002   4.5206698847439580E-002   0.0000000000000000     
   1.3224242287480623E-002   5.0389067211958370E-002   0.0000000000000000     
   1.4018585444393581E-002   5.5782558946875095E-002   0.0000000000000000     
   2.8965361250098073E-002   5.7172373625167770E-002   0.0000000000000000     
   3.0510600903095958E-002   6.2730274868549110E-002   0.0000000000000000     
   3.2007863088932144E-002   6.8469784949653126E-002   0.0000000000000000     
   3.3457147807606627E-002   7.4390903868479824E-002   0.0000000000000000     
   3.4858455059119414E-002   8.0493631625029205E-002   0.0000000000000000     
   2.5102889414856250E-002   5.6737106409659066E-002   0.0000000000000000     
   2.6454792325873992E-002   6.2305022028879366E-002   0.0000000000000000     
   2.7765352803537258E-002   6.8056021239360651E-002   0.0000000000000000     
   2.9034570847846046E-002   7.3990104041102955E-002   0.0000000000000000     
   3.0262446458800354E-002   8.0107270434106231E-002   0.0000000000000000     
   2.1324269502158225E-002   5.6360381558107395E-002   0.0000000000000000     
   2.2482752887880764E-002   6.1937260299709126E-002   0.0000000000000000     
   2.3606203416677230E-002   6.7698312012756306E-002   0.0000000000000000     
   2.4694621088547645E-002   7.3643536697248921E-002   0.0000000000000000     
   2.5748005903491997E-002   7.9772934353186997E-002   0.0000000000000000     
   1.7629501512004004E-002   5.6042199070512735E-002   0.0000000000000000     
   1.8594482589116255E-002   6.1626989681038392E-002   0.0000000000000000     
   1.9530414928352058E-002   6.7396657269840093E-002   0.0000000000000000     
   2.0437298529711427E-002   7.3351201836917776E-002   0.0000000000000000     
   2.1315133393194345E-002   7.9490623382271516E-002   0.0000000000000000     
   1.4018585444393581E-002   5.5782558946875095E-002   0.0000000000000000     
   1.4789981429580479E-002   6.1374210172867157E-002   0.0000000000000000     
   1.5537987338561746E-002   6.7151057010611970E-002   0.0000000000000000     
   1.6262603171337386E-002   7.3113099460109507E-002   0.0000000000000000     
   1.6963828927907394E-002   7.9260337521359775E-002   0.0000000000000000     
   3.4858455059119414E-002   8.0493631625029205E-002   0.0000000000000000     
   3.6208457249479263E-002   8.6766108267260292E-002   0.0000000000000000     
   3.7503826784694931E-002   9.3196473843132122E-002   0.0000000000000000     
   3.8744563664766439E-002   9.9784728352644708E-002   0.0000000000000000     
   3.9930667889693766E-002  0.10653087179579802        0.0000000000000000     
   3.0262446458800354E-002   8.0107270434106231E-002   0.0000000000000000     
   3.1445368587053574E-002   8.6394855930062534E-002   0.0000000000000000     
   3.2579726183259099E-002   9.2840196040663833E-002   0.0000000000000000     
   3.3665519247416925E-002   9.9443290765910186E-002   0.0000000000000000     
   3.4702747779527053E-002  0.10620414010580155        0.0000000000000000     
   2.5748005903491997E-002   7.9772934353186997E-002   0.0000000000000000     
   2.6762826399685163E-002   8.6073328740008462E-002   0.0000000000000000     
   2.7735551115301994E-002   9.2531543617151268E-002   0.0000000000000000     
   2.8666180050342507E-002   9.9147578984615459E-002   0.0000000000000000     
   2.9554713204806689E-002  0.10592143484240096        0.0000000000000000     
   2.1315133393194345E-002   7.9490623382271516E-002   0.0000000000000000     
   2.2160830687374018E-002   8.5801526697098104E-002   0.0000000000000000     
   2.2971301580823621E-002   9.2270516572594441E-002   0.0000000000000000     
   2.3746546073543182E-002   9.8897593008760457E-002   0.0000000000000000     
   2.4486564165532673E-002  0.10568275600559622        0.0000000000000000     
   1.6963828927907394E-002   7.9260337521359775E-002   0.0000000000000000     
   1.7639381450120138E-002   8.5579449801331503E-002   0.0000000000000000     
   1.8286977579823990E-002   9.2057114906993309E-002   0.0000000000000000     
   1.8906617317018946E-002   9.8693332838345249E-002   0.0000000000000000     
   1.9498300661705006E-002  0.10548810359538732        0.0000000000000000     
   3.9930667889693766E-002  0.10653087179579802        0.0000000000000000     
   4.1067591690606670E-002  0.11342326521097719        0.0000000000000000     
   4.2160787298634914E-002  0.12045026963656734        0.0000000000000000     
   4.3210254713778491E-002  0.12761188507256840        0.0000000000000000     
   4.4215993936037416E-002  0.13490811151898049        0.0000000000000000     
   3.4702747779527053E-002  0.10620414010580155        0.0000000000000000     
   3.5696794529058884E-002  0.11311146488481050        0.0000000000000000     
   3.6653042245481791E-002  0.12015398592740954        0.0000000000000000     
   3.7571490928795803E-002  0.12733170323359866        0.0000000000000000     
   3.8452140579000892E-002  0.13464461680337791        0.0000000000000000     
   2.9554713204806689E-002  0.10592143484240096        0.0000000000000000     
   3.0406049669682522E-002  0.11284200600632464        0.0000000000000000     
   3.1225088535957960E-002  0.11989818729220328        0.0000000000000000     
   3.2011829803633013E-002  0.12708997870003688        0.0000000000000000     
   3.2766273472707677E-002  0.13441738022982547        0.0000000000000000     
   2.4486564165532673E-002  0.10568275600559622        0.0000000000000000     
   2.5195357112477595E-002  0.11261488857551960        0.0000000000000000     
   2.5876926170063423E-002  0.11968287373094855        0.0000000000000000     
   2.6531271338290141E-002  0.12688671147188302        0.0000000000000000     
   2.7158392617157773E-002  0.13422640179832313        0.0000000000000000     
   1.9498300661705006E-002  0.10548810359538732        0.0000000000000000     
   2.0064716857444105E-002  0.11243011259239538        0.0000000000000000     
   2.0608555147798167E-002  0.11950804524364533        0.0000000000000000     
   2.1129815532767191E-002  0.12672190154913715        0.0000000000000000     
   2.1628498012351179E-002  0.13407168150887086        0.0000000000000000     
   4.4215993936037416E-002  0.13490811151898049        0.0000000000000000     
   4.5168900917009494E-002  0.14232697236137656        0.0000000000000000     
   4.6059871608292564E-002  0.14985649098532977        0.0000000000000000     
   4.6888906009886613E-002  0.15749666739084014        0.0000000000000000     
   4.7656004121791669E-002  0.16524750157790757        0.0000000000000000     
   3.8452140579000892E-002  0.13464461680337791        0.0000000000000000     
   3.9285544464875172E-002  0.14208045457734036        0.0000000000000000     
   4.0062255855196752E-002  0.14962694449607911        0.0000000000000000     
   4.0782274749965625E-002  0.15728408655959411        0.0000000000000000     
   4.1445601149181777E-002  0.16505188076788541        0.0000000000000000     
   3.2766273472707677E-002  0.13441738022982547        0.0000000000000000     
   3.3479513931793076E-002  0.14186798905775824        0.0000000000000000     
   3.4142645569500342E-002  0.14942940236002447        0.0000000000000000     
   3.4755668385829455E-002  0.15710162013662410        0.0000000000000000     
   3.5318582380780436E-002  0.16488464238755721        0.0000000000000000     
   2.7158392617157773E-002  0.13422640179832313        0.0000000000000000     
   2.7750809317763199E-002  0.14168957580263022        0.0000000000000000     
   2.8301040751203321E-002  0.14926386457716589        0.0000000000000000     
   2.8809086917478136E-002  0.15694926812193011        0.0000000000000000     
   2.9274947816587637E-002  0.16474578643692289        0.0000000000000000     
   2.1628498012351179E-002  0.13407168150887086        0.0000000000000000     
   2.2099430622785542E-002  0.14154521481195631        0.0000000000000000     
   2.2537441400305697E-002  0.14913033114750340        0.0000000000000000     
   2.2942530344911640E-002  0.15682703051551211        0.0000000000000000     
   2.3314697456603379E-002  0.16463531291598249        0.0000000000000000     
   0.0000000000000000        0.0000000000000000        0.0000000000000000     
   8.4166693261546405E-004   1.1100058437881887E-003   0.0000000000000000     
   1.7021139101433946E-003   2.5981719545803235E-003   0.0000000000000000     
   2.5813409325837920E-003   4.4644983323764041E-003   0.0000000000000000     
   3.4793479999366559E-003   6.7089849771764312E-003   0.0000000000000000     
   0.0000000000000000        0.0000000000000000        0.0000000000000000     
   6.3382681281649715E-004   1.0939919467455872E-003   0.0000000000000000     
   1.2780392216024858E-003   2.5620985278914576E-003   0.0000000000000000     
   1.9326372263579659E-003   4.4043197434376112E-003   0.0000000000000000     
   2.5976208270829374E-003   6.6206555933840481E-003   0.0000000000000000     
   0.0000000000000000        0.0000000000000000        0.0000000000000000     
   4.2426895077903373E-004   1.0825534488581776E-003   0.0000000000000000     
   8.5299534039458931E-004   2.5363317945423505E-003   0.0000000000000000     
   1.2861791688466664E-003   4.3613350370525173E-003   0.0000000000000000     
   1.7238204361352655E-003   6.5575631763886795E-003   0.0000000000000000     
   0.0000000000000000        0.0000000000000000        0.0000000000000000     
   2.1299334650307387E-004   1.0756903501259606E-003   0.0000000000000000     
   4.2698226651970508E-004   2.5208717545330017E-003   0.0000000000000000     
   6.4196676004989357E-004   4.3355442132211215E-003   0.0000000000000000     
   8.5794682709363940E-004   6.5197077261903227E-003   0.0000000000000000     
   0.0000000000000000        0.0000000000000000        0.0000000000000000     
  -1.1382577823002005E-014   1.0734026505489359E-003   0.0000000000000000     
  -2.2166838677117884E-014   2.5157184078634111E-003   0.0000000000000000     
  -3.2352863877510574E-014   4.3269472719434264E-003   0.0000000000000000     
  -4.1940490793854202E-014   6.5070892427889805E-003   0.0000000000000000     
   3.4793479999366559E-003   6.7089849771764312E-003   0.0000000000000000     
   4.3878776050557582E-003   9.2942963400271649E-003   0.0000000000000000     
   5.2986722407948727E-003   1.2183096871975366E-002   0.0000000000000000     
   6.2117319071539950E-003   1.5375386573021033E-002   0.0000000000000000     
   7.1270566041331303E-003   1.8871165443164171E-002   0.0000000000000000     
   2.5976208270829374E-003   6.6206555933840481E-003   0.0000000000000000     
   3.2700173015894488E-003   9.1781285514875560E-003   0.0000000000000000     
   3.9468539276895469E-003   1.2043761091504925E-002   0.0000000000000000     
   4.6281307053832321E-003   1.5217553213436156E-002   0.0000000000000000     
   5.3138476346705028E-003   1.8699504917281246E-002   0.0000000000000000     
   1.7238204361352655E-003   6.5575631763886795E-003   0.0000000000000000     
   2.1660842662495385E-003   9.0951515596720978E-003   0.0000000000000000     
   2.6131357831786373E-003   1.1944235534024039E-002   0.0000000000000000     
   3.0649749869225626E-003   1.5104815099444497E-002   0.0000000000000000     
   3.5216018774813134E-003   1.8576890255933481E-002   0.0000000000000000     
   8.5794682709363940E-004   6.5197077261903227E-003   0.0000000000000000     
   1.0760784990360276E-003   9.0453653645807888E-003   0.0000000000000000     
   1.2975178072621441E-003   1.1884520199532700E-002   0.0000000000000000     
   1.5222647517719877E-003   1.5037172231046060E-002   0.0000000000000000     
   1.7503193325655597E-003   1.8503321459120866E-002   0.0000000000000000     
  -4.1940490793854202E-014   6.5070892427889805E-003   0.0000000000000000     
  -5.1082998508283906E-014   9.0287699662136255E-003   0.0000000000000000     
  -5.9933252750856564E-014   1.1864615088030913E-002   0.0000000000000000     
  -6.8491671955848120E-014   1.5014624608240840E-002   0.0000000000000000     
  -7.6757610684152766E-014   1.8478798526843414E-002   0.0000000000000000     
   7.1270566041331303E-003   1.8871165443164171E-002   0.0000000000000000     
   8.0380951764205885E-003   2.2644568458335047E-002   0.0000000000000000     
   8.9382964687046845E-003   2.6669730594463946E-002   0.0000000000000000     
   9.8276604809854149E-003   3.0946651851550867E-002   0.0000000000000000     
   1.0706187213262785E-002   3.5475332229595806E-002   0.0000000000000000     
   5.3138476346705028E-003   1.8699504917281246E-002   0.0000000000000000     
   5.9971120652430147E-003   2.2462292954887782E-002   0.0000000000000000     
   6.6710313467924142E-003   2.6478594078103348E-002   0.0000000000000000     
   7.3356054793187039E-003   3.0748408286927945E-002   0.0000000000000000     
   7.9908344628218820E-003   3.5271735581361569E-002   0.0000000000000000     
   3.5216018774813134E-003   1.8576890255933481E-002   0.0000000000000000     
   3.9771018321000532E-003   2.2332096166707244E-002   0.0000000000000000     
   4.4255602280239437E-003   2.6342067994982045E-002   0.0000000000000000     
   4.8669770652529877E-003   3.0606805740757897E-002   0.0000000000000000     
   5.3013523437871815E-003   3.5126309404034786E-002   0.0000000000000000     
   1.7503193325655597E-003   1.8503321459120866E-002   0.0000000000000000     
   1.9780644769917064E-003   2.2253978093793429E-002   0.0000000000000000     
   2.2018831123992752E-003   2.6260152345100041E-002   0.0000000000000000     
   2.4217752387882675E-003   3.0521844213040713E-002   0.0000000000000000     
   2.6377408561586812E-003   3.5039053697615438E-002   0.0000000000000000     
  -7.6757610684152766E-014   1.8478798526843414E-002   0.0000000000000000     
  -8.2026291141346075E-014   2.2227938736146341E-002   0.0000000000000000     
  -8.1593152373438116E-014   2.6232847128457339E-002   0.0000000000000000     
  -7.5456893337821906E-014   3.0493523703776407E-002   0.0000000000000000     
  -6.3619031917538926E-014   3.5009968462103545E-002   0.0000000000000000     
   1.0706187213262785E-002   3.5475332229595806E-002   0.0000000000000000     
   1.1568043171915223E-002   4.0235453853318719E-002   0.0000000000000000     
   1.2407394863321168E-002   4.5206698847439580E-002   0.0000000000000000     
   1.3224242287480623E-002   5.0389067211958370E-002   0.0000000000000000     
   1.4018585444393581E-002   5.5782558946875095E-002   0.0000000000000000     
   7.9908344628218820E-003   3.5271735581361569E-002   0.0000000000000000     
   8.6334296952874784E-003   4.0028626618136998E-002   0.0000000000000000     
   9.2601025747010152E-003   4.4999132053987007E-002   0.0000000000000000     
   9.8708531010624975E-003   5.0183251888911595E-002   0.0000000000000000     
   1.0465681274371920E-002   5.5580986122910771E-002   0.0000000000000000     
   5.3013523437871815E-003   3.5126309404034786E-002   0.0000000000000000     
   5.7272180077520586E-003   3.9880892878699163E-002   0.0000000000000000     
   6.1431060012731523E-003   4.4850870058637499E-002   0.0000000000000000     
   6.5490163243504566E-003   5.0036240943849793E-002   0.0000000000000000     
   6.9449489769839758E-003   5.5437005534336038E-002   0.0000000000000000     
   2.6377408561586812E-003   3.5039053697615438E-002   0.0000000000000000     
   2.8494081093089676E-003   3.9792252635005215E-002   0.0000000000000000     
   3.0564051430375756E-003   4.4761912861391050E-002   0.0000000000000000     
   3.2587319573445040E-003   4.9948034376772962E-002   0.0000000000000000     
   3.4563885522297540E-003   5.5350617181150912E-002   0.0000000000000000     
  -6.3619031917538926E-014   3.5009968462103545E-002   0.0000000000000000     
  -4.1797294791923179E-014   3.9762705887055168E-002   0.0000000000000000     
  -5.7122275659571287E-015   4.4732260462247680E-002   0.0000000000000000     
   4.4637958693943824E-014   4.9918632187681083E-002   0.0000000000000000     
   1.0925180031484683E-013   5.5321821063355384E-002   0.0000000000000000     
   1.4018585444393581E-002   5.5782558946875095E-002   0.0000000000000000     
   1.4789981429580479E-002   6.1374210172867157E-002   0.0000000000000000     
   1.5537987338561746E-002   6.7151057010611970E-002   0.0000000000000000     
   1.6262603171337386E-002   7.3113099460109507E-002   0.0000000000000000     
   1.6963828927907394E-002   7.9260337521359775E-002   0.0000000000000000     
   1.0465681274371920E-002   5.5580986122910771E-002   0.0000000000000000     
   1.1043645147801586E-002   6.1178180464048916E-002   0.0000000000000000     
   1.1603802774523801E-002   6.6960680620390428E-002   0.0000000000000000     
   1.2146154154538560E-002   7.2928486591935349E-002   0.0000000000000000     
   1.2670699287845869E-002   7.9081598378683615E-002   0.0000000000000000     
   6.9449489769839758E-003   5.5437005534336038E-002   0.0000000000000000     
   7.3298694823077295E-003   6.1038159243437126E-002   0.0000000000000000     
   7.7027433634557349E-003   6.6824697484493947E-002   0.0000000000000000     
   8.0635706204279928E-003   7.2796620257506536E-002   0.0000000000000000     
   8.4123512532245006E-003   7.8953927562474852E-002   0.0000000000000000     
   3.4563885522297540E-003   5.5350617181150912E-002   0.0000000000000000     
   3.6486544330989086E-003   6.0954146511031808E-002   0.0000000000000000     
   3.8348091053575489E-003   6.6743107602922541E-002   0.0000000000000000     
   4.0148525690056752E-003   7.2717500456823111E-002   0.0000000000000000     
   4.1887848240432877E-003   7.8877325072733484E-002   0.0000000000000000     
   1.0925180031484683E-013   5.5321821063355384E-002   0.0000000000000000     
   1.7512228646376915E-013   6.0926142266832961E-002   0.0000000000000000     
   2.2924321945935744E-013   6.6715910975676168E-002   0.0000000000000000     
   2.7161160419311020E-013   7.2691127189885005E-002   0.0000000000000000     
   3.0223176392119022E-013   7.8851790909459499E-002   0.0000000000000000     
   1.6963828927907394E-002   7.9260337521359775E-002   0.0000000000000000     
   1.7639381450120138E-002   8.5579449801331503E-002   0.0000000000000000     
   1.8286977579823990E-002   9.2057114906993309E-002   0.0000000000000000     
   1.8906617317018946E-002   9.8693332838345249E-002   0.0000000000000000     
   1.9498300661705006E-002  0.10548810359538732        0.0000000000000000     
   1.2670699287845869E-002   7.9081598378683615E-002   0.0000000000000000     
   1.3176038109713796E-002   8.5406887269408815E-002   0.0000000000000000     
   1.3660770555410411E-002   9.1891224552884482E-002   0.0000000000000000     
   1.4124896624935721E-002   9.8534610229110586E-002   0.0000000000000000     
   1.4568416318289716E-002  0.10533704429808718        0.0000000000000000     
   8.4123512532245006E-003   7.8953927562474852E-002   0.0000000000000000     
   8.7483600879452485E-003   8.5283628318030338E-002   0.0000000000000000     
   9.0708719506902187E-003   9.1772731442804456E-002   0.0000000000000000     
   9.3798868414594148E-003   9.8421236936797232E-002   0.0000000000000000     
   9.6754047602528349E-003  0.10522914480000863        0.0000000000000000     
   4.1887848240432877E-003   7.8877325072733484E-002   0.0000000000000000     
   4.3563473848144980E-003   8.5209672947196086E-002   0.0000000000000000     
   4.5172817656634126E-003   9.1701635576753329E-002   0.0000000000000000     
   4.6715879665900351E-003   9.8353212961405201E-002   0.0000000000000000     
   4.8192659875943610E-003  0.10516440510115170        0.0000000000000000     
   3.0223176392119022E-013   7.8851790909459499E-002   0.0000000000000000     
   3.2154227197489504E-013   8.5185021156906029E-002   0.0000000000000000     
   3.2999048372311934E-013   9.1677936954731032E-002   0.0000000000000000     
   3.2757458312722421E-013   9.8330538302934478E-002   0.0000000000000000     
   3.1429416361139495E-013  0.10514282520151637        0.0000000000000000     
   1.9498300661705006E-002  0.10548810359538732        0.0000000000000000     
   2.0064716857444105E-002  0.11243011259239538        0.0000000000000000     
   2.0608555147798167E-002  0.11950804524364533        0.0000000000000000     
   2.1129815532767191E-002  0.12672190154913715        0.0000000000000000     
   2.1628498012351179E-002  0.13407168150887086        0.0000000000000000     
   1.4568416318289716E-002  0.10533704429808718        0.0000000000000000     
   1.4992711475910766E-002  0.11228695799051745        0.0000000000000000     
   1.5399163938237219E-002  0.11937278253710469        0.0000000000000000     
   1.5787773705269081E-002  0.12659451793784887        0.0000000000000000     
   1.6158540777006347E-002  0.13395216419275002        0.0000000000000000     
   9.6754047602528349E-003  0.10522914480000863        0.0000000000000000     
   9.9579235392062895E-003  0.11218470470345125        0.0000000000000000     
   1.0227941010455596E-002  0.11927616631813766        0.0000000000000000     
   1.0485457174000744E-002  0.12650352964406789        0.0000000000000000     
   1.0730472029841745E-002  0.13386679468124194        0.0000000000000000     
   4.8192659875943610E-003  0.10516440510115170        0.0000000000000000     
   4.9603530473306843E-003  0.11212335273119672        0.0000000000000000     
   5.0948863644532912E-003  0.11921819658674419        0.0000000000000000     
   5.2228659389621877E-003  0.12644893666779419        0.0000000000000000     
   5.3442917708573659E-003  0.13381557297434657        0.0000000000000000     
   3.1429416361139495E-013  0.10514282520151637        0.0000000000000000     
   2.8394279115440124E-013  0.11210290207375395        0.0000000000000000     
   2.3031251385197127E-013  0.11919887334292441        0.0000000000000000     
   1.5340186803117217E-013  0.12643073900902774        0.0000000000000000     
   5.3214377349064534E-014  0.13379849907206398        0.0000000000000000     
   2.1628498012351179E-002  0.13407168150887086        0.0000000000000000     
   2.2099430622785542E-002  0.14154521481195631        0.0000000000000000     
   2.2537441400305697E-002  0.14913033114750340        0.0000000000000000     
   2.2942530344911640E-002  0.15682703051551211        0.0000000000000000     
   2.3314697456603379E-002  0.16463531291598249        0.0000000000000000     
   1.6158540777006347E-002  0.13395216419275002        0.0000000000000000     
   1.6508679407270434E-002  0.14143379681080914        0.0000000000000000     
   1.6835403849882757E-002  0.14902749130102733        0.0000000000000000     
   1.7138714104843310E-002  0.15673324766340457        0.0000000000000000     
   1.7418610172152099E-002  0.16455106589794091        0.0000000000000000     
   1.0730472029841745E-002  0.13386679468124194        0.0000000000000000     
   1.0961857231628217E-002  0.14135421252426142        0.0000000000000000     
   1.1178484433009792E-002  0.14895403426772810        0.0000000000000000     
   1.1380353633986465E-002  0.15666625991164193        0.0000000000000000     
   1.1567464834558238E-002  0.16449088945600290        0.0000000000000000     
   5.3442917708573659E-003  0.13381557297434657        0.0000000000000000     
   5.4589640958588852E-003  0.14130646195231317        0.0000000000000000     
   5.5666831496867953E-003  0.14890996004760568        0.0000000000000000     
   5.6674489323410987E-003  0.15662606726022416        0.0000000000000000     
   5.7612614438217946E-003  0.16445478359016855        0.0000000000000000     
   5.3214377349064534E-014  0.13379849907206398        0.0000000000000000     
  -3.7560232701849827E-014  0.14129054509496433        0.0000000000000000     
  -8.6224972474513439E-014  0.14889526864066011        0.0000000000000000     
  -9.2783121680498071E-014  0.15661266970915125        0.0000000000000000     
  -5.7232864281164808E-014  0.16444274830043776        0.0000000000000000     
   0.0000000000000000        0.0000000000000000        0.0000000000000000     
  -1.1382577823002005E-014   1.0734026505489359E-003   0.0000000000000000     
  -2.2166838677117884E-014   2.5157184078634111E-003   0.0000000000000000     
  -3.2352863877510574E-014   4.3269472719434264E-003   0.0000000000000000     
  -4.1940490793854202E-014   6.5070892427889805E-003   0.0000000000000000     
   0.0000000000000000        0.0000000000000000        0.0000000000000000     
  -2.1299334652550862E-004   1.0756903501270708E-003   0.0000000000000000     
  -4.2698226656345763E-004   2.5208717545336045E-003   0.0000000000000000     
  -6.4196676011384697E-004   4.3355442132196019E-003   0.0000000000000000     
  -8.5794682717667682E-004   6.5197077261850613E-003   0.0000000000000000     
   0.0000000000000000        0.0000000000000000        0.0000000000000000     
  -4.2426895080047746E-004   1.0825534488603326E-003   0.0000000000000000     
  -8.5299534043659889E-004   2.5363317945436064E-003   0.0000000000000000     
  -1.2861791689083642E-003   4.3613350370498207E-003   0.0000000000000000     
  -1.7238204362157727E-003   6.5575631763789754E-003   0.0000000000000000     
   0.0000000000000000        0.0000000000000000        0.0000000000000000     
  -6.3382681283628926E-004   1.0939919467487216E-003   0.0000000000000000     
  -1.2780392216415904E-003   2.5620985278934161E-003   0.0000000000000000     
  -1.9326372264159032E-003   4.4043197434340837E-003   0.0000000000000000     
  -2.5976208271592280E-003   6.6206555933707228E-003   0.0000000000000000     
   0.0000000000000000        0.0000000000000000        0.0000000000000000     
  -8.4166693263294378E-004   1.1100058437922378E-003   0.0000000000000000     
  -1.7021139101784323E-003   2.5981719545830344E-003   0.0000000000000000     
  -2.5813409326364656E-003   4.4644983323723899E-003   0.0000000000000000     
  -3.4793480000070431E-003   6.7089849771603044E-003   0.0000000000000000     
  -4.1940490793854202E-014   6.5070892427889805E-003   0.0000000000000000     
  -5.1082998508283906E-014   9.0287699662136255E-003   0.0000000000000000     
  -5.9933252750856564E-014   1.1864615088030913E-002   0.0000000000000000     
  -6.8491671955848120E-014   1.5014624608240840E-002   0.0000000000000000     
  -7.6757610684152766E-014   1.8478798526843414E-002   0.0000000000000000     
  -8.5794682717667682E-004   6.5197077261850613E-003   0.0000000000000000     
  -1.0760784991372559E-003   9.0453653645711958E-003   0.0000000000000000     
  -1.2975178073808937E-003   1.1884520199519232E-002   0.0000000000000000     
  -1.5222647519075889E-003   1.5037172231029156E-002   0.0000000000000000     
  -1.7503193327173417E-003   1.8503321459100976E-002   0.0000000000000000     
  -1.7238204362157727E-003   6.5575631763789754E-003   0.0000000000000000     
  -2.1660842663479532E-003   9.0951515596540966E-003   0.0000000000000000     
  -2.6131357832940350E-003   1.1944235533998209E-002   0.0000000000000000     
  -3.0649749870540165E-003   1.5104815099411315E-002   0.0000000000000000     
  -3.5216018776278979E-003   1.8576890255893413E-002   0.0000000000000000     
  -2.5976208271592280E-003   6.6206555933707228E-003   0.0000000000000000     
  -3.2700173016831759E-003   9.1781285514623175E-003   0.0000000000000000     
  -3.9468539277993601E-003   1.2043761091467851E-002   0.0000000000000000     
  -4.6281307055077749E-003   1.5217553213387320E-002   0.0000000000000000     
  -5.3138476348084255E-003   1.8699504917220729E-002   0.0000000000000000     
  -3.4793480000070431E-003   6.7089849771603044E-003   0.0000000000000000     
  -4.3878776051429228E-003   9.2942963399958636E-003   0.0000000000000000     
  -5.2986722408968640E-003   1.2183096871928156E-002   0.0000000000000000     
  -6.2117319072688632E-003   1.5375386572957169E-002   0.0000000000000000     
  -7.1270566042589238E-003   1.8871165443082916E-002   0.0000000000000000     
  -7.6757610684152766E-014   1.8478798526843414E-002   0.0000000000000000     
  -8.2026291141346075E-014   2.2227938736146341E-002   0.0000000000000000     
  -8.1593152373438116E-014   2.6232847128457339E-002   0.0000000000000000     
  -7.5456893337821906E-014   3.0493523703776407E-002   0.0000000000000000     
  -6.3619031917538926E-014   3.5009968462103545E-002   0.0000000000000000     
  -1.7503193327173417E-003   1.8503321459100976E-002   0.0000000000000000     
  -1.9780644771538580E-003   2.2253978093765839E-002   0.0000000000000000     
  -2.2018831125608421E-003   2.6260152345054907E-002   0.0000000000000000     
  -2.4217752389382938E-003   3.0521844212968174E-002   0.0000000000000000     
  -2.6377408562862133E-003   3.5039053697505644E-002   0.0000000000000000     
  -3.5216018776278979E-003   1.8576890255893413E-002   0.0000000000000000     
  -3.9771018322565018E-003   2.2332096166651789E-002   0.0000000000000000     
  -4.4255602281806543E-003   2.6342067994893723E-002   0.0000000000000000     
  -4.8669770654003533E-003   3.0606805740619216E-002   0.0000000000000000     
  -5.3013523439155996E-003   3.5126309403828271E-002   0.0000000000000000     
  -5.3138476348084255E-003   1.8699504917220729E-002   0.0000000000000000     
  -5.9971120653899580E-003   2.2462292954804178E-002   0.0000000000000000     
  -6.6710313469410297E-003   2.6478594077973781E-002   0.0000000000000000     
  -7.3356054794616330E-003   3.0748408286729530E-002   0.0000000000000000     
  -7.9908344629517729E-003   3.5271735581071433E-002   0.0000000000000000     
  -7.1270566042589238E-003   1.8871165443082916E-002   0.0000000000000000     
  -8.0380951765542299E-003   2.2644568458223012E-002   0.0000000000000000     
  -8.9382964688419671E-003   2.6669730594295088E-002   0.0000000000000000     
  -9.8276604811221371E-003   3.0946651851299124E-002   0.0000000000000000     
  -1.0706187213394737E-002   3.5475332229235129E-002   0.0000000000000000     
  -6.3619031917538926E-014   3.5009968462103545E-002   0.0000000000000000     
  -4.1797294791923179E-014   3.9762705887055168E-002   0.0000000000000000     
  -5.7122275659571287E-015   4.4732260462247680E-002   0.0000000000000000     
   4.4637958693943824E-014   4.9918632187681083E-002   0.0000000000000000     
   1.0925180031484683E-013   5.5321821063355384E-002   0.0000000000000000     
  -2.6377408562862133E-003   3.5039053697505644E-002   0.0000000000000000     
  -2.8494081093947041E-003   3.9792252634858652E-002   0.0000000000000000     
  -3.0564051430538664E-003   4.4761912861218563E-002   0.0000000000000000     
  -3.2587319572637001E-003   4.9948034376585369E-002   0.0000000000000000     
  -3.4563885520242053E-003   5.5350617180959072E-002   0.0000000000000000     
  -5.3013523439155996E-003   3.5126309403828271E-002   0.0000000000000000     
  -5.7272180078442193E-003   3.9880892878425347E-002   0.0000000000000000     
  -6.1431060013040408E-003   4.4850870058314923E-002   0.0000000000000000     
  -6.5490163242950643E-003   5.0036240943496992E-002   0.0000000000000000     
  -6.9449489768172914E-003   5.5437005533971566E-002   0.0000000000000000     
  -7.9908344629517729E-003   3.5271735581071433E-002   0.0000000000000000     
  -8.6334296953903440E-003   4.0028626617755254E-002   0.0000000000000000     
  -9.2601025747562366E-003   4.4999132053536763E-002   0.0000000000000000     
  -9.8708531010494593E-003   5.0183251888415971E-002   0.0000000000000000     
  -1.0465681274270007E-002   5.5580986122392852E-002   0.0000000000000000     
  -1.0706187213394737E-002   3.5475332229235129E-002   0.0000000000000000     
  -1.1568043172033077E-002   4.0235453852848359E-002   0.0000000000000000     
  -1.2407394863410456E-002   4.5206698846884080E-002   0.0000000000000000     
  -1.3224242287526881E-002   5.0389067211342280E-002   0.0000000000000000     
  -1.4018585444382350E-002   5.5782558946222971E-002   0.0000000000000000     
   1.0925180031484683E-013   5.5321821063355384E-002   0.0000000000000000     
   1.7512228646376915E-013   6.0926142266832961E-002   0.0000000000000000     
   2.2924321945935744E-013   6.6715910975676168E-002   0.0000000000000000     
   2.7161160419311020E-013   7.2691127189885005E-002   0.0000000000000000     
   3.0223176392119022E-013   7.8851790909459499E-002   0.0000000000000000     
  -3.4563885520242053E-003   5.5350617180959072E-002   0.0000000000000000     
  -3.6486544327655945E-003   6.0954146510847129E-002   0.0000000000000000     
  -3.8348091049180736E-003   6.6743107602757007E-002   0.0000000000000000     
  -4.0148525684816465E-003   7.2717500456688733E-002   0.0000000000000000     
  -4.1887848234563119E-003   7.8877325072642279E-002   0.0000000000000000     
  -6.9449489768172914E-003   5.5437005533971566E-002   0.0000000000000000     
  -7.3298694820252037E-003   6.1038159243080890E-002   0.0000000000000000     
  -7.7027433630732899E-003   6.6824697484167264E-002   0.0000000000000000     
  -8.0635706199615499E-003   7.2796620257230701E-002   0.0000000000000000     
  -8.4123512526899785E-003   7.8953927562271153E-002   0.0000000000000000     
  -1.0465681274270007E-002   5.5580986122392852E-002   0.0000000000000000     
  -1.1043645147603710E-002   6.1178180463534231E-002   0.0000000000000000     
  -1.1603802774236409E-002   6.6960680619906926E-002   0.0000000000000000     
  -1.2146154154168098E-002   7.2928486591510869E-002   0.0000000000000000     
  -1.2670699287398777E-002   7.9081598378346149E-002   0.0000000000000000     
  -1.4018585444382350E-002   5.5782558946222971E-002   0.0000000000000000     
  -1.4789981429501114E-002   6.1374210172207184E-002   0.0000000000000000     
  -1.5537987338407428E-002   6.7151057009975965E-002   0.0000000000000000     
  -1.6262603171101290E-002   7.3113099459529318E-002   0.0000000000000000     
  -1.6963828927582698E-002   7.9260337520867225E-002   0.0000000000000000     
   3.0223176392119022E-013   7.8851790909459499E-002   0.0000000000000000     
   3.2154227197489504E-013   8.5185021156906029E-002   0.0000000000000000     
   3.2999048372311934E-013   9.1677936954731032E-002   0.0000000000000000     
   3.2757458312722421E-013   9.8330538302934478E-002   0.0000000000000000     
   3.1429416361139495E-013  0.10514282520151637        0.0000000000000000     
  -4.1887848234563119E-003   7.8877325072642279E-002   0.0000000000000000     
  -4.3563473841857570E-003   8.5209672947143267E-002   0.0000000000000000     
  -4.5172817650136728E-003   9.1701635576717358E-002   0.0000000000000000     
  -4.6715879659400576E-003   9.8353212961364497E-002   0.0000000000000000     
  -4.8192659869649105E-003  0.10516440510108475        0.0000000000000000     
  -8.4123512526899785E-003   7.8953927562271153E-002   0.0000000000000000     
  -8.7483600873595434E-003   8.5283628317890867E-002   0.0000000000000000     
  -9.0708719500712017E-003   9.1772731442692088E-002   0.0000000000000000     
  -9.3798868408249518E-003   9.8421236936674761E-002   0.0000000000000000     
  -9.6754047596207971E-003  0.10522914479983891        0.0000000000000000     
  -1.2670699287398777E-002   7.9081598378346149E-002   0.0000000000000000     
  -1.3176038109199819E-002   8.5406887269148843E-002   0.0000000000000000     
  -1.3660770554842598E-002   9.1891224552655235E-002   0.0000000000000000     
  -1.4124896624327117E-002   9.8534610228865213E-002   0.0000000000000000     
  -1.4568416317653371E-002  0.10533704429777888        0.0000000000000000     
  -1.6963828927582698E-002   7.9260337520867225E-002   0.0000000000000000     
  -1.7639381449706580E-002   8.5579449800917209E-002   0.0000000000000000     
  -1.8286977579327866E-002   9.2057114906606785E-002   0.0000000000000000     
  -1.8906617316446547E-002   9.8693332837935910E-002   0.0000000000000000     
  -1.9498300661062624E-002  0.10548810359490461        0.0000000000000000     
   3.1429416361139495E-013  0.10514282520151637        0.0000000000000000     
   2.8394279115440124E-013  0.11210290207375395        0.0000000000000000     
   2.3031251385197127E-013  0.11919887334292441        0.0000000000000000     
   1.5340186803117217E-013  0.12643073900902774        0.0000000000000000     
   5.3214377349064534E-014  0.13379849907206398        0.0000000000000000     
  -4.8192659869649105E-003  0.10516440510108475        0.0000000000000000     
  -4.9603530467537457E-003  0.11212335273110709        0.0000000000000000     
  -5.0948863639720763E-003  0.11921819658666058        0.0000000000000000     
  -5.2228659386199024E-003  0.12644893666774520        0.0000000000000000     
  -5.3442917706972232E-003  0.13381557297436097        0.0000000000000000     
  -9.6754047596207971E-003  0.10522914479983891        0.0000000000000000     
  -9.9579235386021946E-003  0.11218470470324042        0.0000000000000000     
  -1.0227941009912603E-002  0.11927616631793519        0.0000000000000000     
  -1.0485457173552024E-002  0.12650352964392320        0.0000000000000000     
  -1.0730472029520455E-002  0.13386679468120444        0.0000000000000000     
  -1.4568416317653371E-002  0.10533704429777888        0.0000000000000000     
  -1.4992711475261405E-002  0.11228695799015392        0.0000000000000000     
  -1.5399163937591271E-002  0.11937278253674821        0.0000000000000000     
  -1.5787773704642964E-002  0.12659451793756166        0.0000000000000000     
  -1.6158540776416482E-002  0.13395216419259431        0.0000000000000000     
  -1.9498300661062624E-002  0.10548810359490461        0.0000000000000000     
  -2.0064716856731377E-002  0.11243011259184763        0.0000000000000000     
  -2.0608555147008073E-002  0.11950804524309964        0.0000000000000000     
  -2.1129815531892717E-002  0.12672190154866064        0.0000000000000000     
  -2.1628498011385305E-002  0.13407168150853066        0.0000000000000000     
   5.3214377349064534E-014  0.13379849907206398        0.0000000000000000     
  -3.7560232701849827E-014  0.14129054509496433        0.0000000000000000     
  -8.6224972474513439E-014  0.14889526864066011        0.0000000000000000     
  -9.2783121680498071E-014  0.15661266970915125        0.0000000000000000     
  -5.7232864281164808E-014  0.16444274830043776        0.0000000000000000     
  -5.3442917706972232E-003  0.13381557297436097        0.0000000000000000     
  -5.4589640958621908E-003  0.14130646195220026        0.0000000000000000     
  -5.5666831497729529E-003  0.14890996004695545        0.0000000000000000     
  -5.6674489324295132E-003  0.15662606725862646        0.0000000000000000     
  -5.7612614438318707E-003  0.16445478358721338        0.0000000000000000     
  -1.0730472029520455E-002  0.13386679468120444        0.0000000000000000     
  -1.0961857231416079E-002  0.14135421252400621        0.0000000000000000     
  -1.1178484432837065E-002  0.14895403426655576        0.0000000000000000     
  -1.1380353633783426E-002  0.15666625990885313        0.0000000000000000     
  -1.1567464834255149E-002  0.16449088945089824        0.0000000000000000     
  -1.6158540776416482E-002  0.13395216419259431        0.0000000000000000     
  -1.6508679406699221E-002  0.14143379681038215        0.0000000000000000     
  -1.6835403849278563E-002  0.14902749129946108        0.0000000000000000     
  -1.7138714104154514E-002  0.15673324765983110        0.0000000000000000     
  -1.7418610171327068E-002  0.16455106589149224        0.0000000000000000     
  -2.1628498011385305E-002  0.13407168150853066        0.0000000000000000     
  -2.2099430621711623E-002  0.14154521481132809        0.0000000000000000     
  -2.2537441399097448E-002  0.14913033114567134        0.0000000000000000     
  -2.2942530343542780E-002  0.15682703051156047        0.0000000000000000     
  -2.3314697455047627E-002  0.16463531290899544        0.0000000000000000     
   0.0000000000000000        0.0000000000000000        0.0000000000000000     
  -8.4166693263294378E-004   1.1100058437922378E-003   0.0000000000000000     
  -1.7021139101784323E-003   2.5981719545830344E-003   0.0000000000000000     
  -2.5813409326364656E-003   4.4644983323723899E-003   0.0000000000000000     
  -3.4793480000070431E-003   6.7089849771603044E-003   0.0000000000000000     
   0.0000000000000000        0.0000000000000000        0.0000000000000000     
  -1.0566945591349375E-003   1.1341588132992703E-003   0.0000000000000000     
  -2.1397586156844720E-003   2.6504036407244799E-003   0.0000000000000000     
  -3.2491921696486035E-003   4.5487344822756287E-003   0.0000000000000000     
  -4.3849952210273319E-003   6.8291513379527182E-003   0.0000000000000000     
   0.0000000000000000        0.0000000000000000        0.0000000000000000     
  -1.2878149412867666E-003   1.1700145285782084E-003   0.0000000000000000     
  -2.6055125477970568E-003   2.7246451524297714E-003   0.0000000000000000     
  -3.9530928195308720E-003   4.6638918715546877E-003   0.0000000000000000     
  -5.3305557564882105E-003   6.9877546859529590E-003   0.0000000000000000     
   0.0000000000000000        0.0000000000000000        0.0000000000000000     
  -1.5350280790884315E-003   1.2175729896290524E-003   0.0000000000000000     
  -3.0993757065161881E-003   2.8208964896989080E-003   0.0000000000000000     
  -4.6930428822832696E-003   4.8099705002095658E-003   0.0000000000000000     
  -6.3160296063896771E-003   7.1847950211610286E-003   0.0000000000000000     
   0.0000000000000000        0.0000000000000000        0.0000000000000000     
  -1.7983339725399317E-003   1.2768341964518020E-003   0.0000000000000000     
  -3.6213480918418643E-003   2.9391576525318900E-003   0.0000000000000000     
  -5.4690423579057991E-003   4.9869703682402650E-003   0.0000000000000000     
  -7.3414167707317336E-003   7.4202723435769259E-003   0.0000000000000000     
  -3.4793480000070431E-003   6.7089849771603044E-003   0.0000000000000000     
  -4.3878776051429228E-003   9.2942963399958636E-003   0.0000000000000000     
  -5.2986722408968640E-003   1.2183096871928156E-002   0.0000000000000000     
  -6.2117319072688632E-003   1.5375386572957169E-002   0.0000000000000000     
  -7.1270566042589238E-003   1.8871165443082916E-002   0.0000000000000000     
  -4.3849952210273319E-003   6.8291513379527182E-003   0.0000000000000000     
  -5.5341786990593771E-003   9.4496403091391956E-003   0.0000000000000000     
  -6.6837535329834566E-003   1.2368187497218503E-002   0.0000000000000000     
  -7.8337197227995713E-003   1.5584792902190649E-002   0.0000000000000000     
  -8.9840772685077213E-003   1.9099456524055626E-002   0.0000000000000000     
  -5.3305557564882105E-003   6.9877546859529590E-003   0.0000000000000000     
  -6.7234341057647194E-003   9.6501458427767656E-003   0.0000000000000000     
  -8.1172606144560462E-003   1.2604977589178291E-002   0.0000000000000000     
  -9.5120352825621857E-003   1.5852249925157533E-002   0.0000000000000000     
  -1.0907758110083144E-002   1.9391962850714498E-002   0.0000000000000000     
  -6.3160296063896771E-003   7.1847950211610286E-003   0.0000000000000000     
  -7.9556438252589515E-003   9.8958129409085840E-003   0.0000000000000000     
  -9.5991934853146277E-003   1.2893467147807517E-002   0.0000000000000000     
  -1.1246678586556709E-002   1.6177757641857832E-002   0.0000000000000000     
  -1.2898099128985194E-002   1.9748684423059524E-002   0.0000000000000000     
  -7.3414167707317336E-003   7.4202723435769259E-003   0.0000000000000000     
  -9.2308078575420709E-003   1.0186641603534642E-002   0.0000000000000000     
  -1.1129552145559204E-002   1.3233656173106177E-002   0.0000000000000000     
  -1.3037649634783138E-002   1.6561316052291535E-002   0.0000000000000000     
  -1.4955100325213867E-002   2.0169621241090712E-002   0.0000000000000000     
  -7.1270566042589238E-003   1.8871165443082916E-002   0.0000000000000000     
  -8.0380951765542299E-003   2.2644568458223012E-002   0.0000000000000000     
  -8.9382964688419671E-003   2.6669730594295088E-002   0.0000000000000000     
  -9.8276604811221371E-003   3.0946651851299124E-002   0.0000000000000000     
  -1.0706187213394737E-002   3.5475332229235129E-002   0.0000000000000000     
  -8.9840772685077213E-003   1.9099456524055626E-002   0.0000000000000000     
  -1.0127852179962083E-002   2.2887395564402339E-002   0.0000000000000000     
  -1.1258070467016839E-002   2.6923827224819674E-002   0.0000000000000000     
  -1.2374732129671983E-002   3.1208751505307632E-002   0.0000000000000000     
  -1.3477837167927520E-002   3.5742168405866213E-002   0.0000000000000000     
  -1.0907758110083144E-002   1.9391962850714498E-002   0.0000000000000000     
  -1.2294184089826292E-002   2.3199247160836177E-002   0.0000000000000000     
  -1.3661068214599012E-002   2.7249233650509578E-002   0.0000000000000000     
  -1.5008410484401293E-002   3.1541922319734711E-002   0.0000000000000000     
  -1.6336210899233143E-002   3.6077313168511545E-002   0.0000000000000000     
  -1.2898099128985194E-002   1.9748684423059524E-002   0.0000000000000000     
  -1.4537090906146858E-002   2.3580123247524537E-002   0.0000000000000000     
  -1.6147289711588488E-002   2.7645949871364817E-002   0.0000000000000000     
  -1.7728695545310074E-002   3.1946164294580338E-002   0.0000000000000000     
  -1.9281308407311619E-002   3.6480766517171123E-002   0.0000000000000000     
  -1.4955100325213867E-002   2.0169621241090712E-002   0.0000000000000000     
  -1.6856572628923781E-002   2.4030023824467422E-002   0.0000000000000000     
  -1.8716734957985266E-002   2.8113975887385362E-002   0.0000000000000000     
  -2.0535587312398320E-002   3.2421477429844539E-002   0.0000000000000000     
  -2.2313129692162943E-002   3.6952528451844949E-002   0.0000000000000000     
  -1.0706187213394737E-002   3.5475332229235129E-002   0.0000000000000000     
  -1.1568043172033077E-002   4.0235453852848359E-002   0.0000000000000000     
  -1.2407394863410456E-002   4.5206698846884080E-002   0.0000000000000000     
  -1.3224242287526881E-002   5.0389067211342280E-002   0.0000000000000000     
  -1.4018585444382350E-002   5.5782558946222971E-002   0.0000000000000000     
  -1.3477837167927520E-002   3.5742168405866213E-002   0.0000000000000000     
  -1.4559561233978778E-002   4.0504167730304054E-002   0.0000000000000000     
  -1.5612079980021084E-002   4.5474839282429784E-002   0.0000000000000000     
  -1.6635393406054445E-002   5.0654183062243417E-002   0.0000000000000000     
  -1.7629501512078854E-002   5.6042199069744940E-002   0.0000000000000000     
  -1.6336210899233143E-002   3.6077313168511545E-002   0.0000000000000000     
  -1.7636486677433803E-002   4.0837561396721705E-002   0.0000000000000000     
  -1.8901255037342506E-002   4.5804822204246816E-002   0.0000000000000000     
  -2.0130515978959252E-002   5.0979095591086848E-002   0.0000000000000000     
  -2.1324269502284048E-002   5.6360381557241809E-002   0.0000000000000000     
  -1.9281308407311619E-002   3.6480766517171123E-002   0.0000000000000000     
  -2.0798819502398157E-002   4.1235634852101341E-002   0.0000000000000000     
  -2.2274920035374724E-002   4.6196647612335155E-002   0.0000000000000000     
  -2.3709610006241316E-002   5.1363804797872566E-002   0.0000000000000000     
  -2.5102889414997935E-002   5.6737106408713586E-002   0.0000000000000000     
  -2.2313129692162943E-002   3.6952528451844949E-002   0.0000000000000000     
  -2.4046559708871842E-002   4.1698388096442926E-002   0.0000000000000000     
  -2.5733074974117736E-002   4.6650315506694809E-002   0.0000000000000000     
  -2.7372675487900629E-002   5.1808310682600583E-002   0.0000000000000000     
  -2.8965361250220506E-002   5.7172373624160264E-002   0.0000000000000000     
  -1.4018585444382350E-002   5.5782558946222971E-002   0.0000000000000000     
  -1.4789981429501114E-002   6.1374210172207184E-002   0.0000000000000000     
  -1.5537987338407428E-002   6.7151057009975965E-002   0.0000000000000000     
  -1.6262603171101290E-002   7.3113099459529318E-002   0.0000000000000000     
  -1.6963828927582698E-002   7.9260337520867225E-002   0.0000000000000000     
  -1.7629501512078854E-002   5.6042199069744940E-002   0.0000000000000000     
  -1.8594482589150647E-002   6.1626989680245305E-002   0.0000000000000000     
  -1.9530414928326162E-002   6.7396657269055471E-002   0.0000000000000000     
  -2.0437298529605401E-002   7.3351201836175439E-002   0.0000000000000000     
  -2.1315133392988361E-002   7.9490623381605230E-002   0.0000000000000000     
  -2.1324269502284048E-002   5.6360381557241809E-002   0.0000000000000000     
  -2.2482752887985555E-002   6.1937260298794206E-002   0.0000000000000000     
  -2.3606203416732443E-002   6.7698312011826536E-002   0.0000000000000000     
  -2.4694621088524715E-002   7.3643536696338774E-002   0.0000000000000000     
  -2.5748005903362375E-002   7.9772934352330974E-002   0.0000000000000000     
  -2.5102889414997935E-002   5.6737106408713586E-002   0.0000000000000000     
  -2.6454792326005828E-002   6.2305022027853874E-002   0.0000000000000000     
  -2.7765352803626263E-002   6.8056021238289105E-002   0.0000000000000000     
  -2.9034570847859230E-002   7.3990104040019294E-002   0.0000000000000000     
  -3.0262446458704732E-002   8.0107270433044456E-002   0.0000000000000000     
  -2.8965361250220506E-002   5.7172373624160264E-002   0.0000000000000000     
  -3.0510600903211477E-002   6.2730274867424329E-002   0.0000000000000000     
  -3.2007863089007625E-002   6.8469784948443246E-002   0.0000000000000000     
  -3.3457147807608952E-002   7.4390903867217015E-002   0.0000000000000000     
  -3.4858455059015456E-002   8.0493631623745648E-002   0.0000000000000000     
  -1.6963828927582698E-002   7.9260337520867225E-002   0.0000000000000000     
  -1.7639381449706580E-002   8.5579449800917209E-002   0.0000000000000000     
  -1.8286977579327866E-002   9.2057114906606785E-002   0.0000000000000000     
  -1.8906617316446547E-002   9.8693332837935910E-002   0.0000000000000000     
  -1.9498300661062624E-002  0.10548810359490461        0.0000000000000000     
  -2.1315133392988361E-002   7.9490623381605230E-002   0.0000000000000000     
  -2.2160830687058323E-002   8.5801526696500569E-002   0.0000000000000000     
  -2.2971301580398590E-002   9.2270516572017250E-002   0.0000000000000000     
  -2.3746546073009155E-002   9.8897593008155218E-002   0.0000000000000000     
  -2.4486564164890024E-002  0.10568275600491457        0.0000000000000000     
  -2.5748005903362375E-002   7.9772934352330974E-002   0.0000000000000000     
  -2.6762826399433549E-002   8.6073328739203592E-002   0.0000000000000000     
  -2.7735551114926382E-002   9.2531543616357140E-002   0.0000000000000000     
  -2.8666180049840870E-002   9.9147578983791645E-002   0.0000000000000000     
  -2.9554713204177019E-002  0.10592143484150708        0.0000000000000000     
  -3.0262446458704732E-002   8.0107270433044456E-002   0.0000000000000000     
  -3.1445368586832244E-002   8.6394855929026251E-002   0.0000000000000000     
  -3.2579726182911231E-002   9.2840196039626496E-002   0.0000000000000000     
  -3.3665519246941694E-002   9.9443290764845108E-002   0.0000000000000000     
  -3.4702747778923612E-002  0.10620414010468214        0.0000000000000000     
  -3.4858455059015456E-002   8.0493631623745648E-002   0.0000000000000000     
  -3.6208457249254415E-002   8.6766108265968589E-002   0.0000000000000000     
  -3.7503826784353135E-002   9.3196473841825264E-002   0.0000000000000000     
  -3.8744563664311601E-002   9.9784728351315674E-002   0.0000000000000000     
  -3.9930667889129814E-002  0.10653087179443980        0.0000000000000000     
  -1.9498300661062624E-002  0.10548810359490461        0.0000000000000000     
  -2.0064716856731377E-002  0.11243011259184763        0.0000000000000000     
  -2.0608555147008073E-002  0.11950804524309964        0.0000000000000000     
  -2.1129815531892717E-002  0.12672190154866064        0.0000000000000000     
  -2.1628498011385305E-002  0.13407168150853066        0.0000000000000000     
  -2.4486564164890024E-002  0.10568275600491457        0.0000000000000000     
  -2.5195357111712079E-002  0.11261488857476896        0.0000000000000000     
  -2.5876926169146205E-002  0.11968287373019226        0.0000000000000000     
  -2.6531271337192422E-002  0.12688671147118441        0.0000000000000000     
  -2.7158392615850714E-002  0.13422640179774545        0.0000000000000000     
  -2.9554713204177019E-002  0.10592143484150708        0.0000000000000000     
  -3.0406049668903468E-002  0.11284200600536547        0.0000000000000000     
  -3.1225088534988860E-002  0.11989818729122888        0.0000000000000000     
  -3.2011829802433202E-002  0.12708997869909730        0.0000000000000000     
  -3.2766273471236486E-002  0.13441738022897071        0.0000000000000000     
  -3.4702747778923612E-002  0.10620414010468214        0.0000000000000000     
  -3.5696794528305563E-002  0.11311146488363709        0.0000000000000000     
  -3.6653042244536041E-002  0.12015398592620948        0.0000000000000000     
  -3.7571490927615074E-002  0.12733170323239926        0.0000000000000000     
  -3.8452140577542641E-002  0.13464461680220643        0.0000000000000000     
  -3.9930667889129814E-002  0.10653087179443980        0.0000000000000000     
  -4.1067591689918331E-002  0.11342326520958387        0.0000000000000000     
  -4.2160787297787737E-002  0.12045026963513404        0.0000000000000000     
  -4.3210254712738011E-002  0.12761188507109034        0.0000000000000000     
  -4.4215993934769167E-002  0.13490811151745269        0.0000000000000000     
  -2.1628498011385305E-002  0.13407168150853066        0.0000000000000000     
  -2.2099430621711623E-002  0.14154521481132809        0.0000000000000000     
  -2.2537441399097448E-002  0.14913033114567134        0.0000000000000000     
  -2.2942530343542780E-002  0.15682703051156047        0.0000000000000000     
  -2.3314697455047627E-002  0.16463531290899544        0.0000000000000000     
  -2.7158392615850714E-002  0.13422640179774545        0.0000000000000000     
  -2.7750809316230005E-002  0.14168957580177413        0.0000000000000000     
  -2.8301040749439225E-002  0.14926386457516919        0.0000000000000000     
  -2.8809086915478368E-002  0.15694926811793067        0.0000000000000000     
  -2.9274947814347432E-002  0.16474578643005855        0.0000000000000000     
  -3.2766273471236486E-002  0.13441738022897071        0.0000000000000000     
  -3.3479513930031089E-002  0.14186798905665027        0.0000000000000000     
  -3.4142645567449399E-002  0.14942940235793703        0.0000000000000000     
  -3.4755668383491402E-002  0.15710162013283105        0.0000000000000000     
  -3.5318582378157090E-002  0.16488464238133232        0.0000000000000000     
  -3.8452140577542641E-002  0.13464461680220643        0.0000000000000000     
  -3.9285544463114899E-002  0.14208045457595650        0.0000000000000000     
  -4.0062255853127976E-002  0.14962694449397496        0.0000000000000000     
  -4.0782274747581879E-002  0.15728408655626167        0.0000000000000000     
  -4.1445601146476607E-002  0.16505188076281671        0.0000000000000000     
  -4.4215993934769167E-002  0.13490811151745269        0.0000000000000000     
  -4.5168900915481404E-002  0.14232697235969294        0.0000000000000000     
  -4.6059871606474956E-002  0.14985649098328285        0.0000000000000000     
  -4.6888906007749816E-002  0.15749666738822249        0.0000000000000000     
  -4.7656004119305970E-002  0.16524750157451176        0.0000000000000000     
   0.0000000000000000        0.0000000000000000        0.0000000000000000     
  -1.7983339725399317E-003   1.2768341964518020E-003   0.0000000000000000     
  -3.6213480918418643E-003   2.9391576525318900E-003   0.0000000000000000     
  -5.4690423579057991E-003   4.9869703682402650E-003   0.0000000000000000     
  -7.3414167707317336E-003   7.4202723435769259E-003   0.0000000000000000     
   0.0000000000000000        0.0000000000000000        0.0000000000000000     
  -2.0694574204013464E-003   1.3549191468519653E-003   0.0000000000000000     
  -4.1640757811500506E-003   3.0939495649022039E-003   0.0000000000000000     
  -6.2838550822461123E-003   5.2170912541507145E-003   0.0000000000000000     
  -8.4287953236895329E-003   7.7243442145975005E-003   0.0000000000000000     
   0.0000000000000000        0.0000000000000000        0.0000000000000000     
  -2.3401232214327558E-003   1.4589488386350499E-003   0.0000000000000000     
  -4.7202048518167113E-003   3.2997931507833334E-003   0.0000000000000000     
  -7.1402448911518672E-003   5.5225329364448489E-003   0.0000000000000000     
  -9.6002433394382237E-003   8.1271681956195975E-003   0.0000000000000000     
   0.0000000000000000        0.0000000000000000        0.0000000000000000     
  -2.6103313756341592E-003   1.5889232718010566E-003   0.0000000000000000     
  -5.2897353038418469E-003   3.5566884101752784E-003   0.0000000000000000     
  -8.0382117846230627E-003   5.9032954151226657E-003   0.0000000000000000     
  -1.0855760817977808E-002   8.6287442866432185E-003   0.0000000000000000     
   0.0000000000000000        0.0000000000000000        0.0000000000000000     
  -2.8800818830055567E-003   1.7448424463499842E-003   0.0000000000000000     
  -5.8726671372254565E-003   3.8646353430780399E-003   0.0000000000000000     
  -8.9777557626596997E-003   6.3593786901841674E-003   0.0000000000000000     
  -1.2195347759308285E-002   9.2290724876683636E-003   0.0000000000000000     
  -7.3414167707317336E-003   7.4202723435769259E-003   0.0000000000000000     
  -9.2308078575420709E-003   1.0186641603534642E-002   0.0000000000000000     
  -1.1129552145559204E-002   1.3233656173106177E-002   0.0000000000000000     
  -1.3037649634783138E-002   1.6561316052291535E-002   0.0000000000000000     
  -1.4955100325213867E-002   2.0169621241090712E-002   0.0000000000000000     
  -8.4287953236895329E-003   7.7243442145975005E-003   0.0000000000000000     
  -1.0590595026019599E-002   1.0558261280831743E-002   0.0000000000000000     
  -1.2760952709775612E-002   1.3661395287442632E-002   0.0000000000000000     
  -1.4939868374957565E-002   1.7033746234430165E-002   0.0000000000000000     
  -1.7127342021565465E-002   2.0675314121794342E-002   0.0000000000000000     
  -9.6002433394382237E-003   8.1271681956195975E-003   0.0000000000000000     
  -1.2076674154097071E-002   1.1046301422976688E-002   0.0000000000000000     
  -1.4546011292549694E-002   1.4212535113185237E-002   0.0000000000000000     
  -1.7008254754796098E-002   1.7625869266245237E-002   0.0000000000000000     
  -1.9463404540836279E-002   2.1286303882156691E-002   0.0000000000000000     
  -1.0855760817977808E-002   8.6287442866432185E-003   0.0000000000000000     
  -1.3689045241774469E-002   1.1650762029969480E-002   0.0000000000000000     
  -1.6484727893881446E-002   1.4887075650333991E-002   0.0000000000000000     
  -1.9242808774298726E-002   1.8337685147736753E-002   0.0000000000000000     
  -2.1963287883026317E-002   2.2002590522177762E-002   0.0000000000000000     
  -1.2195347759308285E-002   9.2290724876683636E-003   0.0000000000000000     
  -1.5427708289051805E-002   1.2371643101810112E-002   0.0000000000000000     
  -1.8577102513770864E-002   1.5685016898888893E-002   0.0000000000000000     
  -2.1643530433465449E-002   1.9169193878904704E-002   0.0000000000000000     
  -2.4626992048135565E-002   2.2824174041857548E-002   0.0000000000000000     
  -1.4955100325213867E-002   2.0169621241090712E-002   0.0000000000000000     
  -1.6856572628923781E-002   2.4030023824467422E-002   0.0000000000000000     
  -1.8716734957985266E-002   2.8113975887385362E-002   0.0000000000000000     
  -2.0535587312398320E-002   3.2421477429844539E-002   0.0000000000000000     
  -2.2313129692162943E-002   3.6952528451844949E-002   0.0000000000000000     
  -1.7127342021565465E-002   2.0675314121794342E-002   0.0000000000000000     
  -1.9292093938217989E-002   2.4558501287086813E-002   0.0000000000000000     
  -2.1402844413533819E-002   2.8655710067859219E-002   0.0000000000000000     
  -2.3459593447512955E-002   3.2966940464111562E-002   0.0000000000000000     
  -2.5462341040155399E-002   3.7492192475843837E-002   0.0000000000000000     
  -1.9463404540836279E-002   2.1286303882156691E-002   0.0000000000000000     
  -2.1883119514090398E-002   2.5175108030804701E-002   0.0000000000000000     
  -2.4239058537978607E-002   2.9273550782074352E-002   0.0000000000000000     
  -2.6531221612500898E-002   3.3581632135965649E-002   0.0000000000000000     
  -2.8759608737657281E-002   3.8099352092478597E-002   0.0000000000000000     
  -2.1963287883026317E-002   2.2002590522177762E-002   0.0000000000000000     
  -2.4629649356541015E-002   2.5879844055621080E-002   0.0000000000000000     
  -2.7225377331319630E-002   2.9967498030030758E-002   0.0000000000000000     
  -2.9750471807362160E-002   3.4265552445406813E-002   0.0000000000000000     
  -3.2204932784668606E-002   3.8774007301749222E-002   0.0000000000000000     
  -2.4626992048135565E-002   2.2824174041857548E-002   0.0000000000000000     
  -2.7531683465569844E-002   2.6672709361535953E-002   0.0000000000000000     
  -3.0361800793556902E-002   3.0737551811728450E-002   0.0000000000000000     
  -3.3117344032096735E-002   3.5018701392435042E-002   0.0000000000000000     
  -3.5798313181189353E-002   3.9516158103655726E-002   0.0000000000000000     
  -2.2313129692162943E-002   3.6952528451844949E-002   0.0000000000000000     
  -2.4046559708871842E-002   4.1698388096442926E-002   0.0000000000000000     
  -2.5733074974117736E-002   4.6650315506694809E-002   0.0000000000000000     
  -2.7372675487900629E-002   5.1808310682600583E-002   0.0000000000000000     
  -2.8965361250220506E-002   5.7172373624160264E-002   0.0000000000000000     
  -2.5462341040155399E-002   3.7492192475843837E-002   0.0000000000000000     
  -2.7411758694471326E-002   4.2227339327509932E-002   0.0000000000000000     
  -2.9308517913470923E-002   4.7168254243563704E-002   0.0000000000000000     
  -3.1152618697154185E-002   5.2314937224005174E-002   0.0000000000000000     
  -3.2944061045521118E-002   5.7667388268834323E-002   0.0000000000000000     
  -2.8759608737657281E-002   3.8099352092478597E-002   0.0000000000000000     
  -3.0926467856813095E-002   4.2824006743065773E-002   0.0000000000000000     
  -3.3034046913333670E-002   4.7752892179179766E-002   0.0000000000000000     
  -3.5082345907219009E-002   5.2886008400820590E-002   0.0000000000000000     
  -3.7071364838469095E-002   5.8223355407988238E-002   0.0000000000000000     
  -3.2204932784668606E-002   3.8774007301749222E-002   0.0000000000000000     
  -3.4590687195897148E-002   4.3488390343110479E-002   0.0000000000000000     
  -3.6909661973705966E-002   4.8404229313543004E-002   0.0000000000000000     
  -3.9161857118095077E-002   5.3521524213046845E-002   0.0000000000000000     
  -4.1347272629064472E-002   5.8840275041621974E-002   0.0000000000000000     
  -3.5798313181189353E-002   3.9516158103655726E-002   0.0000000000000000     
  -3.8404416711723482E-002   4.4220490127644015E-002   0.0000000000000000     
  -4.0935363094587819E-002   4.9122265646653430E-002   0.0000000000000000     
  -4.3391152329782398E-002   5.4221484660683938E-002   0.0000000000000000     
  -4.5771784417307199E-002   5.9518147169735573E-002   0.0000000000000000     
  -2.8965361250220506E-002   5.7172373624160264E-002   0.0000000000000000     
  -3.0510600903211477E-002   6.2730274867424329E-002   0.0000000000000000     
  -3.2007863089007625E-002   6.8469784948443246E-002   0.0000000000000000     
  -3.3457147807608952E-002   7.4390903867217015E-002   0.0000000000000000     
  -3.4858455059015456E-002   8.0493631623745648E-002   0.0000000000000000     
  -3.2944061045521118E-002   5.7667388268834323E-002   0.0000000000000000     
  -3.4681918831067915E-002   6.3212881578720348E-002   0.0000000000000000     
  -3.6365265926290795E-002   6.8938691354332476E-002   0.0000000000000000     
  -3.7994102331189751E-002   7.4844817595670618E-002   0.0000000000000000     
  -3.9568428045764784E-002   8.0931260302734842E-002   0.0000000000000000     
  -3.7071364838469095E-002   5.8223355407988238E-002   0.0000000000000000     
  -3.9000486321040577E-002   6.3752704922956774E-002   0.0000000000000000     
  -4.0869092968890054E-002   6.9461828668000283E-002   0.0000000000000000     
  -4.2677184782017527E-002   7.5350726643118801E-002   0.0000000000000000     
  -4.4424761760422982E-002   8.1419398848312299E-002   0.0000000000000000     
  -4.1347272629064472E-002   5.8840275041621974E-002   0.0000000000000000     
  -4.3466303373129463E-002   6.4349744900133551E-002   0.0000000000000000     
  -4.5519344216805396E-002   7.0039196889446764E-002   0.0000000000000000     
  -4.7506395160092252E-002   7.5908631009561564E-002   0.0000000000000000     
  -4.9427456202990057E-002   8.1958047260478006E-002   0.0000000000000000     
  -4.5771784417307199E-002   5.9518147169735573E-002   0.0000000000000000     
  -4.8079369987334565E-002   6.5004001510250736E-002   0.0000000000000000     
  -5.0316019670036814E-002   7.0670796018671850E-002   0.0000000000000000     
  -5.2481733465413960E-002   7.6518530694998921E-002   0.0000000000000000     
  -5.4576511373465995E-002   8.2547205539231935E-002   0.0000000000000000     
  -3.4858455059015456E-002   8.0493631623745648E-002   0.0000000000000000     
  -3.6208457249254415E-002   8.6766108265968589E-002   0.0000000000000000     
  -3.7503826784353135E-002   9.3196473841825264E-002   0.0000000000000000     
  -3.8744563664311601E-002   9.9784728351315674E-002   0.0000000000000000     
  -3.9930667889129814E-002  0.10653087179443980        0.0000000000000000     
  -3.9568428045764784E-002   8.0931260302734842E-002   0.0000000000000000     
  -4.1085198660009488E-002   8.7186871692261581E-002   0.0000000000000000     
  -4.2541369763917480E-002   9.3600503980987224E-002   0.0000000000000000     
  -4.3936941357488754E-002  0.10017215716891177        0.0000000000000000     
  -4.5271913440723309E-002  0.10690183125603525        0.0000000000000000     
  -4.4424761760422982E-002   8.1419398848312299E-002   0.0000000000000000     
  -4.6108699092406877E-002   8.7656932150136257E-002   0.0000000000000000     
  -4.7725871966269651E-002   9.4052413415146141E-002   0.0000000000000000     
  -4.9276280382011282E-002  0.10060584264334196        0.0000000000000000     
  -5.0759924339631800E-002  0.10731721983472370        0.0000000000000000     
  -4.9427456202990057E-002   8.1958047260478006E-002   0.0000000000000000     
  -5.1278958546446575E-002   8.8176289639592620E-002   0.0000000000000000     
  -5.3057333391409625E-002   9.4552202144302017E-002   0.0000000000000000     
  -5.4762580737879200E-002  0.10108578477460620        0.0000000000000000     
  -5.6394700585855301E-002  0.10777703753050516        0.0000000000000000     
  -5.4576511373465995E-002   8.2547205539231935E-002   0.0000000000000000     
  -5.6595977022128589E-002   8.8744944160630654E-002   0.0000000000000000     
  -5.8535754039337425E-002   9.5099870168454850E-002   0.0000000000000000     
  -6.0395842425092494E-002  0.10161198356270452        0.0000000000000000     
  -6.2176242179393798E-002  0.10828128434337964        0.0000000000000000     
  -3.9930667889129814E-002  0.10653087179443980        0.0000000000000000     
  -4.1067591689918331E-002  0.11342326520958387        0.0000000000000000     
  -4.2160787297787737E-002  0.12045026963513404        0.0000000000000000     
  -4.3210254712738011E-002  0.12761188507109034        0.0000000000000000     
  -4.4215993934769167E-002  0.13490811151745269        0.0000000000000000     
  -4.5271913440723309E-002  0.10690183125603525        0.0000000000000000     
  -4.6551819516801700E-002  0.11377755272106826        0.0000000000000000     
  -4.7782193088904509E-002  0.12078734804272143        0.0000000000000000     
  -4.8963034157031717E-002  0.12793121722099474        0.0000000000000000     
  -5.0094342721183342E-002  0.13520916025588825        0.0000000000000000     
  -5.0759924339631800E-002  0.10731721983472370        0.0000000000000000     
  -5.2182856372015557E-002  0.11417447315595278        0.0000000000000000     
  -5.3551129012046915E-002  0.12116553077369047        0.0000000000000000     
  -5.4864742259725881E-002  0.12829039268793685        0.0000000000000000     
  -5.6123696115052461E-002  0.13554905889869187        0.0000000000000000     
  -5.6394700585855301E-002  0.10777703753050516        0.0000000000000000     
  -5.7960702255559889E-002  0.11461402651423734        0.0000000000000000     
  -5.9467595067214968E-002  0.12158481782804115        0.0000000000000000     
  -6.0915379020820504E-002  0.12868941147191659        0.0000000000000000     
  -6.2304054116376524E-002  0.13592780744586364        0.0000000000000000     
  -6.2176242179393798E-002  0.10828128434337964        0.0000000000000000     
  -6.3885357167434709E-002  0.11509621279592201        0.0000000000000000     
  -6.5531591254408647E-002  0.12204520920577346        0.0000000000000000     
  -6.7114944440315585E-002  0.12912827357293399        0.0000000000000000     
  -6.8635416725155524E-002  0.13634540589740360        0.0000000000000000     
  -4.4215993934769167E-002  0.13490811151745269        0.0000000000000000     
  -4.5168900915481404E-002  0.14232697235969294        0.0000000000000000     
  -4.6059871606474956E-002  0.14985649098328285        0.0000000000000000     
  -4.6888906007749816E-002  0.15749666738822249        0.0000000000000000     
  -4.7656004119305970E-002  0.16524750157451176        0.0000000000000000     
  -5.0094342721183342E-002  0.13520916025588825        0.0000000000000000     
  -5.1167427115088968E-002  0.14260943530716746        0.0000000000000000     
  -5.2173595672478167E-002  0.15012030053459810        0.0000000000000000     
  -5.3112848393350981E-002  0.15774175593818010        0.0000000000000000     
  -5.3985185277707376E-002  0.16547380151791352        0.0000000000000000     
  -5.6123696115052461E-002  0.13554905889869187        0.0000000000000000     
  -5.7318966889895906E-002  0.14292973631768804        0.0000000000000000     
  -5.8441530896125478E-002  0.15042063185665777        0.0000000000000000     
  -5.9491388133741177E-002  0.15802174551560111        0.0000000000000000     
  -6.0468538602742997E-002  0.16573307729451800        0.0000000000000000     
  -6.2304054116376524E-002  0.13592780744586364        0.0000000000000000     
  -6.3623520239902226E-002  0.14328787539125470        0.0000000000000000     
  -6.4863677277416862E-002  0.15075748494946198        0.0000000000000000     
  -6.6024525228920411E-002  0.15833663612048543        0.0000000000000000     
  -6.7106064094412859E-002  0.16602532890432517        0.0000000000000000     
  -6.8635416725155524E-002  0.13634540589740360        0.0000000000000000     
  -7.0081087165107928E-002  0.14368385252786742        0.0000000000000000     
  -7.1440034816352319E-002  0.15113085981301061        0.0000000000000000     
  -7.2712259678888641E-002  0.15868642775283320        0.0000000000000000     
  -7.3897761752716923E-002  0.16635055634733514        0.0000000000000000     
   0.0000000000000000        0.0000000000000000        0.0000000000000000     
  -2.8800818830055567E-003   1.7448424463499842E-003   0.0000000000000000     
  -5.8726671372254565E-003   3.8646353430780399E-003   0.0000000000000000     
  -8.9777557626596997E-003   6.3593786901841674E-003   0.0000000000000000     
  -1.2195347759308285E-002   9.2290724876683636E-003   0.0000000000000000     
   0.0000000000000000        0.0000000000000000        0.0000000000000000     
  -3.2832147137210818E-003   1.9993600068553066E-003   0.0000000000000000     
  -6.6769735488043458E-003   4.3309399624501810E-003   0.0000000000000000     
  -1.0181276505249789E-002   6.9947398667846231E-003   0.0000000000000000     
  -1.3796123583057412E-002   9.9907597198586346E-003   0.0000000000000000     
   0.0000000000000000        0.0000000000000000        0.0000000000000000     
  -3.9535698379548692E-003   2.4251295978904961E-003   0.0000000000000000     
  -7.9106277354153171E-003   5.0629082812502658E-003   0.0000000000000000     
  -1.1871173692381344E-002   7.9133360500793087E-003   0.0000000000000000     
  -1.5835207708852949E-002   1.0976412904377628E-002   0.0000000000000000     
   0.0000000000000000        0.0000000000000000        0.0000000000000000     
  -4.8911472557069159E-003   3.0221512194555517E-003   0.0000000000000000     
  -9.5736296970583713E-003   6.0605402994782934E-003   0.0000000000000000     
  -1.4047447324054364E-002   9.1151672400682244E-003   0.0000000000000000     
  -1.8312600136694893E-002   1.2186032041225345E-002   0.0000000000000000     
   0.0000000000000000        0.0000000000000000        0.0000000000000000     
  -6.0959469669772254E-003   3.7904248715504752E-003   0.0000000000000000     
  -1.1665979433733507E-002   7.3238360171342647E-003   0.0000000000000000     
  -1.6710097400268849E-002   1.0600233436751368E-002   0.0000000000000000     
  -2.1228300866583248E-002   1.3619617130401787E-002   0.0000000000000000     
  -1.2195347759308285E-002   9.2290724876683636E-003   0.0000000000000000     
  -1.5427708289051805E-002   1.2371643101810112E-002   0.0000000000000000     
  -1.8577102513770864E-002   1.5685016898888893E-002   0.0000000000000000     
  -2.1643530433465449E-002   1.9169193878904704E-002   0.0000000000000000     
  -2.4626992048135565E-002   2.2824174041857548E-002   0.0000000000000000     
  -1.3796123583057412E-002   9.9907597198586346E-003   0.0000000000000000     
  -1.7404423623200702E-002   1.3221020340946930E-002   0.0000000000000000     
  -2.0889085466653134E-002   1.6587542549324232E-002   0.0000000000000000     
  -2.4250109113414717E-002   2.0090326344990545E-002   0.0000000000000000     
  -2.7487494563485444E-002   2.3729371727945862E-002   0.0000000000000000     
  -1.5835207708852949E-002   1.0976412904377628E-002   0.0000000000000000     
  -1.9730951571492773E-002   1.4210969449828274E-002   0.0000000000000000     
  -2.3486627066963445E-002   1.7575836292114306E-002   0.0000000000000000     
  -2.7102234195264970E-002   2.1071013431235717E-002   0.0000000000000000     
  -3.0577772956397346E-002   2.4696500867192515E-002   0.0000000000000000     
  -1.8312600136694893E-002   1.2186032041225345E-002   0.0000000000000000     
  -2.2407292133928027E-002   1.5341490428454143E-002   0.0000000000000000     
  -2.6369727314701788E-002   1.8649898127259097E-002   0.0000000000000000     
  -3.0199905679016210E-002   2.2111255137640218E-002   0.0000000000000000     
  -3.3897827226871270E-002   2.5725561459597503E-002   0.0000000000000000     
  -2.1228300866583248E-002   1.3619617130401787E-002   0.0000000000000000     
  -2.5433445310506446E-002   1.6612583276824532E-002   0.0000000000000000     
  -2.9538386209868175E-002   1.9809728054758623E-002   0.0000000000000000     
  -3.3543123564668438E-002   2.3211051464204054E-002   0.0000000000000000     
  -3.7447657374907226E-002   2.6816553505160823E-002   0.0000000000000000     
  -2.4626992048135565E-002   2.2824174041857548E-002   0.0000000000000000     
  -2.7531683465569844E-002   2.6672709361535953E-002   0.0000000000000000     
  -3.0361800793556902E-002   3.0737551811728450E-002   0.0000000000000000     
  -3.3117344032096735E-002   3.5018701392435042E-002   0.0000000000000000     
  -3.5798313181189353E-002   3.9516158103655726E-002   0.0000000000000000     
  -2.7487494563485444E-002   2.3729371727945862E-002   0.0000000000000000     
  -3.0624314994645383E-002   2.7547213484390043E-002   0.0000000000000000     
  -3.3683643584674627E-002   3.1586386400522942E-002   0.0000000000000000     
  -3.6665480333573149E-002   3.5846890476344560E-002   0.0000000000000000     
  -3.9569825241340971E-002   4.0328725711854904E-002   0.0000000000000000     
  -3.0577772956397346E-002   2.4696500867192515E-002   0.0000000000000000     
  -3.3942637097236168E-002   2.8496865960024077E-002   0.0000000000000000     
  -3.7226220364657024E-002   3.2516676069769761E-002   0.0000000000000000     
  -4.0428522758659928E-002   3.6755931196429593E-002   0.0000000000000000     
  -4.3549544279244859E-002   4.1214631340003582E-002   0.0000000000000000     
  -3.3897827226871270E-002   2.5725561459597503E-002   0.0000000000000000     
  -3.7486649773342179E-002   2.9521666788438043E-002   0.0000000000000000     
  -4.0989531133504099E-002   3.3528420819468920E-002   0.0000000000000000     
  -4.4406471307357066E-002   3.7745823552690135E-002   0.0000000000000000     
  -4.7737470294901052E-002   4.2173874988101712E-002   0.0000000000000000     
  -3.7447657374907226E-002   2.6816553505160823E-002   0.0000000000000000     
  -4.1256353022963412E-002   3.0621615969631939E-002   0.0000000000000000     
  -4.4973575891215860E-002   3.4621620649620391E-002   0.0000000000000000     
  -4.8599325979664570E-002   3.8816567545126190E-002   0.0000000000000000     
  -5.2133603288309530E-002   4.3206456656149327E-002   0.0000000000000000     
  -3.5798313181189353E-002   3.9516158103655726E-002   0.0000000000000000     
  -3.8404416711723482E-002   4.4220490127644015E-002   0.0000000000000000     
  -4.0935363094587819E-002   4.9122265646653430E-002   0.0000000000000000     
  -4.3391152329782398E-002   5.4221484660683938E-002   0.0000000000000000     
  -4.5771784417307199E-002   5.9518147169735573E-002   0.0000000000000000     
  -3.9569825241340971E-002   4.0328725711854904E-002   0.0000000000000000     
  -4.2393861162614691E-002   4.5018412515037506E-002   0.0000000000000000     
  -4.5134770952030973E-002   4.9902471293875900E-002   0.0000000000000000     
  -4.7792554609589796E-002   5.4980902048370070E-002   0.0000000000000000     
  -5.0367212135291155E-002   6.0253704778520031E-002   0.0000000000000000     
  -4.3549544279244859E-002   4.1214631340003582E-002   0.0000000000000000     
  -4.6585225306893407E-002   4.5880263923662026E-002   0.0000000000000000     
  -4.9531506222087143E-002   5.0740316370575314E-002   0.0000000000000000     
  -5.2388387024826052E-002   5.5794788680743432E-002   0.0000000000000000     
  -5.5155867715110149E-002   6.1043680854166373E-002   0.0000000000000000     
  -4.7737470294901052E-002   4.2173874988101712E-002   0.0000000000000000     
  -5.0978509144559633E-002   4.6806044353517567E-002   0.0000000000000000     
  -5.4125568904756345E-002   5.1635800876751674E-002   0.0000000000000000     
  -5.7178649575491208E-002   5.6663144557804017E-002   0.0000000000000000     
  -6.0137751156764202E-002   6.1888075396674604E-002   0.0000000000000000     
  -5.2133603288309530E-002   4.3206456656149327E-002   0.0000000000000000     
  -5.5573712675613340E-002   4.7795753804604144E-002   0.0000000000000000     
  -5.8916959000038564E-002   5.2588924812404979E-002   0.0000000000000000     
  -6.2163342261585229E-002   5.7585969679551832E-002   0.0000000000000000     
  -6.5312862460253307E-002   6.2786888406044697E-002   0.0000000000000000     
  -4.5771784417307199E-002   5.9518147169735573E-002   0.0000000000000000     
  -4.8079369987334565E-002   6.5004001510250736E-002   0.0000000000000000     
  -5.0316019670036814E-002   7.0670796018671850E-002   0.0000000000000000     
  -5.2481733465413960E-002   7.6518530694998921E-002   0.0000000000000000     
  -5.4576511373465995E-002   8.2547205539231935E-002   0.0000000000000000     
  -5.0367212135291155E-002   6.0253704778520031E-002   0.0000000000000000     
  -5.2862471117487313E-002   6.5714551944486416E-002   0.0000000000000000     
  -5.5282059144530542E-002   7.1357116006429883E-002   0.0000000000000000     
  -5.7625976216420800E-002   7.7181396964350363E-002   0.0000000000000000     
  -5.9894222333158151E-002   8.3187394818247939E-002   0.0000000000000000     
  -5.5155867715110149E-002   6.1043680854166373E-002   0.0000000000000000     
  -5.7838391717419155E-002   6.6480473394018746E-002   0.0000000000000000     
  -6.0440402456232764E-002   7.2098646803475094E-002   0.0000000000000000     
  -6.2961899931550991E-002   7.7898201082535437E-002   0.0000000000000000     
  -6.5402884143373849E-002   8.3879136231199802E-002   0.0000000000000000     
  -6.0137751156764202E-002   6.1888075396674604E-002   0.0000000000000000     
  -6.3007131787130050E-002   6.7301765858847687E-002   0.0000000000000000     
  -6.5791049605143481E-002   7.2895388409807541E-002   0.0000000000000000     
  -6.8489504610804497E-002   7.8668943049554144E-002   0.0000000000000000     
  -7.1102496804113083E-002   8.4622429778087524E-002   0.0000000000000000     
  -6.5312862460253307E-002   6.2786888406044697E-002   0.0000000000000000     
  -6.8368691326620060E-002   6.8178429338973265E-002   0.0000000000000000     
  -7.1334000591262742E-002   7.3747340825427180E-002   0.0000000000000000     
  -7.4208790254181339E-002   7.9493622865406469E-002   0.0000000000000000     
  -7.6993060315375866E-002   8.5417275458911118E-002   0.0000000000000000     
  -5.4576511373465995E-002   8.2547205539231935E-002   0.0000000000000000     
  -5.6595977022128589E-002   8.8744944160630654E-002   0.0000000000000000     
  -5.8535754039337425E-002   9.5099870168454850E-002   0.0000000000000000     
  -6.0395842425092494E-002  0.10161198356270452        0.0000000000000000     
  -6.2176242179393798E-002  0.10828128434337964        0.0000000000000000     
  -5.9894222333158151E-002   8.3187394818247939E-002   0.0000000000000000     
  -6.2081513217782713E-002   8.9362691245583312E-002   0.0000000000000000     
  -6.4182564593334698E-002   9.5694867923817262E-002   0.0000000000000000     
  -6.6197376459814078E-002  0.10218392485294976        0.0000000000000000     
  -6.8125948817220866E-002  0.10882986203298085        0.0000000000000000     
  -6.5402884143373849E-002   8.3879136231199802E-002   0.0000000000000000     
  -6.7757325831738741E-002   9.0029326426783490E-002   0.0000000000000000     
  -7.0019195736683068E-002   9.6336645846601829E-002   0.0000000000000000     
  -7.2188493858206845E-002  0.10280109449065486        0.0000000000000000     
  -7.4265220196310086E-002  0.10942267235894255        0.0000000000000000     
  -7.1102496804113083E-002   8.4622429778087524E-002   0.0000000000000000     
  -7.3623414863996622E-002   9.0744849704231162E-002   0.0000000000000000     
  -7.6045647469382555E-002   9.7025203936808607E-002   0.0000000000000000     
  -7.8369194620270810E-002  0.10346349247581980        0.0000000000000000     
  -8.0594056316661458E-002  0.11005971532126478        0.0000000000000000     
  -7.6993060315375866E-002   8.5417275458911118E-002   0.0000000000000000     
  -7.9679780314556442E-002   9.1509261077926382E-002   0.0000000000000000     
  -8.2261919791433130E-002   9.7760542194437527E-002   0.0000000000000000     
  -8.4739478746005972E-002  0.10417111880844458        0.0000000000000000     
  -8.7112457178274941E-002  0.11074099091994752        0.0000000000000000     
  -6.2176242179393798E-002  0.10828128434337964        0.0000000000000000     
  -6.3885357167434709E-002  0.11509621279592201        0.0000000000000000     
  -6.5531591254408647E-002  0.12204520920577346        0.0000000000000000     
  -6.7114944440315585E-002  0.12912827357293399        0.0000000000000000     
  -6.8635416725155524E-002  0.13634540589740360        0.0000000000000000     
  -6.8125948817220866E-002  0.10882986203298085        0.0000000000000000     
  -6.9978024138747638E-002  0.11562136891176003        0.0000000000000000     
  -7.1763344897586928E-002  0.12254713493713686        0.0000000000000000     
  -7.3481911093738764E-002  0.12960716010911133        0.0000000000000000     
  -7.5133722727203131E-002  0.13680144442768347        0.0000000000000000     
  -7.4265220196310086E-002  0.10942267235894255        0.0000000000000000     
  -7.6259906200606228E-002  0.11618983177250462        0.0000000000000000     
  -7.8183083320708793E-002  0.12309102505238073        0.0000000000000000     
  -8.0034751556617711E-002  0.13012625219857091        0.0000000000000000     
  -8.1814910908333038E-002  0.13729551321107514        0.0000000000000000     
  -8.0594056316661458E-002  0.11005971532126478        0.0000000000000000     
  -8.2731003353010521E-002  0.11680160137815579        0.0000000000000000     
  -8.4790806523774173E-002  0.12367687955150511        0.0000000000000000     
  -8.6773465828952415E-002  0.13068554984131273        0.0000000000000000     
  -8.8678981268545232E-002  0.13782761224757856        0.0000000000000000     
  -8.7112457178274941E-002  0.11074099091994752        0.0000000000000000     
  -8.9391315595960502E-002  0.11745667772871357        0.0000000000000000     
  -9.1586514506783165E-002  0.12430469843450997        0.0000000000000000     
  -9.3698053910742887E-002  0.13128505303733673        0.0000000000000000     
  -9.5725933807839697E-002  0.13839774153719381        0.0000000000000000     
  -6.8635416725155524E-002  0.13634540589740360        0.0000000000000000     
  -7.0081087165107928E-002  0.14368385252786742        0.0000000000000000     
  -7.1440034816352319E-002  0.15113085981301061        0.0000000000000000     
  -7.2712259678888641E-002  0.15868642775283320        0.0000000000000000     
  -7.3897761752716923E-002  0.16635055634733514        0.0000000000000000     
  -7.5133722727203131E-002  0.13680144442768347        0.0000000000000000     
  -7.6705243231861592E-002  0.14411678891248392        0.0000000000000000     
  -7.8182936041595694E-002  0.15153999458314335        0.0000000000000000     
  -7.9566801156405451E-002  0.15907106143966171        0.0000000000000000     
  -8.0856838576290863E-002  0.16670998948203913        0.0000000000000000     
  -8.1814910908333038E-002  0.13729551321107514        0.0000000000000000     
  -8.3509564006511758E-002  0.14458580573006191        0.0000000000000000     
  -8.5104713481810867E-002  0.15198412739569972        0.0000000000000000     
  -8.6600359334230381E-002  0.15949047820798862        0.0000000000000000     
  -8.7996501563770313E-002  0.16710485816692852        0.0000000000000000     
  -8.8678981268545232E-002  0.13782761224757856        0.0000000000000000     
  -9.0494049489058384E-002  0.14509090298060140        0.0000000000000000     
  -9.2205367136997826E-002  0.15246325825067977        0.0000000000000000     
  -9.3812934212363419E-002  0.15994467805781371        0.0000000000000000     
  -9.5316750715155260E-002  0.16753516240200325        0.0000000000000000     
  -9.5725933807839697E-002  0.13839774153719381        0.0000000000000000     
  -9.7658699679501568E-002  0.14563208066410238        0.0000000000000000     
  -9.9484897007156542E-002  0.15297738714808345        0.0000000000000000     
 -0.10120452579080456       0.16043366098913717        0.0000000000000000     
 -0.10281758603044572       0.16800090218726341        0.0000000000000000     
 </DataArray>
 <DataArray  type="Float64" Name="stress" NumberOfComponents="3" format="ascii">
   13416589117.456171        4024976735.2368512        2893980357.8186545     
   11766476975.891829        1890455731.4222689        1715820665.0183725     
   10313642788.168013        413527907.07611227        810742640.05857468     
   9058086554.2847290       -405806737.80161428        178746282.93926242     
   7999808274.2419701       -567548203.21091700       -180168406.33956680     
   10539913134.947687        3161973940.4843063        2225746921.2380323     
   9667559857.6109142        1589584494.5584278        1446706401.4011426     
   8943847118.4000568        512663509.05227089        863137595.92450428     
   8368774917.3151159       -68789016.034162521        475040504.80811828     
   7942343254.3560915       -154773080.70087528        282415128.05198520     
   8337918188.7908688        2501375456.6372604        1712348348.4218698     
   8021581051.4524298        1424594751.3313158        1275683349.8813252     
   7805247036.5252934        681157787.39638758        956880112.22080004     
   7688916144.0094624        271064564.83247709        755938635.44029546     
   7672588373.9049377        194315083.63958311        672858919.53980899     
   6810604278.9857130        2043181283.6957140        1353784639.3701665     
   6828540557.4163704        1395486501.7409315        1202751510.4589207     
   6897842542.5437222        919010742.10846186        1091970188.9474618     
   7018510234.3677664        613754004.79830384        1021440674.8357909     
   7190543632.8885059        479716289.81045818        991162968.12390685     
   5957971405.5322227        1787391421.6596668        1150055794.0829225     
   6088438375.5027428        1502259745.7872765        1227910883.1339288     
   6221633636.4553432        1226222373.1884935        1268407826.1044898     
   6357557188.3900270        959279303.86331773        1271546622.9946053     
   6496209031.3067932        701430537.81174970        1237327273.8042762     
   7999808274.2419701       -567548203.21091700       -180168406.33956680     
   7917634890.6445827       -200156796.65974569       -78279892.783289775     
   7793986676.0815268        28985173.339188576       -9012277.0664156862     
   7628863630.5527992        119877706.78587961        27634440.811056264     
   7422265754.0583963        72520803.680329323        31660260.849124160     
   7942343254.3560915       -154773080.70087528        282415128.05198520     
   7739755284.3731070        16377311.371781349        281122097.35838372     
   7513789204.0751209        109600669.06110144        265109747.54876509     
   7264445013.4621372        124896992.36709309        234378078.62313324     
   6991722712.5341492        62266281.289749146        188927090.58148178     
   7672588373.9049377        194315083.63958311        672858919.53980899     
   7400733185.3174582        184568671.56805277        589497185.35544610     
   7123596607.0656481        157217627.28209686        509317710.77845347     
   6841178639.1495094        112261950.78171396        432320495.80883211     
   6553479281.5690470        49701642.066910028        358505540.44658023     
   7190543632.8885059        479716289.81045818        991162968.12390685     
   6900568593.4776344        304417283.92907310        846845371.20789921     
   6623408885.0531082        171836048.00217104        723611612.62265038     
   6359064507.6149282        81972582.029752493        621461692.36815894     
   6107535461.1630917        34826886.011817932        540395610.44442618     
   6496209031.3067932        701430537.81174970        1237327273.8042762     
   6239261508.8536396        375923148.45484257        1053166654.9157441     
   6013226038.0375023        153455931.22132349        907991453.08135617     
   5818102618.8583841        34028886.111201286        801801668.30111420     
   5653891251.3162832        17642013.124467850        734597300.57501662     
   7422265754.0583963        72520803.680329323        31660260.849124160     
   7219415738.2165356       -18220125.119933605        14758180.324853633     
   7028694366.1598120       -68532241.303064823        2262672.4443650316     
   6850101637.8882284       -78415544.869063377       -5826262.7923389198     
   6683637553.4017878       -47870035.817921638       -9508625.3852631859     
   6991722712.5341492        62266281.289749146        188927090.58148178     
   6808909612.8223257        2912874.6025757790        180606806.45783707     
   6633851245.8597794       -30591422.920336723        176049687.76434332     
   6466547611.6465111       -38246611.278995991        175255734.50100094     
   6306998710.1825199       -20052690.473390818        178224946.66780090     
   6553479281.5690470        49701642.066910028        358505540.44658023     
   6388864791.6625938        21184265.595427990        353664156.51505792     
   6227631123.4695530        3936294.8353281021        351942530.80005336     
   6069778276.9899311       -2042270.2133839130        353340663.30156535     
   5915306252.2237253        3248570.4492924213        357858554.01958746     
   6107535461.1630917        34826886.011817932        540395610.44442618     
   5959281274.7373390        36594047.858619690        533930230.49652284     
   5810033998.9891386        35050911.963936329        529941201.55149817     
   5659793633.9184942        30197478.327765942        528428523.60935628     
   5508560179.5254021        22033746.950108528        529392196.67009449     
   5653891251.3162832        17642013.124467850        734597300.57501662     
   5520159062.0465603        49142221.392158985        721405028.40222299     
   5381059872.4185333        62752428.465489864        710045700.01867604     
   5236593682.4321947        58472634.344461441        700519315.42437613     
   5086760492.0875502        36302839.029070139        692825874.61932302     
   6683637553.4017878       -47870035.817921638       -9508625.3852631859     
   6509381627.9146214       -8799518.1306536198       -3640098.1928434395     
   6330159186.7322073        13715947.239130020        3732284.9819298154     
   6145970229.8545532        19676360.291439772        12608524.139054017     
   5956814757.2816525        9081721.0262730122        22988619.278529167     
   6306998710.1825199       -20052690.473390818        178224946.66780090     
   6132872065.7209530        991333.98093056679        174808068.89952722     
   5955753387.3329535        12061912.013803959        174146742.06850454     
   5775642675.0185223        13159043.625236273        176240966.17472959     
   5592539928.7776566        4282728.8152277470        181090741.21820945     
   5915306252.2237253        3248570.4492924213        357858554.01958746     
   5744885160.0874767        7338983.0605759621        347459833.35423064     
   5573446515.7935991        8037555.1464469433        341068358.58102089     
   5400990319.3421068        5344286.7069208622        338684129.69996727     
   5227516570.7329931       -740822.25801205635        340307146.71106207     
   5508560179.5254021        22033746.950108528        529392196.67009449     
   5345420911.0141802        10243429.108273506        514315195.17126578     
   5183238572.1141453        1642876.6370608807        504497134.51948810     
   5022013162.8253069       -3767910.4635083675        499938014.71476257     
   4861744683.1476536       -5988932.1934559345        500637835.75708985     
   5086760492.0875502        36302839.029070139        692825874.61932302     
   4934479318.5010700        9704672.1240241528        675374154.35063398     
   4785129556.2945929       -7122123.5143468380        664433069.88390005     
   4638711205.4681149       -14177547.886062384        660002621.21911454     
   4495224266.0216351       -11461600.991106510        662082808.35628223     
   5956814757.2816525        9081721.0262730122        22988619.278529167     
   5779546800.7321510       -2486016.2518966198        16435890.818627952     
   5604252379.9965706       -7475300.8169822693        13657003.321530269     
   5430931495.0749063       -5886132.6690235138        14651956.787224589     
   5259584145.9671631        2281488.1920073032        19420751.215713475     
   5592539928.7776566        4282728.8152277470        181090741.21820945     
   5426544173.8786211       -2074454.9940636158        176128026.19249430     
   5261817617.9158030       -4200975.6826400757        174859959.13459915     
   5098360260.8891907       -2096833.2505121231        177286540.04451862     
   4936172102.7987909        4237972.3023216724        183407768.92226899     
   5227516570.7329931       -740822.25801205635        340307146.71106207     
   5072566751.7844810       -1955332.3084223270        336112718.76220816     
   4918181794.8944769       -1286968.8304719925        335533745.78619426     
   4764361700.0629816        1264268.1758406162        338570227.78302234     
   4611106467.2899961        5698378.7105119228        345222164.75269115     
   4861744683.1476536       -5988932.1934559345        500637835.75708985     
   4717614534.4497290       -2128648.1949636936        496389968.52777404     
   4573344910.9326038        1266719.7395353317        495678363.27631652     
   4428935812.5962849        4197171.6100456715        498503020.00273108     
   4284387239.4407692        6662707.4165716171        504863938.70700169     
   4495224266.0216351       -11461600.991106510        662082808.35628223     
   4361687521.8743591       -2594402.6536920071        656959775.48918283     
   4227306966.0301762        3460090.0273749828        655293811.60496819     
   4092082598.4890962        6701877.0521078110        657084916.70364070     
   3956014419.2511120        7130958.4205014706        662333090.78519177     
   5259584145.9671631        2281488.1920073032        19420751.215713475     
   5059037773.5049610        3108922.3467419147        14865015.322841944     
   4857453812.6794310        477728.62369894981        14581845.188903315     
   4654832263.4905577       -5612092.9771554470        18571240.813887339     
   4451173125.9383507       -15160542.455772877        26833202.197804265     
   4936172102.7987909        4237972.3023216724        183407768.92226899     
   4746377427.4941607        3175963.2401108742        177348803.51576057     
   4555897162.4066544       -171345.09834074974        175723833.98312664     
   4364731307.5362692       -5803952.7130558491        178532860.32437995     
   4172879862.8830032       -13721859.604027271        185775882.53950003     
   4611106467.2899961        5698378.7105119228        345222164.75269115     
   4432524718.0427818        2885295.1013226509        338070634.84309125     
   4253609377.5931535       -1039759.1825847626        335514530.92231351     
   4074360445.9411073       -6076784.1412181854        337553852.99035972     
   3894777923.0866423       -12225779.774582624        344188601.04723823     
   4284387239.4407692        6662707.4165716171        504863938.70700169     
   4117479645.1508236        2236917.9303491116        497030509.30483800     
   3950590458.2389231       -2127513.6290569305        493953936.00644767     
   3783719678.7050638       -6430587.2616581917        495634218.81183285     
   3616867306.5492492       -10672302.967442274        502071357.72099537     
   3956014419.2511120        7130958.4205014706        662333090.78519177     
   3801242208.8182907        1230831.7272095680        654228426.90100801     
   3646840404.3439684       -3434608.4377474785        651042049.23554063     
   3492809005.8281536       -6865362.0743570328        652773957.78879893     
   3339148013.2708406       -9061429.1826136112        659424152.56077802     
   4451173125.9383507       -15160542.455772877        26833202.197804265     
   4291537049.7194099       -11859953.165448904        19889700.216685772     
   4132702597.2719250       -5887284.6369464397        18082915.384320088     
   3974669768.5958986        2757463.1297602654        21412847.700702723     
   3817438563.6913147        14074290.134600401        29879497.165811259     
   4172879862.8830032       -13721859.604027271        185775882.53950003     
   4026405014.8529058       -8250613.4207553864        179355631.33195153     
   3880468179.0808229       -985993.04408907890        177421763.83792523     
   3735069355.5667534        8072001.5259461403        179974280.05743551     
   3590208544.3107023        18923370.289384127        187013179.99047121     
   3894777923.0866423       -12225779.774582624        344188601.04723823     
   3759606207.7162018       -5141305.3571188450        337984053.84755796     
   3624708893.0903349        2857838.2089383602        335615556.92620546     
   3490085979.2090492        11771650.923597336        337083110.28316712     
   3355737466.0723438        21600132.786851168        342386713.91844022     
   3616867306.5492492       -10672302.967442274        502071357.72099537     
   3491140628.3092847       -2532028.9745445251        495774967.76352352     
   3365424739.3004599        5644209.1221632957        492664294.64915520     
   3239719639.5227766        13856411.322674632        492739338.37789518     
   3114025328.9762378        22104577.626997113        496000098.94973403     
   3339148013.2708406       -9061429.1826136112        659424152.56077802     
   3221008276.6321645       -422784.27303600311        652728373.07983911     
   3102615717.7111926        7373119.6955566406        648567977.00678885     
   2983970336.5079260        14326282.723168731        646942964.34162879     
   2865072133.0223670        20436704.809803605        647853335.08435547     
   3817438563.6913147        14074290.134600401        29879497.165811259     
   3611533145.2639642        9761575.5351133347        25912807.806843370     
   3404148777.2096882        519028.84585094452        23499459.154308919     
   3195285459.5284390       -13653349.933291554        22639451.208216242     
   2984943192.2202687       -32755560.802206635        23332783.968553163     
   3590208544.3107023        18923370.289384127        187013179.99047121     
   3389014563.8892884        12280432.398217201        179634583.25929716     
   3186890688.1955776        2537843.5993944407        174864572.73972082     
   2983836917.2295609       -10304396.107104778        172703148.43171597     
   2779853250.9912615       -26246286.721233845        173150310.33532295     
   3355737466.0723438        21600132.786851168        342386713.91844022     
   3162269910.8144274        13531467.751255751        332236773.22882956     
   2968421514.6388474        4193332.9901400805        325750664.25595713     
   2774192277.5456371       -6414271.4964377880        322928386.99983078     
   2579582199.5347686       -18291345.708506584        323769941.46043122     
   3114025328.9762378        22104577.626997113        496000098.94973403     
   2931299186.0393744        13514681.594221473        483719377.71544468     
   2748741256.5395246        5485497.0181540251        476157733.70304418     
   2566351540.4766774       -1982976.1012650728        473315166.91252524     
   2384130037.8508167       -8890737.7640171051        475191677.34389853     
   2865072133.0223670        20436704.809803605        647853335.08435547     
   2696102389.5641518        12230073.927166343        634082396.71913528     
   2527849913.8975725        6414335.6833313704        626085781.08095503     
   2360314706.0226607        2989490.0783785582        623863488.16982019     
   2193496765.9393926        1955537.1122305393        627415517.98571455     
   5957971405.5322227        1787391421.6596668        1150055794.0829225     
   6088438375.5027428        1502259745.7872765        1227910883.1339288     
   6221633636.4553432        1226222373.1884935        1268407826.1044898     
   6357557188.3900270        959279303.86331773        1271546622.9946053     
   6496209031.3067932        701430537.81174970        1237327273.8042762     
   5434644605.2377167        1630393381.5713151        1033478649.9741399     
   5489899486.4668970        1372511982.5321870        1113869445.6333845     
   5547352353.0398693        1121957201.3056970        1167474409.0720615     
   5607003204.9566307        878729037.89184380        1194293540.2901695     
   5668852042.2171869        642827492.29062867        1194326839.2877097     
   4895248914.9095173        1468574674.4728551        936370044.45782113     
   4905498318.4255781        1247005535.5754554        1018677856.8139648     
   4917415401.6471395        1030995329.0297238        1084772150.8094175     
   4931000164.5742025        820544054.83565962        1134652926.4441786     
   4946252607.2067642        615651712.99326265        1168320183.7182481     
   4339784334.5476227        1301935300.3642869        858729977.53396571     
   4335234871.3787851        1125740404.9170821        942336116.67566919     
   4331822782.2771578        953336756.36057520        1020301051.3165585     
   4329548067.2427378        784724354.69476509        1092624781.4566331     
   4328410726.2755270        619903199.91965270        1159307307.0958936     
   3768250864.1520371        1130475259.2456112        800558449.20257425     
   3779109145.3265195        1008716590.5570667        884844225.21849799     
   3790574494.9299207        888981483.29824972        974061110.59348416     
   3802646912.9622402        771269937.46916056        1068209105.3275324     
   3815326399.4234781        655581953.06979895        1167288209.4206440     
   6496209031.3067932        701430537.81174970        1237327273.8042762     
   6239261508.8536396        375923148.45484257        1053166654.9157441     
   6013226038.0375023        153455931.22132349        907991453.08135617     
   5818102618.8583841        34028886.111201286        801801668.30111420     
   5653891251.3162832        17642013.124467850        734597300.57501662     
   5668852042.2171869        642827492.29062867        1194326839.2877097     
   5518802186.1323090        383312644.14946556        1073463592.1491419     
   5392899161.4928780        204287234.15979743        980614854.11300969     
   5291142968.2988987        105751262.32163000        915780625.17930973     
   5213533606.5503683        87704728.634959459        878960905.34804475     
   4946252607.2067642        615651712.99326265        1168320183.7182481     
   4871754966.1995602        412725770.68066430        1102861551.4394832     
   4814638936.4462337        267738532.54766726        1054446520.3114415     
   4774904517.9467897        180689998.59427404        1023075090.3341212     
   4752551710.7012281        151580168.82048297        1008747261.5075262     
   4328410726.2755270        619903199.91965270        1159307307.0958936     
   4298119849.0553932        464162528.04843771        1141360532.7867672     
   4278445362.8975687        343809826.38492894        1129486451.6766527     
   4269387267.8020592        258845094.92913079        1123685063.7655504     
   4270945563.7688603        209268333.68103790        1123956369.0534592     
   3815326399.4234781        655581953.06979895        1167288209.4206440     
   3797896834.6998086        537622916.25278497        1188960536.1909931     
   3784318440.8468857        432501115.67158711        1205734648.2086439     
   3774591217.8647041        340216551.32619917        1217610545.4735944     
   3768715165.7532687        260769223.21662688        1224588227.9858465     
   5653891251.3162832        17642013.124467850        734597300.57501662     
   5520159062.0465603        49142221.392158985        721405028.40222299     
   5381059872.4185333        62752428.465489864        710045700.01867604     
   5236593682.4321947        58472634.344461441        700519315.42437613     
   5086760492.0875502        36302839.029070139        692825874.61932302     
   5213533606.5503683        87704728.634959459        878960905.34804475     
   5077249106.7238941        85477454.496733665        855265313.13552248     
   4938854127.7410831        76215249.837394238        835556726.49146080     
   4798348669.6019411        59918114.656948090        819835145.41586149     
   4655732732.3064690        36586048.955391169        808100569.90872121     
   4752551710.7012281        151580168.82048297        1008747261.5075262     
   4619869362.5443239        117471750.94423294        978347623.99091136     
   4488333056.4330645        87183473.220126152        954089053.82197344     
   4357942792.3674459        60715335.648160934        935971551.00071192     
   4228698570.3474722        38067338.228339195        923995115.52712560     
   4270945563.7688603        209268333.68103790        1123956369.0534592     
   4148019829.5078564        145125110.73466444        1090651960.9683928     
   4029496658.4944692        95657098.613683939        1065642682.0102156     
   3915376050.7287035        60864297.318100929        1048928532.1789289     
   3805658006.2105546        40746706.847909689        1040509511.4745333     
   3768715165.7532687        260769223.21662688        1224588227.9858465     
   3661700507.6144910        168437533.86802757        1192178324.0679641     
   3562344933.9253073        101636126.01807594        1170217611.0561872     
   3470648444.6857171        60364999.666767597        1158706088.9505136     
   3386611039.8957219        44624154.814107537        1157643757.7509453     
   5086760492.0875502        36302839.029070139        692825874.61932302     
   4934479318.5010700        9704672.1240241528        675374154.35063398     
   4785129556.2945929       -7122123.5143468380        664433069.88390005     
   4638711205.4681149       -14177547.886062384        660002621.21911454     
   4495224266.0216351       -11461600.991106510        662082808.35628223     
   4655732732.3064690        36586048.955391169        808100569.90872121     
   4521266820.5519791        15755996.963059902        794685473.35217309     
   4388948974.3583899        2086163.5070722103        787132685.11534429     
   4258779193.7257051       -4423451.4125738144        785442205.19823706     
   4130757478.6539211       -3772847.7958788872        789614033.60085118     
   4228698570.3474722        38067338.228339195        923995115.52712560     
   4110195556.1900215        22449691.878235579        913702739.22710228     
   3993057261.7743769        11381111.334151506        908624343.76457000     
   3877283687.1005363        4861596.5960836411        908759929.13952470     
   3762874832.1685038        2891147.6640357971        914109495.35196865     
   3805658006.2105546        40746706.847909689        1040509511.4745333     
   3701265525.4151998        29785756.869552374        1032425951.9754226     
   3597454418.5425525        20762719.966887474        1028908045.8315723     
   3494224685.5926147        13677596.139918804        1029955793.0429796     
   3391576326.5653839        8530385.3886406422        1035569193.6096424     
   3386611039.8957219        44624154.814107537        1157643757.7509453     
   3294476728.2275157        37764191.937012076        1150855111.5971377     
   3202140444.6629176        30230989.405278325        1147983791.3163540     
   3109602189.2019334        22024547.218921661        1149029796.9085972     
   3016861961.8445597        13144865.377934217        1153993128.3738661     
   4495224266.0216351       -11461600.991106510        662082808.35628223     
   4361687521.8743591       -2594402.6536920071        656959775.48918283     
   4227306966.0301762        3460090.0273749828        655293811.60496819     
   4092082598.4890962        6701877.0521078110        657084916.70364070     
   3956014419.2511120        7130958.4205014706        662333090.78519177     
   4130757478.6539211       -3772847.7958788872        789614033.60085118     
   4005291546.2499199        342739.90161657333        782783328.63969100     
   3879456613.7446690        3228327.2616143227        779800396.95353591     
   3753252681.1381621        4883914.2840955257        780665238.54237604     
   3626679748.4304037        5309500.9690656662        785377853.40622211     
   3762874832.1685038        2891147.6640357971        914109495.35196865     
   3646596009.4852576        2590014.1148653030        906125065.15834129     
   3530422998.2964115        2641585.5470185280        902379112.53183174     
   3414355798.6019597        3045861.9604964256        902871637.47244000     
   3298394410.4019108        3802843.3553009033        907602639.98016667     
   3391576326.5653839        8530385.3886406422        1035569193.6096424     
   3285600911.5803709        4147419.9860408306        1026984985.0451375     
   3180206119.6854053        1699864.8836002350        1023029958.3398660     
   3075391950.8804855        1187720.0813139677        1023704113.4938315     
   2971158405.1656156        2610985.5791889429        1029007450.5070338     
   3016861961.8445597        13144865.377934217        1153993128.3738661     
   2922306252.5352573        5014957.5151497126        1145363088.3000729     
   2828805977.9116545        403165.27136325836        1141752934.3776343     
   2736361137.9737463       -690511.35344099998        1143162666.6065447     
   2644971732.7215347        1733927.6407477856        1149592284.9868121     
   3956014419.2511120        7130958.4205014706        662333090.78519177     
   3801242208.8182907        1230831.7272095680        654228426.90100801     
   3646840404.3439684       -3434608.4377474785        651042049.23554063     
   3492809005.8281536       -6865362.0743570328        652773957.78879893     
   3339148013.2708406       -9061429.1826136112        659424152.56077802     
   3626679748.4304037        5309500.9690656662        785377853.40622211     
   3484983122.9595280        1003406.5297245979        777923798.43994665     
   3343527207.5050297       -2500321.1883537769        775241745.93630326     
   3202312002.0669184       -5201682.1851381063        777331695.89529049     
   3061337506.6451931       -7100676.4606465101        784193648.31690478     
   3298394410.4019108        3802843.3553009033        907602639.98016667     
   3169355416.3041458        965395.09326076508        900647881.99933124     
   3040427436.2806392       -1502006.2545779943        898318842.72503281     
   2911610470.3313994       -3599360.6882042885        900615522.15727723     
   2782904518.4564228       -5326668.2076193094        907537920.29606187     
   2971158405.1656156        2610985.5791889429        1029007450.5070338     
   2854359088.8521357        1116797.4178032875        1022400677.5791575     
   2737541090.6707983       -439663.63644444942        1020273339.6017331     
   2620704410.6215992       -2058397.5835574865        1022625436.5747564     
   2503849048.7045469       -3739404.4235237837        1029456968.4982315     
   2644971732.7215347        1733927.6407477856        1149592284.9868121     
   2539994140.6035089        1457613.5033676624        1143182185.1794276     
   2434868170.6755004        686706.66604948044        1141105236.5664017     
   2329593822.9375157       -578792.87118864059        1143361439.1477339     
   2224171097.3895531       -2338885.1083605289        1149950792.9234264     
   3339148013.2708406       -9061429.1826136112        659424152.56077802     
   3221008276.6321645       -422784.27303600311        652728373.07983911     
   3102615717.7111926        7373119.6955566406        648567977.00678885     
   2983970336.5079260        14326282.723168731        646942964.34162879     
   2865072133.0223670        20436704.809803605        647853335.08435547     
   3061337506.6451931       -7100676.4606465101        784193648.31690478     
   2950019434.9097838        135776.02250492573        777333970.07239580     
   2838617918.8631220        7094080.8014956713        773509925.82859933     
   2727132958.5051975        13774237.876268744        772721515.58553123     
   2615564553.8360214        20176247.246876955        774968739.34318864     
   2782904518.4564228       -5326668.2076193094        907537920.29606187     
   2679837399.0323839        936378.07154929638        900711950.92084718     
   2576856213.2681255        7485869.8833305836        897421866.13919330     
   2473960961.1636519        14321807.227724075        897667665.95109546     
   2371151642.7189670        21444190.104742527        901449350.35655272     
   2503849048.7045469       -3739404.4235237837        1029456968.4982315     
   2410462168.9999723        1979021.8740855455        1022862315.6252017     
   2317330600.9262161        8548486.9410979748        1020303797.9385653     
   2224454344.4832888        15968990.777537227        1021781415.4383215     
   2131833399.6711841        24240533.383384109        1027295168.1244668     
   2224171097.3895531       -2338885.1083605289        1149950792.9234264     
   2141893744.8125386        3263707.4301118851        1143785064.1854579     
   2060041081.8373902        10281931.974794745        1142155721.2267206     
   1978613108.4641070        18715788.525692582        1145062764.0472054     
   1897609824.6926894        28565277.082815170        1152506192.6469145     
   2865072133.0223670        20436704.809803605        647853335.08435547     
   2696102389.5641518        12230073.927166343        634082396.71913528     
   2527849913.8975725        6414335.6833313704        626085781.08095503     
   2360314706.0226607        2989490.0783785582        623863488.16982019     
   2193496765.9393926        1955537.1122305393        627415517.98571455     
   2615564553.8360214        20176247.246876955        774968739.34318864     
   2461596446.2162533        14527371.851957202        763405746.17819309     
   2308152899.0305686        10627031.237325430        757017898.89550209     
   2155233912.2789898        8475225.4030479193        755805197.49510372     
   2002839485.9615009        8071954.3490736485        759767641.97699380     
   2371151642.7189670        21444190.104742527        901449350.35655272     
   2230473237.0955114        17839490.044886470        891869477.14131594     
   2090126684.5485992        15340966.906836867        886865572.96363008     
   1950111985.0782268        13948620.690601587        886437637.82349586     
   1810429138.6844039        13662451.396174788        890585671.72090209     
   2131833399.6711841        24240533.383384109        1027295168.1244668     
   2002732762.2019260        22166428.505966902        1019473589.6084936     
   1873771270.4516559        20556142.691842556        1015628803.2853348     
   1744948924.4203813        19409675.941041231        1015760809.1549942     
   1616265724.1080885        18727028.253504157        1019869607.2174370     
   1897609824.6926894        28565277.082815170        1152506192.6469145     
   1778375021.5355039        27508187.235199571        1146218083.5797408     
   1659086656.7397566        26272558.592370629        1143307589.8606279     
   1539744730.3054383        24858391.154320478        1143774711.4895821     
   1420349242.2325616        23265684.921063125        1147619448.4665902     
   3768250864.1520371        1130475259.2456112        800558449.20257425     
   3779109145.3265195        1008716590.5570667        884844225.21849799     
   3790574494.9299207        888981483.29824972        974061110.59348416     
   3802646912.9622402        771269937.46916056        1068209105.3275324     
   3815326399.4234781        655581953.06979895        1167288209.4206440     
   3207810049.9228883        962343014.97686648        756699865.40271497     
   3235864410.8700204        868212442.10264421        853062446.19109452     
   3263642429.6915412        773160728.80971980        951345956.87299037     
   3291144106.3874521        677187875.09809387        1051550397.4484019     
   3318369440.9577513        580293880.96776581        1153675767.9173307     
   2685623438.0603094        805687031.41809285        721998632.07345688     
   2722273366.0213866        736604400.53058159        829407371.98734176     
   2757763541.3023252        663655927.37593913        935726862.32919693     
   2792093963.9031234        586841611.95416474        1040957103.0990224     
   2825264633.8237829        506161454.26525921        1145098094.2968178     
   2201691028.5643001        660507308.56929004        696454749.21479988     
   2238336010.7806201        613892465.84087896        813879002.60723972     
   2272937829.7622719        560467078.99690700        927203826.96210396     
   2305496485.5092554        500231148.03737390        1036429222.2793921     
   2336011978.0215712        433184672.96228021        1141555188.5591044     
   1756012821.4348602        526803846.43045807        680068216.82674396     
   1784052345.1477196        500076638.03353620        806477338.05078888     
   1809165295.0713818        463594183.67262381        925776850.77171159     
   1831351671.2058473        417356483.34772152        1037966754.9895122     
   1850611473.5511155        361363537.05882812        1143047050.7041907     
   3815326399.4234781        655581953.06979895        1167288209.4206440     
   3797896834.6998086        537622916.25278497        1188960536.1909931     
   3784318440.8468857        432501115.67158711        1205734648.2086439     
   3774591217.8647041        340216551.32619917        1217610545.4735944     
   3768715165.7532687        260769223.21662688        1224588227.9858465     
   3318369440.9577513        580293880.96776581        1153675767.9173307     
   3293765433.6826410        473093699.77411771        1182017861.4948237     
   3272894438.0871882        378336890.84599483        1207256555.0262072     
   3255756454.1713929        296023454.18339539        1229391848.5114799     
   3242351481.9352541        226153389.78632104        1248423741.9506421     
   2825264633.8237829        506161454.26525921        1145098094.2968178     
   2798614226.0160565        411258541.30062491        1179972102.2918532     
   2775578670.6969008        328405136.63122582        1213537524.9473667     
   2756157967.8663144        257601240.25706089        1245794362.2633612     
   2740352117.5243006        198846852.17813253        1276742614.2398338     
   2336011978.0215712        433184672.96228021        1141555188.5591044     
   2312443211.7000546        352117440.83230692        1182823258.5820804     
   2292371138.6760230        282705853.02728009        1224577557.9721253     
   2275795758.9494758        224949909.54719883        1266818086.7292387     
   2262717072.5204105        178849610.39206374        1309544844.8534203     
   1850611473.5511155        361363537.05882812        1143047050.7041907     
   1835252390.7346370        295670398.36916441        1190571330.3655069     
   1823271842.0245545        241239040.03415626        1240376654.1004808     
   1814669827.4208703        198069462.05380636        1292463021.9091127     
   1809446346.9235826        166161664.42811376        1346830433.7914028     
   3768715165.7532687        260769223.21662688        1224588227.9858465     
   3661700507.6144910        168437533.86802757        1192178324.0679641     
   3562344933.9253073        101636126.01807594        1170217611.0561872     
   3470648444.6857171        60364999.666767597        1158706088.9505136     
   3386611039.8957219        44624154.814107537        1157643757.7509453     
   3242351481.9352541        226153389.78632104        1248423741.9506421     
   3164790417.7480936        151891528.19348693        1231339166.5020144     
   3093290867.4128480        97834712.773698449        1222292050.6279650     
   3027852830.9295135        63982943.526950121        1221282394.3284941     
   2968476308.2980947        50336220.453249454        1228310197.6036012     
   2740352117.5243006        198846852.17813253        1276742614.2398338     
   2685353986.3415394        140587620.05689740        1273119534.8964992     
   2634819798.4130135        97208198.783106565        1275122183.7962172     
   2588749553.7387185        68708588.356755137        1282750560.9389877     
   2547143252.3186560        55088788.777849197        1296004666.3248086     
   2262717072.5204105        178849610.39206374        1309544844.8534203     
   2223391213.3948312        134525809.45826232        1317519429.2514188     
   2186931726.9258037        99756584.046301842        1328708010.5609446     
   2153338613.1133280        74541934.156184435        1343110588.7819939     
   2122611871.9574063        58881859.787905812        1360727163.9145694     
   1809446346.9235826        166161664.42811376        1346830433.7914028     
   1778902098.9079654        133706096.39758080        1364538849.5667744     
   1749626652.9512198        105479868.56328756        1383049530.9221454     
   1721620009.0533452        81482980.925231040        1402362477.8575158     
   1694882167.2143438        61715433.483417749        1422477690.3728843     
   3386611039.8957219        44624154.814107537        1157643757.7509453     
   3294476728.2275157        37764191.937012076        1150855111.5971377     
   3202140444.6629176        30230989.405278325        1147983791.3163540     
   3109602189.2019334        22024547.218921661        1149029796.9085972     
   3016861961.8445597        13144865.377934217        1153993128.3738661     
   2968476308.2980947        50336220.453249454        1228310197.6036012     
   2885658322.4021149        39303864.956441164        1220606054.3749783     
   2803139354.4495573        29268235.937706590        1217113849.5488234     
   2720919404.4404202        20229333.397040248        1217833583.1251330     
   2638998472.3747063        12187157.334452987        1222765255.1039073     
   2547143252.3186560        55088788.777849197        1296004666.3248086     
   2474483342.2790141        40136565.686561942        1287969514.1678216     
   2402623440.0226049        27851035.206048846        1284440912.9427383     
   2331563545.5494313        18232197.336319566        1285418862.6495600     
   2261303658.8594899        11280052.077364564        1290903363.2882867     
   2122611871.9574063        58881859.787905812        1360727163.9145694     
   2060951787.8582139        40262294.127371788        1352945490.9756629     
   2000592701.3820651        25979387.210317373        1349964981.4981012     
   1941534612.5289619        16033139.036748886        1351785635.4818816     
   1883777521.2989044        10423549.606666207        1358407452.9270077     
   1694882167.2143438        61715433.483417749        1422477690.3728843     
   1645063659.1397121        39681050.278872728        1415533984.7985060     
   1597047138.5279365        23653291.950512111        1413686055.2149100     
   1550832605.3790178        13632158.498343110        1416933901.6220980     
   1506420059.6929541        9617649.9223551750        1425277524.0200660     
   3016861961.8445597        13144865.377934217        1153993128.3738661     
   2922306252.5352573        5014957.5151497126        1145363088.3000729     
   2828805977.9116545        403165.27136325836        1141752934.3776343     
   2736361137.9737463       -690511.35344099998        1143162666.6065447     
   2644971732.7215347        1733927.6407477856        1149592284.9868121     
   2638998472.3747063        12187157.334452987        1222765255.1039073     
   2557776546.4921517        6038977.8612653017        1215163131.5026643     
   2477366126.6669092        2595818.5791274309        1212340556.2961211     
   2397767212.8989816        1857679.4880326986        1214297529.4842775     
   2318979805.1883712        3824560.5879954100        1221034051.0671315     
   2261303658.8594899        11280052.077364564        1290903363.2882867     
   2192728837.0989509        6907597.2023491859        1284044572.7598171     
   2124721592.7673459        4427067.0904480219        1281724992.8693910     
   2057281925.8646696        3838461.7416439056        1283944623.6170099     
   1990409836.3909287        5141781.1559556723        1290703465.0026710     
   1883777521.2989044        10423549.606666207        1358407452.9270077     
   1827163124.3556573        7620815.5384086370        1352007412.0715306     
   1770872376.2129586        5896910.8053172827        1349906244.0974429     
   1714905276.8708107        5251835.4073934555        1352103949.0047431     
   1659261826.3292124        5685589.3446353674        1358600526.7934358     
   1506420059.6929541        9617649.9223551750        1425277524.0200660     
   1461079408.2622697        8178632.8694363832        1419051649.4378021     
   1415818477.0037537        7005349.7237477303        1416884309.9802732     
   1370637265.9174018        6097800.4852713943        1418775505.6474771     
   1325535775.0032213        5455985.1540327668        1424725236.4394186     
   2644971732.7215347        1733927.6407477856        1149592284.9868121     
   2539994140.6035089        1457613.5033676624        1143182185.1794276     
   2434868170.6755004        686706.66604948044        1141105236.5664017     
   2329593822.9375157       -578792.87118864059        1143361439.1477339     
   2224171097.3895531       -2338885.1083605289        1149950792.9234264     
   2318979805.1883712        3824560.5879954100        1221034051.0671315     
   2225349485.3097439        2536499.4311671257        1213770371.7280679     
   2131697504.2487144        1176234.3329977989        1211135692.2294381     
   2038023862.0052855       -256234.70650398731        1213130012.5712452     
   1944328558.5794551       -1760907.6873416901        1219753332.7534883     
   1990409836.3909287        5141781.1559556723        1290703465.0026710     
   1908972070.5976353        3095557.5334637165        1282734042.1974351     
   1827639360.2495203        1399518.7282265425        1279689467.8787100     
   1746411705.3465791        53664.740240931511        1281569742.0465000     
   1665289105.8888159       -942004.43048858643        1288374864.7008014     
   1659261826.3292124        5685589.3446353674        1358600526.7934358     
   1590861896.4671862        3134787.8102529645        1350073196.5875328     
   1522693738.6779191        1356559.8517317772        1346766563.5142174     
   1454757352.9614003        350905.46903926134        1348680627.5734949     
   1387052739.3176394        117824.66220659018        1355815388.7653580     
   1325535775.0032213        5455985.1540327668        1424725236.4394186     
   1271018962.9183981        2654190.2615505457        1415787834.8983581     
   1216860639.5339103        1047357.7035147548        1412366979.1359622     
   1163060804.8497481        635487.47990232706        1414462669.1522341     
   1109619458.8659229        1418579.5907399058        1422074904.9471734     
   2224171097.3895531       -2338885.1083605289        1149950792.9234264     
   2141893744.8125386        3263707.4301118851        1143785064.1854579     
   2060041081.8373902        10281931.974794745        1142155721.2267206     
   1978613108.4641070        18715788.525692582        1145062764.0472054     
   1897609824.6926894        28565277.082815170        1152506192.6469145     
   1944328558.5794551       -1760907.6873416901        1219753332.7534883     
   1873494545.4688048        4039527.1741811037        1214142941.7909524     
   1802976734.6929631        10893969.818400860        1212753077.9487607     
   1732775126.2519279        18802420.245308042        1215583741.2269228     
   1662889720.1456940        27764878.454891801        1222634931.6254280     
   1665289105.8888159       -942004.43048858643        1288374864.7008014     
   1604995978.9334497        4785536.7607720494        1283193243.0354598     
   1544910567.0458298        11205461.511188149        1281916289.8315892     
   1485032870.2259653        18317769.820785046        1284544005.0891848     
   1425362888.4738421        26122461.689526439        1291076388.8082533     
   1387052739.3176394        117824.66220659018        1355815388.7653580     
   1336398045.2064750        5501736.1898764372        1350935967.9189835     
   1285842578.8959982        11216407.053172946        1349645356.8751936     
   1235386340.3862207        17261837.252132475        1351943555.6339984     
   1185029329.6771264        23638026.786701024        1357830564.1953967     
   1109619458.8659229        1418579.5907399058        1422074904.9471734     
   1067700744.2878774        6188125.4614872336        1417371116.4415245     
   1025772770.2434640        10926806.444341779        1415940279.0795872     
   983835536.73269212        15634622.539335132        1417782392.8613584     
   941889043.75554252        20311573.746405303        1422897457.7868514     
   1897609824.6926894        28565277.082815170        1152506192.6469145     
   1778375021.5355039        27508187.235199571        1146218083.5797408     
   1659086656.7397566        26272558.592370629        1143307589.8606279     
   1539744730.3054383        24858391.154320478        1143774711.4895821     
   1420349242.2325616        23265684.921063125        1147619448.4665902     
   1662889720.1456940        27764878.454891801        1222634931.6254280     
   1553322498.5779648        25372778.099791169        1215855030.4559085     
   1443801702.8559265        23135430.563666999        1213442194.5088720     
   1334327332.9795792        21052835.846498191        1215396423.7842972     
   1224899388.9489193        19124993.948309600        1221717718.2822113     
   1425362888.4738421        26122461.689526439        1291076388.8082533     
   1328290248.1367404        23243450.719288826        1283921347.6013596     
   1231364021.1295867        20852484.182207406        1282122821.4913552     
   1134584207.4523768        18949562.078278005        1285680810.4782352     
   1037950807.1051183        17534684.407508552        1294595314.5620124     
   1185029329.6771264        23638026.786701024        1357830564.1953967     
   1103278270.2118268        21120205.093673944        1350417035.0160928     
   1021773611.5607324        19423719.447994947        1349349470.8080893     
   940515353.72384048        18548569.849651933        1354627871.5713823     
   859503496.70114875        18494756.298656940        1366252237.3059745     
   941889043.75554252        20311573.746405303        1422897457.7868514     
   878286564.80322254        19003041.222945154        1415342092.7001064     
   815030474.14936376        18849136.361023962        1415122142.4590673     
   752120771.79395926        19849859.160624564        1422237607.0637417     
   689557457.73701942        22005209.621757358        1436688486.5141175     
   1756012821.4348602        526803846.43045807        680068216.82674396     
   1784052345.1477196        500076638.03353620        806477338.05078888     
   1809165295.0713818        463594183.67262381        925776850.77171159     
   1831351671.2058473        417356483.34772152        1037966754.9895122     
   1850611473.5511155        361363537.05882812        1143047050.7041907     
   1326348690.6340249        397904607.19020748        669736341.81817508     
   1339572926.3720255        375517578.77879709        791889432.38954854     
   1350602231.7679930        345814115.89394361        908754176.10211134     
   1359436606.8219280        308794218.53564727        1020330572.9558640     
   1366076051.5338299        264457886.70390749        1126618622.9508066     
   890458510.12382853        267137553.03714857        662356431.09797943     
   894071062.58500361        250651786.02065974        781107075.03837323     
   896220328.15130997        229288396.02127507        896390633.76426792     
   896906306.82274759        203047383.03899485        1008207107.2756642     
   896128998.59931672        171928747.07381865        1116556495.5725613     
   448342279.90427107        134502683.97128132        657928484.66615689     
   447546753.78665411        125479259.75912412        774130265.99726236     
   446019584.22133237        114017024.05461824        888686223.75818014     
   443760771.20830625        100115976.85776415        1001596357.9489117     
   440770314.74757570        83776118.168561816        1112860668.5694559     
  -2.4647122712736537E-002  -7.3941368138209619E-003   656452502.52270734     
  -2.3023135595792141E-002  -5.8099015525299091E-003   770959005.26621604     
  -2.1939532951365092E-002  -6.0269912343835861E-003   885640946.08384943     
  -2.1396164659154587E-002  -8.0448404062489556E-003   1000498324.9756072     
  -2.1393212293238741E-002  -1.1864075999096529E-002   1115531141.9414897     
   1850611473.5511155        361363537.05882812        1143047050.7041907     
   1835252390.7346370        295670398.36916441        1190571330.3655069     
   1823271842.0245545        241239040.03415626        1240376654.1004808     
   1814669827.4208703        198069462.05380636        1292463021.9091127     
   1809446346.9235826        166161664.42811376        1346830433.7914028     
   1366076051.5338299        264457886.70390749        1126618622.9508066     
   1360340747.0770173        216923234.98224229        1182022951.1315660     
   1357139343.2000546        177834918.52674285        1238358721.5996420     
   1356471839.9029417        147192937.33740944        1295625934.3550351     
   1358338237.1856782        124997291.41424084        1353824589.3977444     
   896128998.59931672        171928747.07381865        1116556495.5725613     
   896161467.39833784        141395780.78900275        1178855466.4917924     
   897883203.25066125        116493704.68186119        1240736277.9119992     
   901294206.15628695        97222518.752394021        1302198929.8331804     
   906394476.11521542        83582223.000601649        1363243422.2553368     
   440770314.74757570        83776118.168561816        1112860668.5694559     
   442714551.69859755        69088035.789444506        1181068876.4461868     
   445503422.17637515        57215398.499511644        1247509323.0375514     
   449136926.18090713        48158206.298761263        1312182008.3435497     
   453615063.71219468        41916459.187194526        1375086932.3641820     
  -2.1393212293238741E-002  -1.1864075999096529E-002   1115531141.9414897     
  -2.2202455075913320E-002  -1.6431150167579126E-002   1188663180.9947486     
  -2.2803938510858584E-002  -2.0305736545050905E-002   1258677856.9762995     
  -2.3198092585507549E-002  -2.3489203370824923E-002   1325575169.8861434     
  -2.3384362212176532E-002  -2.5979722036665650E-002   1389355119.7242792     
   1809446346.9235826        166161664.42811376        1346830433.7914028     
   1778902098.9079654        133706096.39758080        1364538849.5667744     
   1749626652.9512198        105479868.56328756        1383049530.9221454     
   1721620009.0533452        81482980.925231040        1402362477.8575158     
   1694882167.2143438        61715433.483417749        1422477690.3728843     
   1358338237.1856782        124997291.41424084        1353824589.3977444     
   1332861916.0969508        99885174.866390288        1372835378.4005785     
   1308337196.5515099        77945063.462826788        1393247664.5019407     
   1284764078.5493550        59176957.203550339        1415061447.7018323     
   1262142562.0904863        43580856.088560224        1438276728.0002511     
   906394476.11521542        83582223.000601649        1363243422.2553368     
   887698172.00632095        66327184.951316595        1383186517.2174485     
   869636268.92512655        51186816.994365633        1405130340.7966194     
   852208766.87163293        38161119.129749358        1429074892.9928482     
   835415665.84583855        27250091.357465237        1455020173.8061354     
   453615063.71219468        41916459.187194526        1375086932.3641820     
   443410866.63607484        33032126.652357727        1395592266.0173893     
   433523870.07206917        25205129.157902300        1418697559.8061831     
   423954074.02017772        18435466.703826293        1444402813.7305665     
   414701478.48040098        12723139.290133476        1472708027.7905374     
  -2.3384362212176532E-002  -2.5979722036665650E-002   1389355119.7242792     
  -1.3787997758182083E-002  -3.0486779538603286E-002   1410052624.8003964     
  -7.6623803456034624E-003  -4.6562993845260352E-002   1433949321.5306318     
  -5.0084678849315299E-003  -7.4211384519258780E-002   1461045209.9149852     
  -5.8274356036640100E-003 -0.11343638940263380        1491340289.9534562     
   1694882167.2143438        61715433.483417749        1422477690.3728843     
   1645063659.1397121        39681050.278872728        1415533984.7985060     
   1597047138.5279365        23653291.950512111        1413686055.2149100     
   1550832605.3790178        13632158.498343110        1416933901.6220980     
   1506420059.6929541        9617649.9223551750        1425277524.0200660     
   1262142562.0904863        43580856.088560224        1438276728.0002511     
   1226795413.9709175        27660088.556500316        1435041713.8937638     
   1192799756.4494736        16244289.684854031        1436431904.7605829     
   1160155589.5261519        9333459.4736154079        1442447300.6007099     
   1128862913.2009540        6927597.9227915406        1453087901.4141457     
   835415665.84583855        27250091.357465237        1455020173.8061354     
   813195389.05997550        17039592.911483884        1454968271.4920180     
   791876106.00750268        9832406.9101369083        1459071003.1337316     
   771457816.68842161        5628533.3534300625        1467328368.7312770     
   751940521.10273182        4427972.2413596809        1479740368.2846558     
   414701478.48040098        12723139.290133476        1472708027.7905374     
   404263584.40688479        7819563.3438226879        1475313657.5932667     
   394276187.20202738        4417643.6263751388        1481603350.3343527     
   384739286.86582881        2517380.1377892345        1491577106.0137973     
   375652883.39828706        2118772.8780610561        1505234924.6315982     
  -5.8274356036640100E-003 -0.11343638940263380        1491340289.9534562     
   1.1645881145885488E-002 -0.14648251705013862        1496077872.1975119     
   3.3044240420866143E-002 -0.16644586350226340        1504028946.3624511     
   5.8370759004666095E-002 -0.17331534559165715        1515193512.4482703     
   8.7621896917620651E-002 -0.16710206936114522        1529571570.4549720     
   1506420059.6929541        9617649.9223551750        1425277524.0200660     
   1461079408.2622697        8178632.8694363832        1419051649.4378021     
   1415818477.0037537        7005349.7237477303        1416884309.9802732     
   1370637265.9174018        6097800.4852713943        1418775505.6474771     
   1325535775.0032213        5455985.1540327668        1424725236.4394186     
   1128862913.2009540        6927597.9227915406        1453087901.4141457     
   1094301068.6483049        5681428.3416622877        1447230480.0764010     
   1059799014.2258365        4634559.1944693923        1445561410.2573836     
   1025356749.9335494        3786990.4812130928        1448080691.9570928     
   990974275.77144587        3138722.2019006610        1454788325.1755250     
   751940521.10273182        4427972.2413596809        1479740368.2846558     
   728528387.41094768        3485921.3268671632        1474228148.4757833     
   705156113.80735850        2676737.3730227947        1473034096.5796261     
   681823700.29196608        2000420.3798354566        1476158212.5961857     
   658531146.86476743        1456970.3472943306        1483600496.5254619     
   375652883.39828706        2118772.8780610561        1505234924.6315982     
   363761364.55019993        1592111.8250573277        1500044654.6359453     
   351889775.74832022        1131884.2594130635        1499302368.9469986     
   340038116.99265200        738090.18113864958        1503008067.5647607     
   328206388.28319144        410729.59022541344        1511161750.4892280     
   8.7621896917620651E-002 -0.16710206936114522        1529571570.4549720     
   6.6059566242079953E-002 -0.16377277281573424        1524679998.5568900     
   4.8718195228918605E-002 -0.14637326378436372        1524366227.3595042     
   3.5604749460093926E-002 -0.11488084407755179        1528630256.8628168     
   2.6710318938323856E-002  -6.9325040213891242E-002   1537472087.0668273     
   1325535775.0032213        5455985.1540327668        1424725236.4394186     
   1271018962.9183981        2654190.2615505457        1415787834.8983581     
   1216860639.5339103        1047357.7035147548        1412366979.1359622     
   1163060804.8497481        635487.47990232706        1414462669.1522341     
   1109619458.8659229        1418579.5907399058        1422074904.9471734     
   990974275.77144587        3138722.2019006610        1454788325.1755250     
   950848164.47388172        1265825.3730680943        1446869469.0557420     
   910990919.69963050        289150.28861010075        1444289475.9020331     
   871402541.44868708        208696.94851166010        1447048345.7144020     
   832083029.72104895        1024465.3527655005        1455146078.4928429     
   658531146.86476743        1456970.3472943306        1483600496.5254619     
   632288071.17563033        360672.02846848965        1476595626.6204302     
   606224239.83278155       -138145.13606202602        1474751936.8688815     
   580339652.83621585       -39481.146315276623        1478069427.2708178     
   554634310.18593717        656663.99772152305        1486548097.8262341     
   328206388.28319144        410729.59022541344        1511161750.4892280     
   315338683.02364403       -61269.772250011563        1504966307.5924246     
   302560599.93336332       -234528.57050485909        1503754362.0365102     
   289872139.01234031       -109046.80456519127        1507525913.8214865     
   277273300.26058787        315175.52560867369        1516280962.9473517     
   2.6710318938323856E-002  -6.9325040213891242E-002   1537472087.0668273     
   1.7920280644016903E-002  -2.9094675386869100E-002   1531981511.9717207     
   1.3742212496153502E-003  -1.4719795895000123E-002   1531296751.4049132     
  -2.2935225147640334E-002  -2.6221138355835602E-002   1535417805.3664036     
  -5.5002431181045655E-002  -6.3583067382617334E-002   1544344673.8561962     
   1109619458.8659229        1418579.5907399058        1422074904.9471734     
   1067700744.2878774        6188125.4614872336        1417371116.4415245     
   1025772770.2434640        10926806.444341779        1415940279.0795872     
   983835536.73269212        15634622.539335132        1417782392.8613584     
   941889043.75554252        20311573.746405303        1422897457.7868514     
   832083029.72104895        1024465.3527655005        1455146078.4928429     
   798725541.90514743        4026089.1851547360        1450687355.3648100     
   765361109.49205685        7004564.3602471054        1449949222.1497266     
   731989732.48177385        9959890.8780311048        1452931678.8475859     
   698611410.87430310        12892068.738522857        1459634725.4583778     
   554634310.18593717        656663.99772152305        1486548097.8262341     
   531117017.04426354        2274056.1653827429        1482337140.7565346     
   507595094.17457306        3876015.9063219130        1482294412.3690035     
   484068541.57686901        5462543.2205476165        1486419912.6636443     
   460537359.25114709        7033638.1080504656        1494713641.6404562     
   277273300.26058787        315175.52560867369        1516280962.9473517     
   264875169.70522118        932026.40215657651        1512320472.6166823     
   252474724.29101703        1541161.0825804621        1512975849.7374122     
   240071964.01797101        2142579.5668645799        1518247094.3095419     
   227666888.88608199        2736281.8550061733        1528134206.3330684     
  -5.5002431181045655E-002  -6.3583067382617334E-002   1544344673.8561962     
 -0.11197659100325631      -0.10451124855647033        1540637350.9452612     
 -0.15861433046114637      -0.11098608296136889        1541993534.2549534     
 -0.19492180305733176       -8.3026694493918501E-002   1548413223.7852781     
 -0.22088951546993296       -2.0600050969073330E-002   1559896419.5362284     
   941889043.75554252        20311573.746405303        1422897457.7868514     
   878286564.80322254        19003041.222945154        1415342092.7001064     
   815030474.14936376        18849136.361023962        1415122142.4590673     
   752120771.79395926        19849859.160624564        1422237607.0637417     
   689557457.73701942        22005209.621757358        1436688486.5141175     
   698611410.87430310        12892068.738522857        1459634725.4583778     
   653604275.93981218        12719086.594864577        1453939834.0135400     
   608856932.19195068        13412075.073303252        1454951588.4182923     
   564369379.63071287        14971034.173817188        1462669988.6726384     
   520141618.25609696        17395963.896412402        1477095034.7765756     
   460537359.25114709        7033638.1080504656        1494713641.6404562     
   432329085.48844230        7457261.4903928936        1490778193.8737135     
   404294005.80053103        8458198.4553810209        1492920622.9604430     
   376432120.18740845        10036449.002999097        1501140928.9006481     
   348743428.64907604        12192013.133251235        1515439111.6943300     
   227666888.88608199        2736281.8550061733        1528134206.3330684     
   214460993.44911540        3217565.9095424116        1525857172.2806201     
   201341694.97510272        3987506.5072592795        1529029246.0855269     
   188308993.46404731        5046103.6481672823        1537650427.7477884     
   175362888.91594595        6393357.3322539553        1551720717.2674131     
 -0.22088951546993296       -2.0600050969073330E-002   1559896419.5362284     
 -0.17817414210696825      -0.14770684675369239        1559176769.2342589     
 -0.28433565026274110      -0.77107130204621754        1563277457.7935350     
 -0.53937504645812562       -1.8906943433033623        1572198485.2140532     
 -0.94329434373486953       -3.5065830276089818        1585939851.4958007     
  -2.4647122712736537E-002  -7.3941368138209619E-003   656452502.52270734     
  -2.3023135595792141E-002  -5.8099015525299091E-003   770959005.26621604     
  -2.1939532951365092E-002  -6.0269912343835861E-003   885640946.08384943     
  -2.1396164659154587E-002  -8.0448404062489556E-003   1000498324.9756072     
  -2.1393212293238741E-002  -1.1864075999096529E-002   1115531141.9414897     
  -448342279.95278436       -134502683.98583531        657928484.66757369     
  -447546753.83212864       -125479259.77069768        774130265.99797285     
  -446019584.26473486       -114017024.06643334        888686223.75806725     
  -443760771.25060338       -100115976.87304272        1001596357.9478568     
  -440770314.78973383       -83776118.190525621        1112860668.5673411     
  -890458510.16999876       -267137553.05099961        662356431.10069835     
  -894071062.62868071       -250651786.03181925        781107075.03981256     
  -896220328.19334638       -229288396.03258479        896390633.76419258     
  -896906306.86399579       -203047383.05329591        1008207107.2738385     
  -896128998.64062905       -171928747.09395289        1116556495.5687501     
  -1326348690.6762900       -397904607.20288700        669736341.82208157     
  -1339572926.4126792       -375517578.78917485        791889432.39173532     
  -1350602231.8077736       -345814115.90448076        908754176.10222566     
  -1359436606.8615737       -308794218.54880476        1020330572.9535530     
  -1366076051.5740795       -264457886.72214708        1126618622.9457164     
  -1756012821.4716582       -526803846.44149750        680068216.83172309     
  -1784052345.1841242       -500076638.04276443        806477338.05374134     
  -1809165295.1080172       -463594183.68212199        925776850.77216661     
  -1831351671.2433376       -417356483.35956949        1037966754.9869996     
  -1850611473.5900846       -361363537.07510775        1143047050.6982398     
  -2.1393212293238741E-002  -1.1864075999096529E-002   1115531141.9414897     
  -2.2202455075913320E-002  -1.6431150167579126E-002   1188663180.9947486     
  -2.2803938510858584E-002  -2.0305736545050905E-002   1258677856.9762995     
  -2.3198092585507549E-002  -2.3489203370824923E-002   1325575169.8861434     
  -2.3384362212176532E-002  -2.5979722036665650E-002   1389355119.7242792     
  -440770314.78973383       -83776118.190525621        1112860668.5673411     
  -442714551.74196935       -69088035.819738612        1181068876.4445410     
  -445503422.22081029       -57215398.537637129        1247509323.0365005     
  -449136926.22625774       -48158206.344223559        1312182008.3432200     
  -453615063.75831050       -41916459.239494130        1375086932.3646989     
  -896128998.64062905       -171928747.09395289        1116556495.5687501     
  -896161467.44009817       -141395780.81655508        1178855466.4886086     
  -897883203.29298604       -116493704.71722022        1240736277.9096937     
  -901294206.19929314       -97222518.795950621        1302198929.8320062     
  -906394476.15901971       -83582223.052743673        1363243422.2555468     
  -1366076051.5740795       -264457886.72214708        1126618622.9457164     
  -1360340747.1165886       -216923235.00687945        1182022951.1269505     
  -1357139343.2393310       -177834918.55905485        1238358721.5958793     
  -1356471839.9423046       -147192937.37867022        1295625934.3525035     
  -1358338237.2255113       -124997291.46572655        1353824589.3968222     
  -1850611473.5900846       -361363537.07510775        1143047050.6982398     
  -1835252390.7714415       -295670398.39071292        1190571330.3595674     
  -1823271842.0598435       -241239040.06313711        1240376654.0950580     
  -1814669827.4552922       -198069462.09238273        1292463021.9047105     
  -1809446346.9577868       -166161664.47844744        1346830433.7885256     
  -2.3384362212176532E-002  -2.5979722036665650E-002   1389355119.7242792     
  -1.3787997758182083E-002  -3.0486779538603286E-002   1410052624.8003964     
  -7.6623803456034624E-003  -4.6562993845260352E-002   1433949321.5306318     
  -5.0084678849315299E-003  -7.4211384519258780E-002   1461045209.9149852     
  -5.8274356036640100E-003 -0.11343638940263380        1491340289.9534562     
  -453615063.75831050       -41916459.239494130        1375086932.3646989     
  -443410866.66394746       -33032126.713956639        1395592266.0108759     
  -433523870.08723128       -25205129.247242048        1418697559.7919762     
  -423954074.02816308       -18435466.839353889        1444402813.7080007     
  -414701478.48674101       -12723139.490286678        1472708027.7589483     
  -906394476.15901971       -83582223.052743673        1363243422.2555468     
  -887698172.03473151       -66327185.013616502        1383186517.2052457     
  -869636268.94226491       -51186817.080561310        1405130340.7706730     
  -852208766.88162136       -38161119.253582507        1429074892.9518309     
  -835415665.85280025       -27250091.532678604        1455020173.7487164     
  -1358338237.2255113       -124997291.46572655        1353824589.3968222     
  -1332861916.1261394       -99885174.929462612        1372835378.3835049     
  -1308337196.5727642       -77945063.546523094        1393247664.4667220     
  -1284764078.5653858       -59176957.316904664        1415061447.6464756     
  -1262142562.1040063       -43580856.240617216        1438276727.9227614     
  -1809446346.9577868       -166161664.47844744        1346830433.7885256     
  -1778902098.9381700       -133706096.46149462        1364538849.5456541     
  -1749626652.9787252       -105479868.64511454        1383049530.8801234     
  -1721620009.0794551       -81482981.029318035        1402362477.7919323     
  -1694882167.2403579       -61715433.614096224        1422477690.2810824     
  -5.8274356036640100E-003 -0.11343638940263380        1491340289.9534562     
   1.1645881145885488E-002 -0.14648251705013862        1496077872.1975119     
   3.3044240420866143E-002 -0.16644586350226340        1504028946.3624511     
   5.8370759004666095E-002 -0.17331534559165715        1515193512.4482703     
   8.7621896917620651E-002 -0.16710206936114522        1529571570.4549720     
  -414701478.48674101       -12723139.490286678        1472708027.7589483     
  -404263584.37618852       -7819563.5974769890        1475313657.5669541     
  -394276187.12842649       -4417643.9139691889        1481603350.3120189     
  -384739286.74345499       -2517380.4397625029        1491577105.9941428     
  -375652883.22127473       -2118773.1748607755        1505234924.6133254     
  -835415665.85280025       -27250091.532678604        1455020173.7487164     
  -813195389.03152120       -17039593.128722817        1454968271.4428363     
  -791876105.93974745       -9832407.1564507782        1459071003.0901928     
  -771457816.57748103       -5628533.6158697605        1467328368.6907849     
  -751940520.94472039       -4427972.5069758594        1479740368.2446122     
  -1262142562.1040063       -43580856.240617216        1438276727.9227614     
  -1226795413.9543509       -27660088.740214288        1435041713.8251603     
  -1192799756.4009163       -16244289.893882692        1436431904.6969714     
  -1160155589.4437079       -9333459.7016372681        1442447300.5381956     
  -1128862913.0827203       -6927598.1634605527        1453087901.3488319     
  -1694882167.2403579       -61715433.614096224        1422477690.2810824     
  -1645063659.1446791       -39681050.431958675        1415533984.7139239     
  -1597047138.5119367       -23653292.126275837        1413686055.1323550     
  -1550832605.3421354       -13632158.697061837        1416933901.5363755     
  -1506420059.6352727       -9617650.1443127394        1425277523.9259856     
   8.7621896917620651E-002 -0.16710206936114522        1529571570.4549720     
   6.6059566242079953E-002 -0.16377277281573424        1524679998.5568900     
   4.8718195228918605E-002 -0.14637326378436372        1524366227.3595042     
   3.5604749460093926E-002 -0.11488084407755179        1528630256.8628168     
   2.6710318938323856E-002  -6.9325040213891242E-002   1537472087.0668273     
  -375652883.22127473       -2118773.1748607755        1505234924.6133254     
  -363761364.41616219       -1592112.1268282533        1500044654.6206615     
  -351889775.65052170       -1131884.5437026471        1499302368.9375021     
  -340038116.92434406       -738090.42545318604        1503008067.5638502     
  -328206388.23763716       -410729.77210605145        1511161750.4997036     
  -751940520.94472039       -4427972.5069758594        1479740368.2446122     
  -728528387.28776991       -3485921.6067025065        1474228148.4397261     
  -705156113.71397877       -2676737.6502934098        1473034096.5531559     
  -681823700.22334456       -2000420.6377409399        1476158212.5848989     
  -658531146.81586957       -1456970.5690525174        1483600496.5349565     
  -1128862913.0827203       -6927598.1634605527        1453087901.3488319     
  -1094301068.5487628       -5681428.6033899784        1447230480.0140862     
  -1059799014.1416553       -4634559.4661518931        1445561410.2064624     
  -1025356749.8613974       -3786990.7517461181        1448080691.9259608     
  -990974275.70798647       -3138722.4601643085        1454788325.1725821     
  -1506420059.6352727       -9617650.1443127394        1425277523.9259856     
  -1461079408.1991415       -8178633.1168956757        1419051649.3437400     
  -1415818476.9335506       -7005349.9912784696        1416884309.8974235     
  -1370637265.8384993       -6097800.7674616575        1418775505.5870402     
  -1325535774.9139886       -5455985.4454450011        1424725236.4125876     
   2.6710318938323856E-002  -6.9325040213891242E-002   1537472087.0668273     
   1.7920280644016903E-002  -2.9094675386869100E-002   1531981511.9717207     
   1.3742212496153502E-003  -1.4719795895000123E-002   1531296751.4049132     
  -2.2935225147640334E-002  -2.6221138355835602E-002   1535417805.3664036     
  -5.5002431181045655E-002  -6.3583067382617334E-002   1544344673.8561962     
  -328206388.23763716       -410729.77210605145        1511161750.4997036     
  -315338683.00157392        61269.644974797964        1504966307.5916233     
  -302560599.94653052        234528.45865599811        1503754362.0258603     
  -289872139.07251102        109046.66892427206        1507525913.8024127     
  -277273300.37951440       -315175.72421716154        1516280962.9212790     
  -658531146.81586957       -1456970.5690525174        1483600496.5349565     
  -632288071.15204799       -360672.22025054693        1476595626.6117649     
  -606224239.84251058        138144.94760629535        1474751936.8449049     
  -580339652.88725841        39480.934511661530        1478069427.2343781     
  -554634310.28628945       -656664.25952681899        1486548097.7801814     
  -990974275.70798647       -3138722.4601643085        1454788325.1725821     
  -950848164.43350220       -1265825.6247695088        1446869469.0321391     
  -910990919.68656695       -289150.54787319899        1444289475.8620436     
  -871402541.46717322       -208697.22944790125        1447048345.6622972     
  -832083029.77532685       -1024465.6695151925        1455146078.4329004     
  -1325535774.9139886       -5455985.4454450011        1424725236.4125876     
  -1271018962.8459344       -2654190.5685818195        1415787834.8527510     
  -1216860639.4786921       -1047358.0277566314        1412366979.0772803     
  -1163060804.8122575       -635487.82295829058        1414462669.0861762     
  -1109619458.8466315       -1418579.9541870356        1422074904.8794365     
  -5.5002431181045655E-002  -6.3583067382617334E-002   1544344673.8561962     
 -0.11197659100325631      -0.10451124855647033        1540637350.9452612     
 -0.15861433046114637      -0.11098608296136889        1541993534.2549534     
 -0.19492180305733176       -8.3026694493918501E-002   1548413223.7852781     
 -0.22088951546993296       -2.0600050969073330E-002   1559896419.5362284     
  -277273300.37951440       -315175.72421716154        1516280962.9212790     
  -264875169.92832223       -932026.67147332430        1512320472.6238892     
  -252474724.60264024       -1541161.3704323620        1512975849.7828460     
  -240071964.40247574       -2142579.8211162388        1518247094.3981459     
  -227666889.32782519       -2736282.0235128403        1528134206.4697888     
  -554634310.28628945       -656664.25952681899        1486548097.7801814     
  -531117017.22488201       -2274056.4824954867        1482337140.7711804     
  -507595094.42483652       -3876016.2433368266        1482294412.4542408     
  -484068541.88615489       -5462543.5420567691        1486419912.8293605     
  -460537359.60883367       -7033638.3786458373        1494713641.8965476     
  -832083029.77532685       -1024465.6695151925        1455146078.4329004     
  -798725542.00165987       -4026089.5375868082        1450687355.3871298     
  -765361109.62520146       -7004564.7296900153        1449949222.2691398     
  -731989732.64595199       -9959891.2458226681        1452931679.0789289     
  -698611411.06391680       -12892069.086002052        1459634725.8164916     
  -1109619458.8466315       -1418579.9541870356        1422074904.8794365     
  -1067700744.2586510       -6188125.8367354870        1417371116.4717441     
  -1025772770.2037337       -10926806.829490900        1415940279.2275450     
  -983835536.68187165       -15634622.932433844        1417782393.1468389     
  -941889043.69307089       -20311574.145576179        1422897458.2296307     
 -0.22088951546993296       -2.0600050969073330E-002   1559896419.5362284     
 -0.17817414210696825      -0.14770684675369239        1559176769.2342589     
 -0.28433565026274110      -0.77107130204621754        1563277457.7935350     
 -0.53937504645812562       -1.8906943433033623        1572198485.2140532     
 -0.94329434373486953       -3.5065830276089818        1585939851.4958007     
  -227666889.32782519       -2736282.0235128403        1528134206.4697888     
  -214460993.78972706       -3217566.2567515820        1525857172.1412675     
  -201341695.43592104       -3987507.7709663734        1529029245.6647506     
  -188308994.26640564       -5046106.5661528260        1537650427.0402448     
  -175362890.28118393       -6393362.6423087120        1551720716.2677476     
  -460537359.60883367       -7033638.3786458373        1494713641.8965476     
  -432329085.74458098       -7457261.8687816262        1490778193.6668153     
  -404294006.10003662       -8458199.4246109277        1492920622.2798617     
  -376432120.67519641       -10036451.046126127        1501140927.7356849     
  -348743429.47006667       -12192016.733338997        1515439110.0342898     
  -698611411.06391680       -12892069.086002052        1459634725.8164916     
  -653604276.04273880       -12719086.983802021        1453939833.8109026     
  -608856932.27668726       -13412075.732020766        1454951587.6388626     
  -564369379.76575494       -14971035.330639690        1462669987.3003602     
  -520141618.50994313       -17395965.779660732        1477095032.7954197     
  -941889043.69307089       -20311574.145576179        1422897458.2296307     
  -878286564.68420660       -19003041.601832032        1415342092.5735319     
  -815030473.96587026       -18849136.693187863        1415122141.7417500     
  -752120771.53807390       -19849859.419675797        1422237605.7342923     
  -689557457.40081656       -22005209.781288266        1436688484.5511391     
  -1756012821.4716582       -526803846.44149750        680068216.83172309     
  -1784052345.1841242       -500076638.04276443        806477338.05374134     
  -1809165295.1080172       -463594183.68212199        925776850.77216661     
  -1831351671.2433376       -417356483.35956949        1037966754.9869996     
  -1850611473.5900846       -361363537.07510775        1143047050.6982398     
  -2201691028.5945787       -660507308.57837355        696454749.22065270     
  -2238336010.8117948       -613892465.84900677        813879002.61070418     
  -2272937829.7947903       -560467079.00557005        927203826.96285558     
  -2305496485.5435648       -500231148.04806387        1036429222.2771070     
  -2336011978.0581193       -433184672.97648805        1141555188.5534582     
  -2685623438.0835261       -805687031.42505789        721998632.07990015     
  -2722273366.0463710       -736604400.53732038        829407371.99124074     
  -2757763541.3293471       -663655927.38335347        935726862.33037436     
  -2792093963.9324546       -586841611.96315646        1040957103.0973001     
  -2825264633.8556924       -506161454.27672970        1145098094.2920187     
  -3207810049.9385009       -962343014.98155022        756699865.40946519     
  -3235864410.8878527       -868212442.10770583        853062446.19535124     
  -3263642429.7116861       -773160728.81547141        951345956.87472260     
  -3291144106.4100046       -677187875.10484743        1051550397.4475793     
  -3318369440.9828048       -580293880.97583306        1153675767.9139211     
  -3768250864.1595025       -1130475259.2478509        800558449.20934796     
  -3779109145.3362384       -1008716590.5601628        884844225.22303545     
  -3790574494.9418097       -888981483.30192494        974061110.59590089     
  -3802646912.9762163       -771269937.47313702        1068209105.3279443     
  -3815326399.4394574       -655581953.07379878        1167288209.4191656     
  -1850611473.5900846       -361363537.07510775        1143047050.6982398     
  -1835252390.7714415       -295670398.39071292        1190571330.3595674     
  -1823271842.0598435       -241239040.06313711        1240376654.0950580     
  -1814669827.4552922       -198069462.09238273        1292463021.9047105     
  -1809446346.9577868       -166161664.47844744        1346830433.7885256     
  -2336011978.0581193       -433184672.97648805        1141555188.5534582     
  -2312443211.7329440       -352117440.85021698        1182823258.5762424     
  -2292371138.7060947       -282705853.05169487        1224577557.9663777     
  -2275795758.9775691       -224949909.58092088        1266818086.7238655     
  -2262717072.5473685       -178849610.43789566        1309544844.8487039     
  -2825264633.8556924       -506161454.27672970        1145098094.2920187     
  -2798614226.0434470       -411258541.31442058        1179972102.2864344     
  -2775578670.7208047       -328405136.65078950        1213537524.9413903     
  -2756157967.8877654       -257601240.28583360        1245794362.2568872     
  -2740352117.5443292       -198846852.21955705        1276742614.2329242     
  -3318369440.9828048       -580293880.97583306        1153675767.9139211     
  -3293765433.7029486       -473093699.78332508        1182017861.4901431     
  -3272894438.1039729       -378336890.86042118        1207256555.0200944     
  -3255756454.1858792       -296023454.20712411        1229391848.5037761     
  -3242351481.9486685       -226153389.82343233        1248423741.9411860     
  -3815326399.4394574       -655581953.07379878        1167288209.4191656     
  -3797896834.7114487       -537622916.25692737        1188960536.1873689     
  -3784318440.8556013       -432501115.68059158        1205734648.2024906     
  -3774591217.8719134       -340216551.34478700        1217610545.4645317     
  -3768715165.7603865       -260769223.24952149        1224588227.9734905     
  -1809446346.9577868       -166161664.47844744        1346830433.7885256     
  -1778902098.9381700       -133706096.46149462        1364538849.5456541     
  -1749626652.9787252       -105479868.64511454        1383049530.8801234     
  -1721620009.0794551       -81482981.029318035        1402362477.7919323     
  -1694882167.2403579       -61715433.614096224        1422477690.2810824     
  -2262717072.5473685       -178849610.43789566        1309544844.8487039     
  -2223391213.4243531       -134525809.51867044        1317519429.2278075     
  -2186931726.9579425       -99756584.121465325        1328708010.5162766     
  -2153338613.1481395       -74541934.246281266        1343110588.7141109     
  -2122611871.9949429       -58881859.893119693        1360727163.8213105     
  -2740352117.5443292       -198846852.21955705        1276742614.2329242     
  -2685353986.3692722       -140587620.11346698        1273119534.8714979     
  -2634819798.4472537       -97208198.850841641        1275122183.7514608     
  -2588749553.7782745       -68708588.431680441        1282750560.8728151     
  -2547143252.3623362       -55088788.855985761        1296004666.2355583     
  -3242351481.9486685       -226153389.82343233        1248423741.9411860     
  -3164790417.7729268       -151891528.24588263        1231339166.4767241     
  -3093290867.4466586       -97834712.833247185        1222292050.5856779     
  -3027852830.9698620       -63982943.585513115        1221282394.2680457     
  -2968476308.3425393       -50336220.502693176        1228310197.5238299     
  -3768715165.7603865       -260769223.24952149        1224588227.9734905     
  -3661700507.6353188       -168437533.91592336        1192178324.0434887     
  -3562344933.9561582       -101636126.06867862        1170217611.0189259     
  -3470648444.7229013       -60364999.707783222        1158706088.8998020     
  -3386611039.9355521       -44624154.833245039        1157643757.6861193     
  -1694882167.2403579       -61715433.614096224        1422477690.2810824     
  -1645063659.1446791       -39681050.431958675        1415533984.7139239     
  -1597047138.5119367       -23653292.126275837        1413686055.1323550     
  -1550832605.3421354       -13632158.697061837        1416933901.5363755     
  -1506420059.6352727       -9617650.1443127394        1425277523.9259856     
  -2122611871.9949429       -58881859.893119693        1360727163.8213105     
  -2060951787.8838444       -40262294.246735096        1352945490.8908970     
  -2000592701.3979914       -25979387.351170182        1349964981.4180841     
  -1941534612.5373878       -16033139.206434131        1351785635.4028695     
  -1883777521.3020325       -10423549.812524915        1358407452.8452554     
  -2547143252.3623362       -55088788.855985761        1296004666.2355583     
  -2474483342.3157892       -40136565.769343734        1287969514.0858653     
  -2402623440.0567989       -27851035.307888746        1284440912.8657815     
  -2331563545.5853653       -18232197.471623898        1285418862.5753076     
  -2261303658.9014883       -11280052.260544300        1290903363.2144415     
  -2968476308.3425393       -50336220.502693176        1228310197.5238299     
  -2885658322.4405184       -39303864.999790192        1220606054.2988284     
  -2803139354.4883604       -29268235.996433496        1217113849.4754462     
  -2720919404.4860678       -20229333.492628574        1217833583.0536842     
  -2638998472.4336400       -12187157.488373399        1222765255.0335405     
  -3386611039.9355521       -44624154.833245039        1157643757.6861193     
  -3294476728.2580261       -37764191.938069940        1150855111.5297844     
  -3202140444.6926737       -30230989.416802406        1147983791.2470801     
  -3109602189.2394981       -22024547.269456148        1149029796.8380032     
  -3016861961.8984914       -13144865.496012330        1153993128.3025551     
  -1506420059.6352727       -9617650.1443127394        1425277523.9259856     
  -1461079408.1991415       -8178633.1168956757        1419051649.3437400     
  -1415818476.9335506       -7005349.9912784696        1416884309.8974235     
  -1370637265.8384993       -6097800.7674616575        1418775505.5870402     
  -1325535774.9139886       -5455985.4454450011        1424725236.4125876     
  -1883777521.3020325       -10423549.812524915        1358407452.8452554     
  -1827163124.3300633       -7620815.7754830122        1352007411.9973285     
  -1770872376.1578019       -5896911.0707982779        1349906244.0388172     
  -1714905276.7852509       -5251835.6984812021        1352103948.9697208     
  -1659261826.2124074       -5685589.6585264206        1358600526.7900383     
  -2261303658.9014883       -11280052.260544300        1290903363.2144415     
  -2192728837.0980144       -6907597.4251767397        1284044572.7001364     
  -2124721592.7234137       -4427067.3527268171        1281724992.8287320     
  -2057281925.7776933       -3838462.0432064533        1283944623.6002250     
  -1990409836.2608492       -5141781.4966095686        1290703465.0146201     
  -2638998472.4336400       -12187157.488373399        1222765255.0335405     
  -2557776546.5029893       -6038978.0659748316        1215163131.4521632     
  -2477366126.6303859       -2595818.8370697498        1212340556.2671695     
  -2397767212.8158259       -1857679.8016363382        1214297529.4785578     
  -2318979805.0593128       -3824560.9597035646        1221034051.0863316     
  -3016861961.8984914       -13144865.496012330        1153993128.3025551     
  -2922306252.5449991       -5014957.6978915930        1145363088.2534089     
  -2828805977.8787160       -403165.52380931377        1141752934.3541281     
  -2736361137.8996496        690511.02622187138        1143162666.6047156     
  -2644971732.6077995       -1733928.0477979183        1149592285.0051692     
  -1325535774.9139886       -5455985.4454450011        1424725236.4125876     
  -1271018962.8459344       -2654190.5685818195        1415787834.8527510     
  -1216860639.4786921       -1047358.0277566314        1412366979.0772803     
  -1163060804.8122575       -635487.82295829058        1414462669.0861762     
  -1109619458.8466315       -1418579.9541870356        1422074904.8794365     
  -1659261826.2124074       -5685589.6585264206        1358600526.7900383     
  -1590861896.3597200       -3134788.1529856324        1350073196.5606337     
  -1522693738.5765810       -1356560.2126105428        1346766563.4668851     
  -1454757352.8629894       -350905.83738726377        1348680627.5087969     
  -1387052739.2189474       -117825.02733659744        1355815388.6863635     
  -1990409836.2608492       -5141781.4966095686        1290703465.0146201     
  -1908972070.4769781       -3095557.9184312820        1282734042.1854484     
  -1827639360.1313937       -1399519.1345481873        1279689467.8432288     
  -1746411705.2240953       -53665.144948482513        1281569741.9879591     
  -1665289105.7550826        942004.05036461353        1288374864.6196425     
  -2318979805.0593128       -3824560.9597035646        1221034051.0863316     
  -2225349485.1977067       -2536499.8649181128        1213770371.7272005     
  -2131697504.1431284       -1176234.7935557365        1211135692.2063131     
  -2038023861.8955758        256234.25438821316        1213130012.5236692     
  -1944328558.4550457        1760907.2789143324        1219753332.6792688     
  -2644971732.6077995       -1733928.0477979183        1149592285.0051692     
  -2539994140.5219097       -1457613.9924470186        1143182185.1858859     
  -2434868170.6117849       -686707.18964481354        1141105236.5561373     
  -2329593822.8774238        578792.36061143875        1143361439.1159241     
  -2224171097.3188252        2338884.6583256721        1149950792.8652475     
  -1109619458.8466315       -1418579.9541870356        1422074904.8794365     
  -1067700744.2586510       -6188125.8367354870        1417371116.4717441     
  -1025772770.2037337       -10926806.829490900        1415940279.2275450     
  -983835536.68187165       -15634622.932433844        1417782393.1468389     
  -941889043.69307089       -20311574.145576179        1422897458.2296307     
  -1387052739.2189474       -117825.02733659744        1355815388.6863635     
  -1336398045.0470328       -5501736.5369837284        1350935967.9159188     
  -1285842578.6812203       -11216407.400295079        1349645356.9604867     
  -1235386340.1215038       -17261837.617263019        1351943555.8200712     
  -1185029329.3678920       -23638027.187916458        1357830564.4946699     
  -1665289105.7550826        942004.05036461353        1288374864.6196425     
  -1604995978.7091753       -4785537.0993518233        1283193243.0012298     
  -1544910566.7424076       -11205461.846205711        1281916289.8493495     
  -1485032869.8547797       -18317770.190188527        1284544005.1640074     
  -1425362888.0462928       -26122462.131312311        1291076388.9452014     
  -1944328558.4550457        1760907.2789143324        1219753332.6792688     
  -1873494545.2450800       -4039527.5238461494        1214142941.7276742     
  -1802976734.3873024       -10893970.167228937        1212753077.8941348     
  -1732775125.8817010       -18802420.651206017        1215583741.1786528     
  -1662889719.7282822       -27764878.975787222        1222634931.5812271     
  -2224171097.3188252        2338884.6583256721        1149950792.8652475     
  -2141893744.6547513       -3263707.8104852438        1143785064.0952582     
  -2060041081.6158996       -10281932.363366723        1142155721.0948410     
  -1978613108.2022655       -18715789.000310183        1145062763.8640046     
  -1897609824.4138596       -28565277.721345305        1152506192.4027443     
  -941889043.69307089       -20311574.145576179        1422897458.2296307     
  -878286564.68420660       -19003041.601832032        1415342092.5735319     
  -815030473.96587026       -18849136.693187863        1415122141.7417500     
  -752120771.53807390       -19849859.419675797        1422237605.7342923     
  -689557457.40081656       -22005209.781288266        1436688484.5511391     
  -1185029329.3678920       -23638027.187916458        1357830564.4946699     
  -1103278269.8815243       -21120205.455173910        1350417034.7461874     
  -1021773611.1493543       -19423719.569761395        1349349469.9586232     
  -940515353.17137587       -18548569.531657934        1354627870.1319747     
  -859503495.94760013       -18494755.340884328        1366252235.2662401     
  -1425362888.0462928       -26122462.131312311        1291076388.9452014     
  -1328290247.6921470       -23243451.092508972        1283921347.2300675     
  -1231364020.5558589       -20852484.113230646        1282122820.6124513     
  -1134584206.6374207       -18949561.193462789        1285680809.0923479     
  -1037950805.9368458       -17534682.333219051        1294595312.6697581     
  -1662889719.7282822       -27764878.975787222        1222634931.5812271     
  -1553322498.1160758       -25372778.513838351        1215855030.0251663     
  -1443801702.1853814       -23135430.323600531        1213442193.7032270     
  -1334327331.9362111       -21052834.405094802        1215396422.6153970     
  -1224899387.3685434       -19124990.758285999        1221717716.7616825     
  -1897609824.4138596       -28565277.721345305        1152506192.4027443     
  -1778375021.1533055       -27508187.719144702        1146218083.1314955     
  -1659086656.0379372       -26272558.200900435        1143307589.2309577     
  -1539744729.0677338       -24858389.166539848        1143774710.7011368     
  -1420349240.2427080       -23265680.616099775        1147619447.5420220     
  -3768250864.1595025       -1130475259.2478509        800558449.20934796     
  -3779109145.3362384       -1008716590.5601628        884844225.22303545     
  -3790574494.9418097       -888981483.30192494        974061110.59590089     
  -3802646912.9762163       -771269937.47313702        1068209105.3279443     
  -3815326399.4394574       -655581953.07379878        1167288209.4191656     
  -4339784334.5462885       -1301935300.3638864        858729977.54055035     
  -4335234871.3794212       -1125740404.9179082        942336116.68038619     
  -4331822782.2797365       -953336756.36253631        1020301051.3195949     
  -4329548067.2472324       -784724354.69776928        1092624781.4581761     
  -4328410726.2819118       -619903199.92360914        1159307307.0961308     
  -4895248914.8986149       -1468574674.4695842        936370044.46407413     
  -4905498318.4161587       -1247005535.5737200        1018677856.8186537     
  -4917415401.6392326       -1030995329.0296180        1084772150.8128006     
  -4931000164.5678349       -820544054.83727753        1134652926.4465160     
  -4946252607.2019653       -615651712.99669909        1168320183.7197986     
  -5434644605.2164812       -1630393381.5649445        1033478649.9799191     
  -5489899486.4464531       -1372511982.5275989        1113869445.6378379     
  -5547352353.0202990       -1121957201.3031709        1167474409.0755193     
  -5607003204.9380198       -878729037.89166105        1194293540.2929630     
  -5668852042.1996164       -642827492.29306936        1194326839.2901697     
  -5957971405.4998894       -1787391421.6499670        1150055794.0880854     
  -6088438375.4703016       -1502259745.7795441        1227910883.1379387     
  -6221633636.4229355       -1226222373.1831951        1268407826.1077495     
  -6357557188.3577890       -959279303.86091900        1271546622.9975178     
  -6496209031.2748699       -701430537.81271815        1237327273.8072436     
  -3815326399.4394574       -655581953.07379878        1167288209.4191656     
  -3797896834.7114487       -537622916.25692737        1188960536.1873689     
  -3784318440.8556013       -432501115.68059158        1205734648.2024906     
  -3774591217.8719134       -340216551.34478700        1217610545.4645317     
  -3768715165.7603865       -260769223.24952149        1224588227.9734905     
  -4328410726.2819118       -619903199.92360914        1159307307.0961308     
  -4298119849.0586023       -464162528.05321467        1141360532.7840497     
  -4278445362.8985476       -343809826.39366829        1129486451.6706214     
  -4269387267.8017488       -258845094.94497037        1123685063.7558467     
  -4270945563.7682033       -209268333.70712423        1123956369.0397246     
  -4946252607.2019653       -615651712.99669909        1168320183.7197986     
  -4871754966.1926832       -412725770.68557858        1102861551.4378226     
  -4814638936.4377556       -267738532.55562282        1054446520.3062339     
  -4774904517.9371738       -180689998.60683084        1023075090.3250338     
  -4752551710.6909409       -151580168.83920193        1008747261.4942201     
  -5668852042.1996164       -642827492.29306936        1194326839.2901697     
  -5518802186.1136980       -383312644.15402365        1073463592.1486890     
  -5392899161.4732199       -204287234.16645432        980614854.10932946     
  -5291142968.2781858       -105751262.33036613        915780625.17209315     
  -5213533606.5285978       -87704728.645756960        878960905.33697724     
  -6496209031.2748699       -701430537.81271815        1237327273.8072436     
  -6239261508.8216372       -375923148.45854473        1053166654.9166473     
  -6013226038.0049448       -153455931.22616506        907991453.07990706     
  -5818102618.8247900       -34028886.115579605        801801668.29702365     
  -5653891251.2811737       -17642013.126786947        734597300.56799746     
  -3768715165.7603865       -260769223.24952149        1224588227.9734905     
  -3661700507.6353188       -168437533.91592336        1192178324.0434887     
  -3562344933.9561582       -101636126.06867862        1170217611.0189259     
  -3470648444.7229013       -60364999.707783222        1158706088.8998020     
  -3386611039.9355521       -44624154.833245039        1157643757.6861193     
  -4270945563.7682033       -209268333.70712423        1123956369.0397246     
  -4148019829.5214090       -145125110.77264047        1090651960.9470491     
  -4029496658.5194950       -95657098.654424191        1065642681.9808275     
  -3915376050.7624598       -60864297.352475882        1048928532.1410601     
  -3805658006.2503052       -40746706.866792202        1040509511.4277475     
  -4752551710.6909409       -151580168.83920193        1008747261.4942201     
  -4619869362.5480900       -117471750.97153139        978347623.97340107     
  -4488333056.4490957       -87183473.250046968        954089053.80004990     
  -4357942792.3939562       -60715335.674744606        935971550.97416747     
  -4228698570.3826694       -38067338.245627165        923995115.49575400     
  -5213533606.5285978       -87704728.645756960        878960905.33697724     
  -5077249106.7153664       -85477454.512602329        855265313.12254405     
  -4938854127.7449627       -76215249.855550051        835556726.47659254     
  -4798348669.6173906       -59918114.674595833        819835145.39912450     
  -4655732732.3326502       -36586048.969746351        808100569.89013958     
  -5653891251.2811737       -17642013.126786947        734597300.56799746     
  -5520159062.0232325       -49142221.395851851        721405028.39447749     
  -5381059872.4070959       -62752428.470932245        710045700.01045632     
  -5236593682.4327650       -58472634.352030754        700519315.41593099     
  -5086760492.1002398       -36302839.039145947        692825874.61090446     
  -3386611039.9355521       -44624154.833245039        1157643757.6861193     
  -3294476728.2580261       -37764191.938069940        1150855111.5297844     
  -3202140444.6926737       -30230989.416802406        1147983791.2470801     
  -3109602189.2394981       -22024547.269456148        1149029796.8380032     
  -3016861961.8984914       -13144865.496012330        1153993128.3025551     
  -3805658006.2503052       -40746706.866792202        1040509511.4277475     
  -3701265525.4456339       -29785756.875757933        1032425951.9182578     
  -3597454418.5712929       -20762719.985823154        1028908045.7646701     
  -3494224685.6272783       -13677596.196981192        1029955792.9669820     
  -3391576326.6135960       -8530385.5092353821        1035569193.5251955     
  -4228698570.3826694       -38067338.245627165        923995115.49575400     
  -4110195556.2157927       -22449691.888215065        913702739.17859495     
  -3993057261.7973976       -11381111.359082699        908624343.69960868     
  -3877283687.1274886       -4861596.6582374573        908759929.05879343     
  -3762874832.2060618       -2891147.7856717110        914109495.25615239     
  -4655732732.3326502       -36586048.969746351        808100569.89013958     
  -4521266820.5685015       -15755996.975438118        794685473.31079638     
  -4388948974.3709888       -2086163.5365917683        787132685.05189645     
  -4258779193.7401233        4423451.3467783928        785442205.11344278     
  -4130757478.6758938        3772847.6746828556        789614033.49543071     
  -5086760492.1002398       -36302839.039145947        692825874.61090446     
  -4934479318.5037575       -9704672.1374192238        675374154.31486249     
  -4785129556.2920713        7122123.4816510677        664433069.82153213     
  -4638711205.4651823        14177547.818069220        660002621.13092101     
  -4495224266.0230885        11461600.871830225        662082808.24302614     
  -3016861961.8984914       -13144865.496012330        1153993128.3025551     
  -2922306252.5449991       -5014957.6978915930        1145363088.2534089     
  -2828805977.8787160       -403165.52380931377        1141752934.3541281     
  -2736361137.8996496        690511.02622187138        1143162666.6047156     
  -2644971732.6077995       -1733928.0477979183        1149592285.0051692     
  -3391576326.6135960       -8530385.5092353821        1035569193.5251955     
  -3285600911.5885139       -4147420.1654074192        1026984984.9854864     
  -3180206119.6533270       -1699865.1212301254        1023029958.3019695     
  -3075391950.8080349       -1187720.3766965866        1023704113.4746439     
  -2971158405.0526361       -2610985.9318108559        1029007450.5035062     
  -3762874832.2060618       -2891147.7856717110        914109495.25615239     
  -3646596009.4913263       -2590014.2907211781        906125065.08942389     
  -3530422998.2691684       -2641585.7710189819        902379112.48520732     
  -3414355798.5395794       -3045862.2265582085        902871637.44350719     
  -3298394410.3025656       -3802843.6573503017        907602639.96431947     
  -4130757478.6758938        3772847.6746828556        789614033.49543071     
  -4005291546.2534375       -342740.07382297516        782783328.56522012     
  -3879456613.7262344       -3228327.4731738567        779800396.90384412     
  -3753252681.0942850       -4883914.5233716965        780665238.51130807     
  -3626679748.3575926       -5309501.2244231701        785377853.38760889     
  -4495224266.0230885        11461600.871830225        662082808.24302614     
  -4361687521.8748446        2594402.4852874279        656959775.41287208     
  -4227306966.0245314       -3460090.2276983261        655293811.55787611     
  -4092082598.4721508       -6701877.2671277523        657084916.67804503     
  -3956014419.2177100       -7130958.6330163479        662333090.77337551     
  -2644971732.6077995       -1733928.0477979183        1149592285.0051692     
  -2539994140.5219097       -1457613.9924470186        1143182185.1858859     
  -2434868170.6117849       -686707.18964481354        1141105236.5561373     
  -2329593822.8774238        578792.36061143875        1143361439.1159241     
  -2224171097.3188252        2338884.6583256721        1149950792.8652475     
  -2971158405.0526361       -2610985.9318108559        1029007450.5035062     
  -2854359088.7761583       -1116797.8318872452        1022400677.5753505     
  -2737541090.6194258        439663.20221531391        1020273339.5939775     
  -2620704410.5824375        2058397.1705131531        1022625436.5593915     
  -2503849048.6651926        3739404.0729831457        1029456968.4715881     
  -3298394410.3025656       -3802843.6573503017        907602639.96431947     
  -3169355416.2433615       -965395.43521058559        900647881.99264705     
  -3040427436.2478819        1502005.9078408480        898318842.72500575     
  -2911610470.3161278        3599360.3718084097        900615522.16139853     
  -2782904518.4481039        5326667.9566793442        907537920.30182457     
  -3626679748.3575926       -5309501.2244231701        785377853.38760889     
  -3484983122.9235172       -1003406.8024194241        777923798.43777227     
  -3343527207.4971509        2500320.9272227287        775241745.94921851     
  -3202312002.0784926        5201681.9645047188        777331695.92194796     
  -3061337506.6675448        7100676.3094156981        784193648.35595715     
  -3956014419.2177100       -7130958.6330163479        662333090.77337551     
  -3801242208.8166280       -1230831.9335153103        654228426.91073287     
  -3646840404.3672400        3434608.2603516579        651042049.26661956     
  -3492809005.8695374        6865361.9485967159        652773957.84103632     
  -3339148013.3235283        9061429.1311891079        659424152.63398480     
  -2224171097.3188252        2338884.6583256721        1149950792.8652475     
  -2141893744.6547513       -3263707.8104852438        1143785064.0952582     
  -2060041081.6158996       -10281932.363366723        1142155721.0948410     
  -1978613108.2022655       -18715789.000310183        1145062763.8640046     
  -1897609824.4138596       -28565277.721345305        1152506192.4027443     
  -2503849048.6651926        3739404.0729831457        1029456968.4715881     
  -2410462168.9007854       -1979022.1561063528        1022862315.5405377     
  -2317330600.7874379       -8548487.2220708132        1020303797.7848485     
  -2224454344.3251457       -15968991.124874711        1021781415.2045225     
  -2131833399.5139089       -24240533.864544749        1027295167.7995536     
  -2782904518.4481039        5326667.9566793442        907537920.30182457     
  -2679837398.9954071       -936378.25631630421        900711950.84623921     
  -2576856213.2196050       -7485870.0589597225        897421865.97180343     
  -2473960961.1206937       -14321807.451242685        897667665.67850912     
  -2371151642.6986780       -21444190.433170080        901449349.96636391     
  -3061337506.6675448        7100676.3094156981        784193648.35595715     
  -2950019434.9386082       -135776.11110055447        777333970.01236343     
  -2838617918.9123955       -7094080.8740308285        773509925.65570128     
  -2727132958.5889173       -13774237.979411721        772721515.28596902     
  -2615564553.9681644       -20176247.427205682        774968738.90316820     
  -3339148013.3235283        9061429.1311891079        659424152.63398480     
  -3221008276.7303891        422784.27955305576        652728373.03890896     
  -3102615717.8658166       -7373119.6673028469        648567976.83654678     
  -2983970336.7298117       -14326282.709380150        646942964.02690208     
  -2865072133.3223653       -20436704.846662164        647853334.60996699     
  -1897609824.4138596       -28565277.721345305        1152506192.4027443     
  -1778375021.1533055       -27508187.719144702        1146218083.1314955     
  -1659086656.0379372       -26272558.200900435        1143307589.2309577     
  -1539744729.0677338       -24858389.166539848        1143774710.7011368     
  -1420349240.2427080       -23265680.616099775        1147619447.5420220     
  -2131833399.5139089       -24240533.864544749        1027295167.7995536     
  -2002732761.9125853       -22166428.898483753        1019473589.2782894     
  -1873771269.8896341       -20556142.526994944        1015628802.9644753     
  -1744948923.4450459       -19409674.750052094        1015760808.8581141     
  -1616265722.5788324       -18727025.567688704        1019869606.9591997     
  -2371151642.6986780       -21444190.433170080        901449349.96636391     
  -2230473236.9373269       -17839490.357451558        891869476.85635567     
  -2090126684.1875455       -15340966.986953855        886865572.79053950     
  -1950111984.4493191       -13948620.321659327        886437637.76890564     
  -1810429137.7226684       -13662450.361584425        890585671.79146361     
  -2615564553.9681644       -20176247.427205682        774968738.90316820     
  -2461596446.2275372       -14527372.096054792        763405745.86568797     
  -2308152898.9316764       -10627031.580781817        757017898.70913684     
  -2155233912.0805640       -8475225.8813548088        755805197.43351388     
  -2002839485.6742215       -8071954.9978053570        759767642.03880787     
  -2865072133.3223653       -20436704.846662164        647853334.60996699     
  -2696102389.7832165       -12230074.114312172        634082396.30629373     
  -2527849914.1220193       -6414336.3084716797        626085780.72028518     
  -2360314706.3387737       -2989491.4291410446        623863487.85193253     
  -2193496766.4334826       -1955539.4763251543        627415517.70124984     
  -5957971405.4998894       -1787391421.6499670        1150055794.0880854     
  -6088438375.4703016       -1502259745.7795441        1227910883.1379387     
  -6221633636.4229355       -1226222373.1831951        1268407826.1077495     
  -6357557188.3577890       -959279303.86091900        1271546622.9975178     
  -6496209031.2748699       -701430537.81271815        1237327273.8072436     
  -6810604278.9415207       -2043181283.6824563        1353784639.3739245     
  -6828540557.3719826       -1395486501.7327042        1202751510.4618592     
  -6897842542.4988537       -919010742.10431957        1091970188.9499533     
  -7018510234.3221378       -613754004.79730415        1021440674.8382062     
  -7190543632.8418293       -479716289.81165624        991162968.12661767     
  -8337918188.7340565       -2501375456.6202168        1712348348.4227879     
  -8021581051.3954210       -1424594751.3223908        1275683349.8822517     
  -7805247036.4673834       -681157787.39322734        956880112.22207594     
  -7688916143.9499474       -271064564.83272743        755938635.44225955     
  -7672588373.8431072       -194315083.64088917        672858919.54280388     
  -10539913134.877497       -3161973940.4632492        2225746921.2346759     
  -9667559857.5406189       -1589584494.5486059        1446706401.3991153     
  -8943847118.3285236       -512663509.04991961        863137595.92411625     
  -8368774917.2412224        68789016.032810688        475040504.80967897     
  -7942343254.2787037        154773080.69958210        282415128.05580181     
  -13416589117.371841       -4024976735.2115521        2893980357.8095884     
  -11766476975.807571       -1890455731.4113464        1715820665.0124500     
  -10313642788.082277       -413527907.07439327        810742640.05607522     
  -9058086554.1959610        405806737.79930782        178746282.94046244     
  -7999808274.1486168        567548203.20975828       -180168406.33438712     
  -6496209031.2748699       -701430537.81271815        1237327273.8072436     
  -6239261508.8216372       -375923148.45854473        1053166654.9166473     
  -6013226038.0049448       -153455931.22616506        907991453.07990706     
  -5818102618.8247900       -34028886.115579605        801801668.29702365     
  -5653891251.2811737       -17642013.126786947        734597300.56799746     
  -7190543632.8418293       -479716289.81165624        991162968.12661767     
  -6900568593.4314976       -304417283.93201637        846845371.20909667     
  -6623408885.0071840       -171836048.00576019        723611612.62191975     
  -6359064507.5688829       -81972582.032892942        621461692.36508560     
  -6107535461.1165991       -34826886.013409376        540395610.43859661     
  -7672588373.8431072       -194315083.64088917        672858919.54280388     
  -7400733185.2571411       -184568671.57022047        589497185.35730112     
  -7123596607.0066681       -157217627.28453064        509317710.77862990     
  -6841178639.0916891       -112261950.78381944        432320495.80678892     
  -6553479281.5122032       -49701642.068088770        358505540.44177896     
  -7942343254.2787037        154773080.69958210        282415128.05580181     
  -7739755284.2985668       -16377311.373162270        281122097.36126137     
  -7513789204.0034018       -109600669.06247425        265109747.55003688     
  -7264445013.3932095       -124896992.36836052        234378078.62213230     
  -6991722712.4679899       -62266281.290822983        188927090.57754332     
  -7999808274.1486168        567548203.20975828       -180168406.33438712     
  -7917634890.5557775        200156796.65916252       -78279892.779026672     
  -7793986675.9973869       -28985173.339593410       -9012277.0638581570     
  -7628863630.4734478       -119877706.78651857        27634440.811113279     
  -7422265753.9839544       -72520803.681608200        31660260.845890850     
  -5653891251.2811737       -17642013.126786947        734597300.56799746     
  -5520159062.0232325       -49142221.395851851        721405028.39447749     
  -5381059872.4070959       -62752428.470932245        710045700.01045632     
  -5236593682.4327650       -58472634.352030754        700519315.41593099     
  -5086760492.1002398       -36302839.039145947        692825874.61090446     
  -6107535461.1165991       -34826886.013409376        540395610.43859661     
  -5959281274.7000360       -36594047.861415148        533930230.49012804     
  -5810033998.9612665       -35050911.968719244        529941201.54623795     
  -5659793633.9002800       -30197478.335309505        528428523.60693210     
  -5508560179.5170822       -22033746.961198807        529392196.67220736     
  -6553479281.5122032       -49701642.068088770        358505540.44177896     
  -6388864791.6082106       -21184265.596389771        353664156.50970942     
  -6227631123.4179869       -3936294.8372635841        351942530.79730886     
  -6069778276.9415359        2042270.2092893124        353340663.30457181     
  -5915306252.1788607       -3248570.4567315578        357858554.03150111     
  -6991722712.4679899       -62266281.290822983        188927090.57754332     
  -6808909612.7477512       -2912874.6007728577        180606806.45322952     
  -6633851245.7772684        30591422.923420429        176049687.76366872     
  -6466547611.5565424        38246611.281764984        175255734.50885168     
  -6306998710.0855722        20052690.474251747        178224946.68879104     
  -7422265753.9839544       -72520803.681608200        31660260.845890850     
  -7219415738.1186619        18220125.125430584        14758180.320683891     
  -7028694366.0391083        68532241.313331127        2262672.4453141121     
  -6850101637.7452908        78415544.882113457       -5826262.7802234907     
  -6683637553.2372141        47870035.831762791       -9508625.3559251148     
  -5086760492.1002398       -36302839.039145947        692825874.61090446     
  -4934479318.5037575       -9704672.1374192238        675374154.31486249     
  -4785129556.2920713        7122123.4816510677        664433069.82153213     
  -4638711205.4651823        14177547.818069220        660002621.13092101     
  -4495224266.0230885        11461600.871830225        662082808.24302614     
  -5508560179.5170822       -22033746.961198807        529392196.67220736     
  -5345420910.9991455       -10243429.122460604        514315195.14500165     
  -5183238572.0951529       -1642876.6635403633        504497134.46150506     
  -5022013162.8051023        3767910.4155704975        499938014.62171626     
  -4861744683.1289968        5988932.1148698330        500637835.62563825     
  -5915306252.1788607       -3248570.4567315578        357858554.03150111     
  -5744885160.0509119       -7338983.0744130611        347459833.33912873     
  -5573446515.7660599       -8037555.1690702438        341068358.53145766     
  -5400990319.3242970       -5344286.7407004833        338684129.60848659     
  -5227516570.7256308        740822.21068596840        340307146.57021910     
  -6306998710.0855722        20052690.474251747        178224946.68879104     
  -6132872065.6590672       -991333.99329137802        174808068.89724344     
  -5955753387.3047981       -12061912.034956455        174146742.03139099     
  -5775642675.0227747       -13159043.650767326        176240966.09123603     
  -5592539928.8129864       -4282728.8407051563        181090741.07677302     
  -6683637553.2372141        47870035.831762791       -9508625.3559251148     
  -6509381627.8235931        8799518.1209354401       -3640098.1806538315     
  -6330159186.7113657       -13715947.261188507        3732284.9613081701     
  -6145970229.9005251       -19676360.314607382        12608524.069952643     
  -5956814757.3910723       -9081721.0393216610        22988619.145294718     
  -4495224266.0230885        11461600.871830225        662082808.24302614     
  -4361687521.8748446        2594402.4852874279        656959775.41287208     
  -4227306966.0245314       -3460090.2276983261        655293811.55787611     
  -4092082598.4721508       -6701877.2671277523        657084916.67804503     
  -3956014419.2177100       -7130958.6330163479        662333090.77337551     
  -4861744683.1289968        5988932.1148698330        500637835.62563825     
  -4717614534.4446411        2128648.0838882923        496389968.42778409     
  -4573344910.9371700       -1266719.8700394630        495678363.20049292     
  -4428935812.6065798       -4197171.7469084263        498503019.94376904     
  -4284387239.4528732       -6662707.5467131138        504863938.65760148     
  -5227516570.7256308        740822.21068596840        340307146.57021910     
  -5072566751.8040257        1955332.2456002235        336112718.64589751     
  -4918181794.9382496        1286968.7610816956        335533745.68754041     
  -4764361700.1283026       -1264268.2428731918        338570227.69514596     
  -4611106467.3741817       -5698378.7662501335        345222164.66870993     
  -5592539928.8129864       -4282728.8407051563        181090741.07677302     
  -5426544173.9529877        2074454.9704451561        176128026.06721410     
  -5261817618.0277634        4200975.6656649113        174859959.01901191     
  -5098360261.0373125        2096833.2449872494        177286539.93217418     
  -4936172102.9816437       -4237972.2916381359        183407768.80670565     
  -5956814757.3910723       -9081721.0393216610        22988619.145294718     
  -5779546800.8915319        2486016.2584168911        16435890.691718571     
  -5604252380.2057133        7475300.8437328339        13657003.194909440     
  -5430931495.3336172        5886132.7166445255        14651956.654864199     
  -5259584146.2752476       -2281488.1228554249        19420751.071581330     
  -3956014419.2177100       -7130958.6330163479        662333090.77337551     
  -3801242208.8166280       -1230831.9335153103        654228426.91073287     
  -3646840404.3672400        3434608.2603516579        651042049.26661956     
  -3492809005.8695374        6865361.9485967159        652773957.84103632     
  -3339148013.3235283        9061429.1311891079        659424152.63398480     
  -4284387239.4528732       -6662707.5467131138        504863938.65760148     
  -4117479645.1840305       -2236918.0484960079        497030509.27723622     
  -3950590458.2898645        2127513.5341441631        493953936.00768757     
  -3783719678.7703576        6430587.2012393475        495634218.84894788     
  -3616867306.6255231        10672302.952765465        502071357.80102158     
  -4611106467.3741817       -5698378.7662501335        345222164.66870993     
  -4432524718.1167822       -2885295.1330931187        338070634.77715075     
  -4253609377.6570196        1039759.1745808125        335514530.88868684     
  -4074360445.9949069        6076784.1567635536        337553853.00331730     
  -3894777923.1304436        12225779.813457251        344188601.12104523     
  -4936172102.9816437       -4237972.2916381359        183407768.80670565     
  -4746377427.6148653       -3175963.1872797012        177348803.41047382     
  -4555897162.4687176        171345.18164277077        175723833.90962484     
  -4364731307.5431900        5803952.8151671886        178532860.30414474     
  -4172879862.8382883        13721859.713275433        185775882.59405252     
  -5259584146.2752476       -2281488.1228554249        19420751.071581330     
  -5059037773.6782904       -3108922.2110679150        14865015.177205877     
  -4857453812.7249441       -477728.44463872910        14581845.070493225     
  -4654832263.4151917        5612093.1764678955        18571240.751440577     
  -4451173125.7490501        15160542.652211189        26833202.220040325     
  -3339148013.3235283        9061429.1311891079        659424152.63398480     
  -3221008276.7303891        422784.27955305576        652728373.03890896     
  -3102615717.8658166       -7373119.6673028469        648567976.83654678     
  -2983970336.7298117       -14326282.709380150        646942964.02690208     
  -2865072133.3223653       -20436704.846662164        647853334.60996699     
  -3616867306.6255231        10672302.952765465        502071357.80102158     
  -3491140628.4567389        2532028.9822800159        495774967.74812514     
  -3365424739.5259247       -5644209.1147925854        492664294.54197544     
  -3239719639.8331017       -13856411.338489890        492739338.18257886     
  -3114025329.3782597       -22104577.688797355        496000098.66993064     
  -3894777923.1304436        12225779.813457251        344188601.12104523     
  -3759606207.8030353        5141305.3990402222        337984053.84933478     
  -3624708893.2230282       -2857838.1733818054        335615556.87841195     
  -3490085979.3904238       -11771650.903812647        337083110.20827514     
  -3355737466.3052254       -21600132.792263985        342386713.83892244     
  -4172879862.8382883        13721859.713275433        185775882.59405252     
  -4026405014.7693024        8250613.5297989845        179355631.34253776     
  -3880468178.9571419        985993.15690660477        177421763.84584829     
  -3735069355.4017959       -8072001.4053690434        179974280.10398898     
  -3590208544.1032758       -18923370.157060623        187013180.11694425     
  -4451173125.7490501        15160542.652211189        26833202.220040325     
  -4291537049.3555245        11859953.374567509        19889700.227737188     
  -4132702596.7282419        5887284.8761253357        18082915.444296468     
  -3974669767.8671947       -2757462.8431062698        21412847.869716562     
  -3817438562.7723947       -14074289.783164740        29879497.503986903     
  -2865072133.3223653       -20436704.846662164        647853334.60996699     
  -2696102389.7832165       -12230074.114312172        634082396.30629373     
  -2527849914.1220193       -6414336.3084716797        626085780.72028518     
  -2360314706.3387737       -2989491.4291410446        623863487.85193253     
  -2193496766.4334826       -1955539.4763251543        627415517.70124984     
  -3114025329.3782597       -22104577.688797355        496000098.66993064     
  -2931299186.3569794       -13514681.800376058        483719377.49762118     
  -2748741256.8655434       -5485497.6781107187        476157733.55788720     
  -2566351540.9039578        1982974.6780151129        473315166.85072428     
  -2384130038.4722090        8890735.2679803371        475191677.37613940     
  -3355737466.3052254       -21600132.792263985        342386713.83892244     
  -3162269910.9020700       -13531467.877834797        332236773.20410347     
  -2968421514.6806641       -4193333.5692361593        325750664.31676745     
  -2774192277.6409831        6414270.1336134672        322928387.17691928     
  -2579582199.7830429        18291343.230660081        323769941.78454763     
  -3590208544.1032758       -18923370.157060623        187013180.11694425     
  -3389014563.4185057       -12280432.346718788        179634583.42573684     
  -3186890687.5673652       -2537843.9818085432        174864572.99692783     
  -2983836916.5498576        10304394.937659860        172703148.83051258     
  -2779853250.3659711        26246284.411708355        173150310.92648947     
  -3817438562.7723947       -14074289.783164740        29879497.503986903     
  -3611533143.9062605       -9761575.2069656849        25912808.162524238     
  -3404148775.5256662       -519028.91590929031        23499459.598367814     
  -3195285457.6305690        13653349.090161324        22639451.811523709     
  -2984943190.2210035        32755558.811125398        23332784.801963426     
 </DataArray>
 <DataArray  type="Float64" Name="VM" NumberOfComponents="1" format="ascii">
   12935579196.006989     
   11340719603.378315     
   10210248021.501068     
   9272825588.2266941     
   8304017230.4496641     
   10130289507.071035     
   9322015203.3517876     
   8826384346.4453659     
   8443565347.7075729     
   8035751795.7963161     
   7982349627.7834949     
   7734974759.8008919     
   7669166257.0664692     
   7669618270.8764477     
   7666399965.5846596     
   6491673109.3675117     
   6586884402.6664085     
   6757426860.3157101     
   6961218591.6617308     
   7171599307.6882114     
   5657813126.2115221     
   5890903642.1112270     
   6116356373.8508797     
   6331711427.0840816     
   6536744872.6976891     
   8304017230.4496641     
   8020732925.7666283     
   7779550247.6566143     
   7569788059.6288452     
   7386475927.6377726     
   8035751795.7963161     
   7746896965.6853676     
   7473712178.0758905     
   7214239567.0047522     
   6968485871.5720816     
   7666399965.5846596     
   7381158078.2940712     
   7101310064.8954611     
   6826933930.5401897     
   6558233064.8754883     
   7171599307.6882114     
   6910955483.5392084     
   6658211004.2150612     
   6409508240.4559593     
   6161702534.8029976     
   6536744872.6976891     
   6328641210.2476377     
   6142720597.8014517     
   5965077555.4998188     
   5786704682.3485088     
   7386475927.6377726     
   7228588219.2770271     
   7063210934.0151834     
   6889651495.9346056     
   6707720901.8054218     
   6968485871.5720816     
   6814637301.8787279     
   6656187919.0787649     
   6492855155.2619553     
   6324586905.7539854     
   6558233064.8754883     
   6407646502.2241507     
   6255436175.6118870     
   6101570085.0756922     
   5946076904.6298542     
   6161702534.8029976     
   6012615294.9209433     
   5864860584.6122818     
   5718476587.7227898     
   5573519068.7830296     
   5786704682.3485088     
   5636006901.5645399     
   5489495726.5184069     
   5347084902.0845451     
   5208820349.2044868     
   6707720901.8054218     
   6513788896.0228424     
   6323315674.3129530     
   6136194572.0024681     
   5952412269.8485403     
   6324586905.7539854     
   6139846465.1505041     
   5957372524.0608101     
   5777144811.2778425     
   5599192034.0795679     
   5946076904.6298542     
   5772675528.3641653     
   5600674661.0255384     
   5430099572.6958418     
   5261010318.2794886     
   5573519068.7830296     
   5414095913.7739592     
   5255568613.3049593     
   5097976751.2567968     
   4941419696.6506691     
   5208820349.2044868     
   5066525788.6032209     
   4925039065.0192366     
   4784393230.1696272     
   4644755749.4869986     
   5952412269.8485403     
   5780860304.9136438     
   5608043654.6476231     
   5433936213.6083107     
   5258551360.5276270     
   5599192034.0795679     
   5436148116.1676350     
   5272625065.0118141     
   5108645976.1550093     
   4944270305.8500204     
   5261010318.2794886     
   5106835723.5602713     
   4953038668.7645388     
   4799688528.8473253     
   4646890844.6818552     
   4941419696.6506691     
   4796367643.4383945     
   4652610369.6869497     
   4510256847.1815023     
   4369454837.8873959     
   4644755749.4869986     
   4508927719.8590508     
   4375355897.8873634     
   4244177427.5858736     
   4115573608.9885840     
   5258551360.5276270     
   5057549565.7089481     
   4857280629.7805462     
   4657751917.0982141     
   4459014947.3283539     
   4944270305.8500204     
   4754723151.2529297     
   4566137997.4679537     
   4378569139.9834385     
   4192125039.4887328     
   4646890844.6818552     
   4469605108.0114717     
   4293637915.4555073     
   4119106309.7114077     
   3946195460.9833159     
   4369454837.8873959     
   4205419259.6608691     
   4043209851.4390984     
   3883022963.5699677     
   3725140300.6672635     
   4115573608.9885840     
   3965956336.0217648     
   3818841375.3039174     
   3674518036.8007460     
   3533379353.5684013     
   4459014947.3283539     
   4297617379.0305080     
   4135767980.6312742     
   3973464847.9372725     
   3810772348.0072436     
   4192125039.4887328     
   4042490699.4300971     
   3893108760.6851654     
   3744039394.4256787     
   3595405182.7791295     
   3946195460.9833159     
   3807452457.4341111     
   3669615416.0169287     
   3532793471.1656985     
   3397152059.8402238     
   3725140300.6672635     
   3596427035.6856027     
   3469189342.4321942     
   3343570041.3935127     
   3219760308.1153860     
   3533379353.5684013     
   3413856950.0775056     
   3296259085.6943598     
   3180745290.9956388     
   3067514496.1716499     
   3810772348.0072436     
   3606941518.0908318     
   3404132633.8877945     
   3202374051.6384087     
   3001727091.5579028     
   3595405182.7791295     
   3397169072.8507171     
   3199988082.0748606     
   3003933204.8416057     
   2809123863.4117694     
   3397152059.8402238     
   3207567264.5479083     
   3019509360.5643897     
   2833165471.2556267     
   2648819331.7513251     
   3219760308.1153860     
   3042208950.5274320     
   2867177869.6497459     
   2695057497.8953118     
   2526415078.3695650     
   3067514496.1716499     
   2905568033.2199178     
   2747690315.3020449     
   2594543363.8188643     
   2447058053.7879496     
   5657813126.2115221     
   5890903642.1112270     
   6116356373.8508797     
   6331711427.0840816     
   6536744872.6976891     
   5151424106.8073835     
   5311303805.2231293     
   5467815254.4851017     
   5618062327.1566420     
   5760578661.5633030     
   4643436390.4572706     
   4755509092.3988876     
   4868704668.4262600     
   4980387945.7314320     
   5088633328.3640451     
   4134113774.2629395     
   4224357449.3807983     
   4320520386.9038267     
   4420946019.2801361     
   4524179928.9684210     
   3624976690.4303160     
   3719673763.7387486     
   3825621215.3997812     
   3942756103.5957065     
   4070986292.0861187     
   6536744872.6976891     
   6328641210.2476377     
   6142720597.8014517     
   5965077555.4998188     
   5786704682.3485088     
   5760578661.5633030     
   5652048455.6776934     
   5559515326.2301931     
   5473919496.3756170     
   5389720777.1139727     
   5088633328.3640451     
   5053963889.3063402     
   5029805169.1049271     
   5010951253.1905136     
   4994201120.5626717     
   4524179928.9684210     
   4538982982.0903082     
   4558458872.9269762     
   4580126945.9050074     
   4602263501.9513741     
   4070986292.0861187     
   4112432840.1887808     
   4151239508.2361364     
   4186506189.9291472     
   4217499098.5680170     
   5786704682.3485088     
   5636006901.5645399     
   5489495726.5184069     
   5347084902.0845451     
   5208820349.2044868     
   5389720777.1139727     
   5248448420.7264204     
   5110395091.1560698     
   4975602589.3114367     
   4844164586.5144844     
   4994201120.5626717     
   4866803942.6506481     
   4742603070.7315874     
   4621567483.7661095     
   4503739151.2952204     
   4602263501.9513741     
   4493741544.2548351     
   4389456301.1008482     
   4289093221.8944983     
   4192565473.9810443     
   4217499098.5680170     
   4133221682.4344625     
   4055464974.9972105     
   3983382767.1076527     
   3916684593.5020313     
   5208820349.2044868     
   5066525788.6032209     
   4925039065.0192366     
   4784393230.1696272     
   4644755749.4869986     
   4844164586.5144844     
   4718626903.2888794     
   4594829156.6004610     
   4472898016.2522936     
   4353071015.6466160     
   4503739151.2952204     
   4393915902.9284115     
   4286721939.9547219     
   4182348199.5920854     
   4081071531.2278919     
   4192565473.9810443     
   4097281870.3168015     
   4005417799.1411519     
   3917196375.3222384     
   3832902549.9630184     
   3916684593.5020313     
   3834578498.2441435     
   3756516181.4618664     
   3682720692.3785238     
   3613457217.2589035     
   4644755749.4869986     
   4508927719.8590508     
   4375355897.8873634     
   4244177427.5858736     
   4115573608.9885840     
   4353071015.6466160     
   4228384671.8918457     
   4106328757.1435919     
   3987093379.9841685     
   3870921524.2238984     
   4081071531.2278919     
   3968804899.5328264     
   3859719134.6921182     
   3754060031.6899357     
   3652136980.8946514     
   3832902549.9630184     
   3734388606.3059835     
   3639791040.6371226     
   3549407653.8760762     
   3463610895.2478428     
   3613457217.2589035     
   3529987755.4778657     
   3451347886.8930387     
   3377872835.0280967     
   3309981804.9210267     
   4115573608.9885840     
   3965956336.0217648     
   3818841375.3039174     
   3674518036.8007460     
   3533379353.5684013     
   3870921524.2238984     
   3735921282.3416872     
   3604239118.7017951     
   3476236516.9392805     
   3352380400.6335664     
   3652136980.8946514     
   3532032676.6220689     
   3416094000.7443094     
   3304738019.7012510     
   3198481635.3370819     
   3463610895.2478428     
   3358584337.3410044     
   3258559202.4992023     
   3163981454.9183583     
   3075383211.2472386     
   3309981804.9210267     
   3220010334.5663815     
   3135805306.8850975     
   3057806764.4567127     
   2986520567.4731894     
   3533379353.5684013     
   3413856950.0775056     
   3296259085.6943598     
   3180745290.9956388     
   3067514496.1716499     
   3352380400.6335664     
   3242677666.0594745     
   3135700471.4191580     
   3031695127.6225190     
   2930962705.3215027     
   3198481635.3370819     
   3100462235.9699354     
   3006168988.8062067     
   2915935197.3306284     
   2830159948.3490715     
   3075383211.2472386     
   2990702823.3388505     
   2910900898.4335756     
   2836378259.5504332     
   2767603757.0568867     
   2986520567.4731894     
   2916412482.9120131     
   2852411760.1263242     
   2794948122.9597511     
   2744511767.8115501     
   3067514496.1716499     
   2905568033.2199178     
   2747690315.3020449     
   2594543363.8188643     
   2447058053.7879496     
   2930962705.3215027     
   2787879585.1914811     
   2649977777.9977889     
   2518047545.7310200     
   2393116157.5360656     
   2830159948.3490715     
   2705888411.6801295     
   2587738775.8337049     
   2476538916.1551971     
   2373296008.6525073     
   2767603757.0568867     
   2661769267.7028642     
   2562699634.6730733     
   2471166658.7757568     
   2388053555.8925090     
   2744511767.8115501     
   2656294831.1313658     
   2575097486.6219397     
   2501563105.1923599     
   2436386475.8190742     
   3624976690.4303160     
   3719673763.7387486     
   3825621215.3997812     
   3942756103.5957065     
   4070986292.0861187     
   3137980219.6391592     
   3255509207.3264251     
   3382454234.8592987     
   3518346881.4578638     
   3662729936.2677031     
   2694768810.5817800     
   2830524606.4100418     
   2973591616.5210619     
   3122888075.1249700     
   3277503401.9609370     
   2298831861.5043087     
   2449512509.9476037     
   2604915297.7812610     
   2763117929.2248616     
   2922690726.5725341     
   1955379081.2929807     
   2119427659.9273551     
   2284834448.3140812     
   2448639180.8397894     
   2608883401.8639588     
   4070986292.0861187     
   4112432840.1887808     
   4151239508.2361364     
   4186506189.9291472     
   4217499098.5680170     
   3662729936.2677031     
   3702154424.1641145     
   3740203907.4127026     
   3775978370.4784474     
   3808727507.7116442     
   3277503401.9609370     
   3320756488.5367303     
   3364252156.3905635     
   3407166889.2335944     
   3448822192.4679704     
   2922690726.5725341     
   2975624522.1516585     
   3030774139.5595760     
   3087457358.8516359     
   3145141136.5170069     
   2608883401.8639588     
   2676812058.1687069     
   2749231686.7767644     
   2825634337.0710154     
   2905667189.5767145     
   4217499098.5680170     
   4133221682.4344625     
   4055464974.9972105     
   3983382767.1076527     
   3916684593.5020313     
   3808727507.7116442     
   3755909077.7771592     
   3709094548.4025273     
   3667812387.0000739     
   3631969338.3566518     
   3448822192.4679704     
   3422844348.6855836     
   3401971262.0958095     
   3385974423.9166498     
   3374839073.3892188     
   3145141136.5170069     
   3141661108.0529304     
   3141791821.1843915     
   3145432850.7620149     
   3152570402.3229723     
   2905667189.5767145     
   2920688062.4478960     
   2937047335.8380175     
   2954690129.1511312     
   2973577358.4428596     
   3916684593.5020313     
   3834578498.2441435     
   3756516181.4618664     
   3682720692.3785238     
   3613457217.2589035     
   3631969338.3566518     
   3561571091.8589759     
   3495783502.2205186     
   3434839902.2623162     
   3379018227.4855642     
   3374839073.3892188     
   3316919941.7819586     
   3264326102.1559539     
   3217284011.5003815     
   3176068061.9531040     
   3152570402.3229723     
   3107659759.6573243     
   3068922981.5616388     
   3036553643.8030343     
   3010797764.0816703     
   2973577358.4428596     
   2941724079.6787376     
   2916996470.1386452     
   2899522625.2728457     
   2889490220.7994270     
   3613457217.2589035     
   3529987755.4778657     
   3451347886.8930387     
   3377872835.0280967     
   3309981804.9210267     
   3379018227.4855642     
   3310086899.7037950     
   3246571690.8968701     
   3188791659.1701016     
   3137130113.1709752     
   3176068061.9531040     
   3120780731.6223927     
   3071402290.9240084     
   3028212054.6386533     
   2991533019.4794002     
   3010797764.0816703     
   2967900067.9932561     
   2931266223.5799813     
   2901116432.8416333     
   2877696027.5696278     
   2889490220.7994270     
   2857270208.8753886     
   2831493629.6552129     
   2812311794.8731804     
   2799887275.0737495     
   3309981804.9210267     
   3220010334.5663815     
   3135805306.8850975     
   3057806764.4567127     
   2986520567.4731894     
   3137130113.1709752     
   3060434236.1417842     
   2990347346.4351230     
   2927305385.9152827     
   2871799959.2413797     
   2991533019.4794002     
   2928223776.4488678     
   2872372743.3729630     
   2824380133.3935785     
   2784687914.1581621     
   2877696027.5696278     
   2827358713.4421382     
   2785295849.0384607     
   2751840638.9896083     
   2727353660.9229140     
   2799887275.0737495     
   2761428670.6357312     
   2731998879.1910305     
   2711841746.1787887     
   2701217203.0745068     
   2986520567.4731894     
   2916412482.9120131     
   2852411760.1263242     
   2794948122.9597511     
   2744511767.8115501     
   2871799959.2413797     
   2815112670.3662181     
   2764690270.9913201     
   2720884837.4850025     
   2684084891.9082737     
   2784687914.1581621     
   2740092867.6619949     
   2701757004.0710635     
   2669946737.1244259     
   2644946593.9050384     
   2727353660.9229140     
   2693273373.2569742     
   2665280881.9563842     
   2643559433.0273376     
   2628298506.0028896     
   2701217203.0745068     
   2675862244.4469595     
   2656272081.7935109     
   2642558542.0242801     
   2634833544.6723132     
   2744511767.8115501     
   2656294831.1313658     
   2575097486.6219397     
   2501563105.1923599     
   2436386475.8190742     
   2684084891.9082737     
   2609397022.4245248     
   2543427118.9708648     
   2486834670.8154602     
   2440307487.7019291     
   2644946593.9050384     
   2584450284.4613781     
   2534271486.6451683     
   2495008211.4347963     
   2467261698.4730415     
   2628298506.0028896     
   2581713780.9268279     
   2546916554.0509858     
   2524384672.8687315     
   2514582974.7640982     
   2634833544.6723132     
   2600891771.6427960     
   2580112280.0029235     
   2572825220.2044239     
   2579345126.6191902     
   1955379081.2929807     
   2119427659.9273551     
   2284834448.3140812     
   2448639180.8397894     
   2608883401.8639588     
   1653907184.0589430     
   1820357798.4898121     
   1988506709.1297526     
   2155657446.5906115     
   2320051881.2059822     
   1393754658.6360154     
   1571137696.7490509     
   1749525543.8315537     
   1926914476.0547533     
   2102054129.5768592     
   1207231628.4647393     
   1399184874.2324576     
   1590713405.5237510     
   1781040448.8821902     
   1969707461.8610632     
   1137009087.1250658     
   1335340167.6738479     
   1533975115.8805962     
   1732913931.7453094     
   1932156615.2679892     
   2608883401.8639588     
   2676812058.1687069     
   2749231686.7767644     
   2825634337.0710154     
   2905667189.5767145     
   2320051881.2059822     
   2407078705.2991104     
   2496538135.2318993     
   2588041387.6213350     
   2681313399.3554168     
   2102054129.5768592     
   2205784514.5687766     
   2309425647.8987699     
   2412741911.1707821     
   2515566805.7263060     
   1969707461.8610632     
   2086852684.0465400     
   2201157826.7721810     
   2312548038.7674699     
   2420971270.5748558     
   1932156615.2679892     
   2058825022.5693450     
   2180093998.6448636     
   2295963543.4945464     
   2406433657.1183920     
   2905667189.5767145     
   2920688062.4478960     
   2937047335.8380175     
   2954690129.1511312     
   2973577358.4428596     
   2681313399.3554168     
   2703219509.8701119     
   2727500759.1021566     
   2754140323.8066292     
   2783130921.0343232     
   2515566805.7263060     
   2544237340.2353258     
   2576343773.9937906     
   2611888198.6826425     
   2650876811.0857940     
   2420971270.5748558     
   2454809734.5902457     
   2493142498.5186839     
   2535973106.5280790     
   2583305962.3685265     
   2406433657.1183920     
   2442282787.5001416     
   2483673080.3699746     
   2530604535.7278900     
   2583077153.5738873     
   2973577358.4428596     
   2941724079.6787376     
   2916996470.1386452     
   2899522625.2728457     
   2889490220.7994270     
   2783130921.0343232     
   2765843986.9763689     
   2755661227.7629209     
   2752668248.3051624     
   2756982500.4430866     
   2650876811.0857940     
   2645471334.8046937     
   2646893079.0554409     
   2655182534.6510839     
   2670393089.9875860     
   2583305962.3685265     
   2586499602.0464005     
   2595992472.8030877     
   2611794193.7632232     
   2633917270.8828812     
   2583077153.5738873     
   2591282886.7256279     
   2605054551.1540508     
   2624392146.8591504     
   2649295673.8409305     
   2889490220.7994270     
   2857270208.8753886     
   2831493629.6552129     
   2812311794.8731804     
   2799887275.0737495     
   2756982500.4430866     
   2733996726.7269368     
   2717945382.2516851     
   2708929836.8426132     
   2707056831.1466889     
   2670393089.9875860     
   2654858201.7771115     
   2646668309.6107230     
   2645874681.7983470     
   2652530345.4761190     
   2633917270.8828812     
   2623384762.8769794     
   2620525172.0848265     
   2625352403.1039963     
   2637880646.7234879     
   2649295673.8409305     
   2640823222.7845764     
   2640279755.1287518     
   2647665270.8734622     
   2662979770.0187054     
   2799887275.0737495     
   2761428670.6357312     
   2731998879.1910305     
   2711841746.1787887     
   2701217203.0745068     
   2707056831.1466889     
   2680149997.2803078     
   2662246682.1652389     
   2653489649.1696897     
   2654027337.2562957     
   2652530345.4761190     
   2634495059.7937827     
   2625313585.2447343     
   2625049470.4263415     
   2633767488.2783446     
   2637880646.7234879     
   2625686304.6562686     
   2622107067.7552767     
   2627158278.6400995     
   2640855366.8091154     
   2662979770.0187054     
   2653469814.9912086     
   2652283774.8984785     
   2659421649.7405124     
   2674883439.5173187     
   2701217203.0745068     
   2675862244.4469595     
   2656272081.7935109     
   2642558542.0242801     
   2634833544.6723132     
   2654027337.2562957     
   2635952269.9521070     
   2624409249.9326992     
   2619474951.2492533     
   2621224553.1051888     
   2633767488.2783446     
   2621612645.6433387     
   2616732797.0756807     
   2619167886.4253263     
   2628956349.9094214     
   2640855366.8091154     
   2632727196.1285276     
   2632611730.3981285     
   2640520305.4337730     
   2656463663.6799693     
   2674883439.5173187     
   2668462167.8755155     
   2670811146.2722793     
   2681930374.7076197     
   2701819853.1815248     
   2634833544.6723132     
   2600891771.6427960     
   2580112280.0029235     
   2572825220.2044239     
   2579345126.6191902     
   2621224553.1051888     
   2600167340.4033294     
   2591017751.1308646     
   2593934891.7331619     
   2609067033.0741968     
   2628956349.9094214     
   2617441294.0610404     
   2616589678.3205729     
   2626460754.4949398     
   2647108959.5078306     
   2656463663.6799693     
   2651421158.2961965     
   2655850679.7595611     
   2669764414.2023916     
   2693173483.7187810     
   2701819853.1815248     
   2700573382.2948313     
   2707675983.2255139     
   2723127655.9735661     
   2746928400.5389671     
   1137009087.1250658     
   1335340167.6738479     
   1533975115.8805962     
   1732913931.7453094     
   1932156615.2679892     
   1207231628.4812891     
   1399184874.2453301     
   1590713405.5333664     
   1781040448.8887160     
   1969707461.8644929     
   1393754658.6631951     
   1571137696.7711735     
   1749525543.8488028     
   1926914476.0670924     
   2102054129.5840638     
   1653907184.0904653     
   1820357798.5167115     
   1988506709.1517236     
   2155657446.6072283     
   2320051881.2166815     
   1955379081.3242819     
   2119427659.9553680     
   2284834448.3380928     
   2448639180.8590274     
   2608883401.8775616     
   1932156615.2679892     
   2058825022.5693450     
   2180093998.6448636     
   2295963543.4945464     
   2406433657.1183920     
   1969707461.8644929     
   2086852684.0500181     
   2201157826.7759428     
   2312548038.7717762     
   2420971270.5799837     
   2102054129.5840638     
   2205784514.5754685     
   2309425647.9053516     
   2412741911.1776996     
   2515566805.7340417     
   2320051881.2166815     
   2407078705.3081498     
   2496538135.2397714     
   2588041387.6285787     
   2681313399.3626299     
   2608883401.8775616     
   2676812058.1789761     
   2749231686.7842126     
   2825634337.0761914     
   2905667189.5802417     
   2406433657.1183920     
   2442282787.5001416     
   2483673080.3699746     
   2530604535.7278900     
   2583077153.5738873     
   2420971270.5799837     
   2454809734.5792499     
   2493142498.4901266     
   2535973106.4804840     
   2583305962.3004231     
   2515566805.7340417     
   2544237340.2157216     
   2576343773.9441171     
   2611888198.6001091     
   2650876810.9675956     
   2681313399.3626299     
   2703219509.8447328     
   2727500759.0403957     
   2754140323.7046061     
   2783130920.8881149     
   2905667189.5802417     
   2920688062.4194613     
   2937047335.7731109     
   2954690129.0451484     
   2973577358.2911410     
   2583077153.5738873     
   2591282886.7256279     
   2605054551.1540508     
   2624392146.8591504     
   2649295673.8409305     
   2583305962.3004231     
   2586499601.9775681     
   2595992472.7323818     
   2611794193.6896310     
   2633917270.8054528     
   2650876810.9675956     
   2645471334.6829019     
   2646893078.9273653     
   2655182534.5142670     
   2670393089.8396997     
   2783130920.8881149     
   2765843986.8234138     
   2755661227.5985632     
   2752668248.1250010     
   2756982500.2428846     
   2973577358.2911410     
   2941724079.5186419     
   2916996469.9632325     
   2899522625.0753245     
   2889490220.5731125     
   2649295673.8409305     
   2640823222.7845764     
   2640279755.1287518     
   2647665270.8734622     
   2662979770.0187054     
   2633917270.8054528     
   2623384762.8114777     
   2620525172.0364504     
   2625352403.0778413     
   2637880646.7245407     
   2670393089.8396997     
   2654858201.6452956     
   2646668309.5050378     
   2645874681.7287636     
   2652530345.4525185     
   2756982500.2428846     
   2733996726.5364041     
   2717945382.0851789     
   2708929836.7146063     
   2707056831.0717788     
   2889490220.5731125     
   2857270208.6404901     
   2831493629.4295979     
   2812311794.6751885     
   2799887274.9222193     
   2662979770.0187054     
   2653469814.9912086     
   2652283774.8984785     
   2659421649.7405124     
   2674883439.5173187     
   2637880646.7245407     
   2625686304.6445942     
   2622107067.7320108     
   2627158278.6064162     
   2640855366.7662821     
   2652530345.4525185     
   2634495059.7505665     
   2625313585.1848063     
   2625049470.3526573     
   2633767488.1939850     
   2707056831.0717788     
   2680149997.1832361     
   2662246682.0513554     
   2653489649.0444088     
   2654027337.1251760     
   2799887274.9222193     
   2761428670.4619002     
   2731998879.0033493     
   2711841745.9858642     
   2701217202.8851471     
   2674883439.5173187     
   2668462167.8755155     
   2670811146.2722793     
   2681930374.7076197     
   2701819853.1815248     
   2640855366.7662821     
   2632727196.1499014     
   2632611730.4926214     
   2640520305.6100607     
   2656463663.9464989     
   2633767488.1939850     
   2621612645.6728487     
   2616732797.2367063     
   2619167886.7352653     
   2628956350.3854327     
   2654027337.1251760     
   2635952269.9652715     
   2624409250.1163883     
   2619474951.6297836     
   2621224553.7089119     
   2701217202.8851471     
   2675862244.4093556     
   2656272081.9420772     
   2642558542.3941565     
   2634833545.2992988     
   2701819853.1815248     
   2700573382.2948313     
   2707675983.2255139     
   2723127655.9735661     
   2746928400.5389671     
   2656463663.9464989     
   2651421158.0693331     
   2655850679.0213962     
   2669764412.9383049     
   2693173481.9178567     
   2628956350.3854327     
   2617441293.7192907     
   2616589677.1296835     
   2626460752.4278255     
   2647108956.5424747     
   2621224553.7089119     
   2600167340.0420418     
   2591017749.7635365     
   2593934889.3215799     
   2609067029.5839624     
   2634833545.2992988     
   2600891771.3352003     
   2580112278.7153053     
   2572825217.8900137     
   2579345123.2306595     
   1955379081.3242819     
   2119427659.9553680     
   2284834448.3380928     
   2448639180.8590274     
   2608883401.8775616     
   2298831861.5325375     
   2449512509.9739614     
   2604915297.8050237     
   2763117929.2452874     
   2922690726.5888491     
   2694768810.6052380     
   2830524606.4327602     
   2973591616.5424352     
   3122888075.1443863     
   3277503401.9777775     
   3137980219.6566510     
   3255509207.3439527     
   3382454234.8764353     
   3518346881.4741931     
   3662729936.2828183     
   3624976690.4409347     
   3719673763.7498093     
   3825621215.4110599     
   3942756103.6070137     
   4070986292.0973058     
   2608883401.8775616     
   2676812058.1789761     
   2749231686.7842126     
   2825634337.0761914     
   2905667189.5802417     
   2922690726.5888491     
   2975624522.1634703     
   3030774139.5669956     
   3087457358.8547344     
   3145141136.5158629     
   3277503401.9777775     
   3320756488.5482368     
   3364252156.3964906     
   3407166889.2335725     
   3448822192.4615645     
   3662729936.2828183     
   3702154424.1734819     
   3740203907.4157691     
   3775978370.4744759     
   3808727507.6997743     
   4070986292.0973058     
   4112432840.1942554     
   4151239508.2350998     
   4186506189.9205780     
   4217499098.5507312     
   2905667189.5802417     
   2920688062.4194613     
   2937047335.7731109     
   2954690129.0451484     
   2973577358.2911410     
   3145141136.5158629     
   3141661108.0246964     
   3141791821.1258073     
   3145432850.6697707     
   3152570402.1936822     
   3448822192.4615645     
   3422844348.6590066     
   3401971262.0472178     
   3385974423.8441625     
   3374839073.2907968     
   3808727507.6997743     
   3755909077.7527528     
   3709094548.3652124     
   3667812386.9494967     
   3631969338.2922144     
   4217499098.5507312     
   4133221682.4120479     
   4055464974.9707117     
   3983382767.0782690     
   3916684593.4707069     
   2973577358.2911410     
   2941724079.5186419     
   2916996469.9632325     
   2899522625.0753245     
   2889490220.5731125     
   3152570402.1936822     
   3107659759.5254121     
   3068922981.4216418     
   3036553643.6495261     
   3010797763.9092803     
   3374839073.2907968     
   3316919941.6838226     
   3264326102.0535231     
   3217284011.3890605     
   3176068061.8283291     
   3631969338.2922144     
   3561571091.7945027     
   3495783502.1517749     
   3434839902.1850476     
   3379018227.3955441     
   3916684593.4707069     
   3834578498.2091184     
   3756516181.4187827     
   3682720692.3230200     
   3613457217.1866493     
   2889490220.5731125     
   2857270208.6404901     
   2831493629.4295979     
   2812311794.6751885     
   2799887274.9222193     
   3010797763.9092803     
   2967900067.8037577     
   2931266223.3860612     
   2901116432.6566606     
   2877696027.4077082     
   3176068061.8283291     
   3120780731.4702802     
   3071402290.7524056     
   3028212054.4562149     
   2991533019.2956891     
   3379018227.3955441     
   3310086899.5778232     
   3246571690.7383733     
   3188791658.9833417     
   3137130112.9611421     
   3613457217.1866493     
   3529987755.3651190     
   3451347886.7392893     
   3377872834.8336024     
   3309981804.6868773     
   2799887274.9222193     
   2761428670.4619002     
   2731998879.0033493     
   2711841745.9858642     
   2701217202.8851471     
   2877696027.4077082     
   2827358713.2471547     
   2785295848.8159571     
   2751840638.7451482     
   2727353660.6620846     
   2991533019.2956891     
   2928223776.2294426     
   2872372743.1213379     
   2824380133.1130400     
   2784687913.8517280     
   3137130112.9611421     
   3060434235.9019942     
   2990347346.1678023     
   2927305385.6223235     
   2871799958.9240294     
   3309981804.6868773     
   3220010334.3162365     
   3135805306.6212616     
   3057806764.1806550     
   2986520567.1853518     
   2701217202.8851471     
   2675862244.4093556     
   2656272081.9420772     
   2642558542.3941565     
   2634833545.2992988     
   2727353660.6620846     
   2693273373.0880027     
   2665280881.9005179     
   2643559433.1070414     
   2628298506.2418461     
   2784687913.8517280     
   2740092867.3841639     
   2701757003.8290758     
   2669946736.9270415     
   2644946593.7626123     
   2871799958.9240294     
   2815112670.0197606     
   2764690270.6083322     
   2720884837.0593681     
   2684084891.4354596     
   2986520567.1853518     
   2916412482.5508389     
   2852411759.6694255     
   2794948122.3852782     
   2744511767.0985079     
   2634833545.2992988     
   2600891771.3352003     
   2580112278.7153053     
   2572825217.8900137     
   2579345123.2306595     
   2628298506.2418461     
   2581713780.2892032     
   2546916552.5138869     
   2524384670.4045973     
   2514582971.3411870     
   2644946593.7626123     
   2584450283.5889649     
   2534271485.0510039     
   2495008209.1193089     
   2467261695.4286366     
   2684084891.4354596     
   2609397021.4304895     
   2543427117.5061331     
   2486834668.9207077     
   2440307485.4067512     
   2744511767.0985079     
   2656294830.1402102     
   2575097485.4567704     
   2501563103.9471979     
   2436386474.5757661     
   3624976690.4409347     
   3719673763.7498093     
   3825621215.4110599     
   3942756103.6070137     
   4070986292.0973058     
   4134113774.2659369     
   4224357449.3843188     
   4320520386.9077282     
   4420946019.2843456     
   4524179928.9729242     
   4643436390.4519730     
   4755509092.3938599     
   4868704668.4214029     
   4980387945.7267151     
   5088633328.3594837     
   5151424106.7931633     
   5311303805.2086258     
   5467815254.4702330     
   5618062327.1413679     
   5760578661.5475950     
   5657813126.1877718     
   5890903642.0863657     
   6116356373.8248234     
   6331711427.0567493     
   6536744872.6689835     
   4070986292.0973058     
   4112432840.1942554     
   4151239508.2350998     
   4186506189.9205780     
   4217499098.5507312     
   4524179928.9729242     
   4538982982.0893602     
   4558458872.9199324     
   4580126945.8910971     
   4602263501.9297981     
   5088633328.3594837     
   5053963889.2969370     
   5029805169.0903778     
   5010951253.1704273     
   4994201120.5366373     
   5760578661.5475950     
   5652048455.6579781     
   5559515326.2065544     
   5473919496.3481207     
   5389720777.0826292     
   6536744872.6689835     
   6328641210.2158833     
   6142720597.7670956     
   5965077555.4633884     
   5786704682.3104591     
   4217499098.5507312     
   4133221682.4120479     
   4055464974.9707117     
   3983382767.0782690     
   3916684593.4707069     
   4602263501.9297981     
   4493741544.2352839     
   4389456301.0843334     
   4289093221.8820882     
   4192565473.9737129     
   4994201120.5366373     
   4866803942.6313190     
   4742603070.7197733     
   4621567483.7626209     
   4503739151.3008404     
   5389720777.0826292     
   5248448420.7044792     
   5110395091.1439953     
   4975602589.3096724     
   4844164586.5234585     
   5786704682.3104591     
   5636006901.5370426     
   5489495726.5014658     
   5347084902.0781574     
   5208820349.2086258     
   3916684593.4707069     
   3834578498.2091184     
   3756516181.4187827     
   3682720692.3230200     
   3613457217.1866493     
   4192565473.9737129     
   4097281870.2982125     
   4005417799.1069283     
   3917196375.2679009     
   3832902549.8840914     
   4503739151.3008404     
   4393915902.9175758     
   4286721939.9232817     
   4182348199.5356927     
   4081071531.1421337     
   4844164586.5234585     
   4718626903.2778893     
   4594829156.5658007     
   4472898016.1899710     
   4353071015.5524998     
   5208820349.2086258     
   5066525788.5850334     
   4925039064.9756117     
   4784393230.0971174     
   4644755749.3819628     
   3613457217.1866493     
   3529987755.3651190     
   3451347886.7392893     
   3377872834.8336024     
   3309981804.6868773     
   3832902549.8840914     
   3734388606.1852236     
   3639791040.4734459     
   3549407653.6688428     
   3463610894.9968476     
   4081071531.1421337     
   3968804899.4105215     
   3859719134.5322156     
   3754060031.4915733     
   3652136980.6570835     
   4353071015.5524998     
   4228384671.7722716     
   4106328756.9981041     
   3987093379.8123140     
   3870921524.0251298     
   4644755749.3819628     
   4508927719.7446146     
   4375355897.7641392     
   4244177427.4543428     
   4115573608.8490319     
   3309981804.6868773     
   3220010334.3162365     
   3135805306.6212616     
   3057806764.1806550     
   2986520567.1853518     
   3463610894.9968476     
   3358584337.0971484     
   3258559202.2662969     
   3163981454.6996803     
   3075383211.0452938     
   3652136980.6570835     
   3532032676.4090953     
   3416094000.5606699     
   3304738019.5514340     
   3198481635.2251563     
   3870921524.0251298     
   3735921282.1796255     
   3604239118.5815153     
   3476236516.8658805     
   3352380400.6120353     
   4115573608.8490319     
   3965956335.9261794     
   3818841375.2571836     
   3674518036.8079562     
   3533379353.6348166     
   2986520567.1853518     
   2916412482.5508389     
   2852411759.6694255     
   2794948122.3852782     
   2744511767.0985079     
   3075383211.0452938     
   2990702823.0586057     
   2910900898.0506473     
   2836378259.0399351     
   2767603756.3935199     
   3198481635.2251563     
   3100462235.7931628     
   3006168988.5399284     
   2915935196.9488187     
   2830159947.8242140     
   3352380400.6120353     
   3242677666.0022278     
   3135700471.3030887     
   3031695127.4226580     
   2930962705.0107164     
   3533379353.6348166     
   3413856950.1497850     
   3296259085.7524714     
   3180745291.0176635     
   3067514496.1333132     
   2744511767.0985079     
   2656294830.1402102     
   2575097485.4567704     
   2501563103.9471979     
   2436386474.5757661     
   2767603756.3935199     
   2661769266.9625592     
   2562699633.9418559     
   2471166658.1359253     
   2388053555.4204626     
   2830159947.8242140     
   2705888411.1417241     
   2587738775.3333068     
   2476538915.7463064     
   2373296008.3897209     
   2930962705.0107164     
   2787879584.8382020     
   2649977777.6039352     
   2518047545.3029742     
   2393116157.0857162     
   3067514496.1333132     
   2905568033.0664062     
   2747690314.9756246     
   2594543363.2640939     
   2447058052.9541626     
   5657813126.1877718     
   5890903642.0863657     
   6116356373.8248234     
   6331711427.0567493     
   6536744872.6689835     
   6491673109.3332357     
   6586884402.6292267     
   6757426860.2757187     
   6961218591.6192169     
   7171599307.6435766     
   7982349627.7372046     
   7734974759.7504625     
   7669166257.0119076     
   7669618270.8182983     
   7666399965.5237312     
   10130289507.011131     
   9322015203.2873554     
   8826384346.3758984     
   8443565347.6336155     
   8035751795.7188206     
   12935579195.931807     
   11340719603.299076     
   10210248021.416407     
   9272825588.1368828     
   8304017230.3555660     
   6536744872.6689835     
   6328641210.2158833     
   6142720597.7670956     
   5965077555.4633884     
   5786704682.3104591     
   7171599307.6435766     
   6910955483.4932575     
   6658211004.1680384     
   6409508240.4081593     
   6161702534.7547312     
   7666399965.5237312     
   7381158078.2337589     
   7101310064.8358202     
   6826933930.4813156     
   6558233064.8175325     
   8035751795.7188206     
   7746896965.6106024     
   7473712178.0037775     
   7214239566.9352283     
   6968485871.5051470     
   8304017230.3555660     
   8020732925.6774292     
   7779550247.5722647     
   7569788059.5491915     
   7386475927.5626650     
   5786704682.3104591     
   5636006901.5370426     
   5489495726.5014658     
   5347084902.0781574     
   5208820349.2086258     
   6161702534.7547312     
   6012615294.8810129     
   5864860584.5809870     
   5718476587.7004452     
   5573519068.7699881     
   6558233064.8175325     
   6407646502.1686563     
   6255436175.5591402     
   6101570085.0260258     
   5946076904.5836878     
   6968485871.5051470     
   6814637301.8047657     
   6656187918.9978390     
   6492855155.1741161     
   6324586905.6593599     
   7386475927.5626650     
   7228588219.1818876     
   7063210933.8996925     
   6889651495.7982798     
   6707720901.6477213     
   5208820349.2086258     
   5066525788.5850334     
   4925039064.9756117     
   4784393230.0971174     
   4644755749.3819628     
   5573519068.7699881     
   5414095913.7446680     
   5255568613.2564840     
   5097976751.1858644     
   4941419696.5535936     
   5946076904.5836878     
   5772675528.3182049     
   5600674660.9778738     
   5430099572.6442518     
   5261010318.2213230     
   6324586905.6593599     
   6139846465.0823269     
   5957372524.0189066     
   5777144811.2617445     
   5599192034.0884151     
   6707720901.6477213     
   6513788895.9269247     
   6323315674.2810812     
   6136194572.0364857     
   5952412269.9499044     
   4644755749.3819628     
   4508927719.7446146     
   4375355897.7641392     
   4244177427.4543428     
   4115573608.8490319     
   4941419696.5535936     
   4796367643.3476686     
   4652610369.6030979     
   4510256847.1049862     
   4369454837.8185263     
   5261010318.2213230     
   5106835723.5254984     
   4953038668.7534904     
   4799688528.8603086     
   4646890844.7190380     
   5599192034.0884151     
   5436148116.2179108     
   5272625065.1036053     
   5108645976.2884092     
   4944270306.0249577     
   5952412269.9499044     
   5780860305.0752029     
   5608043654.8692398     
   5433936213.8897972     
   5258551360.8686609     
   4115573608.8490319     
   3965956335.9261794     
   3818841375.2571836     
   3674518036.8079562     
   3533379353.6348166     
   4369454837.8185263     
   4205419259.6258106     
   4043209851.4429216     
   3883022963.6183214     
   3725140300.7666202     
   4646890844.7190380     
   4469605108.0541382     
   4293637915.5069361     
   4119106309.7755594     
   3946195461.0652313     
   4944270306.0249577     
   4754723151.3879347     
   4566137997.5629539     
   4378569140.0388975     
   4192125039.5061331     
   5258551360.8686609     
   5057549565.9487648     
   4857280629.9145088     
   4657751917.1219368     
   4459014947.2381811     
   3533379353.6348166     
   3413856950.1497850     
   3296259085.7524714     
   3180745291.0176635     
   3067514496.1333132     
   3725140300.7666202     
   3596427035.8261838     
   3469189342.6086326     
   3343570041.5996084     
   3219760308.3440537     
   3946195461.0652313     
   3807452457.5411391     
   3669615416.1523662     
   3532793471.3328476     
   3397152060.0428438     
   4192125039.5061331     
   4042490699.4026780     
   3893108760.6192079     
   3744039394.3278918     
   3595405182.6576538     
   4459014947.2381811     
   4297617378.7717772     
   4135767980.2082353     
   3973464847.3545041     
   3810772347.2710953     
   3067514496.1333132     
   2905568033.0664062     
   2747690314.9756246     
   2594543363.2640939     
   2447058052.9541626     
   3219760308.3440537     
   3042208950.6304460     
   2867177869.5745807     
   2695057497.5910954     
   2526415077.7887321     
   3397152060.0428438     
   3207567264.5645838     
   3019509360.3413057     
   2833165470.7393365     
   2648819330.8891692     
   3595405182.6576538     
   3397169072.4338193     
   3199988081.3015132     
   3003933203.6492443     
   2809123861.7350807     
   3810772347.2710953     
   3606941516.9042974     
   3404132632.1780705     
   3202374049.3292623     
   3001727088.5666418     
 </DataArray>
 <DataArray  type="Float64" Name="strain" NumberOfComponents="3" format="ascii">
  0.20348493494808526        0.0000000000000000       0.12540581550547503     
  0.18665567094108579       -2.7324789355754660E-002   7.4352228817462812E-002
  0.16982640693408632       -4.4676082156238195E-002   3.5132181069204904E-002
  0.15299714292708688       -5.2053878401450551E-002   7.7456722607013723E-003
  0.13616787892008742       -4.9458178091391802E-002  -7.8072976080478945E-003
  0.15985534921337327        0.0000000000000000        9.6449033253648064E-002
  0.15317807515405643       -2.1844724378747439E-002   6.2690610727382842E-002
  0.14650080109473959       -3.6174843774462437E-002   3.7402629156728519E-002
  0.13982352703542275       -4.2990358187144959E-002   2.0585088541685125E-002
  0.13314625297610591       -4.2291267616795053E-002   1.2237988882252693E-002
  0.12645842586332817        0.0000000000000000        7.4201761764947693E-002
  0.12657004376755057       -1.6364659401740214E-002   5.5279611828190758E-002
  0.12668166167177294       -2.7673605392686672E-002   4.1464804862901335E-002
  0.12679327957599532       -3.3926837972839359E-002   3.2757340869079471E-002
  0.12690489748021772       -3.5124357142198304E-002   2.9157219846725056E-002
  0.10329416489794999        0.0000000000000000        5.8664001039373886E-002
  0.10683157678156818       -1.0884594424732993E-002   5.2119232119886560E-002
  0.11036898866518641       -1.9172367010910917E-002   4.7318708187723345E-002
  0.11390640054880459       -2.4863317758533766E-002   4.4262429242884274E-002
  0.11744381243242280       -2.7957446667601554E-002   4.2950395285369300E-002
   9.0362566317238713E-002   0.0000000000000000        4.9835751076926643E-002
   9.3962674196109319E-002  -5.4045294477257678E-003   5.3209471602470249E-002
   9.7562782074979926E-002  -1.0671128629135159E-002   5.4964339131194556E-002
  0.10116288995385053       -1.5799797544228174E-002   5.5100353663099559E-002
  0.10476299783272114       -2.0790536193004805E-002   5.3617515198185306E-002
  0.13616787892008742       -4.9458178091391802E-002  -7.8072976080478945E-003
  0.13296136549404178       -4.2924121064218682E-002  -3.3921286872758902E-003
  0.12975485206799617       -3.8486847158087825E-002  -3.9053200621134640E-004
  0.12654833864195059       -3.6146356372999330E-002   1.1974924351457715E-003
  0.12334182521590495       -3.5902648708953155E-002   1.3719446367953803E-003
  0.13314625297610591       -4.2291267616795053E-002   1.2237988882252693E-002
  0.12891403484935954       -3.8425821232335844E-002   1.2181957552196629E-002
  0.12468181672261318       -3.5742268202690580E-002   1.1488089060446488E-002
  0.12044959859586682       -3.4240608527859130E-002   1.0156383407002440E-002
  0.11621738046912042       -3.3920842207841598E-002   8.1868405918642112E-003
  0.12690489748021772       -3.5124357142198304E-002   2.9157219846725056E-002
  0.12242270973078404       -3.3927521400453083E-002   2.5544878032069330E-002
  0.11794052198135033       -3.2997689247293301E-002   2.2070434133732983E-002
  0.11345833423191659       -3.2334860682718979E-002   1.8733888151716057E-002
  0.10897614648248291       -3.1939035706730068E-002   1.5535240086018476E-002
  0.11744381243242280       -2.7957446667601554E-002   4.2950395285369300E-002
  0.11348739013831521       -2.9429221568570290E-002   3.6696632752342299E-002
  0.10953096784420761       -3.0253110291896024E-002   3.1356503213648183E-002
  0.10557454555010004       -3.0429112837578768E-002   2.6930006669286889E-002
  0.10161812325599244       -2.9957229205618496E-002   2.3417143119258469E-002
  0.10476299783272114       -2.0790536193004805E-002   5.3617515198185306E-002
  0.10210807607195312       -2.4930921736687491E-002   4.5637221713015576E-002
   9.9453154311185080E-002  -2.7508531336498783E-002   3.9346296300192103E-002
   9.6798232550417057E-002  -2.8523364992438564E-002   3.4744738959714951E-002
   9.4143310789649048E-002  -2.7975422704506953E-002   3.1832549691584056E-002
  0.12334182521590495       -3.5902648708953155E-002   1.3719446367953803E-003
  0.12041469626254192       -3.6400747443081569E-002   6.3952114741032406E-004
  0.11748756730917885       -3.6285675852516810E-002   9.8049139255818041E-005
  0.11456043835581578       -3.5557433937258867E-002  -2.5247138766801985E-004
  0.11163330940245275       -3.4216021697307641E-002  -4.1204043336140472E-004
  0.11621738046912042       -3.3920842207841598E-002   8.1868405918642112E-003
  0.11346726250735922       -3.3996000154068701E-002   7.8262949465062737E-003
  0.11071714454559801       -3.3679113277971184E-002   7.6288198031215435E-003
  0.10796702658383683       -3.2970181579549160E-002   7.5944151617100414E-003
  0.10521690862207561       -3.1869205058802447E-002   7.7230810222713719E-003
  0.10897614648248291       -3.1939035706730068E-002   1.5535240086018476E-002
  0.10637515853306610       -3.1591252865055840E-002   1.5325446782319178E-002
  0.10377417058364925       -3.1072550703425635E-002   1.5250843001335647E-002
  0.10117318263423244       -3.0382929221839390E-002   1.5311428743067831E-002
   9.8572194684815623E-002  -2.9522388420297085E-002   1.5507204007515457E-002
  0.10161812325599244       -2.9957229205618496E-002   2.3417143119258469E-002
   9.9138384339662544E-002  -2.9186505576043031E-002   2.3136976654849324E-002
   9.6658645423332634E-002  -2.8465988128880088E-002   2.2964118733898253E-002
   9.4178906507002752E-002  -2.7795676864129707E-002   2.2898569356405440E-002
   9.1699167590672814E-002  -2.7175571781791863E-002   2.2940328522370761E-002
   9.4143310789649048E-002  -2.7975422704506953E-002   3.1832549691584056E-002
   9.1756939927148548E-002  -2.6781758287030152E-002   3.1260884564096328E-002
   8.9370569064648103E-002  -2.5859425554334500E-002   3.0768647000809293E-002
   8.6984198202147603E-002  -2.5208424506419951E-002   3.0355837001722966E-002
   8.4597827339647158E-002  -2.4828755143286585E-002   3.0022454566837331E-002
  0.11163330940245275       -3.4216021697307641E-002  -4.1204043336140472E-004
  0.10853369138923030       -3.2693566775084004E-002  -1.5773758835654905E-004
  0.10543407337600780       -3.1422196813008868E-002   1.6173234921695867E-004
  0.10233445536278535       -3.0401911811082101E-002   5.4636937935900742E-004
   9.9234837349562843E-002  -2.9632711769303710E-002   9.9617350206959721E-004
  0.10521690862207561       -3.1869205058802447E-002   7.7230810222713719E-003
  0.10220957775877790       -3.0647838095589255E-002   7.5750163189795133E-003
   9.9202246895480212E-002  -2.9577735069768039E-002   7.5463588229685297E-003
   9.6194916032182526E-002  -2.8658895981338674E-002   7.6371085342382822E-003
   9.3187585168884812E-002  -2.7891320830301158E-002   7.8472654527890762E-003
   9.8572194684815623E-002  -2.9522388420297085E-002   1.5507204007515457E-002
   9.5711391086155062E-002  -2.8602109416094451E-002   1.5056592778683327E-002
   9.2850587487494418E-002  -2.7733273326527211E-002   1.4779628871844239E-002
   8.9989783888833844E-002  -2.6915880151595187E-002   1.4676312286998582E-002
   8.7128980290173269E-002  -2.6149929891298496E-002   1.4746643024146022E-002
   9.1699167590672814E-002  -2.7175571781791863E-002   2.2940328522370761E-002
   8.9039131371361629E-002  -2.6556380736599675E-002   2.2286991790754850E-002
   8.6379095152050459E-002  -2.5888811583286382E-002   2.1861542495844485E-002
   8.3719058932739329E-002  -2.5172864321851673E-002   2.1663980637639711E-002
   8.1059022713428158E-002  -2.4408538952295861E-002   2.1694306216140560E-002
   8.4597827339647158E-002  -2.4828755143286585E-002   3.0022454566837331E-002
   8.2192798614397725E-002  -2.4510652057104954E-002   2.9266213355194137E-002
   7.9787769889148291E-002  -2.4044349840045415E-002   2.8792099694969001E-002
   7.7382741163898899E-002  -2.3429848492108281E-002   2.8600113586161630E-002
   7.4977712438649452E-002  -2.2667148013293281E-002   2.8690255028772232E-002
   9.9234837349562843E-002  -2.9632711769303710E-002   9.9617350206959721E-004
   9.6338210093461996E-002  -2.8939167607859029E-002   7.1222193547387791E-004
   9.3441582837361092E-002  -2.8145850246932558E-002   5.9180347726631166E-004
   9.0544955581260217E-002  -2.7252759686524922E-002   6.3491812744639886E-004
   8.7648328325159341E-002  -2.6259895926635690E-002   8.4156588601425053E-004
   9.3187585168884812E-002  -2.7891320830301158E-002   7.8472654527890762E-003
   9.0452775172947336E-002  -2.7167295119294166E-002   7.6322144683414195E-003
   8.7717965177009916E-002  -2.6379104350956348E-002   7.5772648958326305E-003
   8.4983155181072412E-002  -2.5526748525287826E-002   7.6824167352624734E-003
   8.2248345185134908E-002  -2.4610227642288596E-002   7.9476699866316558E-003
   8.7128980290173269E-002  -2.6149929891298496E-002   1.4746643024146022E-002
   8.4552555857950129E-002  -2.5395422630729442E-002   1.4564884479695686E-002
   8.1976131425726975E-002  -2.4612358454980249E-002   1.4539795650735085E-002
   7.9399706993503821E-002  -2.3800737364050896E-002   1.4671376537264302E-002
   7.6823282561280709E-002  -2.2960559357941446E-002   1.4959627139283282E-002
   8.1059022713428158E-002  -2.4408538952295861E-002   2.1694306216140560E-002
   7.8637552148470291E-002  -2.3623550142164704E-002   2.1510231969536876E-002
   7.6216081583512382E-002  -2.2845612559004094E-002   2.1479395741973717E-002
   7.3794611018554515E-002  -2.2074726202813994E-002   2.1601797533451681E-002
   7.1373140453596634E-002  -2.1310891073594324E-002   2.1877437343970074E-002
   7.4977712438649452E-002  -2.2667148013293281E-002   2.8690255028772232E-002
   7.2707764044507767E-002  -2.1851677653599993E-002   2.8468256937864589E-002
   7.0437815650366067E-002  -2.1078866663027968E-002   2.8396065169548623E-002
   6.8167867256224396E-002  -2.0348715041577016E-002   2.8473679723824433E-002
   6.5897918862082683E-002  -1.9661222789247201E-002   2.8701100600691642E-002
   8.7648328325159341E-002  -2.6259895926635690E-002   8.4156588601425053E-004
   8.4301751613348963E-002  -2.5243373495079102E-002   6.4415066398981757E-004
   8.0955174901538696E-002  -2.4279306919668842E-002   6.3187995818581033E-004
   7.7608598189728401E-002  -2.3367696200405380E-002   8.0475376860178471E-004
   7.4262021477918050E-002  -2.2508541337287968E-002   1.1627720952381848E-003
   8.2248345185134908E-002  -2.4610227642288596E-002   7.9476699866316558E-003
   7.9090410642035452E-002  -2.3678954416802289E-002   7.6851148190162921E-003
   7.5932476098935942E-002  -2.2782341563672287E-002   7.6146994726021544E-003
   7.2774541555836431E-002  -2.1920389082898943E-002   7.7364239473897978E-003
   6.9616607012736864E-002  -2.1093096974482139E-002   8.0502882433783340E-003
   7.6823282561280709E-002  -2.2960559357941446E-002   1.4959627139283282E-002
   7.3860985491873088E-002  -2.2114535338525199E-002   1.4649727509867289E-002
   7.0898688422465481E-002  -2.1285376207675510E-002   1.4538963006633585E-002
   6.7936391353057873E-002  -2.0473081965392506E-002   1.4627333629582254E-002
   6.4974094283650280E-002  -1.9677652611676255E-002   1.4914839378713657E-002
   7.1373140453596634E-002  -2.1310891073594324E-002   2.1877437343970074E-002
   6.8613476162861980E-002  -2.0550116260248302E-002   2.1537988736542980E-002
   6.5853811872127341E-002  -1.9788410851678900E-002   2.1404670560279400E-002
   6.3094147581392687E-002  -1.9025774847886291E-002   2.1477482815179423E-002
   6.0334483290658034E-002  -1.8262208248870287E-002   2.1756425501243133E-002
   6.5897918862082683E-002  -1.9661222789247201E-002   2.8701100600691642E-002
   6.3347882655002130E-002  -1.8985697181971295E-002   2.8349898499043680E-002
   6.0797846447921550E-002  -1.8291445495682304E-002   2.8211822133540093E-002
   5.8247810240841011E-002  -1.7578467730380052E-002   2.8286871504181285E-002
   5.5697774033760417E-002  -1.6846763886064431E-002   2.8575046610967048E-002
   7.4262021477918050E-002  -2.2508541337287968E-002   1.1627720952381848E-003
   7.1584917261150738E-002  -2.1655351134687861E-002   8.6188700938971685E-004
   6.8907813044383481E-002  -2.0761634396975398E-002   7.8359299998720378E-004
   6.6230708827616169E-002  -1.9827391124150155E-002   9.2789006703045129E-004
   6.3553604610848913E-002  -1.8852621316213236E-002   1.2947782105184880E-003
   6.9616607012736864E-002  -2.1093096974482139E-002   8.0502882433783340E-003
   6.7148003314652205E-002  -2.0269535297943786E-002   7.7720773577178992E-003
   6.4679399616567490E-002  -1.9418774112805598E-002   7.6882764329767594E-003
   6.2210795918482831E-002  -1.8540813419067999E-002   7.7988854691555393E-003
   5.9742192220398116E-002  -1.7635653216730440E-002   8.1039044662537529E-003
   6.4974094283650280E-002  -1.9677652611676255E-002   1.4914839378713657E-002
   6.2685809988722294E-002  -1.8883719461199655E-002   1.4645975666727512E-002
   6.0397525693794224E-002  -1.8075913828636034E-002   1.4543340800135571E-002
   5.8109241398866168E-002  -1.7254235713985291E-002   1.4606934778937243E-002
   5.5820957103938140E-002  -1.6418685117247533E-002   1.4836757603132411E-002
   6.0334483290658034E-002  -1.8262208248870287E-002   2.1756425501243133E-002
   5.8198337283360796E-002  -1.7497903624455496E-002   2.1483581936419353E-002
   5.6062191276063510E-002  -1.6733053544466241E-002   2.1348786101463391E-002
   5.3926045268766237E-002  -1.5967658008902638E-002   2.1352037996375459E-002
   5.1789899261468979E-002  -1.5201717017764571E-002   2.1493337621155142E-002
   5.5697774033760417E-002  -1.6846763886064431E-002   2.8575046610967048E-002
   5.3685585198567920E-002  -1.6112087787711421E-002   2.8284896166793028E-002
   5.1673396363375423E-002  -1.5390193260296683E-002   2.8104612336960849E-002
   4.9661207528182927E-002  -1.4681080303820152E-002   2.8034195121470581E-002
   4.7649018692990430E-002  -1.3984748918281775E-002   2.8073644520322072E-002
   6.3553604610848913E-002  -1.8852621316213236E-002   1.2947782105184880E-003
   6.0143411210057174E-002  -1.7894972800734599E-002   1.1228883382965460E-003
   5.6733217809265546E-002  -1.7012093405284257E-002   1.0183098966867199E-003
   5.3323024408473779E-002  -1.6203983129863722E-002   9.8104288568937048E-004
   4.9912831007682179E-002  -1.5470641974471455E-002   1.0110873053039704E-003
   5.9742192220398116E-002  -1.7635653216730440E-002   8.1039044662537529E-003
   5.6422173902830386E-002  -1.6740398946142820E-002   7.7841652745695433E-003
   5.3102155585262656E-002  -1.5892156047654649E-002   7.5774648187212357E-003
   4.9782137267694870E-002  -1.5090924521266216E-002   7.4838030987076920E-003
   4.6462118950127196E-002  -1.4336704366976871E-002   7.5031801145306609E-003
   5.5820957103938140E-002  -1.6418685117247533E-002   1.4836757603132411E-002
   5.2636841174817511E-002  -1.5585825091551209E-002   1.4396926839915947E-002
   4.9452725245696758E-002  -1.4772218690025235E-002   1.4115862117758143E-002
   4.6268609316576136E-002  -1.3977865912668815E-002   1.3993563436659334E-002
   4.3084493387455347E-002  -1.3202766759482287E-002   1.4030030796618687E-002
   5.1789899261468979E-002  -1.5201717017764571E-002   2.1493337621155142E-002
   4.8787413026018467E-002  -1.4431251236959847E-002   2.0961173034335936E-002
   4.5784926790567976E-002  -1.3652281332395058E-002   2.0633501793798581E-002
   4.2782440555117617E-002  -1.2864807304071139E-002   2.0510323899542760E-002
   3.9779954319667035E-002  -1.2068829151987703E-002   2.0591639351568936E-002
   4.7649018692990430E-002  -1.3984748918281775E-002   2.8073644520322072E-002
   4.4873889456433363E-002  -1.3276677382367985E-002   2.7476903857829194E-002
   4.2098760219876213E-002  -1.2532343974765672E-002   2.7130383846841383E-002
   3.9323630983319119E-002  -1.1751748695473661E-002   2.7034084487358875E-002
   3.6548501746762052E-002  -1.0934891544493119E-002   2.7188005779380964E-002
   9.0362566317238713E-002   0.0000000000000000        4.9835751076926643E-002
   9.3962674196109319E-002  -5.4045294477257678E-003   5.3209471602470249E-002
   9.7562782074979926E-002  -1.0671128629135159E-002   5.4964339131194556E-002
  0.10116288995385053       -1.5799797544228174E-002   5.5100353663099559E-002
  0.10476299783272114       -2.0790536193004805E-002   5.3617515198185306E-002
   8.2425443179438701E-002   0.0000000000000000        4.4784074832212729E-002
   8.4635764861787338E-002  -4.5742977234646985E-003   4.8267675977446661E-002
   8.6846086544136003E-002  -9.0374750767710614E-003   5.0590557726456001E-002
   8.9056408226484640E-002  -1.3389532059919093E-002   5.1752720079240679E-002
   9.1266729908833305E-002  -1.7630468672908788E-002   5.1754163035800750E-002
   7.4244608542794341E-002   0.0000000000000000        4.0576035259838918E-002
   7.5523277629215679E-002  -3.7440659992036282E-003   4.4142707128605144E-002
   7.6801946715637032E-002  -7.4038215244069654E-003   4.7006793201741420E-002
   7.8080615802058398E-002  -1.0979266575610016E-002   4.9168293479247741E-002
   7.9359284888479750E-002  -1.4470401152812774E-002   5.0627207961124084E-002
   6.5820062407305618E-002   0.0000000000000000        3.7211632359805180E-002
   6.6625212498394343E-002  -2.9138342749425580E-003   4.0834565055945668E-002
   6.7430362589483095E-002  -5.7701679720428712E-003   4.4213045557050870E-002
   6.8235512680571805E-002  -8.5690010913009387E-003   4.7347073863120766E-002
   6.9040662771660530E-002  -1.1310333632716760E-002   5.0236649974155390E-002
   5.7151804772972561E-002   0.0000000000000000        3.4690866132111552E-002
   5.7941569469323329E-002  -2.0836025506814878E-003   3.8343249759468248E-002
   5.8731334165674096E-002  -4.1365144196787735E-003   4.2209314792384316E-002
   5.9521098862024870E-002  -6.1587356069918598E-003   4.6289061230859740E-002
   6.0310863558375644E-002  -8.1502661126207441E-003   5.0582489074894571E-002
  0.10476299783272114       -2.0790536193004805E-002   5.3617515198185306E-002
  0.10210807607195312       -2.4930921736687491E-002   4.5637221713015576E-002
   9.9453154311185080E-002  -2.7508531336498783E-002   3.9346296300192103E-002
   9.6798232550417057E-002  -2.8523364992438564E-002   3.4744738959714951E-002
   9.4143310789649048E-002  -2.7975422704506953E-002   3.1832549691584056E-002
   9.1266729908833305E-002  -1.7630468672908788E-002   5.1754163035800750E-002
   9.0063473214791148E-002  -2.1205466861503784E-002   4.6516755659796148E-002
   8.8860216520748977E-002  -2.3559708571467764E-002   4.2493310344897089E-002
   8.7656959826706821E-002  -2.4693193802800658E-002   3.9683827091103421E-002
   8.6453703132664678E-002  -2.4605922555502521E-002   3.8088305898415276E-002
   7.9359284888479750E-002  -1.4470401152812774E-002   5.0627207961124084E-002
   7.9132287249922675E-002  -1.7480011986320061E-002   4.7790667229044272E-002
   7.8905289611365559E-002  -1.9610885806436714E-002   4.5692682546829136E-002
   7.8678291972808470E-002  -2.0863022613162720E-002   4.4333253914478586E-002
   7.8451294334251381E-002  -2.1236422406498090E-002   4.3712381331992803E-002
   6.9040662771660530E-002  -1.1310333632716760E-002   5.0236649974155390E-002
   6.9314518177347698E-002  -1.3754557111136339E-002   4.9458956420759918E-002
   6.9588373583034838E-002  -1.5662063041405695E-002   4.8944412905988284E-002
   6.9862228988722005E-002  -1.7032851423524786E-002   4.8693019429840514E-002
   7.0136084394409159E-002  -1.7866922257493673E-002   4.8704775992316568E-002
   6.0310863558375644E-002  -8.1502661126207441E-003   5.0582489074894571E-002
   6.0610165997066215E-002  -1.0029102235952627E-002   5.1521623234943033E-002
   6.0909468435756828E-002  -1.1713240276374642E-002   5.2248501422374569E-002
   6.1208770874447406E-002  -1.3202680233886866E-002   5.2763123637189095E-002
   6.1508073313138012E-002  -1.4497422108489227E-002   5.3065489879386682E-002
   9.4143310789649048E-002  -2.7975422704506953E-002   3.1832549691584056E-002
   9.1756939927148548E-002  -2.6781758287030152E-002   3.1260884564096328E-002
   8.9370569064648103E-002  -2.5859425554334500E-002   3.0768647000809293E-002
   8.6984198202147603E-002  -2.5208424506419951E-002   3.0355837001722966E-002
   8.4597827339647158E-002  -2.4828755143286585E-002   3.0022454566837331E-002
   8.6453703132664678E-002  -2.4605922555502521E-002   3.8088305898415276E-002
   8.4193431172914557E-002  -2.3961621292007240E-002   3.7061496902539307E-002
   8.1933159213164422E-002  -2.3424016474748847E-002   3.6207458147963299E-002
   7.9672887253414287E-002  -2.2993108103727240E-002   3.5526189634687330E-002
   7.7412615293664194E-002  -2.2668896178942494E-002   3.5017691362711253E-002
   7.8451294334251381E-002  -2.1236422406498090E-002   4.3712381331992803E-002
   7.6410463954350902E-002  -2.1141484296984404E-002   4.2395063706272829E-002
   7.4369633574450450E-002  -2.0988607395163221E-002   4.1343858998952182E-002
   7.2328803194549957E-002  -2.0777791701034547E-002   4.0558767210030849E-002
   7.0287972814649505E-002  -2.0509037214598375E-002   4.0039788339508775E-002
   7.0136084394409159E-002  -1.7866922257493673E-002   4.8704775992316568E-002
   6.8408038271457625E-002  -1.8321347301961544E-002   4.7261584975297026E-002
   6.6679992148506076E-002  -1.8553198315577616E-002   4.6177849553776011E-002
   6.4951946025554555E-002  -1.8562475298341836E-002   4.5453569727753586E-002
   6.3223899902603034E-002  -1.8349178250254283E-002   4.5088745497229778E-002
   6.1508073313138012E-002  -1.4497422108489227E-002   5.3065489879386682E-002
   6.0186154124234711E-002  -1.5501210306938663E-002   5.1661060709611781E-002
   5.8864234935331411E-002  -1.6117789235991938E-002   5.0709429812434779E-002
   5.7542315746428110E-002  -1.6347158895649125E-002   5.0210597187855588E-002
   5.6220396557524824E-002  -1.6189319285910150E-002   5.0164562835874296E-002
   8.4597827339647158E-002  -2.4828755143286585E-002   3.0022454566837331E-002
   8.2192798614397725E-002  -2.4510652057104954E-002   2.9266213355194137E-002
   7.9787769889148291E-002  -2.4044349840045415E-002   2.8792099694969001E-002
   7.7382741163898899E-002  -2.3429848492108281E-002   2.8600113586161630E-002
   7.4977712438649452E-002  -2.2667148013293281E-002   2.8690255028772232E-002
   7.7412615293664194E-002  -2.2668896178942494E-002   3.5017691362711253E-002
   7.5275667024384346E-002  -2.2343734153375559E-002   3.4436370511927501E-002
   7.3138718755104470E-002  -2.1909975480007414E-002   3.4109083021664918E-002
   7.1001770485824622E-002  -2.1367620158838092E-002   3.4035828891923608E-002
   6.8864822216544747E-002  -2.0716668189867588E-002   3.4216608122703551E-002
   7.0287972814649505E-002  -2.0509037214598375E-002   4.0039788339508775E-002
   6.8391010810442507E-002  -2.0176816249646179E-002   3.9593785366507768E-002
   6.6494048806235523E-002  -1.9775601119969358E-002   3.9373721563131368E-002
   6.4597086802028525E-002  -1.9305391825567956E-002   3.9379596929379403E-002
   6.2700124797821555E-002  -1.8766188366441922E-002   3.9611411465251975E-002
   6.3223899902603034E-002  -1.8349178250254283E-002   4.5088745497229778E-002
   6.1538829972572234E-002  -1.8009898345916792E-002   4.4738457918934979E-002
   5.9853760042541435E-002  -1.7641226759931301E-002   4.4586015319368136E-002
   5.8168690112510656E-002  -1.7243163492297764E-002   4.4631417698529116E-002
   5.6483620182479863E-002  -1.6815708543016242E-002   4.4874665056417837E-002
   5.6220396557524824E-002  -1.6189319285910150E-002   5.0164562835874296E-002
   5.4719124510773529E-002  -1.5842980442187377E-002   4.9870388169209301E-002
   5.3217852464022240E-002  -1.5506852399893283E-002   4.9745964290375345E-002
   5.1716580417270952E-002  -1.5180935159027641E-002   4.9791291199372548E-002
   5.0215308370519657E-002  -1.4865228719590562E-002   5.0006368896200859E-002
   7.4977712438649452E-002  -2.2667148013293281E-002   2.8690255028772232E-002
   7.2707764044507767E-002  -2.1851677653599993E-002   2.8468256937864589E-002
   7.0437815650366067E-002  -2.1078866663027968E-002   2.8396065169548623E-002
   6.8167867256224396E-002  -2.0348715041577016E-002   2.8473679723824433E-002
   6.5897918862082683E-002  -1.9661222789247201E-002   2.8701100600691642E-002
   6.8864822216544747E-002  -2.0716668189867588E-002   3.4216608122703551E-002
   6.6753145404657252E-002  -2.0020745399555992E-002   3.3920610907719945E-002
   6.4641468592769744E-002  -1.9343477614363107E-002   3.3791350534653222E-002
   6.2529791780882221E-002  -1.8684864834289217E-002   3.3828827003502961E-002
   6.0418114968994741E-002  -1.8044907059334259E-002   3.4033040314269625E-002
   6.2700124797821555E-002  -1.8766188366441922E-002   3.9611411465251975E-002
   6.0763650087513298E-002  -1.8189813145511866E-002   3.9265419490194790E-002
   5.8827175377205096E-002  -1.7608088565698413E-002   3.9103094876379377E-002
   5.6890700666896846E-002  -1.7021014627001525E-002   3.9124437623805734E-002
   5.4954225956588679E-002  -1.6428591329421205E-002   3.9329447732473891E-002
   5.6483620182479863E-002  -1.6815708543016242E-002   4.4874665056417837E-002
   5.4739278093075980E-002  -1.6358880891467843E-002   4.4502682685289292E-002
   5.2994936003672090E-002  -1.5872699517033691E-002   4.4331298194727531E-002
   5.1250593914268193E-002  -1.5357164419713862E-002   4.4360511584732698E-002
   4.9506251824864317E-002  -1.4812275599508262E-002   4.4590322855304801E-002
   5.0215308370519657E-002  -1.4865228719590562E-002   5.0006368896200859E-002
   4.8680029421345208E-002  -1.4527948637423793E-002   4.9632400493003159E-002
   4.7144750472170760E-002  -1.4137310468368885E-002   4.9475960489697490E-002
   4.5609471522996312E-002  -1.3693314212426082E-002   4.9537048886283602E-002
   4.4074192573821835E-002  -1.3195959869595209E-002   4.9815665682761856E-002
   6.5897918862082683E-002  -1.9661222789247201E-002   2.8701100600691642E-002
   6.3347882655002130E-002  -1.8985697181971295E-002   2.8349898499043680E-002
   6.0797846447921550E-002  -1.8291445495682304E-002   2.8211822133540093E-002
   5.8247810240841011E-002  -1.7578467730380052E-002   2.8286871504181285E-002
   5.5697774033760417E-002  -1.6846763886064431E-002   2.8575046610967048E-002
   6.0418114968994741E-002  -1.8044907059334259E-002   3.4033040314269625E-002
   5.8078035016676841E-002  -1.7408192172635562E-002   3.3710031265731022E-002
   5.5737955064358927E-002  -1.6759308057331043E-002   3.3593808990573140E-002
   5.3397875112040999E-002  -1.6098254713420228E-002   3.3684373488795924E-002
   5.1057795159723113E-002  -1.5425032140903405E-002   3.3981724760399207E-002
   5.4954225956588679E-002  -1.6428591329421205E-002   3.9329447732473891E-002
   5.2817763296269457E-002  -1.5830687163299717E-002   3.9028074886637690E-002
   5.0681300635950215E-002  -1.5227170618979498E-002   3.8927149851418090E-002
   4.8544837975631014E-002  -1.4618041696460403E-002   3.9026672626815348E-002
   4.6408375315311806E-002  -1.4003300395742435E-002   3.9326643212829346E-002
   4.9506251824864317E-002  -1.4812275599508262E-002   4.4590322855304801E-002
   4.7567067493779910E-002  -1.4253182153963956E-002   4.4304029361763489E-002
   4.5627883162695532E-002  -1.3695033180628067E-002   4.4211844716075102E-002
   4.3688698831611104E-002  -1.3137828679500620E-002   4.4313768918239446E-002
   4.1749514500526740E-002  -1.2581568650581465E-002   4.4609801968256702E-002
   4.4074192573821835E-002  -1.3195959869595209E-002   4.9815665682761856E-002
   4.2325947609208311E-002  -1.2675677144628084E-002   4.9537894691108530E-002
   4.0577702644594760E-002  -1.2162895742276678E-002   4.9447893584544073E-002
   3.8829457679981208E-002  -1.1657615662540723E-002   4.9545662363068468E-002
   3.7081212715367684E-002  -1.1159836905420439E-002   4.9831201026681815E-002
   5.5697774033760417E-002  -1.6846763886064431E-002   2.8575046610967048E-002
   5.3685585198567920E-002  -1.6112087787711421E-002   2.8284896166793028E-002
   5.1673396363375423E-002  -1.5390193260296683E-002   2.8104612336960849E-002
   4.9661207528182927E-002  -1.4681080303820152E-002   2.8034195121470581E-002
   4.7649018692990430E-002  -1.3984748918281775E-002   2.8073644520322072E-002
   5.1057795159723113E-002  -1.5425032140903405E-002   3.3981724760399207E-002
   4.9166311701717202E-002  -1.4747834240840502E-002   3.3684472036470486E-002
   4.7274828243711223E-002  -1.4074854914290683E-002   3.3518763452572639E-002
   4.5383344785705278E-002  -1.3406094161254840E-002   3.3484599008706352E-002
   4.3491861327699305E-002  -1.2741551981732158E-002   3.3581978704871507E-002
   4.6408375315311806E-002  -1.4003300395742435E-002   3.9326643212829346E-002
   4.4659274760181986E-002  -1.3383580693969430E-002   3.9030851206570044E-002
   4.2910174205052110E-002  -1.2759516568285119E-002   3.8888280866031709E-002
   4.1161073649922247E-002  -1.2131108018689525E-002   3.8898932191214139E-002
   3.9411973094792399E-002  -1.1498355045182457E-002   3.9062805182117286E-002
   4.1749514500526740E-002  -1.2581568650581465E-002   4.4609801968256702E-002
   4.0164474373962443E-002  -1.2019327147098434E-002   4.4324033677092076E-002
   3.8579434247398112E-002  -1.1444178222279448E-002   4.4213164577337830E-002
   3.6994394120833794E-002  -1.0856121876124156E-002   4.4277194668993929E-002
   3.5409353994269484E-002  -1.0255158108632853E-002   4.4516123952060227E-002
   3.7081212715367684E-002  -1.1159836905420439E-002   4.9831201026681815E-002
   3.5681910543058415E-002  -1.0655073600227494E-002   4.9564019448036511E-002
   3.4282608370749201E-002  -1.0128839876273707E-002   4.9493414586491230E-002
   3.2883306198439988E-002  -9.5811357335589924E-003   4.9619386442045568E-002
   3.1484004026130746E-002  -9.0119611720831938E-003   4.9941935014699623E-002
   4.7649018692990430E-002  -1.3984748918281775E-002   2.8073644520322072E-002
   4.4873889456433363E-002  -1.3276677382367985E-002   2.7476903857829194E-002
   4.2098760219876213E-002  -1.2532343974765672E-002   2.7130383846841383E-002
   3.9323630983319119E-002  -1.1751748695473661E-002   2.7034084487358875E-002
   3.6548501746762052E-002  -1.0934891544493119E-002   2.7188005779380964E-002
   4.3491861327699305E-002  -1.2741551981732158E-002   3.3581978704871507E-002
   4.0953970577677773E-002  -1.2065859366881981E-002   3.3080915667721700E-002
   3.8416079827656185E-002  -1.1363647307864086E-002   3.2804108952138422E-002
   3.5878189077634584E-002  -1.0634915804677483E-002   3.2751558558121160E-002
   3.3340298327612983E-002  -9.8796648573229451E-003   3.2923264485669734E-002
   3.9411973094792399E-002  -1.1498355045182457E-002   3.9062805182117286E-002
   3.7085356501367427E-002  -1.0855041351396116E-002   3.8647677342790357E-002
   3.4758739907942468E-002  -1.0194950640962382E-002   3.8430841495090635E-002
   3.2432123314517440E-002  -9.5180829138811086E-003   3.8412297639018156E-002
   3.0105506721092523E-002  -8.8244381701524377E-003   3.8592045774572425E-002
   3.5409353994269484E-002  -1.0255158108632853E-002   4.4516123952060227E-002
   3.3268047227502269E-002  -9.6442233359101820E-003   4.4177188883034721E-002
   3.1126740460735051E-002  -9.0262539740609028E-003   4.4010581475697842E-002
   2.8985433693967819E-002  -8.4012500230845541E-003   4.4016301730049751E-002
   2.6844126927200625E-002  -7.7692114829820413E-003   4.4194349646088940E-002
   3.1484004026130746E-002  -9.0119611720831938E-003   4.9941935014699623E-002
   2.9502042756082397E-002  -8.4334053204241921E-003   4.9669450288455430E-002
   2.7520081486034090E-002  -7.8575573071592714E-003   4.9543328893960542E-002
   2.5538120215985706E-002  -7.2844171322885183E-003   4.9563570831215223E-002
   2.3556158945937378E-002  -6.7139847958117560E-003   4.9730176100218904E-002
   5.7151804772972561E-002   0.0000000000000000        3.4690866132111552E-002
   5.7941569469323329E-002  -2.0836025506814878E-003   3.8343249759468248E-002
   5.8731334165674096E-002  -4.1365144196787735E-003   4.2209314792384316E-002
   5.9521098862024870E-002  -6.1587356069918598E-003   4.6289061230859740E-002
   6.0310863558375644E-002  -8.1502661126207441E-003   5.0582489074894571E-002
   4.8651785757163807E-002   0.0000000000000000        3.2790327500784318E-002
   4.9590011303987117E-002  -1.7091146859726973E-003   3.6966039334947430E-002
   5.0528236850810419E-002  -3.4322000016290422E-003   4.1224991464496250E-002
   5.1466462397633736E-002  -5.1692559469690303E-003   4.5567183889430748E-002
   5.2404687944457032E-002  -6.9202825219926625E-003   4.9992616609751003E-002
   4.0731955477248026E-002   0.0000000000000000        3.1286607389849799E-002
   4.1688200764370208E-002  -1.3346268212639082E-003   3.5940986119451478E-002
   4.2644446051492396E-002  -2.7278855835793101E-003   4.0548164034265199E-002
   4.3600691338614564E-002  -4.1797762869462034E-003   4.5108141134290972E-002
   4.4556936625736752E-002  -5.6902989313645938E-003   4.9620917419528773E-002
   3.3392313933225219E-002   0.0000000000000000        3.0179705799307996E-002
   3.4236137850472609E-002  -9.6013895655511802E-004   3.5268090112980391E-002
   3.5079961767719998E-002  -2.0235711655295766E-003   4.0178832501691172E-002
   3.5923785684967388E-002  -3.1902966269233778E-003   4.4911932965440327E-002
   3.6767609602214785E-002  -4.4603153407365183E-003   4.9467391504227860E-002
   2.6632861125095379E-002   0.0000000000000000        2.9469622729158904E-002
   2.7233822562294313E-002  -5.8565109184632869E-004   3.4947351315534184E-002
   2.7834783999493247E-002  -1.3192567474798467E-003   4.0116996866774168E-002
   2.8435745436692181E-002  -2.2008169669005453E-003   4.4978559382878862E-002
   2.9036706873891122E-002  -3.2303317501084445E-003   4.9532038863848264E-002
   6.0310863558375644E-002  -8.1502661126207441E-003   5.0582489074894571E-002
   6.0610165997066215E-002  -1.0029102235952627E-002   5.1521623234943033E-002
   6.0909468435756828E-002  -1.1713240276374642E-002   5.2248501422374569E-002
   6.1208770874447406E-002  -1.3202680233886866E-002   5.2763123637189095E-002
   6.1508073313138012E-002  -1.4497422108489227E-002   5.3065489879386682E-002
   5.2404687944457032E-002  -6.9202825219926625E-003   4.9992616609751003E-002
   5.2530622062506763E-002  -8.5839321721779098E-003   5.1220773998109023E-002
   5.2656556180556501E-002  -1.0058857343002695E-002   5.2314450717802309E-002
   5.2782490298606238E-002  -1.1345058034467040E-002   5.3273646768830792E-002
   5.2908424416655969E-002  -1.2442534246570922E-002   5.4098362151194491E-002
   4.4556936625736752E-002  -5.6902989313645938E-003   4.9620917419528773E-002
   4.4587277727097821E-002  -7.1387621084032012E-003   5.1132124432646975E-002
   4.4617618828458883E-002  -8.4044744096307394E-003   5.2586626081052558E-002
   4.4647959929819937E-002  -9.4874358350472230E-003   5.3984422364745654E-002
   4.4678301031181020E-002  -1.0387646384652630E-002   5.5325513283726133E-002
   3.6767609602214785E-002  -4.4603153407365183E-003   4.9467391504227860E-002
   3.6780132990839376E-002  -5.6935920446284901E-003   5.1255674538556818E-002
   3.6792656379463988E-002  -6.7500914762587813E-003   5.3065027512125433E-002
   3.6805179768088600E-002  -7.6298136356273980E-003   5.4895450424933684E-002
   3.6817703156713191E-002  -8.3327585227343237E-003   5.6746943276981543E-002
   2.9036706873891122E-002  -3.2303317501084445E-003   4.9532038863848264E-002
   2.9109187853731462E-002  -4.2484219808537789E-003   5.1591424315838630E-002
   2.9181668833571796E-002  -5.0957085428868353E-003   5.3749655011020837E-002
   2.9254149813412143E-002  -5.7721914362075799E-003   5.6006730949394880E-002
   2.9326630793252477E-002  -6.2778706608160179E-003   5.8362652130960785E-002
   6.1508073313138012E-002  -1.4497422108489227E-002   5.3065489879386682E-002
   6.0186154124234711E-002  -1.5501210306938663E-002   5.1661060709611781E-002
   5.8864234935331411E-002  -1.6117789235991938E-002   5.0709429812434779E-002
   5.7542315746428110E-002  -1.6347158895649125E-002   5.0210597187855588E-002
   5.6220396557524824E-002  -1.6189319285910150E-002   5.0164562835874296E-002
   5.2908424416655969E-002  -1.2442534246570922E-002   5.4098362151194491E-002
   5.1987049321500792E-002  -1.3292426618849020E-002   5.3358030548420629E-002
   5.1065674226345642E-002  -1.3835875790835932E-002   5.2965988860545155E-002
   5.0144299131190471E-002  -1.4072881762531731E-002   5.2922237087568082E-002
   4.9222924036035329E-002  -1.4003444533936316E-002   5.3226775229489390E-002
   4.4678301031181020E-002  -1.0387646384652630E-002   5.5325513283726133E-002
   4.4052961672074509E-002  -1.1083642930759408E-002   5.5168513178848300E-002
   4.3427622312968019E-002  -1.1553962345679956E-002   5.5255294631169412E-002
   4.2802282953861528E-002  -1.1798604629414337E-002   5.5585857640689469E-002
   4.2176943594755018E-002  -1.1817569781962460E-002   5.6160202207408375E-002
   3.6817703156713191E-002  -8.3327585227343237E-003   5.6746943276981543E-002
   3.6383891175955869E-002  -8.8748592426697807E-003   5.7092508600894813E-002
   3.5950079195198548E-002  -9.2720489005239867E-003   5.7577347124307600E-002
   3.5516267214441219E-002  -9.5243274962969020E-003   5.8201458847219736E-002
   3.5082455233683911E-002  -9.6316950299886010E-003   5.8964843769631341E-002
   2.9326630793252477E-002  -6.2778706608160179E-003   5.8362652130960785E-002
   2.8979837833144853E-002  -6.6660755545801462E-003   5.9130016814560218E-002
   2.8633044873037226E-002  -6.9901354553679740E-003   5.9932146339959635E-002
   2.8286251912929598E-002  -7.2500503631795429E-003   6.0769040707159022E-002
   2.7939458952821974E-002  -7.4458202780147559E-003   6.1640699916158323E-002
   5.6220396557524824E-002  -1.6189319285910150E-002   5.0164562835874296E-002
   5.4719124510773529E-002  -1.5842980442187377E-002   4.9870388169209301E-002
   5.3217852464022240E-002  -1.5506852399893283E-002   4.9745964290375345E-002
   5.1716580417270952E-002  -1.5180935159027641E-002   4.9791291199372548E-002
   5.0215308370519657E-002  -1.4865228719590562E-002   5.0006368896200859E-002
   4.9222924036035329E-002  -1.4003444533936316E-002   5.3226775229489390E-002
   4.7897786048586376E-002  -1.3773227196069888E-002   5.2892929022915723E-002
   4.6572648061137423E-002  -1.3527892839952677E-002   5.2741600147115680E-002
   4.5247510073688470E-002  -1.3267441465584763E-002   5.2772788602089095E-002
   4.3922372086239503E-002  -1.2991873072965981E-002   5.2986494387835981E-002
   4.2176943594755018E-002  -1.1817569781962460E-002   5.6160202207408375E-002
   4.1040706209550762E-002  -1.1703473949952373E-002   5.5812012280605602E-002
   3.9904468824346506E-002  -1.1548933280012210E-002   5.5659106227518663E-002
   3.8768231439142257E-002  -1.1353947772141831E-002   5.5701484048147600E-002
   3.7631994053938009E-002  -1.1118517426341373E-002   5.5939145742492424E-002
   3.5082455233683911E-002  -9.6316950299886010E-003   5.8964843769631341E-002
   3.4147884993666701E-002  -9.6337207038348707E-003   5.8627637942278731E-002
   3.3213314753649498E-002  -9.5699737200717026E-003   5.8498482531584392E-002
   3.2278744513632288E-002  -9.4404540786989944E-003   5.8577377537548207E-002
   3.1344174273615077E-002  -9.2451617797167512E-003   5.8864322960170336E-002
   2.7939458952821974E-002  -7.4458202780147559E-003   6.1640699916158323E-002
   2.7219322400934172E-002  -7.5639674577173480E-003   6.1339806007935260E-002
   2.6499185849046383E-002  -7.5910141601311480E-003   6.1259729059312769E-002
   2.5779049297158581E-002  -7.5269603852560372E-003   6.1400469070290911E-002
   2.5058912745270792E-002  -7.3718061330921847E-003   6.1762026040869528E-002
   5.0215308370519657E-002  -1.4865228719590562E-002   5.0006368896200859E-002
   4.8680029421345208E-002  -1.4527948637423793E-002   4.9632400493003159E-002
   4.7144750472170760E-002  -1.4137310468368885E-002   4.9475960489697490E-002
   4.5609471522996312E-002  -1.3693314212426082E-002   4.9537048886283602E-002
   4.4074192573821835E-002  -1.3195959869595209E-002   4.9815665682761856E-002
   4.3922372086239503E-002  -1.2991873072965981E-002   5.2986494387835981E-002
   4.2599414218896202E-002  -1.2688233101439669E-002   5.2657069031782119E-002
   4.1276456351552845E-002  -1.2343566990349088E-002   5.2534757439498578E-002
   3.9953498484209531E-002  -1.1957874739694363E-002   5.2619559610985356E-002
   3.8630540616866216E-002  -1.1531156349475269E-002   5.2911475546242370E-002
   3.7631994053938009E-002  -1.1118517426341373E-002   5.5939145742492424E-002
   3.6510942632304103E-002  -1.0848517565455601E-002   5.5641931486258740E-002
   3.5389891210670189E-002  -1.0549823512329262E-002   5.5541416357673609E-002
   3.4268839789036276E-002  -1.0222435266962617E-002   5.5637600356737101E-002
   3.3147788367402370E-002  -9.8663528293553848E-003   5.5930483483449075E-002
   3.1344174273615077E-002  -9.2451617797167512E-003   5.8864322960170336E-002
   3.0414614661568914E-002  -9.0088020294714771E-003   5.8586987856432994E-002
   2.9485055049522722E-002  -8.7560800343095060E-003   5.8495937244222529E-002
   2.8555495437476548E-002  -8.4869957942308293E-003   5.8591171123538871E-002
   2.7625935825430364E-002  -8.2015493092354730E-003   5.8872689494382222E-002
   2.5058912745270792E-002  -7.3718061330921847E-003   6.1762026040869528E-002
   2.4310430306690646E-002  -7.1690864934874088E-003   6.1492238142304756E-002
   2.3561947868110486E-002  -6.9623365562896389E-003   6.1398320099145171E-002
   2.2813465429530340E-002  -6.7515563214991525E-003   6.1480271911390674E-002
   2.2064982990950194E-002  -6.5367457891155611E-003   6.1738093579041475E-002
   4.4074192573821835E-002  -1.3195959869595209E-002   4.9815665682761856E-002
   4.2325947609208311E-002  -1.2675677144628084E-002   4.9537894691108530E-002
   4.0577702644594760E-002  -1.2162895742276678E-002   4.9447893584544073E-002
   3.8829457679981208E-002  -1.1657615662540723E-002   4.9545662363068468E-002
   3.7081212715367684E-002  -1.1159836905420439E-002   4.9831201026681815E-002
   3.8630540616866216E-002  -1.1531156349475269E-002   5.2911475546242370E-002
   3.7076475591339891E-002  -1.1084472436029266E-002   5.2596716108216271E-002
   3.5522410565813581E-002  -1.0638883615693609E-002   5.2482546663275648E-002
   3.3968345540287277E-002  -1.0194389888468162E-002   5.2568967211420625E-002
   3.2414280514760960E-002  -9.7509912543529698E-003   5.2855977752651162E-002
   3.3147788367402370E-002  -9.8663528293553848E-003   5.5930483483449075E-002
   3.1800723388959937E-002  -9.4932677274304489E-003   5.5585141828555520E-002
   3.0453658410517538E-002  -9.1148714891104918E-003   5.5453210274744098E-002
   2.9106593432075115E-002  -8.7311641143955464E-003   5.5534688822014996E-002
   2.7759528453632706E-002  -8.3421456032855557E-003   5.5829577470368055E-002
   2.7625935825430364E-002  -8.2015493092354730E-003   5.8872689494382222E-002
   2.6498691002068506E-002  -7.9020630188317148E-003   5.8503171852126418E-002
   2.5371446178706659E-002  -7.5908593625273989E-003   5.8359884418949418E-002
   2.4244201355344809E-002  -7.2679383403230135E-003   5.8442827194851450E-002
   2.3116956531982955E-002  -6.9332999522180860E-003   5.8752000179832176E-002
   2.2064982990950194E-002  -6.5367457891155611E-003   6.1738093579041475E-002
   2.1170378430665548E-002  -6.3108583102328142E-003   6.1350806178928852E-002
   2.0275773870380931E-002  -6.0668472359443060E-003   6.1202569095891696E-002
   1.9381169310096293E-002  -5.8047125662503696E-003   6.1293382329930146E-002
   1.8486564749811682E-002  -5.5244543011506164E-003   6.1623245881044175E-002
   3.7081212715367684E-002  -1.1159836905420439E-002   4.9831201026681815E-002
   3.5681910543058415E-002  -1.0655073600227494E-002   4.9564019448036511E-002
   3.4282608370749201E-002  -1.0128839876273707E-002   4.9493414586491230E-002
   3.2883306198439988E-002  -9.5811357335589924E-003   4.9619386442045568E-002
   3.1484004026130746E-002  -9.0119611720831938E-003   4.9941935014699623E-002
   3.2414280514760960E-002  -9.7509912543529698E-003   5.2855977752651162E-002
   3.1204711455275841E-002  -9.3001472744410063E-003   5.2612860810941270E-002
   2.9995142395790715E-002  -8.8333175098248007E-003   5.2552633377779628E-002
   2.8785573336305593E-002  -8.3505019605045055E-003   5.2675295453166654E-002
   2.7576004276820443E-002  -7.8517006264802736E-003   5.2980847037101875E-002
   2.7759528453632706E-002  -8.3421456032855557E-003   5.5829577470368055E-002
   2.6726005298420299E-002  -7.9452209486543801E-003   5.5605040531536587E-002
   2.5692482143207886E-002  -7.5377951433760124E-003   5.5549705892702202E-002
   2.4658958987995496E-002  -7.1198681874500760E-003   5.5663573553864670E-002
   2.3625435832783072E-002  -6.6914400808771035E-003   5.5946643515024305E-002
   2.3116956531982955E-002  -6.9332999522180860E-003   5.8752000179832176E-002
   2.2245792072491867E-002  -6.5902946228677678E-003   5.8540558609822615E-002
   2.1374627613000775E-002  -6.2422727769271096E-003   5.8484632131258395E-002
   2.0503463153509684E-002  -5.8892344143955623E-003   5.8584220744139930E-002
   1.9632298694018599E-002  -5.5311795352739473E-003   5.8839324448467192E-002
   1.8486564749811682E-002  -5.5244543011506164E-003   6.1623245881044175E-002
   1.7764071777490523E-002  -5.2353682970812665E-003   6.1419415045799397E-002
   1.7041578805169356E-002  -4.9467504104782900E-003   6.1357412093448777E-002
   1.6319085832848194E-002  -4.6586006413412082E-003   6.1437237023992203E-002
   1.5596592860527017E-002  -4.3709189896709577E-003   6.1658889837430231E-002
   3.1484004026130746E-002  -9.0119611720831938E-003   4.9941935014699623E-002
   2.9502042756082397E-002  -8.4334053204241921E-003   4.9669450288455430E-002
   2.7520081486034090E-002  -7.8575573071592714E-003   4.9543328893960542E-002
   2.5538120215985706E-002  -7.2844171322885183E-003   4.9563570831215223E-002
   2.3556158945937378E-002  -6.7139847958117560E-003   4.9730176100218904E-002
   2.7576004276820443E-002  -7.8517006264802736E-003   5.2980847037101875E-002
   2.5761844419133789E-002  -7.3437328578933037E-003   5.2687051319756040E-002
   2.3947684561447108E-002  -6.8334180048851834E-003   5.2582495095384457E-002
   2.2133524703760496E-002  -6.3207560674562596E-003   5.2667178363986211E-002
   2.0319364846073773E-002  -5.8057470456061022E-003   5.2941101125562495E-002
   2.3625435832783072E-002  -6.6914400808771035E-003   5.5946643515024305E-002
   2.2021953548682562E-002  -6.2540603953622209E-003   5.5636591729392254E-002
   2.0418471264582076E-002  -5.8092787026111439E-003   5.5558655597958730E-002
   1.8814988980481555E-002  -5.3570950026239159E-003   5.5712835120723531E-002
   1.7211506696381093E-002  -4.8975092954004484E-003   5.6099130297687205E-002
   1.9632298694018599E-002  -5.5311795352739473E-003   5.8839324448467192E-002
   1.8282370144728746E-002  -5.1643879328312353E-003   5.8518071517364018E-002
   1.6932441595438899E-002  -4.7851394003370802E-003   5.8471810401683873E-002
   1.5582513046149082E-002  -4.3934339377916702E-003   5.8700541101426564E-002
   1.4232584496859196E-002  -3.9892715451947947E-003   5.9204263616592229E-002
   1.5596592860527017E-002  -4.3709189896709577E-003   6.1658889837430231E-002
   1.4543094207272317E-002  -4.0747154703003607E-003   6.1331490683671275E-002
   1.3489595554017610E-002  -3.7610000980630859E-003   6.1321959506559581E-002
   1.2436096900762864E-002  -3.4297728729593864E-003   6.1630296306095469E-002
   1.1382598247508202E-002  -3.0810337949891409E-003   6.2256501082278426E-002
   2.6632861125095379E-002   0.0000000000000000        2.9469622729158904E-002
   2.7233822562294313E-002  -5.8565109184632869E-004   3.4947351315534184E-002
   2.7834783999493247E-002  -1.3192567474798467E-003   4.0116996866774168E-002
   2.8435745436692181E-002  -2.2008169669005453E-003   4.4978559382878862E-002
   2.9036706873891122E-002  -3.2303317501084445E-003   4.9532038863848264E-002
   2.0116288474616044E-002   0.0000000000000000        2.9021908145454255E-002
   2.0448627545639773E-002  -4.3923831888017552E-004   3.4315208736880438E-002
   2.0780966616663499E-002  -9.8944256060757175E-004   3.9379347631091494E-002
   2.1113305687687232E-002  -1.6506127251821870E-003   4.4214324828087438E-002
   2.1445644758710958E-002  -2.4227488126040237E-003   4.8820140327868286E-002
   1.3505287403544734E-002   0.0000000000000000        2.8702112014245773E-002
   1.3647925446313429E-002  -2.9282554591402235E-004   3.3847973251662840E-002
   1.3790563489082124E-002  -6.5962837373529856E-004   3.8843594129784942E-002
   1.3933201531850820E-002  -1.1004084834638243E-003   4.3688974648612114E-002
   1.4075839574619518E-002  -1.6151658750996061E-003   4.8384114808144321E-002
   6.7998579118814448E-003   0.0000000000000000        2.8510234335533464E-002
   6.8317162643152813E-003  -1.4641277294786875E-004   3.3545644859881367E-002
   6.8635746167491152E-003  -3.2981418686302451E-004   3.8509736362854471E-002
   6.8954329691829509E-003  -5.5020424174546207E-004   4.3402508844452840E-002
   6.9272913216167856E-003  -8.0758293759518166E-004   4.8223962304676418E-002
  -3.7381469447650417E-013   0.0000000000000000        2.8446275109317319E-002
  -3.5466941883388614E-013   1.8283985436795547E-014   3.3408223561536027E-002
  -3.3552392635083361E-013   9.2478108504323586E-015   3.8377774330300145E-002
  -3.1637854228799833E-013  -2.7099850141709680E-014   4.3354927415609645E-002
  -2.9723315822516305E-013  -9.0768538518748443E-014   4.8339682817464549E-002
   2.9036706873891122E-002  -3.2303317501084445E-003   4.9532038863848264E-002
   2.9109187853731462E-002  -4.2484219808537789E-003   5.1591424315838630E-002
   2.9181668833571796E-002  -5.0957085428868353E-003   5.3749655011020837E-002
   2.9254149813412143E-002  -5.7721914362075799E-003   5.6006730949394880E-002
   2.9326630793252477E-002  -6.2778706608160179E-003   5.8362652130960785E-002
   2.1445644758710958E-002  -2.4227488126040237E-003   4.8820140327868286E-002
   2.1587729609705744E-002  -3.1863164856810481E-003   5.1220994549034532E-002
   2.1729814460700526E-002  -3.8217814072212244E-003   5.3662211269317819E-002
   2.1871899311695316E-002  -4.3291435772245517E-003   5.6143790488718183E-002
   2.2013984162690098E-002  -4.7084029956910439E-003   5.8665732207235595E-002
   1.4075839574619518E-002  -1.6151658750996061E-003   4.8384114808144321E-002
   1.4229045552693951E-002  -2.1242109905083104E-003   5.1083736881311008E-002
   1.4382251530768381E-002  -2.5478542715556196E-003   5.3765238709519964E-002
   1.4535457508842812E-002  -2.8860957182415339E-003   5.6428620292771153E-002
   1.4688663486917249E-002  -3.1389353305660492E-003   5.9073881631064598E-002
   6.9272913216167856E-003  -8.0758293759518166E-004   4.8223962304676418E-002
   7.0331356826960709E-003  -1.0621054953355797E-003   5.1179651312668092E-002
   7.1389800437753614E-003  -1.2739271358900152E-003   5.4058737331627228E-002
   7.2448244048546459E-003  -1.4430478592585144E-003   5.6861220361553819E-002
   7.3506687659339390E-003  -1.5694676654410648E-003   5.9587100402447891E-002
  -2.9723315822516305E-013  -9.0768538518748443E-014   4.8339682817464549E-002
  -2.8788516709399303E-013  -1.6284022741341886E-013   5.1508737843105772E-002
  -2.7853695912238852E-013  -2.2440924986322219E-013   5.4542707135639648E-002
  -2.6918885957100125E-013  -2.7549625991954430E-013   5.7441590695066214E-002
  -2.5984076001961398E-013  -3.1607355621687816E-013   6.0205388521385426E-002
   2.9326630793252477E-002  -6.2778706608160179E-003   5.8362652130960785E-002
   2.8979837833144853E-002  -6.6660755545801462E-003   5.9130016814560218E-002
   2.8633044873037226E-002  -6.9901354553679740E-003   5.9932146339959635E-002
   2.8286251912929598E-002  -7.2500503631795429E-003   6.0769040707159022E-002
   2.7939458952821974E-002  -7.4458202780147559E-003   6.1640699916158323E-002
   2.2013984162690098E-002  -4.7084029956910439E-003   5.8665732207235595E-002
   2.1714939393950562E-002  -4.9995566660449159E-003   5.9489533064025074E-002
   2.1415894625211034E-002  -5.2426015917104371E-003   6.0374065461750767E-002
   2.1116849856471498E-002  -5.4375377726876024E-003   6.1319329400412730E-002
   2.0817805087731969E-002  -5.5843652089764273E-003   6.2325324880010878E-002
   1.4688663486917249E-002  -3.1389353305660492E-003   5.9073881631064598E-002
   1.4463333608682100E-002  -3.3330377775096613E-003   5.9938082412756104E-002
   1.4238003730446949E-002  -3.4950677280528725E-003   6.0888981434520179E-002
   1.4012673852211803E-002  -3.6250251821956757E-003   6.1926578696356753E-002
   1.3787343973976650E-002  -3.7229101399381057E-003   6.3050874198265869E-002
   7.3506687659339390E-003  -1.5694676654410648E-003   5.9587100402447891E-002
   7.2250204773394583E-003  -1.6665188889744120E-003   6.0475664860753536E-002
   7.0993721887449750E-003  -1.7475338643953078E-003   6.1476894258267939E-002
   6.9737239001504969E-003  -1.8125125917037837E-003   6.2590788594991217E-002
   6.8480756115560162E-003  -1.8614550708997805E-003   6.3817347870923288E-002
  -2.5984076001961398E-013  -3.1607355621687816E-013   6.0205388521385426E-002
  -7.7366064943351631E-014  -4.3917300351914434E-013   6.1102280408017184E-002
   1.0510863013291072E-013  -7.3773799569298859E-013   6.2137803932994048E-002
   2.8758245784743508E-013  -1.2118140692296553E-012   6.3311959096316026E-002
   4.7005802028543542E-013  -1.8614693120255765E-012   6.4624745897983102E-002
   2.7939458952821974E-002  -7.4458202780147559E-003   6.1640699916158323E-002
   2.7219322400934172E-002  -7.5639674577173480E-003   6.1339806007935260E-002
   2.6499185849046383E-002  -7.5910141601311480E-003   6.1259729059312769E-002
   2.5779049297158581E-002  -7.5269603852560372E-003   6.1400469070290911E-002
   2.5058912745270792E-002  -7.3718061330921847E-003   6.1762026040869528E-002
   2.0817805087731969E-002  -5.5843652089764273E-003   6.2325324880010878E-002
   2.0308289790066124E-002  -5.6729755939129156E-003   6.2185140935396427E-002
   1.9798774492400289E-002  -5.6932606208331335E-003   6.2245382539625263E-002
   1.9289259194734454E-002  -5.6452202897371694E-003   6.2506049692697435E-002
   1.8779743897068608E-002  -5.5288546006249106E-003   6.2967142394612985E-002
   1.3787343973976650E-002  -3.7229101399381057E-003   6.3050874198265869E-002
   1.3468058519775507E-002  -3.7819837301084798E-003   6.3048625097987449E-002
   1.3148773065574361E-002  -3.7955070815352317E-003   6.3226410135795039E-002
   1.2829487611373211E-002  -3.7634801942182743E-003   6.3584229311688667E-002
   1.2510202157172065E-002  -3.6859030681576643E-003   6.4122082625668417E-002
   6.8480756115560162E-003  -1.8614550708997805E-003   6.3817347870923288E-002
   6.6986285900622992E-003  -1.8909918663040457E-003   6.3930258495708228E-002
   6.5491815685685814E-003  -1.8977535422372181E-003   6.4202811847821950E-002
   6.3997345470748670E-003  -1.8817400986993235E-003   6.4635007927264551E-002
   6.2502875255811465E-003  -1.8429515356904180E-003   6.5226846734035920E-002
   4.7005802028543542E-013  -1.8614693120255765E-012   6.4624745897983102E-002
   9.2651060434878474E-013  -2.4996046898984048E-012   6.4830041128558849E-002
   1.3829666578590860E-012  -2.9393189271420539E-012   6.5174587675706219E-002
   1.8394227113693873E-012  -3.1804428882176161E-012   6.5658385539425046E-002
   2.2958752954327366E-012  -3.2231439739405232E-012   6.6281434719715454E-002
   2.5058912745270792E-002  -7.3718061330921847E-003   6.1762026040869528E-002
   2.4310430306690646E-002  -7.1690864934874088E-003   6.1492238142304756E-002
   2.3561947868110486E-002  -6.9623365562896389E-003   6.1398320099145171E-002
   2.2813465429530340E-002  -6.7515563214991525E-003   6.1480271911390674E-002
   2.2064982990950194E-002  -6.5367457891155611E-003   6.1738093579041475E-002
   1.8779743897068608E-002  -5.5288546006249106E-003   6.2967142394612985E-002
   1.8209944002430103E-002  -5.3768148708804864E-003   6.2713320803310713E-002
   1.7640144107791595E-002  -5.2217524178880259E-003   6.2640994444486620E-002
   1.7070344213153094E-002  -5.0636672416475292E-003   6.2750163318140692E-002
   1.6500544318514596E-002  -4.9025593421588853E-003   6.3040827424272750E-002
   1.2510202157172065E-002  -3.6859030681576643E-003   6.4122082625668417E-002
   1.2124710183548127E-002  -3.5845432482736195E-003   6.3883219767283950E-002
   1.1739218209924195E-002  -3.4811682794864129E-003   6.3831477518450461E-002
   1.1353726236300257E-002  -3.3757781617959060E-003   6.3966855879168047E-002
   1.0968234262676319E-002  -3.2683728952022650E-003   6.4289354849436681E-002
   6.2502875255811465E-003  -1.8429515356904180E-003   6.5226846734035920E-002
   6.0547288500447122E-003  -1.7922716256667109E-003   6.5001935034224301E-002
   5.8591701745082719E-003  -1.7405841410847167E-003   6.4969769321036611E-002
   5.6636114989718402E-003  -1.6878890819442827E-003   6.5130349594472961E-002
   5.4680528234353973E-003  -1.6341864482455337E-003   6.5483675854533213E-002
   2.2958752954327366E-012  -3.2231439739405232E-012   6.6281434719715454E-002
   1.9198566347800039E-012  -3.0598440448059705E-012   6.6069466604131905E-002
   1.5438362394037952E-012  -2.6831453725506549E-012   6.6055869852245180E-002
   1.1678167113893245E-012  -2.0927044819263330E-012   6.6240644464055393E-002
   7.9179718337485383E-013  -1.2889689315898067E-012   6.6623790439562514E-002
   2.2064982990950194E-002  -6.5367457891155611E-003   6.1738093579041475E-002
   2.1170378430665548E-002  -6.3108583102328142E-003   6.1350806178928852E-002
   2.0275773870380931E-002  -6.0668472359443060E-003   6.1202569095891696E-002
   1.9381169310096293E-002  -5.8047125662503696E-003   6.1293382329930146E-002
   1.8486564749811682E-002  -5.5244543011506164E-003   6.1623245881044175E-002
   1.6500544318514596E-002  -4.9025593421588853E-003   6.3040827424272750E-002
   1.5841140281032687E-002  -4.7331437328182735E-003   6.2697676992415491E-002
   1.5181736243550792E-002  -4.5501354270213179E-003   6.2585877289088099E-002
   1.4522332206068893E-002  -4.3535344247682406E-003   6.2705428314290754E-002
   1.3862928168586988E-002  -4.1433407260591526E-003   6.3056330068023192E-002
   1.0968234262676319E-002  -3.2683728952022650E-003   6.4289354849436681E-002
   1.0536331159451497E-002  -3.1554291554036773E-003   6.3985810486885314E-002
   1.0104428056226668E-002  -3.0334236180982743E-003   6.3905917264318199E-002
   9.6725249530018407E-003  -2.9023562832863337E-003   6.4049675181735433E-002
   9.2406218497770136E-003  -2.7622271509676610E-003   6.4417084239136807E-002
   5.4680528234353973E-003  -1.6341864482455337E-003   6.5483675854533213E-002
   5.2559510659219832E-003  -1.5777145779890533E-003   6.5215206662338404E-002
   5.0438493084085795E-003  -1.5167118091752307E-003   6.5162689021582107E-002
   4.8317475508951636E-003  -1.4511781418044545E-003   6.5326122932264419E-002
   4.6196457933817539E-003  -1.3811135758761278E-003   6.5705508394385242E-002
   7.9179718337485383E-013  -1.2889689315898067E-012   6.6623790439562514E-002
   4.4414472100129387E-013  -5.7451265966790288E-013   6.6385865518774567E-002
   9.6502666968589779E-014  -2.5220103783141212E-013   6.6356192560879573E-002
  -2.5114806068149420E-013  -3.2234284685905834E-013   6.6534771565877490E-002
  -5.9879184943767427E-013  -7.8470563380506064E-013   6.6921602533768498E-002
   1.8486564749811682E-002  -5.5244543011506164E-003   6.1623245881044175E-002
   1.7764071777490523E-002  -5.2353682970812665E-003   6.1419415045799397E-002
   1.7041578805169356E-002  -4.9467504104782900E-003   6.1357412093448777E-002
   1.6319085832848194E-002  -4.6586006413412082E-003   6.1437237023992203E-002
   1.5596592860527017E-002  -4.3709189896709577E-003   6.1658889837430231E-002
   1.3862928168586988E-002  -4.1433407260591526E-003   6.3056330068023192E-002
   1.3291961919160017E-002  -3.9265262231064912E-003   6.2863118732475104E-002
   1.2720995669733046E-002  -3.7100628081228326E-003   6.2831132959821484E-002
   1.2150029420306074E-002  -3.4939504811083502E-003   6.2960372750062055E-002
   1.1579063170879103E-002  -3.2781892420628012E-003   6.3250838103196372E-002
   9.2406218497770136E-003  -2.7622271509676610E-003   6.4417084239136807E-002
   8.8405800032441452E-003  -2.6176841491316050E-003   6.4234609432783168E-002
   8.4405381567112751E-003  -2.4733752057675001E-003   6.4232757869323490E-002
   8.0404963101784119E-003  -2.3293003208752182E-003   6.4411529548757923E-002
   7.6404544636455331E-003  -2.1854594944548944E-003   6.4770924471086441E-002
   4.6196457933817539E-003  -1.3811135758761278E-003   6.5705508394385242E-002
   4.4099260297429032E-003  -1.3088420751568297E-003   6.5533887146722897E-002
   4.2002062661040482E-003  -1.2366876034120775E-003   6.5562286821954530E-002
   3.9904865024651941E-003  -1.1646501606421122E-003   6.5790707420080155E-002
   3.7807667388263357E-003  -1.0927297468469738E-003   6.6219148941099634E-002
  -5.9879184943767427E-013  -7.8470563380506064E-013   6.6921602533768498E-002
  -1.3437202739385867E-012  -1.1819711875915573E-012   6.6760951874294649E-002
  -2.0886417595455953E-012  -1.0566963970504162E-012   6.6819719817714646E-002
  -2.8335632451526038E-012  -4.0916922627864949E-013   6.7097906364028723E-002
  -3.5784916696535163E-012   7.6111339453177607E-013   6.7595511513236561E-002
   1.5596592860527017E-002  -4.3709189896709577E-003   6.1658889837430231E-002
   1.4543094207272317E-002  -4.0747154703003607E-003   6.1331490683671275E-002
   1.3489595554017610E-002  -3.7610000980630859E-003   6.1321959506559581E-002
   1.2436096900762864E-002  -3.4297728729593864E-003   6.1630296306095469E-002
   1.1382598247508202E-002  -3.0810337949891409E-003   6.2256501082278426E-002
   1.1579063170879103E-002  -3.2781892420628012E-003   6.3250838103196372E-002
   1.0829809166022546E-002  -3.0560366031179842E-003   6.3004059473920071E-002
   1.0080555161165995E-002  -2.8207500764046989E-003   6.3047902164792669E-002
   9.3313011563094621E-003  -2.5723296619232783E-003   6.3382366175814331E-002
   8.5820471514528873E-003  -2.3107753596736114E-003   6.4007451506984947E-002
   7.6404544636455331E-003  -2.1854594944548944E-003   6.4770924471086441E-002
   7.1681984506887404E-003  -2.0373577359356632E-003   6.4600388401194253E-002
   6.6959424377319460E-003  -1.8805000547463049E-003   6.4693226994952530E-002
   6.2236864247751456E-003  -1.7148864508870574E-003   6.5049440252361423E-002
   5.7514304118183451E-003  -1.5405169243578598E-003   6.5669028173420962E-002
   3.7807667388263357E-003  -1.0927297468469738E-003   6.6219148941099634E-002
   3.5582620612708777E-003  -1.0186788687532033E-003   6.6120477465493543E-002
   3.3357573837154157E-003  -9.4025003308785896E-004   6.6257933997039498E-002
   3.1132527061599521E-003  -8.5744323985078186E-004   6.6631518535737497E-002
   2.8907480286044958E-003  -7.7025848904216376E-004   6.7241231081587902E-002
  -3.5784916696535163E-012   7.6111339453177607E-013   6.7595511513236561E-002
  -2.2310348013476755E-012  -1.5709100686933652E-012   6.7564326666817887E-002
  -8.8357099414793083E-013  -1.1429510116123254E-011   6.7742023171053184E-002
   4.6388760888138592E-013  -2.8814697156098745E-011   6.8128601025942301E-002
   1.8113427424637507E-012  -5.3726578741475350E-011   6.8724060231484696E-002
  -3.7381469447650417E-013   0.0000000000000000        2.8446275109317319E-002
  -3.5466941883388614E-013   1.8283985436795547E-014   3.3408223561536027E-002
  -3.3552392635083361E-013   9.2478108504323586E-015   3.8377774330300145E-002
  -3.1637854228799833E-013  -2.7099850141709680E-014   4.3354927415609645E-002
  -2.9723315822516305E-013  -9.0768538518748443E-014   4.8339682817464549E-002
  -6.7998579126172295E-003   0.0000000000000000        2.8510234335594860E-002
  -6.8317162650153220E-003   1.4641277298234855E-004   3.3545644859912155E-002
  -6.8635746174134146E-003   3.2981418688311868E-004   3.8509736362849580E-002
  -6.8954329698115097E-003   5.5020424170230519E-004   4.3402508844407127E-002
  -6.9272913222096022E-003   8.0758293743990895E-004   4.8223962304584783E-002
  -1.3505287404244981E-002   0.0000000000000000        2.8702112014363595E-002
  -1.3647925446985582E-002   2.9282554594641571E-004   3.3847973251725214E-002
  -1.3790563489726182E-002   6.5962837375698521E-004   3.8843594129781681E-002
  -1.3933201532466783E-002   1.1004084834317137E-003   4.3688974648533004E-002
  -1.4075839575207387E-002   1.6151658749705973E-003   4.8384114807979176E-002
  -2.0116288475257066E-002   0.0000000000000000        2.9021908145623537E-002
  -2.0448627546265447E-002   4.3923831891048200E-004   3.4315208736975196E-002
  -2.0780966617273824E-002   9.8944256063085564E-004   3.9379347631096448E-002
  -2.1113305688282204E-002   1.6506127251611222E-003   4.4214324827987296E-002
  -2.1445644759290589E-002   2.4227488125012787E-003   4.8820140327647712E-002
  -2.6632861125653485E-002   0.0000000000000000        2.9469622729374666E-002
  -2.7233822562854917E-002   5.8565109187454830E-004   3.4947351315662123E-002
  -2.7834784000056345E-002   1.3192567475047209E-003   4.0116996866793889E-002
  -2.8435745437257777E-002   2.2008169668905290E-003   4.4978559382769984E-002
  -2.9036706874459205E-002   3.2303317500319605E-003   4.9532038863590394E-002
  -2.9723315822516305E-013  -9.0768538518748443E-014   4.8339682817464549E-002
  -2.8788516709399303E-013  -1.6284022741341886E-013   5.1508737843105772E-002
  -2.7853695912238852E-013  -2.2440924986322219E-013   5.4542707135639648E-002
  -2.6918885957100125E-013  -2.7549625991954430E-013   5.7441590695066214E-002
  -2.5984076001961398E-013  -3.1607355621687816E-013   6.0205388521385426E-002
  -6.9272913222096022E-003   8.0758293743990895E-004   4.8223962304584783E-002
  -7.0331356832674620E-003   1.0621054950475362E-003   5.1179651312596781E-002
  -7.1389800443253191E-003   1.2739271354767657E-003   5.4058737331581688E-002
  -7.2448244053831779E-003   1.4430478587275631E-003   5.6861220361539538E-002
  -7.3506687664410385E-003   1.5694676647999839E-003   5.9587100402470283E-002
  -1.4075839575207387E-002   1.6151658749705973E-003   4.8384114807979176E-002
  -1.4229045553252193E-002   2.1242109902579057E-003   5.1083736881173035E-002
  -1.4382251531297000E-002   2.5478542711779269E-003   5.3765238709420064E-002
  -1.4535457509341800E-002   2.8860957177306223E-003   5.6428620292720270E-002
  -1.4688663487386611E-002   3.1389353299160379E-003   5.9073881631073695E-002
  -2.1445644759290589E-002   2.4227488125012787E-003   4.8820140327647712E-002
  -2.1587729610242079E-002   3.1863164854682856E-003   5.1220994548834518E-002
  -2.1729814461193576E-002   3.8217814068790741E-003   5.3662211269154776E-002
  -2.1871899312145060E-002   4.3291435767336857E-003   5.6143790488608486E-002
  -2.2013984163096557E-002   4.7084029950321144E-003   5.8665732207195634E-002
  -2.9036706874459205E-002   3.2303317500319605E-003   4.9532038863590394E-002
  -2.9109187854237124E-002   4.2484219806786577E-003   5.1591424315581259E-002
  -2.9181668834015038E-002   5.0957085425802654E-003   5.3749655010785845E-002
  -2.9254149813792957E-002   5.7721914357367491E-003   5.6006730949204123E-002
  -2.9326630793570875E-002   6.2778706601481424E-003   5.8362652130836114E-002
  -2.5984076001961398E-013  -3.1607355621687816E-013   6.0205388521385426E-002
  -7.7366064943351631E-014  -4.3917300351914434E-013   6.1102280408017184E-002
   1.0510863013291072E-013  -7.3773799569298859E-013   6.2137803932994048E-002
   2.8758245784743508E-013  -1.2118140692296553E-012   6.3311959096316026E-002
   4.7005802028543542E-013  -1.8614693120255765E-012   6.4624745897983102E-002
  -7.3506687664410385E-003   1.5694676647999839E-003   5.9587100402470283E-002
  -7.2250204774960084E-003   1.6665188880871269E-003   6.0475664860471290E-002
  -7.0993721885509774E-003   1.7475338629821223E-003   6.1476894257652306E-002
  -6.9737238996059481E-003   1.8125125894849171E-003   6.2590788594013361E-002
  -6.8480756106609163E-003   1.8614550675955938E-003   6.3817347869554425E-002
  -1.4688663487386611E-002   3.1389353299160379E-003   5.9073881631073695E-002
  -1.4463333608844111E-002   3.3330377766133835E-003   5.9938082412227311E-002
  -1.4238003730301610E-002   3.4950677267019696E-003   6.0888981433395828E-002
  -1.4012673851759111E-002   3.6250251801817320E-003   6.1926578694579341E-002
  -1.3787343973216612E-002   3.7229101370526915E-003   6.3050874195777706E-002
  -2.2013984163096557E-002   4.7084029950321144E-003   5.8665732207195634E-002
  -2.1714939394121679E-002   4.9995566651396548E-003   5.9489533063285215E-002
  -2.1415894625146786E-002   5.2426015904217683E-003   6.0374065460224620E-002
  -2.1116849856171908E-002   5.4375377708785182E-003   6.1319329398013940E-002
  -2.0817805087197019E-002   5.5843652065097442E-003   6.2325324876653002E-002
  -2.9326630793570875E-002   6.2778706601481424E-003   5.8362652130836114E-002
  -2.8979837833328692E-002   6.6660755536659400E-003   5.9130016813645013E-002
  -2.8633044873086516E-002   6.9901354541417170E-003   5.9932146338138675E-002
  -2.8286251912844330E-002   7.2500503615753088E-003   6.0769040704317073E-002
  -2.7939458952602150E-002   7.4458202759668524E-003   6.1640699912180241E-002
   4.7005802028543542E-013  -1.8614693120255765E-012   6.4624745897983102E-002
   9.2651060434878474E-013  -2.4996046898984048E-012   6.4830041128558849E-002
   1.3829666578590860E-012  -2.9393189271420539E-012   6.5174587675706219E-002
   1.8394227113693873E-012  -3.1804428882176161E-012   6.5658385539425046E-002
   2.2958752954327366E-012  -3.2231439739405232E-012   6.6281434719715454E-002
  -6.8480756106609163E-003   1.8614550675955938E-003   6.3817347869554425E-002
  -6.6986285882824235E-003   1.8909918619229929E-003   6.3930258494568015E-002
  -6.5491815659039290E-003   1.8977535370759795E-003   6.4202811846854155E-002
  -6.3997345435254371E-003   1.8817400930545665E-003   6.4635007926412857E-002
  -6.2502875211469418E-003   1.8429515298586940E-003   6.5226846733244095E-002
  -1.3787343973216612E-002   3.7229101370526915E-003   6.3050874195777706E-002
  -1.3468058518215073E-002   3.7819837263455593E-003   6.3048625095856237E-002
  -1.3148773063213536E-002   3.7955070770912241E-003   6.3226410133908353E-002
  -1.2829487608212002E-002   3.7634801892895762E-003   6.3584229309934015E-002
  -1.2510202153210460E-002   3.6859030629406708E-003   6.4122082623933194E-002
  -2.0817805087197019E-002   5.5843652065097442E-003   6.2325324876653002E-002
  -2.0308289788871444E-002   5.6729755907681829E-003   6.2185140932423617E-002
  -1.9798774490545859E-002   5.6932606171065372E-003   6.2245382536868767E-002
  -1.9289259192220281E-002   5.6452202855245860E-003   6.2506049689988477E-002
  -1.8779743893894703E-002   5.5288545960225921E-003   6.2967142391782721E-002
  -2.7939458952602150E-002   7.4458202759668524E-003   6.1640699912180241E-002
  -2.7219322400251524E-002   7.5639674551907510E-003   6.1339806004270039E-002
  -2.6499185847900900E-002   7.5910141571217532E-003   6.1259729055735387E-002
  -2.5779049295550284E-002   7.5269603817596474E-003   6.1400469066576271E-002
  -2.5058912743199650E-002   7.3718061291044856E-003   6.1762026036792705E-002
   2.2958752954327366E-012  -3.2231439739405232E-012   6.6281434719715454E-002
   1.9198566347800039E-012  -3.0598440448059705E-012   6.6069466604131905E-002
   1.5438362394037952E-012  -2.6831453725506549E-012   6.6055869852245180E-002
   1.1678167113893245E-012  -2.0927044819263330E-012   6.6240644464055393E-002
   7.9179718337485383E-013  -1.2889689315898067E-012   6.6623790439562514E-002
  -6.2502875211469418E-003   1.8429515298586940E-003   6.5226846733244095E-002
  -6.0547288463018946E-003   1.7922716199670063E-003   6.5001935033561997E-002
  -5.8591701714568491E-003   1.7405841358575647E-003   6.4969769320625093E-002
  -5.6636114966118018E-003   1.6878890775308339E-003   6.5130349594433506E-002
  -5.4680528217667564E-003   1.6341864449864185E-003   6.5483675854987156E-002
  -1.2510202153210460E-002   3.6859030629406708E-003   6.4122082623933194E-002
  -1.2124710180095987E-002   3.5845432429938082E-003   6.3883219765721463E-002
  -1.1739218206981513E-002   3.4811682743983371E-003   6.3831477517303420E-002
  -1.1353726233867038E-002   3.3757781571543740E-003   6.3966855878678952E-002
  -1.0968234260752564E-002   3.2683728912618060E-003   6.4289354849848115E-002
  -1.8779743893894703E-002   5.5288545960225921E-003   6.2967142391782721E-002
  -1.8209943999462432E-002   5.3768148660206481E-003   6.2713320800610400E-002
  -1.7640144105030162E-002   5.2217524129390784E-003   6.2640994442280037E-002
  -1.7070344210597894E-002   5.0636672367778855E-003   6.2750163316791632E-002
  -1.6500544316165620E-002   4.9025593375371934E-003   6.3040827424145227E-002
  -2.5058912743199650E-002   7.3718061291044856E-003   6.1762026036792705E-002
  -2.4310430304401213E-002   7.1690864890474465E-003   6.1492238138228739E-002
  -2.3561947865602784E-002   6.9623365514797780E-003   6.1398320095555015E-002
  -2.2813465426804350E-002   6.7515563164014698E-003   6.1480271908771741E-002
  -2.2064982988005917E-002   6.5367457838125254E-003   6.1738093577878794E-002
   7.9179718337485383E-013  -1.2889689315898067E-012   6.6623790439562514E-002
   4.4414472100129387E-013  -5.7451265966790288E-013   6.6385865518774567E-002
   9.6502666968589779E-014  -2.5220103783141212E-013   6.6356192560879573E-002
  -2.5114806068149420E-013  -3.2234284685905834E-013   6.6534771565877490E-002
  -5.9879184943767427E-013  -7.8470563380506064E-013   6.6921602533768498E-002
  -5.4680528217667564E-003   1.6341864449864185E-003   6.5483675854987156E-002
  -5.2559510649177726E-003   1.5777145757574496E-003   6.5215206662303682E-002
  -5.0438493080687888E-003   1.5167118073769192E-003   6.5162689021120615E-002
  -4.8317475512198050E-003   1.4511781398446263E-003   6.5326122931437886E-002
  -4.6196457943708212E-003   1.3811135731606194E-003   6.5705508393255424E-002
  -1.0968234260752564E-002   3.2683728912618060E-003   6.4289354849848115E-002
  -1.0536331158099549E-002   3.1554291520893979E-003   6.3985810486509809E-002
  -1.0104428055446540E-002   3.0334236150059909E-003   6.3905917263279211E-002
  -9.6725249527935316E-003   2.9023562800114863E-003   6.4049675180156390E-002
  -9.2406218501405232E-003   2.7622271471060000E-003   6.4417084237141195E-002
  -1.6500544316165620E-002   4.9025593375371934E-003   6.3040827424145227E-002
  -1.5841140279101190E-002   4.7331437284213532E-003   6.2697676991392698E-002
  -1.5181736242036750E-002   4.5501354226349482E-003   6.2585877287355221E-002
  -1.4522332204972314E-002   4.3535344201784008E-003   6.2705428312032879E-002
  -1.3862928167907872E-002   4.1433407210513806E-003   6.3056330065425686E-002
  -2.2064982988005917E-002   6.5367457838125254E-003   6.1738093577878794E-002
  -2.1170378427922666E-002   6.3108583047533084E-003   6.1350806176952544E-002
  -2.0275773867839419E-002   6.0668472302641829E-003   6.1202569093348813E-002
  -1.9381169307756164E-002   5.8047125603453154E-003   6.1293382327067630E-002
  -1.8486564747672921E-002   5.5244542949967057E-003   6.1623245878108912E-002
  -5.9879184943767427E-013  -7.8470563380506064E-013   6.6921602533768498E-002
  -1.3437202739385867E-012  -1.1819711875915573E-012   6.6760951874294649E-002
  -2.0886417595455953E-012  -1.0566963970504162E-012   6.6819719817714646E-002
  -2.8335632451526038E-012  -4.0916922627864949E-013   6.7097906364028723E-002
  -3.5784916696535163E-012   7.6111339453177607E-013   6.7595511513236561E-002
  -4.6196457943708212E-003   1.3811135731606194E-003   6.5705508393255424E-002
  -4.4099260321146701E-003   1.3088420717837224E-003   6.5533887147035202E-002
  -4.2002062698585085E-003   1.2366876001726618E-003   6.5562286823923330E-002
  -3.9904865076023479E-003   1.1646501583271081E-003   6.5790707423919653E-002
  -3.7807667453461889E-003   1.0927297462472452E-003   6.6219148947024187E-002
  -9.2406218501405232E-003   2.7622271471060000E-003   6.4417084237141195E-002
  -8.8405800046688892E-003   2.6176841447494853E-003   6.4234609433417814E-002
  -8.4405381591972570E-003   2.4733752014019020E-003   6.4232757873017104E-002
  -8.0404963137256317E-003   2.3293003170631616E-003   6.4411529555938957E-002
  -7.6404544682539995E-003   2.1854594917334047E-003   6.4770924482183731E-002
  -1.3862928167907872E-002   4.1433407210513806E-003   6.3056330065425686E-002
  -1.3291961919006397E-002   3.9265262177151858E-003   6.2863118733442289E-002
  -1.2720995670104906E-002   3.7100628026311734E-003   6.2831132964996053E-002
  -1.2150029421203421E-002   3.4939504757993825E-003   6.2960372760086925E-002
  -1.1579063172301937E-002   3.2781892372195504E-003   6.3250838118714639E-002
  -1.8486564747672921E-002   5.5244542949967057E-003   6.1623245878108912E-002
  -1.7764071775127174E-002   5.2353682906809973E-003   6.1419415047108905E-002
  -1.7041578802581440E-002   4.9467504038604865E-003   6.1357412099860287E-002
  -1.6319085830035693E-002   4.6586006345354612E-003   6.1437237036363015E-002
  -1.5596592857489967E-002   4.3709189827057515E-003   6.1658889856617327E-002
  -3.5784916696535163E-012   7.6111339453177607E-013   6.7595511513236561E-002
  -2.2310348013476755E-012  -1.5709100686933652E-012   6.7564326666817887E-002
  -8.8357099414793083E-013  -1.1429510116123254E-011   6.7742023171053184E-002
   4.6388760888138592E-013  -2.8814697156098745E-011   6.8128601025942301E-002
   1.8113427424637507E-012  -5.3726578741475350E-011   6.8724060231484696E-002
  -3.7807667453461889E-003   1.0927297462472452E-003   6.6219148947024187E-002
  -3.5582620652116932E-003   1.0186788646694422E-003   6.6120477459454929E-002
  -3.3357573850771854E-003   9.4025001433016564E-004   6.6257933978805861E-002
  -3.1132527049426637E-003   8.5744319522948129E-004   6.6631518505077272E-002
  -2.8907480248081888E-003   7.7025840736744122E-004   6.7241231038269067E-002
  -7.6404544682539995E-003   2.1854594917334047E-003   6.4770924482183731E-002
  -7.1681984530657748E-003   2.0373577309098778E-003   6.4600388392228661E-002
  -6.6959424378775553E-003   1.8805000400900010E-003   6.4693226965460676E-002
  -6.2236864226893097E-003   1.7148864192738800E-003   6.5049440201879680E-002
  -5.7514304075010833E-003   1.5405168684613502E-003   6.5669028101485893E-002
  -1.1579063172301937E-002   3.2781892372195504E-003   6.3250838118714639E-002
  -1.0829809165793304E-002   3.0560365971503273E-003   6.3004059465139109E-002
  -1.0080555159284682E-002   2.8207500658497565E-003   6.3047902131017380E-002
  -9.3313011527760507E-003   2.5723296433181131E-003   6.3382366116348940E-002
  -8.5820471462674155E-003   2.3107753295553701E-003   6.4007451421134856E-002
  -1.5596592857489967E-002   4.3709189827057515E-003   6.1658889856617327E-002
  -1.4543094203394284E-002   4.0747154633904992E-003   6.1331490678186384E-002
  -1.3489595549298565E-002   3.7610000916095537E-003   6.1321959475475835E-002
  -1.2436096895202853E-002   3.4297728673624399E-003   6.1630296248485997E-002
  -1.1382598241107170E-002   3.0810337906492791E-003   6.2256500997216024E-002
  -2.6632861125653485E-002   0.0000000000000000        2.9469622729374666E-002
  -2.7233822562854917E-002   5.8565109187454830E-004   3.4947351315662123E-002
  -2.7834784000056345E-002   1.3192567475047209E-003   4.0116996866793889E-002
  -2.8435745437257777E-002   2.2008169668905290E-003   4.4978559382769984E-002
  -2.9036706874459205E-002   3.2303317500319605E-003   4.9532038863590394E-002
  -3.3392313933684442E-002   0.0000000000000000        3.0179705799561619E-002
  -3.4236137850951552E-002   9.6013895657552986E-004   3.5268090113130514E-002
  -3.5079961768218655E-002   2.0235711655477839E-003   4.0178832501723744E-002
  -3.5923785685485765E-002   3.1902966269167611E-003   4.4911932965341302E-002
  -3.6767609602752882E-002   4.4603153406824626E-003   4.9467391503983188E-002
  -4.0731955477600147E-002   0.0000000000000000        3.1286607390129006E-002
  -4.1688200764752908E-002   1.3346268212765136E-003   3.5940986119620433E-002
  -4.2644446051905684E-002   2.7278855835908443E-003   4.0548164034316221E-002
  -4.3600691339058459E-002   4.1797762869429976E-003   4.5108141134216337E-002
  -4.4556936626211227E-002   5.6902989313329672E-003   4.9620917419320808E-002
  -4.8651785757400597E-002   0.0000000000000000        3.2790327501076827E-002
  -4.9590011304259010E-002   1.7091146859774967E-003   3.6966039335131887E-002
  -5.0528236851117417E-002   3.4322000016339081E-003   4.1224991464571314E-002
  -5.1466462397975837E-002   5.1692559469692298E-003   4.5567183889395103E-002
  -5.2404687944834244E-002   6.9202825219834710E-003   4.9992616609603253E-002
  -5.7151804773085790E-002   0.0000000000000000        3.4690866132405081E-002
  -5.7941569469469829E-002   2.0836025506784797E-003   3.8343249759664869E-002
  -5.8731334165853868E-002   4.1365144196769659E-003   4.2209314792489037E-002
  -5.9521098862237921E-002   6.1587356069954663E-003   4.6289061230877587E-002
  -6.0310863558621960E-002   8.1502661126339731E-003   5.0582489074830511E-002
  -2.9036706874459205E-002   3.2303317500319605E-003   4.9532038863590394E-002
  -2.9109187854237124E-002   4.2484219806786577E-003   5.1591424315581259E-002
  -2.9181668834015038E-002   5.0957085425802654E-003   5.3749655010785845E-002
  -2.9254149813792957E-002   5.7721914357367491E-003   5.6006730949204123E-002
  -2.9326630793570875E-002   6.2778706601481424E-003   5.8362652130836114E-002
  -3.6767609602752882E-002   4.4603153406824626E-003   4.9467391503983188E-002
  -3.6780132991297988E-002   5.6935920444944384E-003   5.1255674538303840E-002
  -3.6792656379843101E-002   6.7500914760022252E-003   5.3065027511876368E-002
  -3.6805179768388221E-002   7.6298136352058324E-003   5.4895450424700835E-002
  -3.6817703156933335E-002   8.3327585221052505E-003   5.6746943276777165E-002
  -4.4556936626211227E-002   5.6902989313329672E-003   4.9620917419320808E-002
  -4.4587277727485351E-002   7.1387621083102253E-003   5.1132124432412163E-002
  -4.4617618828759469E-002   8.4044744094241997E-003   5.2586626080793578E-002
  -4.4647959930033593E-002   9.4874358346749357E-003   5.3984422364465115E-002
  -4.4678301031307703E-002   1.0387646384062362E-002   5.5325513283426719E-002
  -5.2404687944834244E-002   6.9202825219834710E-003   4.9992616609603253E-002
  -5.2530622062799182E-002   8.5839321721259913E-003   5.1220773997906199E-002
  -5.2656556180764112E-002   1.0058857342846179E-002   5.2314450717537424E-002
  -5.2782490298729036E-002   1.1345058034143995E-002   5.3273646768496968E-002
  -5.2908424416693980E-002   1.2442534246019472E-002   5.4098362150784729E-002
  -6.0310863558621960E-002   8.1502661126339731E-003   5.0582489074830511E-002
  -6.0610165997239514E-002   1.0029102235941788E-002   5.1521623234785985E-002
  -6.0909468435857067E-002   1.1713240276268149E-002   5.2248501422107921E-002
  -6.1208770874474620E-002   1.3202680233613116E-002   5.2763123636796368E-002
  -6.1508073313092167E-002   1.4497422107976575E-002   5.3065489878851256E-002
  -2.9326630793570875E-002   6.2778706601481424E-003   5.8362652130836114E-002
  -2.8979837833328692E-002   6.6660755536659400E-003   5.9130016813645013E-002
  -2.8633044873086516E-002   6.9901354541417170E-003   5.9932146338138675E-002
  -2.8286251912844330E-002   7.2500503615753088E-003   6.0769040704317073E-002
  -2.7939458952602150E-002   7.4458202759668524E-003   6.1640699912180241E-002
  -3.6817703156933335E-002   8.3327585221052505E-003   5.6746943276777165E-002
  -3.6383891176145863E-002   8.8748592418105912E-003   5.7092508599871659E-002
  -3.5950079195358385E-002   9.2720488994319592E-003   5.7577347122371988E-002
  -3.5516267214570921E-002   9.5243274949693441E-003   5.8201458844278138E-002
  -3.5082455233783449E-002   9.6316950284227182E-003   5.8964843765590122E-002
  -4.4678301031307703E-002   1.0387646384062362E-002   5.5325513283426719E-002
  -4.4052961672253865E-002   1.1083642929955242E-002   5.5168513177764909E-002
  -4.3427622313200027E-002   1.1553962344722245E-002   5.5255294629229970E-002
  -4.2802282954146176E-002   1.1798604628363367E-002   5.5585857637821992E-002
  -4.2176943595092338E-002   1.1817569780878584E-002   5.6160202203540857E-002
  -5.2908424416693980E-002   1.2442534246019472E-002   5.4098362150784729E-002
  -5.1987049321652698E-002   1.3292426618099921E-002   5.3358030547324714E-002
  -5.1065674226611409E-002   1.3835875790012508E-002   5.2965988858712704E-002
  -5.0144299131570133E-002   1.4072881761757423E-002   5.2922237084948649E-002
  -4.9222924036528858E-002   1.4003444533334478E-002   5.3226775226032627E-002
  -6.1508073313092167E-002   1.4497422107976575E-002   5.3065489878851256E-002
  -6.0186154124342361E-002   1.5501210306244538E-002   5.1661060708551178E-002
  -5.8864234935592577E-002   1.6117789235302812E-002   5.0709429810820120E-002
  -5.7542315746842772E-002   1.6347158895151450E-002   5.0210597185658082E-002
  -5.6220396558092973E-002   1.6189319285790343E-002   5.0164562833065168E-002
  -2.7939458952602150E-002   7.4458202759668524E-003   6.1640699912180241E-002
  -2.7219322400251524E-002   7.5639674551907510E-003   6.1339806004270039E-002
  -2.6499185847900900E-002   7.5910141571217532E-003   6.1259729055735387E-002
  -2.5779049295550284E-002   7.5269603817596474E-003   6.1400469066576271E-002
  -2.5058912743199650E-002   7.3718061291044856E-003   6.1762026036792705E-002
  -3.5082455233783449E-002   9.6316950284227182E-003   5.8964843765590122E-002
  -3.4147884993497066E-002   9.6337207019736373E-003   5.8627637938605544E-002
  -3.3213314753210675E-002   9.5699737178037876E-003   5.8498482528116985E-002
  -3.2278744512924291E-002   9.4404540759130372E-003   5.8577377534124349E-002
  -3.1344174272637915E-002   9.2451617763014138E-003   5.8864322956627732E-002
  -4.2176943595092338E-002   1.1817569780878584E-002   5.6160202203540857E-002
  -4.1040706209749769E-002   1.1703473948756551E-002   5.5812012277054165E-002
  -3.9904468824407208E-002   1.1548933278485850E-002   5.5659106224183873E-002
  -3.8768231439064639E-002   1.1353947770066429E-002   5.5701484044930000E-002
  -3.7631994053722084E-002   1.1118517423498370E-002   5.5939145739292470E-002
  -4.9222924036528858E-002   1.4003444533334478E-002   5.3226775226032627E-002
  -4.7897786049009697E-002   1.3773227195539424E-002   5.2892929019615897E-002
  -4.6572648061490508E-002   1.3527892839167912E-002   5.2741600143936009E-002
  -4.5247510073971320E-002   1.3267441464219862E-002   5.2772788598992988E-002
  -4.3922372086452138E-002   1.2991873070695312E-002   5.2986494384786753E-002
  -5.6220396558092973E-002   1.6189319285790343E-002   5.0164562833065168E-002
  -5.4719124511276751E-002   1.5842980442322296E-002   4.9870388166290663E-002
  -5.3217852464460549E-002   1.5506852399849995E-002   4.9745964287373476E-002
  -5.1716580417644355E-002   1.5180935158373222E-002   4.9791291196313474E-002
  -5.0215308370828132E-002   1.4865228717892254E-002   5.0006368893110720E-002
  -2.5058912743199650E-002   7.3718061291044856E-003   6.1762026036792705E-002
  -2.4310430304401213E-002   7.1690864890474465E-003   6.1492238138228739E-002
  -2.3561947865602784E-002   6.9623365514797780E-003   6.1398320095555015E-002
  -2.2813465426804350E-002   6.7515563164014698E-003   6.1480271908771741E-002
  -2.2064982988005917E-002   6.5367457838125254E-003   6.1738093577878794E-002
  -3.1344174272637915E-002   9.2451617763014138E-003   5.8864322956627732E-002
  -3.0414614659956977E-002   9.0088020253922679E-003   5.8586987853217573E-002
  -2.9485055047276037E-002   8.7560800296090369E-003   5.8495937241682082E-002
  -2.8555495434595110E-002   8.4869957889515679E-003   5.8591171122021238E-002
  -2.7625935821914159E-002   8.2015493034199305E-003   5.8872689494234992E-002
  -3.7631994053722084E-002   1.1118517423498370E-002   5.5939145739292470E-002
  -3.6510942631174353E-002   1.0848517561737124E-002   5.5641931483672580E-002
  -3.5389891208626595E-002   1.0549823507738289E-002   5.5541416355911720E-002
  -3.4268839786078857E-002   1.0222435261501692E-002   5.5637600356009745E-002
  -3.3147788363531105E-002   9.8663528230274189E-003   5.5930483483966870E-002
  -4.3922372086452138E-002   1.2991873070695312E-002   5.2986494384786753E-002
  -4.2599414218053279E-002   1.2688233098082032E-002   5.2657069029593745E-002
  -4.1276456349654420E-002   1.2343566985867433E-002   5.2534757438244012E-002
  -3.9953498481255588E-002   1.1957874734051858E-002   5.2619559610737505E-002
  -3.8630540612856694E-002   1.1531156342634838E-002   5.2911475547074371E-002
  -5.0215308370828132E-002   1.4865228717892254E-002   5.0006368893110720E-002
  -4.8680029420593858E-002   1.4527948634426802E-002   4.9632400490981055E-002
  -4.7144750470359556E-002   1.4137310463996758E-002   4.9475960488678888E-002
  -4.5609471520125268E-002   1.3693314206601945E-002   4.9537048886204346E-002
  -4.4074192569891008E-002   1.3195959862242368E-002   4.9815665683557331E-002
  -2.2064982988005917E-002   6.5367457838125254E-003   6.1738093577878794E-002
  -2.1170378427922666E-002   6.3108583047533084E-003   6.1350806176952544E-002
  -2.0275773867839419E-002   6.0668472302641829E-003   6.1202569093348813E-002
  -1.9381169307756164E-002   5.8047125603453154E-003   6.1293382327067630E-002
  -1.8486564747672921E-002   5.5244542949967057E-003   6.1623245878108912E-002
  -2.7625935821914159E-002   8.2015493034199305E-003   5.8872689494234992E-002
  -2.6498690998563737E-002   7.9020630125821723E-003   5.8503171850960795E-002
  -2.5371446175213298E-002   7.5908593560060633E-003   5.8359884416898350E-002
  -2.4244201351862886E-002   7.2679383336918257E-003   5.8442827192047866E-002
  -2.3116956528512440E-002   6.9332999456391264E-003   5.8752000176409080E-002
  -3.3147788363531105E-002   9.8663528230274189E-003   5.5930483483966870E-002
  -3.1800723385024147E-002   9.4932677204110361E-003   5.5585141828036103E-002
  -3.0453658406517155E-002   9.1148714817478327E-003   5.5453210273206585E-002
  -2.9106593428010179E-002   8.7311641070380031E-003   5.5534688819478234E-002
  -2.7759528449503201E-002   8.3421455962814917E-003   5.5829577466851174E-002
  -3.8630540612856694E-002   1.1531156342634838E-002   5.2911475547074371E-002
  -3.7076475587303856E-002   1.1084472428239900E-002   5.2596716108178690E-002
  -3.5522410561751025E-002   1.0638883607489713E-002   5.2482546662273574E-002
  -3.3968345536198201E-002   1.0194389880384347E-002   5.2568967209358997E-002
  -3.2414280510645335E-002   9.7509912469238014E-003   5.2855977749434985E-002
  -4.4074192569891008E-002   1.3195959862242368E-002   4.9815665683557331E-002
  -4.2325947605402925E-002   1.2675677136068764E-002   4.9537894691388390E-002
  -4.0577702640914856E-002   1.2162895733231510E-002   4.9447893584099289E-002
  -3.8829457676426787E-002   1.1657615653730642E-002   4.9545662361690043E-002
  -3.7081212711938719E-002   1.1159836897566222E-002   4.9831201024160721E-002
  -1.8486564747672921E-002   5.5244542949967057E-003   6.1623245878108912E-002
  -1.7764071775127174E-002   5.2353682906809973E-003   6.1419415047108905E-002
  -1.7041578802581440E-002   4.9467504038604865E-003   6.1357412099860287E-002
  -1.6319085830035693E-002   4.6586006345354612E-003   6.1437237036363015E-002
  -1.5596592857489967E-002   4.3709189827057515E-003   6.1658889856617327E-002
  -2.3116956528512440E-002   6.9332999456391264E-003   5.8752000176409080E-002
  -2.2245792068098964E-002   6.5902946162854359E-003   5.8540558609689819E-002
  -2.1374627607685527E-002   6.2422727700678499E-003   5.8484632134954417E-002
  -2.0503463147272083E-002   5.8892344069864690E-003   5.8584220752203084E-002
  -1.9632298686858618E-002   5.5311795270408526E-003   5.8839324461435694E-002
  -2.7759528449503201E-002   8.3421455962814917E-003   5.5829577466851174E-002
  -2.6726005292989498E-002   7.9452209418900133E-003   5.5605040530053287E-002
  -2.5692482136475764E-002   7.5377951362752757E-003   5.5549705893471808E-002
  -2.4658958979962054E-002   7.1198681794374229E-003   5.5663573557106993E-002
  -2.3625435823448320E-002   6.6914400713762590E-003   5.5946643520958725E-002
  -3.2414280510645335E-002   9.7509912469238014E-003   5.2855977749434985E-002
  -3.1204711449798771E-002   9.3001472674946323E-003   5.2612860808199213E-002
  -2.9995142388952230E-002   8.8333175024826981E-003   5.2552633375412508E-002
  -2.8785573328105652E-002   8.3505019518884047E-003   5.2675295451074952E-002
  -2.7576004267259101E-002   7.8517006157116237E-003   5.2980847035186504E-002
  -3.7081212711938719E-002   1.1159836897566222E-002   4.9831201024160721E-002
  -3.5681910538526762E-002   1.0655073593099001E-002   4.9564019444127860E-002
  -3.4282608365114826E-002   1.0128839868690051E-002   4.9493414580776440E-002
  -3.2883306191702877E-002   9.5811357243394922E-003   4.9619386434106863E-002
  -3.1484004018290934E-002   9.0119611600468774E-003   4.9941935004118920E-002
  -1.5596592857489967E-002   4.3709189827057515E-003   6.1658889856617327E-002
  -1.4543094203394284E-002   4.0747154633904992E-003   6.1331490678186384E-002
  -1.3489595549298565E-002   3.7610000916095537E-003   6.1321959475475835E-002
  -1.2436096895202853E-002   3.4297728673624399E-003   6.1630296248485997E-002
  -1.1382598241107170E-002   3.0810337906492791E-003   6.2256500997216024E-002
  -1.9632298686858618E-002   5.5311795270408526E-003   5.8839324461435694E-002
  -1.8282370137416203E-002   5.1643879251547231E-003   5.8518071505668123E-002
  -1.6932441587973766E-002   4.7851393962507482E-003   5.8471810364873672E-002
  -1.5582513038531308E-002   4.3934339403292472E-003   5.8700541039052243E-002
  -1.4232584489088915E-002   3.9892715573899284E-003   5.9204263528203738E-002
  -2.3625435823448320E-002   6.6914400713762590E-003   5.5946643520958725E-002
  -2.2021953539406572E-002   6.2540603869189193E-003   5.5636591713302930E-002
  -2.0418471255364827E-002   5.8092787008921162E-003   5.5558655559872890E-002
  -1.8814988971323027E-002   5.3570950132960562E-003   5.5712835060668403E-002
  -1.7211506687281334E-002   4.8975093241305778E-003   5.6099130215689519E-002
  -2.7576004267259101E-002   7.8517006157116237E-003   5.2980847035186504E-002
  -2.5761844409365405E-002   7.3437328486830739E-003   5.2687051301090540E-002
  -2.3947684551471685E-002   6.8334180055335640E-003   5.2582495060473168E-002
  -2.2133524693578044E-002   6.3207560862628088E-003   5.2667178313333875E-002
  -2.0319364835684292E-002   5.8057470908712827E-003   5.2941101059672910E-002
  -3.1484004018290934E-002   9.0119611600468774E-003   4.9941935004118920E-002
  -2.9502042747292706E-002   8.4334053104474505E-003   4.9669450269031468E-002
  -2.7520081476294450E-002   7.8575573101746787E-003   4.9543328866674841E-002
  -2.5538120205296201E-002   7.2844171592296725E-003   4.9563570797049261E-002
  -2.3556158934297966E-002   6.7139848576118766E-003   4.9730176060154285E-002
  -5.7151804773085790E-002   0.0000000000000000        3.4690866132405081E-002
  -5.7941569469469829E-002   2.0836025506784797E-003   3.8343249759664869E-002
  -5.8731334165853868E-002   4.1365144196769659E-003   4.2209314792489037E-002
  -5.9521098862237921E-002   6.1587356069954663E-003   4.6289061230877587E-002
  -6.0310863558621960E-002   8.1502661126339731E-003   5.0582489074830511E-002
  -6.5820062407285371E-002   0.0000000000000000        3.7211632360090514E-002
  -6.6625212498400810E-002   2.9138342749319684E-003   4.0834565056150067E-002
  -6.7430362589516263E-002   5.7701679720230797E-003   4.4213045557182445E-002
  -6.8235512680631702E-002   8.5690010912733428E-003   4.7347073863187636E-002
  -6.9040662771747155E-002   1.1310333632682742E-002   5.0236649974165673E-002
  -7.4244608542628987E-002   0.0000000000000000        4.0576035260109881E-002
  -7.5523277629067381E-002   3.7440659991854600E-003   4.4142707128808328E-002
  -7.6801946715505789E-002   7.4038215243691988E-003   4.7006793201888032E-002
  -7.8080615801944198E-002   1.0979266575551216E-002   4.9168293479349028E-002
  -7.9359284888382592E-002   1.4470401152731509E-002   5.0627207961191273E-002
  -8.2425443179116639E-002   0.0000000000000000        4.4784074832463161E-002
  -8.4635764861469551E-002   4.5742977234389517E-003   4.8267675977639639E-002
  -8.6846086543822462E-002   9.0374750767153109E-003   5.0590557726605839E-002
  -8.9056408226175360E-002   1.3389532059829082E-002   5.1752720079361728E-002
  -9.1266729908528271E-002   1.7630468672780265E-002   5.1754163035907359E-002
  -9.0362566316748327E-002   0.0000000000000000        4.9835751077150367E-002
  -9.3962674195607304E-002   5.4045294476924403E-003   5.3209471602644012E-002
  -9.7562782074466281E-002   1.0671128629061426E-002   5.4964339131335811E-002
 -0.10116288995332523        1.5799797544106965E-002   5.5100353663225778E-002
 -0.10476299783218423        2.0790536192829043E-002   5.3617515198313891E-002
  -6.0310863558621960E-002   8.1502661126339731E-003   5.0582489074830511E-002
  -6.0610165997239514E-002   1.0029102235941788E-002   5.1521623234785985E-002
  -6.0909468435857067E-002   1.1713240276268149E-002   5.2248501422107921E-002
  -6.1208770874474620E-002   1.3202680233613116E-002   5.2763123636796368E-002
  -6.1508073313092167E-002   1.4497422107976575E-002   5.3065489878851256E-002
  -6.9040662771747155E-002   1.1310333632682742E-002   5.0236649974165673E-002
  -6.9314518177377299E-002   1.3754557111072766E-002   4.9458956420642151E-002
  -6.9588373583007457E-002   1.5662063041264933E-002   4.8944412905726931E-002
  -6.9862228988637629E-002   1.7032851423259238E-002   4.8693019429420024E-002
  -7.0136084394267773E-002   1.7866922257055613E-002   4.8704775991721398E-002
  -7.9359284888382592E-002   1.4470401152731509E-002   5.0627207961191273E-002
  -7.9132287249783509E-002   1.7480011986203779E-002   4.7790667228972315E-002
  -7.8905289611184468E-002   1.9610885806261726E-002   4.5692682546603469E-002
  -7.8678291972585412E-002   2.0863022612905357E-002   4.4333253914084797E-002
  -7.8451294333986329E-002   2.1236422406134669E-002   4.3712381331416209E-002
  -9.1266729908528271E-002   1.7630468672780265E-002   5.1754163035907359E-002
  -9.0063473214458178E-002   2.1205466861334760E-002   4.6516755659776525E-002
  -8.8860216520388058E-002   2.3559708571258529E-002   4.2493310344737613E-002
  -8.7656959826317937E-002   2.4693193802551493E-002   3.9683827090790706E-002
  -8.6453703132247844E-002   2.4605922555213704E-002   3.8088305897935680E-002
 -0.10476299783218423        2.0790536192829043E-002   5.3617515198313891E-002
 -0.10210807607140124        2.4930921736465779E-002   4.5637221713054718E-002
  -9.9453154310618255E-002   2.7508531336255308E-002   3.9346296300129306E-002
  -9.6798232549835272E-002   2.8523364992197622E-002   3.4744738959537690E-002
  -9.4143310789052304E-002   2.7975422704292756E-002   3.1832549691279889E-002
  -6.1508073313092167E-002   1.4497422107976575E-002   5.3065489878851256E-002
  -6.0186154124342361E-002   1.5501210306244538E-002   5.1661060708551178E-002
  -5.8864234935592577E-002   1.6117789235302812E-002   5.0709429810820120E-002
  -5.7542315746842772E-002   1.6347158895151450E-002   5.0210597185658082E-002
  -5.6220396558092973E-002   1.6189319285790343E-002   5.0164562833065168E-002
  -7.0136084394267773E-002   1.7866922257055613E-002   4.8704775991721398E-002
  -6.8408038271493624E-002   1.8321347301396375E-002   4.7261584974372127E-002
  -6.6679992148719461E-002   1.8553198315023736E-002   4.6177849552502523E-002
  -6.4951946025945284E-002   1.8562475297937701E-002   4.5453569726112607E-002
  -6.3223899903171121E-002   1.8349178250138320E-002   4.5088745495202392E-002
  -7.8451294333986329E-002   2.1236422406134669E-002   4.3712381331416209E-002
  -7.6410463954277169E-002   2.1141484296548257E-002   4.2395063705514047E-002
  -7.4369633574568023E-002   2.0988607394744695E-002   4.1343858998002164E-002
  -7.2328803194858876E-002   2.0777791700724035E-002   4.0558767208880589E-002
  -7.0287972815149688E-002   2.0509037214486228E-002   4.0039788338149342E-002
  -8.6453703132247844E-002   2.4605922555213704E-002   3.8088305897935680E-002
  -8.4193431172693095E-002   2.3961621291700125E-002   3.7061496901976909E-002
  -8.1933159213138304E-002   2.3424016474465650E-002   3.6207458147319009E-002
  -7.9672887253583541E-002   2.2993108103510358E-002   3.5526189633962063E-002
  -7.7412615294028764E-002   2.2668896178834143E-002   3.5017691361906050E-002
  -9.4143310789052304E-002   2.7975422704292756E-002   3.1832549691279889E-002
  -9.1756939926741277E-002   2.6781758286851962E-002   3.1260884563760694E-002
  -8.9370569064430277E-002   2.5859425554186612E-002   3.0768647000453109E-002
  -8.6984198202119264E-002   2.5208424506296647E-002   3.0355837001357008E-002
  -8.4597827339808265E-002   2.4828755143182099E-002   3.0022454566472526E-002
  -5.6220396558092973E-002   1.6189319285790343E-002   5.0164562833065168E-002
  -5.4719124511276751E-002   1.5842980442322296E-002   4.9870388166290663E-002
  -5.3217852464460549E-002   1.5506852399849995E-002   4.9745964287373476E-002
  -5.1716580417644355E-002   1.5180935158373222E-002   4.9791291196313474E-002
  -5.0215308370828132E-002   1.4865228717892254E-002   5.0006368893110720E-002
  -6.3223899903171121E-002   1.8349178250138320E-002   4.5088745495202392E-002
  -6.1538829973048444E-002   1.8009898345965537E-002   4.4738457916457842E-002
  -5.9853760042925766E-002   1.7641226759759411E-002   4.4586015316469038E-002
  -5.8168690112803068E-002   1.7243163491520039E-002   4.4631417695235889E-002
  -5.6483620182680425E-002   1.6815708541247393E-002   4.4874665052758472E-002
  -7.0287972815149688E-002   2.0509037214486228E-002   4.0039788338149342E-002
  -6.8391010810822134E-002   2.0176816249608709E-002   3.9593785364405783E-002
  -6.6494048806494552E-002   1.9775601119668942E-002   3.9373721560316377E-002
  -6.4597086802166956E-002   1.9305391824666819E-002   3.9379596925881048E-002
  -6.2700124797839346E-002   1.8766188364602449E-002   3.9611411461099935E-002
  -7.7412615294028764E-002   2.2668896178834143E-002   3.5017691361906050E-002
  -7.5275667024597842E-002   2.2343734153251874E-002   3.4436370510134512E-002
  -7.3138718755166865E-002   2.1909975479578417E-002   3.4109083018915513E-002
  -7.1001770485735943E-002   2.1367620157813589E-002   3.4035828888249187E-002
  -6.8864822216304980E-002   2.0716668187957518E-002   3.4216608118135330E-002
  -8.4597827339808265E-002   2.4828755143182099E-002   3.0022454566472526E-002
  -8.2192798614375534E-002   2.4510652056895135E-002   2.9266213353644044E-002
  -7.9787769888942789E-002   2.4044349839487878E-002   2.8792099692266392E-002
  -7.7382741163510044E-002   2.3429848490960397E-002   2.8600113582339912E-002
  -7.4977712438077299E-002   2.2667148011312616E-002   2.8690255023864464E-002
  -5.0215308370828132E-002   1.4865228717892254E-002   5.0006368893110720E-002
  -4.8680029420593858E-002   1.4527948634426802E-002   4.9632400490981055E-002
  -4.7144750470359556E-002   1.4137310463996758E-002   4.9475960488678888E-002
  -4.5609471520125268E-002   1.3693314206601945E-002   4.9537048886204346E-002
  -4.4074192569891008E-002   1.3195959862242368E-002   4.9815665683557331E-002
  -5.6483620182680425E-002   1.6815708541247393E-002   4.4874665052758472E-002
  -5.4739278092314859E-002   1.6358880888519112E-002   4.4502682682704409E-002
  -5.2994936001949301E-002   1.5872699512912800E-002   4.4331298193085344E-002
  -5.1250593911583764E-002   1.5357164414428564E-002   4.4360511583901238E-002
  -4.9506251821218213E-002   1.4812275593066332E-002   4.4590322855151937E-002
  -6.2700124797839346E-002   1.8766188364602449E-002   3.9611411461099935E-002
  -6.0763650086735170E-002   1.8189813142611283E-002   3.9265419487208367E-002
  -5.8827175375631049E-002   1.7608088561828862E-002   3.9103094874358986E-002
  -5.6890700664526866E-002   1.7021014622255262E-002   3.9124437622551980E-002
  -5.4954225953422677E-002   1.6428591323890324E-002   3.9329447731787176E-002
  -6.8864822216304980E-002   2.0716668187957518E-002   3.4216608118135330E-002
  -6.6753145403854838E-002   2.0020745396703468E-002   3.3920610904492873E-002
  -6.4641468591404710E-002   1.9343477610744942E-002   3.3791350532499910E-002
  -6.2529791778954555E-002   1.8684864830081895E-002   3.3828827002156683E-002
  -6.0418114966504434E-002   1.8044907054714246E-002   3.4033040313463055E-002
  -7.4977712438077299E-002   2.2667148011312616E-002   2.8690255023864464E-002
  -7.2707764043673850E-002   2.1851677650795681E-002   2.8468256934557790E-002
  -7.0437815649270361E-002   2.1078866659661015E-002   2.8396065167507964E-002
  -6.8167867254866871E-002   2.0348715037908624E-002   2.8473679722715285E-002
  -6.5897918860463423E-002   1.9661222785538279E-002   2.8701100600179608E-002
  -4.4074192569891008E-002   1.3195959862242368E-002   4.9815665683557331E-002
  -4.2325947605402925E-002   1.2675677136068764E-002   4.9537894691388390E-002
  -4.0577702640914856E-002   1.2162895733231510E-002   4.9447893584099289E-002
  -3.8829457676426787E-002   1.1657615653730642E-002   4.9545662361690043E-002
  -3.7081212711938719E-002   1.1159836897566222E-002   4.9831201024160721E-002
  -4.9506251821218213E-002   1.4812275593066332E-002   4.4590322855151937E-002
  -4.7567067490443198E-002   1.4253182146682669E-002   4.4304029361598524E-002
  -4.5627883159668176E-002   1.3695033173134051E-002   4.4211844715739024E-002
  -4.3688698828893188E-002   1.3137828672420740E-002   4.4313768917573632E-002
  -4.1749514498118132E-002   1.2581568644542351E-002   4.4609801967102153E-002
  -5.4954225953422677E-002   1.6428591323890324E-002   3.9329447731787176E-002
  -5.2817763293546635E-002   1.5830687157296630E-002   3.9028074886348040E-002
  -5.0681300633670573E-002   1.5227170613036758E-002   3.8927149851416917E-002
  -4.8544837973794511E-002   1.4618041691110781E-002   3.9026672626993934E-002
  -4.6408375313918462E-002   1.4003300391518508E-002   3.9326643213079063E-002
  -6.0418114966504434E-002   1.8044907054714246E-002   3.4033040313463055E-002
  -5.8078035014713182E-002   1.7408192167910591E-002   3.3710031265636799E-002
  -5.5737955062921958E-002   1.6759308052939466E-002   3.3593808991132804E-002
  -5.3397875111130741E-002   1.6098254709800877E-002   3.3684373489951076E-002
  -5.1057795159339489E-002   1.5425032138494651E-002   3.3981724762091478E-002
  -6.5897918860463423E-002   1.9661222785538279E-002   2.8701100600179608E-002
  -6.3347882653942894E-002   1.8985697178524552E-002   2.8349898499465093E-002
  -6.0797846447422421E-002   1.8291445492842062E-002   2.8211822134886849E-002
  -5.8247810240901934E-002   1.7578467728490962E-002   2.8286871506444905E-002
  -5.5697774034381420E-002   1.6846763885470795E-002   2.8575046614139343E-002
  -3.7081212711938719E-002   1.1159836897566222E-002   4.9831201024160721E-002
  -3.5681910538526762E-002   1.0655073593099001E-002   4.9564019444127860E-002
  -3.4282608365114826E-002   1.0128839868690051E-002   4.9493414580776440E-002
  -3.2883306191702877E-002   9.5811357243394922E-003   4.9619386434106863E-002
  -3.1484004018290934E-002   9.0119611600468774E-003   4.9941935004118920E-002
  -4.1749514498118132E-002   1.2581568644542351E-002   4.4609801967102153E-002
  -4.0164474370899220E-002   1.2019327141902153E-002   4.4324033673423302E-002
  -3.8579434243680280E-002   1.1444178216902676E-002   4.4213164570676769E-002
  -3.6994394116461389E-002   1.0856121869544485E-002   4.4277194658862644E-002
  -3.5409353989242429E-002   1.0255158099827133E-002   4.4516123937980656E-002
  -4.6408375313918462E-002   1.4003300391518508E-002   3.9326643213079063E-002
  -4.4659274758641870E-002   1.3383580690705096E-002   3.9030851203337033E-002
  -4.2910174203365285E-002   1.2759516565115363E-002   3.8888280858778150E-002
  -4.1161073648088679E-002   1.2131108014749424E-002   3.8898932179402060E-002
  -3.9411973092812115E-002   1.1498355039607222E-002   3.9062805165209102E-002
  -5.1057795159339489E-002   1.5425032138494651E-002   3.3981724762091478E-002
  -4.9166311701754638E-002   1.4747834239508033E-002   3.3684472033869081E-002
  -4.7274828244169773E-002   1.4074854913328130E-002   3.3518763445080389E-002
  -4.5383344786584894E-002   1.3406094159954390E-002   3.3484598995725326E-002
  -4.3491861329000049E-002   1.2741551979387394E-002   3.3581978685803954E-002
  -5.5697774034381420E-002   1.6846763885470795E-002   2.8575046614139343E-002
  -5.3685585200237584E-002   1.6112087788311164E-002   2.8284896165019391E-002
  -5.1673396366093763E-002   1.5390193261540702E-002   2.8104612329583695E-002
  -4.9661207531949962E-002   1.4681080305159390E-002   2.8034195107832421E-002
  -4.7649018697806106E-002   1.3984748919167456E-002   2.8073644499765238E-002
  -3.1484004018290934E-002   9.0119611600468774E-003   4.9941935004118920E-002
  -2.9502042747292706E-002   8.4334053104474505E-003   4.9669450269031468E-002
  -2.7520081476294450E-002   7.8575573101746787E-003   4.9543328866674841E-002
  -2.5538120205296201E-002   7.2844171592296725E-003   4.9563570797049261E-002
  -2.3556158934297966E-002   6.7139848576118766E-003   4.9730176060154285E-002
  -3.5409353989242429E-002   1.0255158099827133E-002   4.4516123937980656E-002
  -3.3268047220717335E-002   9.6442233279215306E-003   4.4177188868725875E-002
  -3.1126740452192263E-002   9.0262539739982550E-003   4.4010581461793929E-002
  -2.8985433683667173E-002   8.4012500380576949E-003   4.4016301717184944E-002
  -2.6844126915142097E-002   7.7692115200993506E-003   4.4194349634898655E-002
  -3.9411973092812115E-002   1.1498355039607222E-002   3.9062805165209102E-002
  -3.7085356497168195E-002   1.0855041345395777E-002   3.8647677330442082E-002
  -3.4758739901524324E-002   1.0194950637821831E-002   3.8430841487590045E-002
  -3.2432123305880356E-002   9.5180829168856063E-003   3.8412297636652576E-002
  -3.0105506710236554E-002   8.8244381825869356E-003   3.8592045777630091E-002
  -4.3491861329000049E-002   1.2741551979387394E-002   3.3581978685803954E-002
  -4.0953970576645349E-002   1.2065859362870107E-002   3.3080915654179810E-002
  -3.8416079824290697E-002   1.1363647301645352E-002   3.2804108944062597E-002
  -3.5878189071935955E-002   1.0634915795713573E-002   3.2751558555452268E-002
  -3.3340298319581338E-002   9.8796648450743541E-003   3.2923264488348342E-002
  -4.7649018697806106E-002   1.3984748919167456E-002   2.8073644499765238E-002
  -4.4873889459148719E-002   1.3276677380344215E-002   2.7476903839939393E-002
  -4.2098760220491291E-002   1.2532343965468901E-002   2.7130383831212357E-002
  -3.9323630981833856E-002   1.1751748674541519E-002   2.7034084473583742E-002
  -3.6548501743176420E-002   1.0934891507561995E-002   2.7188005767054158E-002
  -9.0362566316748327E-002   0.0000000000000000        4.9835751077150367E-002
  -9.3962674195607304E-002   5.4045294476924403E-003   5.3209471602644012E-002
  -9.7562782074466281E-002   1.0671128629061426E-002   5.4964339131335811E-002
 -0.10116288995332523        1.5799797544106965E-002   5.5100353663225778E-002
 -0.10476299783218423        2.0790536192829043E-002   5.3617515198313891E-002
 -0.10329416489727973        0.0000000000000000        5.8664001039536728E-002
 -0.10683157678086953        1.0884594424648180E-002   5.2119232120013903E-002
 -0.11036898866445929        1.9172367010755607E-002   4.7318708187831307E-002
 -0.11390640054804910        2.4863317758322283E-002   4.4262429242988933E-002
 -0.11744381243163889        2.7957446667348215E-002   4.2950395285486768E-002
 -0.12645842586246653        0.0000000000000000        7.4201761764987481E-002
 -0.12657004376664507        1.6364659401603927E-002   5.5279611828230907E-002
 -0.12668166167082359        2.7673605392449799E-002   4.1464804862956624E-002
 -0.12679327957500217        3.3926837972537621E-002   3.2757340869164583E-002
 -0.12690489747918068        3.5124357141867381E-002   2.9157219846854838E-002
 -0.15985534921230871        0.0000000000000000        9.6449033253502625E-002
 -0.15317807515293394        2.1844724378559662E-002   6.2690610727294996E-002
 -0.14650080109355915        3.6174843774143969E-002   3.7402629156711706E-002
 -0.13982352703418441        4.2990358186752953E-002   2.0585088541752755E-002
 -0.13314625297480964        4.2291267616386553E-002   1.2237988882418080E-002
 -0.20348493494680625        0.0000000000000000       0.12540581550508217     
 -0.18665567093973612        2.7324789355515411E-002   7.4352228817206170E-002
 -0.16982640693266599        4.4676082155838168E-002   3.5132181069096595E-002
 -0.15299714292559588        5.2053878400968263E-002   7.7456722607533723E-003
 -0.13616787891852575        4.9458178090905726E-002  -7.8072976078234421E-003
 -0.10476299783218423        2.0790536192829043E-002   5.3617515198313891E-002
 -0.10210807607140124        2.4930921736465779E-002   4.5637221713054718E-002
  -9.9453154310618255E-002   2.7508531336255308E-002   3.9346296300129306E-002
  -9.6798232549835272E-002   2.8523364992197622E-002   3.4744738959537690E-002
  -9.4143310789052304E-002   2.7975422704292756E-002   3.1832549691279889E-002
 -0.11744381243163889        2.7957446667348215E-002   4.2950395285486768E-002
 -0.11348739013753155        2.9429221568290552E-002   3.6696632752394188E-002
 -0.10953096784342425        3.0253110291606579E-002   3.1356503213616521E-002
 -0.10557454554931693        3.0429112837296206E-002   2.6930006669153711E-002
 -0.10161812325520961        2.9957229205359509E-002   2.3417143119005855E-002
 -0.12690489747918068        3.5124357141867381E-002   2.9157219846854838E-002
 -0.12242270972976790        3.3927521400115360E-002   2.5544878032149713E-002
 -0.11794052198035515        3.2997689246957833E-002   2.2070434133740630E-002
 -0.11345833423094240        3.2334860682394793E-002   1.8733888151627520E-002
 -0.10897614648152960        3.1939035706426200E-002   1.5535240085810422E-002
 -0.13314625297480964        4.2291267616386553E-002   1.2237988882418080E-002
 -0.12891403484811031        3.8425821231940133E-002   1.2181957552321326E-002
 -0.12468181672141100        3.5742268202309108E-002   1.1488089060501598E-002
 -0.12044959859471170        3.4240608527493381E-002   1.0156383406959067E-002
 -0.11621738046801237        3.3920842207492898E-002   8.1868405916935439E-003
 -0.13616787891852575        4.9458178090905726E-002  -7.8072976078234421E-003
 -0.13296136549255877        4.2924121063764926E-002  -3.3921286870911560E-003
 -0.12975485206659182        3.8486847157660382E-002  -3.9053200610052012E-004
 -0.12654833864062487        3.6146356372591934E-002   1.1974924351482422E-003
 -0.12334182521465786        3.5902648708559637E-002   1.3719446366552701E-003
  -9.4143310789052304E-002   2.7975422704292756E-002   3.1832549691279889E-002
  -9.1756939926741277E-002   2.6781758286851962E-002   3.1260884563760694E-002
  -8.9370569064430277E-002   2.5859425554186612E-002   3.0768647000453109E-002
  -8.6984198202119264E-002   2.5208424506296647E-002   3.0355837001357008E-002
  -8.4597827339808265E-002   2.4828755143182099E-002   3.0022454566472526E-002
 -0.10161812325520961        2.9957229205359509E-002   2.3417143119005855E-002
  -9.9138384339026872E-002   2.9186505575809932E-002   2.3136976654572216E-002
  -9.6658645422844178E-002   2.8465988128661010E-002   2.2964118733670311E-002
  -9.4178906506661456E-002   2.7795676863912908E-002   2.2898569356300393E-002
  -9.1699167590478720E-002   2.7175571781565433E-002   2.2940328522462319E-002
 -0.10897614648152960        3.1939035706426200E-002   1.5535240085810422E-002
 -0.10637515853215489        3.1591252864767889E-002   1.5325446782087408E-002
 -0.10377417058278013        3.1072550703135544E-002   1.5250843001216718E-002
 -0.10117318263340538        3.0382929221529170E-002   1.5311428743198111E-002
  -9.8572194684030681E-002   2.9522388419948774E-002   1.5507204008031714E-002
 -0.11621738046801237        3.3920842207492898E-002   8.1868405916935439E-003
 -0.11346726250612532        3.3996000153725878E-002   7.8262949463066122E-003
 -0.11071714454423826        3.3679113277610022E-002   7.6288198030923108E-003
 -0.10796702658235119        3.2970181579145455E-002   7.5944151620502389E-003
 -0.10521690862046414        3.1869205058332059E-002   7.7230810231809456E-003
 -0.12334182521465786        3.5902648708559637E-002   1.3719446366552701E-003
 -0.12041469626093818        3.6400747442683817E-002   6.3952114722963527E-004
 -0.11748756730721846        3.6285675852084393E-002   9.8049139296944865E-005
 -0.11456043835349874        3.5557433936761675E-002  -2.5247138714301794E-004
 -0.11163330939977906        3.4216021696715448E-002  -4.1204043209008834E-004
  -8.4597827339808265E-002   2.4828755143182099E-002   3.0022454566472526E-002
  -8.2192798614375534E-002   2.4510652056895135E-002   2.9266213353644044E-002
  -7.9787769888942789E-002   2.4044349839487878E-002   2.8792099692266392E-002
  -7.7382741163510044E-002   2.3429848490960397E-002   2.8600113582339912E-002
  -7.4977712438077299E-002   2.2667148011312616E-002   2.8690255023864464E-002
  -9.1699167590478720E-002   2.7175571781565433E-002   2.2940328522462319E-002
  -8.9039131371040123E-002   2.6556380736288049E-002   2.2286991789616739E-002
  -8.6379095151601512E-002   2.5888811582750089E-002   2.1861542493331887E-002
  -8.3719058932162888E-002   2.5172864320951685E-002   2.1663980633607704E-002
  -8.1059022712724305E-002   2.4408538950892816E-002   2.1694306210444325E-002
  -9.8572194684030681E-002   2.9522388419948774E-002   1.5507204008031714E-002
  -9.5711391085476466E-002   2.8602109415681011E-002   1.5056592778028913E-002
  -9.2850587486922306E-002   2.7733273326012463E-002   1.4779628869696500E-002
  -8.9989783888368119E-002   2.6915880150943143E-002   1.4676312283034419E-002
  -8.7128980289813945E-002   2.6149929890472920E-002   1.4746643018042828E-002
 -0.10521690862046414        3.1869205058332059E-002   7.7230810231809456E-003
 -0.10220957775768466        3.0647838095073810E-002   7.5750163188805491E-003
  -9.9202246894905186E-002   2.9577735069274715E-002   7.5463588213602762E-003
  -9.6194916032125738E-002   2.8658895980934417E-002   7.6371085306202275E-003
  -9.3187585169346263E-002   2.7891320830053183E-002   7.8472654466601646E-003
 -0.11163330939977906        3.4216021696715448E-002  -4.1204043209008834E-004
 -0.10853369138766455        3.2693566774466887E-002  -1.5773758782833269E-004
 -0.10543407337555016        3.1422196812537023E-002   1.6173234832335404E-004
 -0.10233445536343572        3.0401911810925837E-002   5.4636937636461450E-004
  -9.9234837351321270E-002   2.9632711769633335E-002   9.9617349629610441E-004
  -7.4977712438077299E-002   2.2667148011312616E-002   2.8690255023864464E-002
  -7.2707764043673850E-002   2.1851677650795681E-002   2.8468256934557790E-002
  -7.0437815649270361E-002   2.1078866659661015E-002   2.8396065167507964E-002
  -6.8167867254866871E-002   2.0348715037908624E-002   2.8473679722715285E-002
  -6.5897918860463423E-002   1.9661222785538279E-002   2.8701100600179608E-002
  -8.1059022712724305E-002   2.4408538950892816E-002   2.1694306210444325E-002
  -7.8637552147830136E-002   2.3623550140288010E-002   2.1510231965203977E-002
  -7.6216081582935982E-002   2.2845612556851864E-002   2.1479395738688026E-002
  -7.3794611018041800E-002   2.2074726200584427E-002   2.1601797530896659E-002
  -7.1373140453147660E-002   2.1310891071485816E-002   2.1877437341829398E-002
  -8.7128980289813945E-002   2.6149929890472920E-002   1.4746643018042828E-002
  -8.4552555857961759E-002   2.5395422629780132E-002   1.4564884474655558E-002
  -8.1976131426109558E-002   2.4612358454042606E-002   1.4539795646460085E-002
  -7.9399706994257344E-002   2.3800737363260292E-002   1.4671376533456326E-002
  -7.6823282562405115E-002   2.2960559357433408E-002   1.4959627135644096E-002
  -9.3187585169346263E-002   2.7891320830053183E-002   7.8472654466601646E-003
  -9.0452775174068689E-002   2.7167295119272357E-002   7.6322144629126110E-003
  -8.7717965178791060E-002   2.6379104351233237E-002   7.5772648908238498E-003
  -8.4983155183513473E-002   2.5526748525936348E-002   7.6824167303942148E-003
  -8.2248345188235872E-002   2.4610227643380916E-002   7.9476699816239116E-003
  -9.9234837351321270E-002   2.9632711769633335E-002   9.9617349629610441E-004
  -9.6338210096150956E-002   2.8939167608764610E-002   7.1222192997447142E-004
  -9.3441582840980558E-002   2.8145850248424115E-002   5.9180347177940906E-004
  -9.0544955585810175E-002   2.7252759688612162E-002   6.3491812171078202E-004
  -8.7648328330639846E-002   2.6259895929328647E-002   8.4156587976852437E-004
  -6.5897918860463423E-002   1.9661222785538279E-002   2.8701100600179608E-002
  -6.3347882653942894E-002   1.8985697178524552E-002   2.8349898499465093E-002
  -6.0797846447422421E-002   1.8291445492842062E-002   2.8211822134886849E-002
  -5.8247810240901934E-002   1.7578467728490962E-002   2.8286871506444905E-002
  -5.5697774034381420E-002   1.6846763885470795E-002   2.8575046614139343E-002
  -7.1373140453147660E-002   2.1310891071485816E-002   2.1877437341829398E-002
  -6.8613476162824691E-002   2.0550116258445217E-002   2.1537988735346902E-002
  -6.5853811872501791E-002   1.9788410850351726E-002   2.1404670560333128E-002
  -6.3094147582178822E-002   1.9025774847205777E-002   2.1477482816787741E-002
  -6.0334483291855881E-002   1.8262208249007039E-002   2.1756425504710936E-002
  -7.6823282562405115E-002   2.2960559357433408E-002   1.4959627135644096E-002
  -7.3860985492947562E-002   2.2114535338365687E-002   1.4649727507009866E-002
  -7.0898688423489897E-002   2.1285376207861445E-002   1.4538963005176431E-002
  -6.7936391354032261E-002   2.0473081965920591E-002   1.4627333630143749E-002
  -6.4974094284574679E-002   1.9677652612543173E-002   1.4914839381911960E-002
  -8.2248345188235872E-002   2.4610227643380916E-002   7.9476699816239116E-003
  -7.9090410644311368E-002   2.3678954418286338E-002   7.6851148144538653E-003
  -7.5932476100386850E-002   2.2782341565370970E-002   7.6146994694170772E-003
  -7.2774541556462333E-002   2.1920389084635405E-002   7.7364239465129384E-003
  -6.9616607012537843E-002   2.1093096976079362E-002   8.0502882457422764E-003
  -8.7648328330639846E-002   2.6259895929328647E-002   8.4156587976852437E-004
  -8.4301751616916165E-002   2.5243373498206989E-002   6.4415065767892132E-004
  -8.0955174903192539E-002   2.4279306922880745E-002   6.3187995305470646E-004
  -7.7608598189468858E-002   2.3367696203350420E-002   8.0475376589575834E-004
  -7.4262021475745232E-002   2.2508541339615440E-002   1.1627720962017474E-003
  -5.5697774034381420E-002   1.6846763885470795E-002   2.8575046614139343E-002
  -5.3685585200237584E-002   1.6112087788311164E-002   2.8284896165019391E-002
  -5.1673396366093763E-002   1.5390193261540702E-002   2.8104612329583695E-002
  -4.9661207531949962E-002   1.4681080305159390E-002   2.8034195107832421E-002
  -4.7649018697806106E-002   1.3984748919167456E-002   2.8073644499765238E-002
  -6.0334483291855881E-002   1.8262208249007039E-002   2.1756425504710936E-002
  -5.8198337285857049E-002   1.7497903625321692E-002   2.1483581935752089E-002
  -5.6062191279858113E-002   1.6733053545716414E-002   2.1348786096818936E-002
  -5.3926045273859247E-002   1.5967658010190677E-002   2.1352037987911750E-002
  -5.1789899267860345E-002   1.5201717018744676E-002   2.1493337609030327E-002
  -6.4974094284574679E-002   1.9677652612543173E-002   1.4914839381911960E-002
  -6.2685809990379121E-002   1.8883719462332513E-002   1.4645975666804506E-002
  -6.0397525696183563E-002   1.8075913829892112E-002   1.4543340798064519E-002
  -5.8109241401987997E-002   1.7254235715221906E-002   1.4606934775691922E-002
  -5.5820957107792439E-002   1.6418685118321730E-002   1.4836757599686640E-002
  -6.9616607012537843E-002   2.1093096976079362E-002   8.0502882457422764E-003
  -6.7148003313804036E-002   2.0269535299343160E-002   7.7720773581766364E-003
  -6.4679399615070229E-002   1.9418774114067484E-002   7.6882764333200924E-003
  -6.2210795916336423E-002   1.8540813420252829E-002   7.7988854711728561E-003
  -5.9742192217602623E-002   1.7635653217898700E-002   8.1039044717342509E-003
  -7.4262021475745232E-002   2.2508541339615440E-002   1.1627720962017474E-003
  -7.1584917256131586E-002   2.1655351136353751E-002   8.6188700986861155E-004
  -6.8907813036517995E-002   2.0761634398243300E-002   7.8359300258618036E-004
  -6.6230708816904377E-002   1.9827391125284199E-002   9.2789007435438442E-004
  -6.3553604597290758E-002   1.8852621317475893E-002   1.2947782251727658E-003
  -4.7649018697806106E-002   1.3984748919167456E-002   2.8073644499765238E-002
  -4.4873889459148719E-002   1.3276677380344215E-002   2.7476903839939393E-002
  -4.2098760220491291E-002   1.2532343965468901E-002   2.7130383831212357E-002
  -3.9323630981833856E-002   1.1751748674541519E-002   2.7034084473583742E-002
  -3.6548501743176420E-002   1.0934891507561995E-002   2.7188005767054158E-002
  -5.1789899267860345E-002   1.5201717018744676E-002   2.1493337609030327E-002
  -4.8787413030281113E-002   1.4431251235111964E-002   2.0961173024896917E-002
  -4.5784926792701838E-002   1.3652281323025872E-002   2.0633501787508446E-002
  -4.2782440555122703E-002   1.2864807282486707E-002   2.0510323896864718E-002
  -3.9779954317543387E-002   1.2068829113494051E-002   2.0591639352966040E-002
  -5.5820957107792439E-002   1.6418685118321730E-002   1.4836757599686640E-002
  -5.2636841175645321E-002   1.5585825089879768E-002   1.4396926838844484E-002
  -4.9452725243498225E-002   1.4772218680582719E-002   1.4115862120393258E-002
  -4.6268609311351121E-002   1.3977865890431807E-002   1.3993563444333168E-002
  -4.3084493379204017E-002   1.3202766719426218E-002   1.4030030810663729E-002
  -5.9742192217602623E-002   1.7635653217898700E-002   8.1039044717342509E-003
  -5.6422173895241498E-002   1.6740398944647211E-002   7.7841652817819303E-003
  -5.3102155572880373E-002   1.5892156038140016E-002   7.5774648298668722E-003
  -4.9782137250519255E-002   1.5090924498376951E-002   7.4838031159888789E-003
  -4.6462118928158061E-002   1.4336704325358329E-002   7.5031801401478776E-003
  -6.3553604597290758E-002   1.8852621317475893E-002   1.2947782251727658E-003
  -6.0143411189069518E-002   1.7894972799415210E-002   1.1228883537093837E-003
  -5.6733217780848222E-002   1.7012093395696509E-002   1.0183099159292719E-003
  -5.3323024372626954E-002   1.6203983106322199E-002   9.8104291183269410E-004
  -4.9912830964405686E-002   1.5470641931290441E-002   1.0110873414184152E-003
 </DataArray>
 </PointData>
 </Piece>
 <Piece  NumberOfPoints="          1600 "  NumberOfCells="         1024 ">
 <Points>
 <DataArray  type="Float64" NumberOfComponents="3"  format="ascii" >
  0.50000000000000000        0.0000000000000000        0.0000000000000000     
  0.53125000000000000        0.0000000000000000        0.0000000000000000     
  0.56250000000000000        0.0000000000000000        0.0000000000000000     
  0.59375000000000000        0.0000000000000000        0.0000000000000000     
  0.62500000000000000        0.0000000000000000        0.0000000000000000     
  0.50000000000000000        3.1250000000000000E-002   0.0000000000000000     
  0.53125000000000000        3.1250000000000000E-002   0.0000000000000000     
  0.56250000000000000        3.1250000000000000E-002   0.0000000000000000     
  0.59375000000000000        3.1250000000000000E-002   0.0000000000000000     
  0.62500000000000000        3.1250000000000000E-002   0.0000000000000000     
  0.50000000000000000        6.2500000000000000E-002   0.0000000000000000     
  0.53125000000000000        6.2500000000000000E-002   0.0000000000000000     
  0.56250000000000000        6.2500000000000000E-002   0.0000000000000000     
  0.59375000000000000        6.2500000000000000E-002   0.0000000000000000     
  0.62500000000000000        6.2500000000000000E-002   0.0000000000000000     
  0.50000000000000000        9.3750000000000000E-002   0.0000000000000000     
  0.53125000000000000        9.3750000000000000E-002   0.0000000000000000     
  0.56250000000000000        9.3750000000000000E-002   0.0000000000000000     
  0.59375000000000000        9.3750000000000000E-002   0.0000000000000000     
  0.62500000000000000        9.3750000000000000E-002   0.0000000000000000     
  0.50000000000000000       0.12500000000000000        0.0000000000000000     
  0.53125000000000000       0.12500000000000000        0.0000000000000000     
  0.56250000000000000       0.12500000000000000        0.0000000000000000     
  0.59375000000000000       0.12500000000000000        0.0000000000000000     
  0.62500000000000000       0.12500000000000000        0.0000000000000000     
  0.62500000000000000        0.0000000000000000        0.0000000000000000     
  0.65625000000000000        0.0000000000000000        0.0000000000000000     
  0.68750000000000000        0.0000000000000000        0.0000000000000000     
  0.71875000000000000        0.0000000000000000        0.0000000000000000     
  0.75000000000000000        0.0000000000000000        0.0000000000000000     
  0.62500000000000000        3.1250000000000000E-002   0.0000000000000000     
  0.65625000000000000        3.1250000000000000E-002   0.0000000000000000     
  0.68750000000000000        3.1250000000000000E-002   0.0000000000000000     
  0.71875000000000000        3.1250000000000000E-002   0.0000000000000000     
  0.75000000000000000        3.1250000000000000E-002   0.0000000000000000     
  0.62500000000000000        6.2500000000000000E-002   0.0000000000000000     
  0.65625000000000000        6.2500000000000000E-002   0.0000000000000000     
  0.68750000000000000        6.2500000000000000E-002   0.0000000000000000     
  0.71875000000000000        6.2500000000000000E-002   0.0000000000000000     
  0.75000000000000000        6.2500000000000000E-002   0.0000000000000000     
  0.62500000000000000        9.3750000000000000E-002   0.0000000000000000     
  0.65625000000000000        9.3750000000000000E-002   0.0000000000000000     
  0.68750000000000000        9.3750000000000000E-002   0.0000000000000000     
  0.71875000000000000        9.3750000000000000E-002   0.0000000000000000     
  0.75000000000000000        9.3750000000000000E-002   0.0000000000000000     
  0.62500000000000000       0.12500000000000000        0.0000000000000000     
  0.65625000000000000       0.12500000000000000        0.0000000000000000     
  0.68750000000000000       0.12500000000000000        0.0000000000000000     
  0.71875000000000000       0.12500000000000000        0.0000000000000000     
  0.75000000000000000       0.12500000000000000        0.0000000000000000     
  0.75000000000000000        0.0000000000000000        0.0000000000000000     
  0.78125000000000000        0.0000000000000000        0.0000000000000000     
  0.81250000000000000        0.0000000000000000        0.0000000000000000     
  0.84375000000000000        0.0000000000000000        0.0000000000000000     
  0.87500000000000000        0.0000000000000000        0.0000000000000000     
  0.75000000000000000        3.1250000000000000E-002   0.0000000000000000     
  0.78125000000000000        3.1250000000000000E-002   0.0000000000000000     
  0.81250000000000000        3.1250000000000000E-002   0.0000000000000000     
  0.84375000000000000        3.1250000000000000E-002   0.0000000000000000     
  0.87500000000000000        3.1250000000000000E-002   0.0000000000000000     
  0.75000000000000000        6.2500000000000000E-002   0.0000000000000000     
  0.78125000000000000        6.2500000000000000E-002   0.0000000000000000     
  0.81250000000000000        6.2500000000000000E-002   0.0000000000000000     
  0.84375000000000000        6.2500000000000000E-002   0.0000000000000000     
  0.87500000000000000        6.2500000000000000E-002   0.0000000000000000     
  0.75000000000000000        9.3750000000000000E-002   0.0000000000000000     
  0.78125000000000000        9.3750000000000000E-002   0.0000000000000000     
  0.81250000000000000        9.3750000000000000E-002   0.0000000000000000     
  0.84375000000000000        9.3750000000000000E-002   0.0000000000000000     
  0.87500000000000000        9.3750000000000000E-002   0.0000000000000000     
  0.75000000000000000       0.12500000000000000        0.0000000000000000     
  0.78125000000000000       0.12500000000000000        0.0000000000000000     
  0.81250000000000000       0.12500000000000000        0.0000000000000000     
  0.84375000000000000       0.12500000000000000        0.0000000000000000     
  0.87500000000000000       0.12500000000000000        0.0000000000000000     
  0.87500000000000000        0.0000000000000000        0.0000000000000000     
  0.90625000000000000        0.0000000000000000        0.0000000000000000     
  0.93750000000000000        0.0000000000000000        0.0000000000000000     
  0.96875000000000000        0.0000000000000000        0.0000000000000000     
   1.0000000000000000        0.0000000000000000        0.0000000000000000     
  0.87500000000000000        3.1250000000000000E-002   0.0000000000000000     
  0.90625000000000000        3.1250000000000000E-002   0.0000000000000000     
  0.93750000000000000        3.1250000000000000E-002   0.0000000000000000     
  0.96875000000000000        3.1250000000000000E-002   0.0000000000000000     
   1.0000000000000000        3.1250000000000000E-002   0.0000000000000000     
  0.87500000000000000        6.2500000000000000E-002   0.0000000000000000     
  0.90625000000000000        6.2500000000000000E-002   0.0000000000000000     
  0.93750000000000000        6.2500000000000000E-002   0.0000000000000000     
  0.96875000000000000        6.2500000000000000E-002   0.0000000000000000     
   1.0000000000000000        6.2500000000000000E-002   0.0000000000000000     
  0.87500000000000000        9.3750000000000000E-002   0.0000000000000000     
  0.90625000000000000        9.3750000000000000E-002   0.0000000000000000     
  0.93750000000000000        9.3750000000000000E-002   0.0000000000000000     
  0.96875000000000000        9.3750000000000000E-002   0.0000000000000000     
   1.0000000000000000        9.3750000000000000E-002   0.0000000000000000     
  0.87500000000000000       0.12500000000000000        0.0000000000000000     
  0.90625000000000000       0.12500000000000000        0.0000000000000000     
  0.93750000000000000       0.12500000000000000        0.0000000000000000     
  0.96875000000000000       0.12500000000000000        0.0000000000000000     
   1.0000000000000000       0.12500000000000000        0.0000000000000000     
   1.0000000000000000        0.0000000000000000        0.0000000000000000     
   1.0312500000000000        0.0000000000000000        0.0000000000000000     
   1.0625000000000000        0.0000000000000000        0.0000000000000000     
   1.0937500000000000        0.0000000000000000        0.0000000000000000     
   1.1250000000000000        0.0000000000000000        0.0000000000000000     
   1.0000000000000000        3.1250000000000000E-002   0.0000000000000000     
   1.0312500000000000        3.1250000000000000E-002   0.0000000000000000     
   1.0625000000000000        3.1250000000000000E-002   0.0000000000000000     
   1.0937500000000000        3.1250000000000000E-002   0.0000000000000000     
   1.1250000000000000        3.1250000000000000E-002   0.0000000000000000     
   1.0000000000000000        6.2500000000000000E-002   0.0000000000000000     
   1.0312500000000000        6.2500000000000000E-002   0.0000000000000000     
   1.0625000000000000        6.2500000000000000E-002   0.0000000000000000     
   1.0937500000000000        6.2500000000000000E-002   0.0000000000000000     
   1.1250000000000000        6.2500000000000000E-002   0.0000000000000000     
   1.0000000000000000        9.3750000000000000E-002   0.0000000000000000     
   1.0312500000000000        9.3750000000000000E-002   0.0000000000000000     
   1.0625000000000000        9.3750000000000000E-002   0.0000000000000000     
   1.0937500000000000        9.3750000000000000E-002   0.0000000000000000     
   1.1250000000000000        9.3750000000000000E-002   0.0000000000000000     
   1.0000000000000000       0.12500000000000000        0.0000000000000000     
   1.0312500000000000       0.12500000000000000        0.0000000000000000     
   1.0625000000000000       0.12500000000000000        0.0000000000000000     
   1.0937500000000000       0.12500000000000000        0.0000000000000000     
   1.1250000000000000       0.12500000000000000        0.0000000000000000     
   1.1250000000000000        0.0000000000000000        0.0000000000000000     
   1.1562500000000000        0.0000000000000000        0.0000000000000000     
   1.1875000000000000        0.0000000000000000        0.0000000000000000     
   1.2187500000000000        0.0000000000000000        0.0000000000000000     
   1.2500000000000000        0.0000000000000000        0.0000000000000000     
   1.1250000000000000        3.1250000000000000E-002   0.0000000000000000     
   1.1562500000000000        3.1250000000000000E-002   0.0000000000000000     
   1.1875000000000000        3.1250000000000000E-002   0.0000000000000000     
   1.2187500000000000        3.1250000000000000E-002   0.0000000000000000     
   1.2500000000000000        3.1250000000000000E-002   0.0000000000000000     
   1.1250000000000000        6.2500000000000000E-002   0.0000000000000000     
   1.1562500000000000        6.2500000000000000E-002   0.0000000000000000     
   1.1875000000000000        6.2500000000000000E-002   0.0000000000000000     
   1.2187500000000000        6.2500000000000000E-002   0.0000000000000000     
   1.2500000000000000        6.2500000000000000E-002   0.0000000000000000     
   1.1250000000000000        9.3750000000000000E-002   0.0000000000000000     
   1.1562500000000000        9.3750000000000000E-002   0.0000000000000000     
   1.1875000000000000        9.3750000000000000E-002   0.0000000000000000     
   1.2187500000000000        9.3750000000000000E-002   0.0000000000000000     
   1.2500000000000000        9.3750000000000000E-002   0.0000000000000000     
   1.1250000000000000       0.12500000000000000        0.0000000000000000     
   1.1562500000000000       0.12500000000000000        0.0000000000000000     
   1.1875000000000000       0.12500000000000000        0.0000000000000000     
   1.2187500000000000       0.12500000000000000        0.0000000000000000     
   1.2500000000000000       0.12500000000000000        0.0000000000000000     
   1.2500000000000000        0.0000000000000000        0.0000000000000000     
   1.2812500000000000        0.0000000000000000        0.0000000000000000     
   1.3125000000000000        0.0000000000000000        0.0000000000000000     
   1.3437500000000000        0.0000000000000000        0.0000000000000000     
   1.3750000000000000        0.0000000000000000        0.0000000000000000     
   1.2500000000000000        3.1250000000000000E-002   0.0000000000000000     
   1.2812500000000000        3.1250000000000000E-002   0.0000000000000000     
   1.3125000000000000        3.1250000000000000E-002   0.0000000000000000     
   1.3437500000000000        3.1250000000000000E-002   0.0000000000000000     
   1.3750000000000000        3.1250000000000000E-002   0.0000000000000000     
   1.2500000000000000        6.2500000000000000E-002   0.0000000000000000     
   1.2812500000000000        6.2500000000000000E-002   0.0000000000000000     
   1.3125000000000000        6.2500000000000000E-002   0.0000000000000000     
   1.3437500000000000        6.2500000000000000E-002   0.0000000000000000     
   1.3750000000000000        6.2500000000000000E-002   0.0000000000000000     
   1.2500000000000000        9.3750000000000000E-002   0.0000000000000000     
   1.2812500000000000        9.3750000000000000E-002   0.0000000000000000     
   1.3125000000000000        9.3750000000000000E-002   0.0000000000000000     
   1.3437500000000000        9.3750000000000000E-002   0.0000000000000000     
   1.3750000000000000        9.3750000000000000E-002   0.0000000000000000     
   1.2500000000000000       0.12500000000000000        0.0000000000000000     
   1.2812500000000000       0.12500000000000000        0.0000000000000000     
   1.3125000000000000       0.12500000000000000        0.0000000000000000     
   1.3437500000000000       0.12500000000000000        0.0000000000000000     
   1.3750000000000000       0.12500000000000000        0.0000000000000000     
   1.3750000000000000        0.0000000000000000        0.0000000000000000     
   1.4062500000000000        0.0000000000000000        0.0000000000000000     
   1.4375000000000000        0.0000000000000000        0.0000000000000000     
   1.4687500000000000        0.0000000000000000        0.0000000000000000     
   1.5000000000000000        0.0000000000000000        0.0000000000000000     
   1.3750000000000000        3.1250000000000000E-002   0.0000000000000000     
   1.4062500000000000        3.1250000000000000E-002   0.0000000000000000     
   1.4375000000000000        3.1250000000000000E-002   0.0000000000000000     
   1.4687500000000000        3.1250000000000000E-002   0.0000000000000000     
   1.5000000000000000        3.1250000000000000E-002   0.0000000000000000     
   1.3750000000000000        6.2500000000000000E-002   0.0000000000000000     
   1.4062500000000000        6.2500000000000000E-002   0.0000000000000000     
   1.4375000000000000        6.2500000000000000E-002   0.0000000000000000     
   1.4687500000000000        6.2500000000000000E-002   0.0000000000000000     
   1.5000000000000000        6.2500000000000000E-002   0.0000000000000000     
   1.3750000000000000        9.3750000000000000E-002   0.0000000000000000     
   1.4062500000000000        9.3750000000000000E-002   0.0000000000000000     
   1.4375000000000000        9.3750000000000000E-002   0.0000000000000000     
   1.4687500000000000        9.3750000000000000E-002   0.0000000000000000     
   1.5000000000000000        9.3750000000000000E-002   0.0000000000000000     
   1.3750000000000000       0.12500000000000000        0.0000000000000000     
   1.4062500000000000       0.12500000000000000        0.0000000000000000     
   1.4375000000000000       0.12500000000000000        0.0000000000000000     
   1.4687500000000000       0.12500000000000000        0.0000000000000000     
   1.5000000000000000       0.12500000000000000        0.0000000000000000     
  0.50000000000000000       0.12500000000000000        0.0000000000000000     
  0.53125000000000000       0.12500000000000000        0.0000000000000000     
  0.56250000000000000       0.12500000000000000        0.0000000000000000     
  0.59375000000000000       0.12500000000000000        0.0000000000000000     
  0.62500000000000000       0.12500000000000000        0.0000000000000000     
  0.50000000000000000       0.15625000000000000        0.0000000000000000     
  0.53125000000000000       0.15625000000000000        0.0000000000000000     
  0.56250000000000000       0.15625000000000000        0.0000000000000000     
  0.59375000000000000       0.15625000000000000        0.0000000000000000     
  0.62500000000000000       0.15625000000000000        0.0000000000000000     
  0.50000000000000000       0.18750000000000000        0.0000000000000000     
  0.53125000000000000       0.18750000000000000        0.0000000000000000     
  0.56250000000000000       0.18750000000000000        0.0000000000000000     
  0.59375000000000000       0.18750000000000000        0.0000000000000000     
  0.62500000000000000       0.18750000000000000        0.0000000000000000     
  0.50000000000000000       0.21875000000000000        0.0000000000000000     
  0.53125000000000000       0.21875000000000000        0.0000000000000000     
  0.56250000000000000       0.21875000000000000        0.0000000000000000     
  0.59375000000000000       0.21875000000000000        0.0000000000000000     
  0.62500000000000000       0.21875000000000000        0.0000000000000000     
  0.50000000000000000       0.25000000000000000        0.0000000000000000     
  0.53125000000000000       0.25000000000000000        0.0000000000000000     
  0.56250000000000000       0.25000000000000000        0.0000000000000000     
  0.59375000000000000       0.25000000000000000        0.0000000000000000     
  0.62500000000000000       0.25000000000000000        0.0000000000000000     
  0.62500000000000000       0.12500000000000000        0.0000000000000000     
  0.65625000000000000       0.12500000000000000        0.0000000000000000     
  0.68750000000000000       0.12500000000000000        0.0000000000000000     
  0.71875000000000000       0.12500000000000000        0.0000000000000000     
  0.75000000000000000       0.12500000000000000        0.0000000000000000     
  0.62500000000000000       0.15625000000000000        0.0000000000000000     
  0.65625000000000000       0.15625000000000000        0.0000000000000000     
  0.68750000000000000       0.15625000000000000        0.0000000000000000     
  0.71875000000000000       0.15625000000000000        0.0000000000000000     
  0.75000000000000000       0.15625000000000000        0.0000000000000000     
  0.62500000000000000       0.18750000000000000        0.0000000000000000     
  0.65625000000000000       0.18750000000000000        0.0000000000000000     
  0.68750000000000000       0.18750000000000000        0.0000000000000000     
  0.71875000000000000       0.18750000000000000        0.0000000000000000     
  0.75000000000000000       0.18750000000000000        0.0000000000000000     
  0.62500000000000000       0.21875000000000000        0.0000000000000000     
  0.65625000000000000       0.21875000000000000        0.0000000000000000     
  0.68750000000000000       0.21875000000000000        0.0000000000000000     
  0.71875000000000000       0.21875000000000000        0.0000000000000000     
  0.75000000000000000       0.21875000000000000        0.0000000000000000     
  0.62500000000000000       0.25000000000000000        0.0000000000000000     
  0.65625000000000000       0.25000000000000000        0.0000000000000000     
  0.68750000000000000       0.25000000000000000        0.0000000000000000     
  0.71875000000000000       0.25000000000000000        0.0000000000000000     
  0.75000000000000000       0.25000000000000000        0.0000000000000000     
  0.75000000000000000       0.12500000000000000        0.0000000000000000     
  0.78125000000000000       0.12500000000000000        0.0000000000000000     
  0.81250000000000000       0.12500000000000000        0.0000000000000000     
  0.84375000000000000       0.12500000000000000        0.0000000000000000     
  0.87500000000000000       0.12500000000000000        0.0000000000000000     
  0.75000000000000000       0.15625000000000000        0.0000000000000000     
  0.78125000000000000       0.15625000000000000        0.0000000000000000     
  0.81250000000000000       0.15625000000000000        0.0000000000000000     
  0.84375000000000000       0.15625000000000000        0.0000000000000000     
  0.87500000000000000       0.15625000000000000        0.0000000000000000     
  0.75000000000000000       0.18750000000000000        0.0000000000000000     
  0.78125000000000000       0.18750000000000000        0.0000000000000000     
  0.81250000000000000       0.18750000000000000        0.0000000000000000     
  0.84375000000000000       0.18750000000000000        0.0000000000000000     
  0.87500000000000000       0.18750000000000000        0.0000000000000000     
  0.75000000000000000       0.21875000000000000        0.0000000000000000     
  0.78125000000000000       0.21875000000000000        0.0000000000000000     
  0.81250000000000000       0.21875000000000000        0.0000000000000000     
  0.84375000000000000       0.21875000000000000        0.0000000000000000     
  0.87500000000000000       0.21875000000000000        0.0000000000000000     
  0.75000000000000000       0.25000000000000000        0.0000000000000000     
  0.78125000000000000       0.25000000000000000        0.0000000000000000     
  0.81250000000000000       0.25000000000000000        0.0000000000000000     
  0.84375000000000000       0.25000000000000000        0.0000000000000000     
  0.87500000000000000       0.25000000000000000        0.0000000000000000     
  0.87500000000000000       0.12500000000000000        0.0000000000000000     
  0.90625000000000000       0.12500000000000000        0.0000000000000000     
  0.93750000000000000       0.12500000000000000        0.0000000000000000     
  0.96875000000000000       0.12500000000000000        0.0000000000000000     
   1.0000000000000000       0.12500000000000000        0.0000000000000000     
  0.87500000000000000       0.15625000000000000        0.0000000000000000     
  0.90625000000000000       0.15625000000000000        0.0000000000000000     
  0.93750000000000000       0.15625000000000000        0.0000000000000000     
  0.96875000000000000       0.15625000000000000        0.0000000000000000     
   1.0000000000000000       0.15625000000000000        0.0000000000000000     
  0.87500000000000000       0.18750000000000000        0.0000000000000000     
  0.90625000000000000       0.18750000000000000        0.0000000000000000     
  0.93750000000000000       0.18750000000000000        0.0000000000000000     
  0.96875000000000000       0.18750000000000000        0.0000000000000000     
   1.0000000000000000       0.18750000000000000        0.0000000000000000     
  0.87500000000000000       0.21875000000000000        0.0000000000000000     
  0.90625000000000000       0.21875000000000000        0.0000000000000000     
  0.93750000000000000       0.21875000000000000        0.0000000000000000     
  0.96875000000000000       0.21875000000000000        0.0000000000000000     
   1.0000000000000000       0.21875000000000000        0.0000000000000000     
  0.87500000000000000       0.25000000000000000        0.0000000000000000     
  0.90625000000000000       0.25000000000000000        0.0000000000000000     
  0.93750000000000000       0.25000000000000000        0.0000000000000000     
  0.96875000000000000       0.25000000000000000        0.0000000000000000     
   1.0000000000000000       0.25000000000000000        0.0000000000000000     
   1.0000000000000000       0.12500000000000000        0.0000000000000000     
   1.0312500000000000       0.12500000000000000        0.0000000000000000     
   1.0625000000000000       0.12500000000000000        0.0000000000000000     
   1.0937500000000000       0.12500000000000000        0.0000000000000000     
   1.1250000000000000       0.12500000000000000        0.0000000000000000     
   1.0000000000000000       0.15625000000000000        0.0000000000000000     
   1.0312500000000000       0.15625000000000000        0.0000000000000000     
   1.0625000000000000       0.15625000000000000        0.0000000000000000     
   1.0937500000000000       0.15625000000000000        0.0000000000000000     
   1.1250000000000000       0.15625000000000000        0.0000000000000000     
   1.0000000000000000       0.18750000000000000        0.0000000000000000     
   1.0312500000000000       0.18750000000000000        0.0000000000000000     
   1.0625000000000000       0.18750000000000000        0.0000000000000000     
   1.0937500000000000       0.18750000000000000        0.0000000000000000     
   1.1250000000000000       0.18750000000000000        0.0000000000000000     
   1.0000000000000000       0.21875000000000000        0.0000000000000000     
   1.0312500000000000       0.21875000000000000        0.0000000000000000     
   1.0625000000000000       0.21875000000000000        0.0000000000000000     
   1.0937500000000000       0.21875000000000000        0.0000000000000000     
   1.1250000000000000       0.21875000000000000        0.0000000000000000     
   1.0000000000000000       0.25000000000000000        0.0000000000000000     
   1.0312500000000000       0.25000000000000000        0.0000000000000000     
   1.0625000000000000       0.25000000000000000        0.0000000000000000     
   1.0937500000000000       0.25000000000000000        0.0000000000000000     
   1.1250000000000000       0.25000000000000000        0.0000000000000000     
   1.1250000000000000       0.12500000000000000        0.0000000000000000     
   1.1562500000000000       0.12500000000000000        0.0000000000000000     
   1.1875000000000000       0.12500000000000000        0.0000000000000000     
   1.2187500000000000       0.12500000000000000        0.0000000000000000     
   1.2500000000000000       0.12500000000000000        0.0000000000000000     
   1.1250000000000000       0.15625000000000000        0.0000000000000000     
   1.1562500000000000       0.15625000000000000        0.0000000000000000     
   1.1875000000000000       0.15625000000000000        0.0000000000000000     
   1.2187500000000000       0.15625000000000000        0.0000000000000000     
   1.2500000000000000       0.15625000000000000        0.0000000000000000     
   1.1250000000000000       0.18750000000000000        0.0000000000000000     
   1.1562500000000000       0.18750000000000000        0.0000000000000000     
   1.1875000000000000       0.18750000000000000        0.0000000000000000     
   1.2187500000000000       0.18750000000000000        0.0000000000000000     
   1.2500000000000000       0.18750000000000000        0.0000000000000000     
   1.1250000000000000       0.21875000000000000        0.0000000000000000     
   1.1562500000000000       0.21875000000000000        0.0000000000000000     
   1.1875000000000000       0.21875000000000000        0.0000000000000000     
   1.2187500000000000       0.21875000000000000        0.0000000000000000     
   1.2500000000000000       0.21875000000000000        0.0000000000000000     
   1.1250000000000000       0.25000000000000000        0.0000000000000000     
   1.1562500000000000       0.25000000000000000        0.0000000000000000     
   1.1875000000000000       0.25000000000000000        0.0000000000000000     
   1.2187500000000000       0.25000000000000000        0.0000000000000000     
   1.2500000000000000       0.25000000000000000        0.0000000000000000     
   1.2500000000000000       0.12500000000000000        0.0000000000000000     
   1.2812500000000000       0.12500000000000000        0.0000000000000000     
   1.3125000000000000       0.12500000000000000        0.0000000000000000     
   1.3437500000000000       0.12500000000000000        0.0000000000000000     
   1.3750000000000000       0.12500000000000000        0.0000000000000000     
   1.2500000000000000       0.15625000000000000        0.0000000000000000     
   1.2812500000000000       0.15625000000000000        0.0000000000000000     
   1.3125000000000000       0.15625000000000000        0.0000000000000000     
   1.3437500000000000       0.15625000000000000        0.0000000000000000     
   1.3750000000000000       0.15625000000000000        0.0000000000000000     
   1.2500000000000000       0.18750000000000000        0.0000000000000000     
   1.2812500000000000       0.18750000000000000        0.0000000000000000     
   1.3125000000000000       0.18750000000000000        0.0000000000000000     
   1.3437500000000000       0.18750000000000000        0.0000000000000000     
   1.3750000000000000       0.18750000000000000        0.0000000000000000     
   1.2500000000000000       0.21875000000000000        0.0000000000000000     
   1.2812500000000000       0.21875000000000000        0.0000000000000000     
   1.3125000000000000       0.21875000000000000        0.0000000000000000     
   1.3437500000000000       0.21875000000000000        0.0000000000000000     
   1.3750000000000000       0.21875000000000000        0.0000000000000000     
   1.2500000000000000       0.25000000000000000        0.0000000000000000     
   1.2812500000000000       0.25000000000000000        0.0000000000000000     
   1.3125000000000000       0.25000000000000000        0.0000000000000000     
   1.3437500000000000       0.25000000000000000        0.0000000000000000     
   1.3750000000000000       0.25000000000000000        0.0000000000000000     
   1.3750000000000000       0.12500000000000000        0.0000000000000000     
   1.4062500000000000       0.12500000000000000        0.0000000000000000     
   1.4375000000000000       0.12500000000000000        0.0000000000000000     
   1.4687500000000000       0.12500000000000000        0.0000000000000000     
   1.5000000000000000       0.12500000000000000        0.0000000000000000     
   1.3750000000000000       0.15625000000000000        0.0000000000000000     
   1.4062500000000000       0.15625000000000000        0.0000000000000000     
   1.4375000000000000       0.15625000000000000        0.0000000000000000     
   1.4687500000000000       0.15625000000000000        0.0000000000000000     
   1.5000000000000000       0.15625000000000000        0.0000000000000000     
   1.3750000000000000       0.18750000000000000        0.0000000000000000     
   1.4062500000000000       0.18750000000000000        0.0000000000000000     
   1.4375000000000000       0.18750000000000000        0.0000000000000000     
   1.4687500000000000       0.18750000000000000        0.0000000000000000     
   1.5000000000000000       0.18750000000000000        0.0000000000000000     
   1.3750000000000000       0.21875000000000000        0.0000000000000000     
   1.4062500000000000       0.21875000000000000        0.0000000000000000     
   1.4375000000000000       0.21875000000000000        0.0000000000000000     
   1.4687500000000000       0.21875000000000000        0.0000000000000000     
   1.5000000000000000       0.21875000000000000        0.0000000000000000     
   1.3750000000000000       0.25000000000000000        0.0000000000000000     
   1.4062500000000000       0.25000000000000000        0.0000000000000000     
   1.4375000000000000       0.25000000000000000        0.0000000000000000     
   1.4687500000000000       0.25000000000000000        0.0000000000000000     
   1.5000000000000000       0.25000000000000000        0.0000000000000000     
  0.50000000000000000       0.25000000000000000        0.0000000000000000     
  0.53125000000000000       0.25000000000000000        0.0000000000000000     
  0.56250000000000000       0.25000000000000000        0.0000000000000000     
  0.59375000000000000       0.25000000000000000        0.0000000000000000     
  0.62500000000000000       0.25000000000000000        0.0000000000000000     
  0.50000000000000000       0.28125000000000000        0.0000000000000000     
  0.53125000000000000       0.28125000000000000        0.0000000000000000     
  0.56250000000000000       0.28125000000000000        0.0000000000000000     
  0.59375000000000000       0.28125000000000000        0.0000000000000000     
  0.62500000000000000       0.28125000000000000        0.0000000000000000     
  0.50000000000000000       0.31250000000000000        0.0000000000000000     
  0.53125000000000000       0.31250000000000000        0.0000000000000000     
  0.56250000000000000       0.31250000000000000        0.0000000000000000     
  0.59375000000000000       0.31250000000000000        0.0000000000000000     
  0.62500000000000000       0.31250000000000000        0.0000000000000000     
  0.50000000000000000       0.34375000000000000        0.0000000000000000     
  0.53125000000000000       0.34375000000000000        0.0000000000000000     
  0.56250000000000000       0.34375000000000000        0.0000000000000000     
  0.59375000000000000       0.34375000000000000        0.0000000000000000     
  0.62500000000000000       0.34375000000000000        0.0000000000000000     
  0.50000000000000000       0.37500000000000000        0.0000000000000000     
  0.53125000000000000       0.37500000000000000        0.0000000000000000     
  0.56250000000000000       0.37500000000000000        0.0000000000000000     
  0.59375000000000000       0.37500000000000000        0.0000000000000000     
  0.62500000000000000       0.37500000000000000        0.0000000000000000     
  0.62500000000000000       0.25000000000000000        0.0000000000000000     
  0.65625000000000000       0.25000000000000000        0.0000000000000000     
  0.68750000000000000       0.25000000000000000        0.0000000000000000     
  0.71875000000000000       0.25000000000000000        0.0000000000000000     
  0.75000000000000000       0.25000000000000000        0.0000000000000000     
  0.62500000000000000       0.28125000000000000        0.0000000000000000     
  0.65625000000000000       0.28125000000000000        0.0000000000000000     
  0.68750000000000000       0.28125000000000000        0.0000000000000000     
  0.71875000000000000       0.28125000000000000        0.0000000000000000     
  0.75000000000000000       0.28125000000000000        0.0000000000000000     
  0.62500000000000000       0.31250000000000000        0.0000000000000000     
  0.65625000000000000       0.31250000000000000        0.0000000000000000     
  0.68750000000000000       0.31250000000000000        0.0000000000000000     
  0.71875000000000000       0.31250000000000000        0.0000000000000000     
  0.75000000000000000       0.31250000000000000        0.0000000000000000     
  0.62500000000000000       0.34375000000000000        0.0000000000000000     
  0.65625000000000000       0.34375000000000000        0.0000000000000000     
  0.68750000000000000       0.34375000000000000        0.0000000000000000     
  0.71875000000000000       0.34375000000000000        0.0000000000000000     
  0.75000000000000000       0.34375000000000000        0.0000000000000000     
  0.62500000000000000       0.37500000000000000        0.0000000000000000     
  0.65625000000000000       0.37500000000000000        0.0000000000000000     
  0.68750000000000000       0.37500000000000000        0.0000000000000000     
  0.71875000000000000       0.37500000000000000        0.0000000000000000     
  0.75000000000000000       0.37500000000000000        0.0000000000000000     
  0.75000000000000000       0.25000000000000000        0.0000000000000000     
  0.78125000000000000       0.25000000000000000        0.0000000000000000     
  0.81250000000000000       0.25000000000000000        0.0000000000000000     
  0.84375000000000000       0.25000000000000000        0.0000000000000000     
  0.87500000000000000       0.25000000000000000        0.0000000000000000     
  0.75000000000000000       0.28125000000000000        0.0000000000000000     
  0.78125000000000000       0.28125000000000000        0.0000000000000000     
  0.81250000000000000       0.28125000000000000        0.0000000000000000     
  0.84375000000000000       0.28125000000000000        0.0000000000000000     
  0.87500000000000000       0.28125000000000000        0.0000000000000000     
  0.75000000000000000       0.31250000000000000        0.0000000000000000     
  0.78125000000000000       0.31250000000000000        0.0000000000000000     
  0.81250000000000000       0.31250000000000000        0.0000000000000000     
  0.84375000000000000       0.31250000000000000        0.0000000000000000     
  0.87500000000000000       0.31250000000000000        0.0000000000000000     
  0.75000000000000000       0.34375000000000000        0.0000000000000000     
  0.78125000000000000       0.34375000000000000        0.0000000000000000     
  0.81250000000000000       0.34375000000000000        0.0000000000000000     
  0.84375000000000000       0.34375000000000000        0.0000000000000000     
  0.87500000000000000       0.34375000000000000        0.0000000000000000     
  0.75000000000000000       0.37500000000000000        0.0000000000000000     
  0.78125000000000000       0.37500000000000000        0.0000000000000000     
  0.81250000000000000       0.37500000000000000        0.0000000000000000     
  0.84375000000000000       0.37500000000000000        0.0000000000000000     
  0.87500000000000000       0.37500000000000000        0.0000000000000000     
  0.87500000000000000       0.25000000000000000        0.0000000000000000     
  0.90625000000000000       0.25000000000000000        0.0000000000000000     
  0.93750000000000000       0.25000000000000000        0.0000000000000000     
  0.96875000000000000       0.25000000000000000        0.0000000000000000     
   1.0000000000000000       0.25000000000000000        0.0000000000000000     
  0.87500000000000000       0.28125000000000000        0.0000000000000000     
  0.90625000000000000       0.28125000000000000        0.0000000000000000     
  0.93750000000000000       0.28125000000000000        0.0000000000000000     
  0.96875000000000000       0.28125000000000000        0.0000000000000000     
   1.0000000000000000       0.28125000000000000        0.0000000000000000     
  0.87500000000000000       0.31250000000000000        0.0000000000000000     
  0.90625000000000000       0.31250000000000000        0.0000000000000000     
  0.93750000000000000       0.31250000000000000        0.0000000000000000     
  0.96875000000000000       0.31250000000000000        0.0000000000000000     
   1.0000000000000000       0.31250000000000000        0.0000000000000000     
  0.87500000000000000       0.34375000000000000        0.0000000000000000     
  0.90625000000000000       0.34375000000000000        0.0000000000000000     
  0.93750000000000000       0.34375000000000000        0.0000000000000000     
  0.96875000000000000       0.34375000000000000        0.0000000000000000     
   1.0000000000000000       0.34375000000000000        0.0000000000000000     
  0.87500000000000000       0.37500000000000000        0.0000000000000000     
  0.90625000000000000       0.37500000000000000        0.0000000000000000     
  0.93750000000000000       0.37500000000000000        0.0000000000000000     
  0.96875000000000000       0.37500000000000000        0.0000000000000000     
   1.0000000000000000       0.37500000000000000        0.0000000000000000     
   1.0000000000000000       0.25000000000000000        0.0000000000000000     
   1.0312500000000000       0.25000000000000000        0.0000000000000000     
   1.0625000000000000       0.25000000000000000        0.0000000000000000     
   1.0937500000000000       0.25000000000000000        0.0000000000000000     
   1.1250000000000000       0.25000000000000000        0.0000000000000000     
   1.0000000000000000       0.28125000000000000        0.0000000000000000     
   1.0312500000000000       0.28125000000000000        0.0000000000000000     
   1.0625000000000000       0.28125000000000000        0.0000000000000000     
   1.0937500000000000       0.28125000000000000        0.0000000000000000     
   1.1250000000000000       0.28125000000000000        0.0000000000000000     
   1.0000000000000000       0.31250000000000000        0.0000000000000000     
   1.0312500000000000       0.31250000000000000        0.0000000000000000     
   1.0625000000000000       0.31250000000000000        0.0000000000000000     
   1.0937500000000000       0.31250000000000000        0.0000000000000000     
   1.1250000000000000       0.31250000000000000        0.0000000000000000     
   1.0000000000000000       0.34375000000000000        0.0000000000000000     
   1.0312500000000000       0.34375000000000000        0.0000000000000000     
   1.0625000000000000       0.34375000000000000        0.0000000000000000     
   1.0937500000000000       0.34375000000000000        0.0000000000000000     
   1.1250000000000000       0.34375000000000000        0.0000000000000000     
   1.0000000000000000       0.37500000000000000        0.0000000000000000     
   1.0312500000000000       0.37500000000000000        0.0000000000000000     
   1.0625000000000000       0.37500000000000000        0.0000000000000000     
   1.0937500000000000       0.37500000000000000        0.0000000000000000     
   1.1250000000000000       0.37500000000000000        0.0000000000000000     
   1.1250000000000000       0.25000000000000000        0.0000000000000000     
   1.1562500000000000       0.25000000000000000        0.0000000000000000     
   1.1875000000000000       0.25000000000000000        0.0000000000000000     
   1.2187500000000000       0.25000000000000000        0.0000000000000000     
   1.2500000000000000       0.25000000000000000        0.0000000000000000     
   1.1250000000000000       0.28125000000000000        0.0000000000000000     
   1.1562500000000000       0.28125000000000000        0.0000000000000000     
   1.1875000000000000       0.28125000000000000        0.0000000000000000     
   1.2187500000000000       0.28125000000000000        0.0000000000000000     
   1.2500000000000000       0.28125000000000000        0.0000000000000000     
   1.1250000000000000       0.31250000000000000        0.0000000000000000     
   1.1562500000000000       0.31250000000000000        0.0000000000000000     
   1.1875000000000000       0.31250000000000000        0.0000000000000000     
   1.2187500000000000       0.31250000000000000        0.0000000000000000     
   1.2500000000000000       0.31250000000000000        0.0000000000000000     
   1.1250000000000000       0.34375000000000000        0.0000000000000000     
   1.1562500000000000       0.34375000000000000        0.0000000000000000     
   1.1875000000000000       0.34375000000000000        0.0000000000000000     
   1.2187500000000000       0.34375000000000000        0.0000000000000000     
   1.2500000000000000       0.34375000000000000        0.0000000000000000     
   1.1250000000000000       0.37500000000000000        0.0000000000000000     
   1.1562500000000000       0.37500000000000000        0.0000000000000000     
   1.1875000000000000       0.37500000000000000        0.0000000000000000     
   1.2187500000000000       0.37500000000000000        0.0000000000000000     
   1.2500000000000000       0.37500000000000000        0.0000000000000000     
   1.2500000000000000       0.25000000000000000        0.0000000000000000     
   1.2812500000000000       0.25000000000000000        0.0000000000000000     
   1.3125000000000000       0.25000000000000000        0.0000000000000000     
   1.3437500000000000       0.25000000000000000        0.0000000000000000     
   1.3750000000000000       0.25000000000000000        0.0000000000000000     
   1.2500000000000000       0.28125000000000000        0.0000000000000000     
   1.2812500000000000       0.28125000000000000        0.0000000000000000     
   1.3125000000000000       0.28125000000000000        0.0000000000000000     
   1.3437500000000000       0.28125000000000000        0.0000000000000000     
   1.3750000000000000       0.28125000000000000        0.0000000000000000     
   1.2500000000000000       0.31250000000000000        0.0000000000000000     
   1.2812500000000000       0.31250000000000000        0.0000000000000000     
   1.3125000000000000       0.31250000000000000        0.0000000000000000     
   1.3437500000000000       0.31250000000000000        0.0000000000000000     
   1.3750000000000000       0.31250000000000000        0.0000000000000000     
   1.2500000000000000       0.34375000000000000        0.0000000000000000     
   1.2812500000000000       0.34375000000000000        0.0000000000000000     
   1.3125000000000000       0.34375000000000000        0.0000000000000000     
   1.3437500000000000       0.34375000000000000        0.0000000000000000     
   1.3750000000000000       0.34375000000000000        0.0000000000000000     
   1.2500000000000000       0.37500000000000000        0.0000000000000000     
   1.2812500000000000       0.37500000000000000        0.0000000000000000     
   1.3125000000000000       0.37500000000000000        0.0000000000000000     
   1.3437500000000000       0.37500000000000000        0.0000000000000000     
   1.3750000000000000       0.37500000000000000        0.0000000000000000     
   1.3750000000000000       0.25000000000000000        0.0000000000000000     
   1.4062500000000000       0.25000000000000000        0.0000000000000000     
   1.4375000000000000       0.25000000000000000        0.0000000000000000     
   1.4687500000000000       0.25000000000000000        0.0000000000000000     
   1.5000000000000000       0.25000000000000000        0.0000000000000000     
   1.3750000000000000       0.28125000000000000        0.0000000000000000     
   1.4062500000000000       0.28125000000000000        0.0000000000000000     
   1.4375000000000000       0.28125000000000000        0.0000000000000000     
   1.4687500000000000       0.28125000000000000        0.0000000000000000     
   1.5000000000000000       0.28125000000000000        0.0000000000000000     
   1.3750000000000000       0.31250000000000000        0.0000000000000000     
   1.4062500000000000       0.31250000000000000        0.0000000000000000     
   1.4375000000000000       0.31250000000000000        0.0000000000000000     
   1.4687500000000000       0.31250000000000000        0.0000000000000000     
   1.5000000000000000       0.31250000000000000        0.0000000000000000     
   1.3750000000000000       0.34375000000000000        0.0000000000000000     
   1.4062500000000000       0.34375000000000000        0.0000000000000000     
   1.4375000000000000       0.34375000000000000        0.0000000000000000     
   1.4687500000000000       0.34375000000000000        0.0000000000000000     
   1.5000000000000000       0.34375000000000000        0.0000000000000000     
   1.3750000000000000       0.37500000000000000        0.0000000000000000     
   1.4062500000000000       0.37500000000000000        0.0000000000000000     
   1.4375000000000000       0.37500000000000000        0.0000000000000000     
   1.4687500000000000       0.37500000000000000        0.0000000000000000     
   1.5000000000000000       0.37500000000000000        0.0000000000000000     
  0.50000000000000000       0.37500000000000000        0.0000000000000000     
  0.53125000000000000       0.37500000000000000        0.0000000000000000     
  0.56250000000000000       0.37500000000000000        0.0000000000000000     
  0.59375000000000000       0.37500000000000000        0.0000000000000000     
  0.62500000000000000       0.37500000000000000        0.0000000000000000     
  0.50000000000000000       0.40625000000000000        0.0000000000000000     
  0.53125000000000000       0.40625000000000000        0.0000000000000000     
  0.56250000000000000       0.40625000000000000        0.0000000000000000     
  0.59375000000000000       0.40625000000000000        0.0000000000000000     
  0.62500000000000000       0.40625000000000000        0.0000000000000000     
  0.50000000000000000       0.43750000000000000        0.0000000000000000     
  0.53125000000000000       0.43750000000000000        0.0000000000000000     
  0.56250000000000000       0.43750000000000000        0.0000000000000000     
  0.59375000000000000       0.43750000000000000        0.0000000000000000     
  0.62500000000000000       0.43750000000000000        0.0000000000000000     
  0.50000000000000000       0.46875000000000000        0.0000000000000000     
  0.53125000000000000       0.46875000000000000        0.0000000000000000     
  0.56250000000000000       0.46875000000000000        0.0000000000000000     
  0.59375000000000000       0.46875000000000000        0.0000000000000000     
  0.62500000000000000       0.46875000000000000        0.0000000000000000     
  0.50000000000000000       0.50000000000000000        0.0000000000000000     
  0.53125000000000000       0.50000000000000000        0.0000000000000000     
  0.56250000000000000       0.50000000000000000        0.0000000000000000     
  0.59375000000000000       0.50000000000000000        0.0000000000000000     
  0.62500000000000000       0.50000000000000000        0.0000000000000000     
  0.62500000000000000       0.37500000000000000        0.0000000000000000     
  0.65625000000000000       0.37500000000000000        0.0000000000000000     
  0.68750000000000000       0.37500000000000000        0.0000000000000000     
  0.71875000000000000       0.37500000000000000        0.0000000000000000     
  0.75000000000000000       0.37500000000000000        0.0000000000000000     
  0.62500000000000000       0.40625000000000000        0.0000000000000000     
  0.65625000000000000       0.40625000000000000        0.0000000000000000     
  0.68750000000000000       0.40625000000000000        0.0000000000000000     
  0.71875000000000000       0.40625000000000000        0.0000000000000000     
  0.75000000000000000       0.40625000000000000        0.0000000000000000     
  0.62500000000000000       0.43750000000000000        0.0000000000000000     
  0.65625000000000000       0.43750000000000000        0.0000000000000000     
  0.68750000000000000       0.43750000000000000        0.0000000000000000     
  0.71875000000000000       0.43750000000000000        0.0000000000000000     
  0.75000000000000000       0.43750000000000000        0.0000000000000000     
  0.62500000000000000       0.46875000000000000        0.0000000000000000     
  0.65625000000000000       0.46875000000000000        0.0000000000000000     
  0.68750000000000000       0.46875000000000000        0.0000000000000000     
  0.71875000000000000       0.46875000000000000        0.0000000000000000     
  0.75000000000000000       0.46875000000000000        0.0000000000000000     
  0.62500000000000000       0.50000000000000000        0.0000000000000000     
  0.65625000000000000       0.50000000000000000        0.0000000000000000     
  0.68750000000000000       0.50000000000000000        0.0000000000000000     
  0.71875000000000000       0.50000000000000000        0.0000000000000000     
  0.75000000000000000       0.50000000000000000        0.0000000000000000     
  0.75000000000000000       0.37500000000000000        0.0000000000000000     
  0.78125000000000000       0.37500000000000000        0.0000000000000000     
  0.81250000000000000       0.37500000000000000        0.0000000000000000     
  0.84375000000000000       0.37500000000000000        0.0000000000000000     
  0.87500000000000000       0.37500000000000000        0.0000000000000000     
  0.75000000000000000       0.40625000000000000        0.0000000000000000     
  0.78125000000000000       0.40625000000000000        0.0000000000000000     
  0.81250000000000000       0.40625000000000000        0.0000000000000000     
  0.84375000000000000       0.40625000000000000        0.0000000000000000     
  0.87500000000000000       0.40625000000000000        0.0000000000000000     
  0.75000000000000000       0.43750000000000000        0.0000000000000000     
  0.78125000000000000       0.43750000000000000        0.0000000000000000     
  0.81250000000000000       0.43750000000000000        0.0000000000000000     
  0.84375000000000000       0.43750000000000000        0.0000000000000000     
  0.87500000000000000       0.43750000000000000        0.0000000000000000     
  0.75000000000000000       0.46875000000000000        0.0000000000000000     
  0.78125000000000000       0.46875000000000000        0.0000000000000000     
  0.81250000000000000       0.46875000000000000        0.0000000000000000     
  0.84375000000000000       0.46875000000000000        0.0000000000000000     
  0.87500000000000000       0.46875000000000000        0.0000000000000000     
  0.75000000000000000       0.50000000000000000        0.0000000000000000     
  0.78125000000000000       0.50000000000000000        0.0000000000000000     
  0.81250000000000000       0.50000000000000000        0.0000000000000000     
  0.84375000000000000       0.50000000000000000        0.0000000000000000     
  0.87500000000000000       0.50000000000000000        0.0000000000000000     
  0.87500000000000000       0.37500000000000000        0.0000000000000000     
  0.90625000000000000       0.37500000000000000        0.0000000000000000     
  0.93750000000000000       0.37500000000000000        0.0000000000000000     
  0.96875000000000000       0.37500000000000000        0.0000000000000000     
   1.0000000000000000       0.37500000000000000        0.0000000000000000     
  0.87500000000000000       0.40625000000000000        0.0000000000000000     
  0.90625000000000000       0.40625000000000000        0.0000000000000000     
  0.93750000000000000       0.40625000000000000        0.0000000000000000     
  0.96875000000000000       0.40625000000000000        0.0000000000000000     
   1.0000000000000000       0.40625000000000000        0.0000000000000000     
  0.87500000000000000       0.43750000000000000        0.0000000000000000     
  0.90625000000000000       0.43750000000000000        0.0000000000000000     
  0.93750000000000000       0.43750000000000000        0.0000000000000000     
  0.96875000000000000       0.43750000000000000        0.0000000000000000     
   1.0000000000000000       0.43750000000000000        0.0000000000000000     
  0.87500000000000000       0.46875000000000000        0.0000000000000000     
  0.90625000000000000       0.46875000000000000        0.0000000000000000     
  0.93750000000000000       0.46875000000000000        0.0000000000000000     
  0.96875000000000000       0.46875000000000000        0.0000000000000000     
   1.0000000000000000       0.46875000000000000        0.0000000000000000     
  0.87500000000000000       0.50000000000000000        0.0000000000000000     
  0.90625000000000000       0.50000000000000000        0.0000000000000000     
  0.93750000000000000       0.50000000000000000        0.0000000000000000     
  0.96875000000000000       0.50000000000000000        0.0000000000000000     
   1.0000000000000000       0.50000000000000000        0.0000000000000000     
   1.0000000000000000       0.37500000000000000        0.0000000000000000     
   1.0312500000000000       0.37500000000000000        0.0000000000000000     
   1.0625000000000000       0.37500000000000000        0.0000000000000000     
   1.0937500000000000       0.37500000000000000        0.0000000000000000     
   1.1250000000000000       0.37500000000000000        0.0000000000000000     
   1.0000000000000000       0.40625000000000000        0.0000000000000000     
   1.0312500000000000       0.40625000000000000        0.0000000000000000     
   1.0625000000000000       0.40625000000000000        0.0000000000000000     
   1.0937500000000000       0.40625000000000000        0.0000000000000000     
   1.1250000000000000       0.40625000000000000        0.0000000000000000     
   1.0000000000000000       0.43750000000000000        0.0000000000000000     
   1.0312500000000000       0.43750000000000000        0.0000000000000000     
   1.0625000000000000       0.43750000000000000        0.0000000000000000     
   1.0937500000000000       0.43750000000000000        0.0000000000000000     
   1.1250000000000000       0.43750000000000000        0.0000000000000000     
   1.0000000000000000       0.46875000000000000        0.0000000000000000     
   1.0312500000000000       0.46875000000000000        0.0000000000000000     
   1.0625000000000000       0.46875000000000000        0.0000000000000000     
   1.0937500000000000       0.46875000000000000        0.0000000000000000     
   1.1250000000000000       0.46875000000000000        0.0000000000000000     
   1.0000000000000000       0.50000000000000000        0.0000000000000000     
   1.0312500000000000       0.50000000000000000        0.0000000000000000     
   1.0625000000000000       0.50000000000000000        0.0000000000000000     
   1.0937500000000000       0.50000000000000000        0.0000000000000000     
   1.1250000000000000       0.50000000000000000        0.0000000000000000     
   1.1250000000000000       0.37500000000000000        0.0000000000000000     
   1.1562500000000000       0.37500000000000000        0.0000000000000000     
   1.1875000000000000       0.37500000000000000        0.0000000000000000     
   1.2187500000000000       0.37500000000000000        0.0000000000000000     
   1.2500000000000000       0.37500000000000000        0.0000000000000000     
   1.1250000000000000       0.40625000000000000        0.0000000000000000     
   1.1562500000000000       0.40625000000000000        0.0000000000000000     
   1.1875000000000000       0.40625000000000000        0.0000000000000000     
   1.2187500000000000       0.40625000000000000        0.0000000000000000     
   1.2500000000000000       0.40625000000000000        0.0000000000000000     
   1.1250000000000000       0.43750000000000000        0.0000000000000000     
   1.1562500000000000       0.43750000000000000        0.0000000000000000     
   1.1875000000000000       0.43750000000000000        0.0000000000000000     
   1.2187500000000000       0.43750000000000000        0.0000000000000000     
   1.2500000000000000       0.43750000000000000        0.0000000000000000     
   1.1250000000000000       0.46875000000000000        0.0000000000000000     
   1.1562500000000000       0.46875000000000000        0.0000000000000000     
   1.1875000000000000       0.46875000000000000        0.0000000000000000     
   1.2187500000000000       0.46875000000000000        0.0000000000000000     
   1.2500000000000000       0.46875000000000000        0.0000000000000000     
   1.1250000000000000       0.50000000000000000        0.0000000000000000     
   1.1562500000000000       0.50000000000000000        0.0000000000000000     
   1.1875000000000000       0.50000000000000000        0.0000000000000000     
   1.2187500000000000       0.50000000000000000        0.0000000000000000     
   1.2500000000000000       0.50000000000000000        0.0000000000000000     
   1.2500000000000000       0.37500000000000000        0.0000000000000000     
   1.2812500000000000       0.37500000000000000        0.0000000000000000     
   1.3125000000000000       0.37500000000000000        0.0000000000000000     
   1.3437500000000000       0.37500000000000000        0.0000000000000000     
   1.3750000000000000       0.37500000000000000        0.0000000000000000     
   1.2500000000000000       0.40625000000000000        0.0000000000000000     
   1.2812500000000000       0.40625000000000000        0.0000000000000000     
   1.3125000000000000       0.40625000000000000        0.0000000000000000     
   1.3437500000000000       0.40625000000000000        0.0000000000000000     
   1.3750000000000000       0.40625000000000000        0.0000000000000000     
   1.2500000000000000       0.43750000000000000        0.0000000000000000     
   1.2812500000000000       0.43750000000000000        0.0000000000000000     
   1.3125000000000000       0.43750000000000000        0.0000000000000000     
   1.3437500000000000       0.43750000000000000        0.0000000000000000     
   1.3750000000000000       0.43750000000000000        0.0000000000000000     
   1.2500000000000000       0.46875000000000000        0.0000000000000000     
   1.2812500000000000       0.46875000000000000        0.0000000000000000     
   1.3125000000000000       0.46875000000000000        0.0000000000000000     
   1.3437500000000000       0.46875000000000000        0.0000000000000000     
   1.3750000000000000       0.46875000000000000        0.0000000000000000     
   1.2500000000000000       0.50000000000000000        0.0000000000000000     
   1.2812500000000000       0.50000000000000000        0.0000000000000000     
   1.3125000000000000       0.50000000000000000        0.0000000000000000     
   1.3437500000000000       0.50000000000000000        0.0000000000000000     
   1.3750000000000000       0.50000000000000000        0.0000000000000000     
   1.3750000000000000       0.37500000000000000        0.0000000000000000     
   1.4062500000000000       0.37500000000000000        0.0000000000000000     
   1.4375000000000000       0.37500000000000000        0.0000000000000000     
   1.4687500000000000       0.37500000000000000        0.0000000000000000     
   1.5000000000000000       0.37500000000000000        0.0000000000000000     
   1.3750000000000000       0.40625000000000000        0.0000000000000000     
   1.4062500000000000       0.40625000000000000        0.0000000000000000     
   1.4375000000000000       0.40625000000000000        0.0000000000000000     
   1.4687500000000000       0.40625000000000000        0.0000000000000000     
   1.5000000000000000       0.40625000000000000        0.0000000000000000     
   1.3750000000000000       0.43750000000000000        0.0000000000000000     
   1.4062500000000000       0.43750000000000000        0.0000000000000000     
   1.4375000000000000       0.43750000000000000        0.0000000000000000     
   1.4687500000000000       0.43750000000000000        0.0000000000000000     
   1.5000000000000000       0.43750000000000000        0.0000000000000000     
   1.3750000000000000       0.46875000000000000        0.0000000000000000     
   1.4062500000000000       0.46875000000000000        0.0000000000000000     
   1.4375000000000000       0.46875000000000000        0.0000000000000000     
   1.4687500000000000       0.46875000000000000        0.0000000000000000     
   1.5000000000000000       0.46875000000000000        0.0000000000000000     
   1.3750000000000000       0.50000000000000000        0.0000000000000000     
   1.4062500000000000       0.50000000000000000        0.0000000000000000     
   1.4375000000000000       0.50000000000000000        0.0000000000000000     
   1.4687500000000000       0.50000000000000000        0.0000000000000000     
   1.5000000000000000       0.50000000000000000        0.0000000000000000     
  0.50000000000000000       0.50000000000000000        0.0000000000000000     
  0.53125000000000000       0.50000000000000000        0.0000000000000000     
  0.56250000000000000       0.50000000000000000        0.0000000000000000     
  0.59375000000000000       0.50000000000000000        0.0000000000000000     
  0.62500000000000000       0.50000000000000000        0.0000000000000000     
  0.50000000000000000       0.53125000000000000        0.0000000000000000     
  0.53125000000000000       0.53125000000000000        0.0000000000000000     
  0.56250000000000000       0.53125000000000000        0.0000000000000000     
  0.59375000000000000       0.53125000000000000        0.0000000000000000     
  0.62500000000000000       0.53125000000000000        0.0000000000000000     
  0.50000000000000000       0.56250000000000000        0.0000000000000000     
  0.53125000000000000       0.56250000000000000        0.0000000000000000     
  0.56250000000000000       0.56250000000000000        0.0000000000000000     
  0.59375000000000000       0.56250000000000000        0.0000000000000000     
  0.62500000000000000       0.56250000000000000        0.0000000000000000     
  0.50000000000000000       0.59375000000000000        0.0000000000000000     
  0.53125000000000000       0.59375000000000000        0.0000000000000000     
  0.56250000000000000       0.59375000000000000        0.0000000000000000     
  0.59375000000000000       0.59375000000000000        0.0000000000000000     
  0.62500000000000000       0.59375000000000000        0.0000000000000000     
  0.50000000000000000       0.62500000000000000        0.0000000000000000     
  0.53125000000000000       0.62500000000000000        0.0000000000000000     
  0.56250000000000000       0.62500000000000000        0.0000000000000000     
  0.59375000000000000       0.62500000000000000        0.0000000000000000     
  0.62500000000000000       0.62500000000000000        0.0000000000000000     
  0.62500000000000000       0.50000000000000000        0.0000000000000000     
  0.65625000000000000       0.50000000000000000        0.0000000000000000     
  0.68750000000000000       0.50000000000000000        0.0000000000000000     
  0.71875000000000000       0.50000000000000000        0.0000000000000000     
  0.75000000000000000       0.50000000000000000        0.0000000000000000     
  0.62500000000000000       0.53125000000000000        0.0000000000000000     
  0.65625000000000000       0.53125000000000000        0.0000000000000000     
  0.68750000000000000       0.53125000000000000        0.0000000000000000     
  0.71875000000000000       0.53125000000000000        0.0000000000000000     
  0.75000000000000000       0.53125000000000000        0.0000000000000000     
  0.62500000000000000       0.56250000000000000        0.0000000000000000     
  0.65625000000000000       0.56250000000000000        0.0000000000000000     
  0.68750000000000000       0.56250000000000000        0.0000000000000000     
  0.71875000000000000       0.56250000000000000        0.0000000000000000     
  0.75000000000000000       0.56250000000000000        0.0000000000000000     
  0.62500000000000000       0.59375000000000000        0.0000000000000000     
  0.65625000000000000       0.59375000000000000        0.0000000000000000     
  0.68750000000000000       0.59375000000000000        0.0000000000000000     
  0.71875000000000000       0.59375000000000000        0.0000000000000000     
  0.75000000000000000       0.59375000000000000        0.0000000000000000     
  0.62500000000000000       0.62500000000000000        0.0000000000000000     
  0.65625000000000000       0.62500000000000000        0.0000000000000000     
  0.68750000000000000       0.62500000000000000        0.0000000000000000     
  0.71875000000000000       0.62500000000000000        0.0000000000000000     
  0.75000000000000000       0.62500000000000000        0.0000000000000000     
  0.75000000000000000       0.50000000000000000        0.0000000000000000     
  0.78125000000000000       0.50000000000000000        0.0000000000000000     
  0.81250000000000000       0.50000000000000000        0.0000000000000000     
  0.84375000000000000       0.50000000000000000        0.0000000000000000     
  0.87500000000000000       0.50000000000000000        0.0000000000000000     
  0.75000000000000000       0.53125000000000000        0.0000000000000000     
  0.78125000000000000       0.53125000000000000        0.0000000000000000     
  0.81250000000000000       0.53125000000000000        0.0000000000000000     
  0.84375000000000000       0.53125000000000000        0.0000000000000000     
  0.87500000000000000       0.53125000000000000        0.0000000000000000     
  0.75000000000000000       0.56250000000000000        0.0000000000000000     
  0.78125000000000000       0.56250000000000000        0.0000000000000000     
  0.81250000000000000       0.56250000000000000        0.0000000000000000     
  0.84375000000000000       0.56250000000000000        0.0000000000000000     
  0.87500000000000000       0.56250000000000000        0.0000000000000000     
  0.75000000000000000       0.59375000000000000        0.0000000000000000     
  0.78125000000000000       0.59375000000000000        0.0000000000000000     
  0.81250000000000000       0.59375000000000000        0.0000000000000000     
  0.84375000000000000       0.59375000000000000        0.0000000000000000     
  0.87500000000000000       0.59375000000000000        0.0000000000000000     
  0.75000000000000000       0.62500000000000000        0.0000000000000000     
  0.78125000000000000       0.62500000000000000        0.0000000000000000     
  0.81250000000000000       0.62500000000000000        0.0000000000000000     
  0.84375000000000000       0.62500000000000000        0.0000000000000000     
  0.87500000000000000       0.62500000000000000        0.0000000000000000     
  0.87500000000000000       0.50000000000000000        0.0000000000000000     
  0.90625000000000000       0.50000000000000000        0.0000000000000000     
  0.93750000000000000       0.50000000000000000        0.0000000000000000     
  0.96875000000000000       0.50000000000000000        0.0000000000000000     
   1.0000000000000000       0.50000000000000000        0.0000000000000000     
  0.87500000000000000       0.53125000000000000        0.0000000000000000     
  0.90625000000000000       0.53125000000000000        0.0000000000000000     
  0.93750000000000000       0.53125000000000000        0.0000000000000000     
  0.96875000000000000       0.53125000000000000        0.0000000000000000     
   1.0000000000000000       0.53125000000000000        0.0000000000000000     
  0.87500000000000000       0.56250000000000000        0.0000000000000000     
  0.90625000000000000       0.56250000000000000        0.0000000000000000     
  0.93750000000000000       0.56250000000000000        0.0000000000000000     
  0.96875000000000000       0.56250000000000000        0.0000000000000000     
   1.0000000000000000       0.56250000000000000        0.0000000000000000     
  0.87500000000000000       0.59375000000000000        0.0000000000000000     
  0.90625000000000000       0.59375000000000000        0.0000000000000000     
  0.93750000000000000       0.59375000000000000        0.0000000000000000     
  0.96875000000000000       0.59375000000000000        0.0000000000000000     
   1.0000000000000000       0.59375000000000000        0.0000000000000000     
  0.87500000000000000       0.62500000000000000        0.0000000000000000     
  0.90625000000000000       0.62500000000000000        0.0000000000000000     
  0.93750000000000000       0.62500000000000000        0.0000000000000000     
  0.96875000000000000       0.62500000000000000        0.0000000000000000     
   1.0000000000000000       0.62500000000000000        0.0000000000000000     
   1.0000000000000000       0.50000000000000000        0.0000000000000000     
   1.0312500000000000       0.50000000000000000        0.0000000000000000     
   1.0625000000000000       0.50000000000000000        0.0000000000000000     
   1.0937500000000000       0.50000000000000000        0.0000000000000000     
   1.1250000000000000       0.50000000000000000        0.0000000000000000     
   1.0000000000000000       0.53125000000000000        0.0000000000000000     
   1.0312500000000000       0.53125000000000000        0.0000000000000000     
   1.0625000000000000       0.53125000000000000        0.0000000000000000     
   1.0937500000000000       0.53125000000000000        0.0000000000000000     
   1.1250000000000000       0.53125000000000000        0.0000000000000000     
   1.0000000000000000       0.56250000000000000        0.0000000000000000     
   1.0312500000000000       0.56250000000000000        0.0000000000000000     
   1.0625000000000000       0.56250000000000000        0.0000000000000000     
   1.0937500000000000       0.56250000000000000        0.0000000000000000     
   1.1250000000000000       0.56250000000000000        0.0000000000000000     
   1.0000000000000000       0.59375000000000000        0.0000000000000000     
   1.0312500000000000       0.59375000000000000        0.0000000000000000     
   1.0625000000000000       0.59375000000000000        0.0000000000000000     
   1.0937500000000000       0.59375000000000000        0.0000000000000000     
   1.1250000000000000       0.59375000000000000        0.0000000000000000     
   1.0000000000000000       0.62500000000000000        0.0000000000000000     
   1.0312500000000000       0.62500000000000000        0.0000000000000000     
   1.0625000000000000       0.62500000000000000        0.0000000000000000     
   1.0937500000000000       0.62500000000000000        0.0000000000000000     
   1.1250000000000000       0.62500000000000000        0.0000000000000000     
   1.1250000000000000       0.50000000000000000        0.0000000000000000     
   1.1562500000000000       0.50000000000000000        0.0000000000000000     
   1.1875000000000000       0.50000000000000000        0.0000000000000000     
   1.2187500000000000       0.50000000000000000        0.0000000000000000     
   1.2500000000000000       0.50000000000000000        0.0000000000000000     
   1.1250000000000000       0.53125000000000000        0.0000000000000000     
   1.1562500000000000       0.53125000000000000        0.0000000000000000     
   1.1875000000000000       0.53125000000000000        0.0000000000000000     
   1.2187500000000000       0.53125000000000000        0.0000000000000000     
   1.2500000000000000       0.53125000000000000        0.0000000000000000     
   1.1250000000000000       0.56250000000000000        0.0000000000000000     
   1.1562500000000000       0.56250000000000000        0.0000000000000000     
   1.1875000000000000       0.56250000000000000        0.0000000000000000     
   1.2187500000000000       0.56250000000000000        0.0000000000000000     
   1.2500000000000000       0.56250000000000000        0.0000000000000000     
   1.1250000000000000       0.59375000000000000        0.0000000000000000     
   1.1562500000000000       0.59375000000000000        0.0000000000000000     
   1.1875000000000000       0.59375000000000000        0.0000000000000000     
   1.2187500000000000       0.59375000000000000        0.0000000000000000     
   1.2500000000000000       0.59375000000000000        0.0000000000000000     
   1.1250000000000000       0.62500000000000000        0.0000000000000000     
   1.1562500000000000       0.62500000000000000        0.0000000000000000     
   1.1875000000000000       0.62500000000000000        0.0000000000000000     
   1.2187500000000000       0.62500000000000000        0.0000000000000000     
   1.2500000000000000       0.62500000000000000        0.0000000000000000     
   1.2500000000000000       0.50000000000000000        0.0000000000000000     
   1.2812500000000000       0.50000000000000000        0.0000000000000000     
   1.3125000000000000       0.50000000000000000        0.0000000000000000     
   1.3437500000000000       0.50000000000000000        0.0000000000000000     
   1.3750000000000000       0.50000000000000000        0.0000000000000000     
   1.2500000000000000       0.53125000000000000        0.0000000000000000     
   1.2812500000000000       0.53125000000000000        0.0000000000000000     
   1.3125000000000000       0.53125000000000000        0.0000000000000000     
   1.3437500000000000       0.53125000000000000        0.0000000000000000     
   1.3750000000000000       0.53125000000000000        0.0000000000000000     
   1.2500000000000000       0.56250000000000000        0.0000000000000000     
   1.2812500000000000       0.56250000000000000        0.0000000000000000     
   1.3125000000000000       0.56250000000000000        0.0000000000000000     
   1.3437500000000000       0.56250000000000000        0.0000000000000000     
   1.3750000000000000       0.56250000000000000        0.0000000000000000     
   1.2500000000000000       0.59375000000000000        0.0000000000000000     
   1.2812500000000000       0.59375000000000000        0.0000000000000000     
   1.3125000000000000       0.59375000000000000        0.0000000000000000     
   1.3437500000000000       0.59375000000000000        0.0000000000000000     
   1.3750000000000000       0.59375000000000000        0.0000000000000000     
   1.2500000000000000       0.62500000000000000        0.0000000000000000     
   1.2812500000000000       0.62500000000000000        0.0000000000000000     
   1.3125000000000000       0.62500000000000000        0.0000000000000000     
   1.3437500000000000       0.62500000000000000        0.0000000000000000     
   1.3750000000000000       0.62500000000000000        0.0000000000000000     
   1.3750000000000000       0.50000000000000000        0.0000000000000000     
   1.4062500000000000       0.50000000000000000        0.0000000000000000     
   1.4375000000000000       0.50000000000000000        0.0000000000000000     
   1.4687500000000000       0.50000000000000000        0.0000000000000000     
   1.5000000000000000       0.50000000000000000        0.0000000000000000     
   1.3750000000000000       0.53125000000000000        0.0000000000000000     
   1.4062500000000000       0.53125000000000000        0.0000000000000000     
   1.4375000000000000       0.53125000000000000        0.0000000000000000     
   1.4687500000000000       0.53125000000000000        0.0000000000000000     
   1.5000000000000000       0.53125000000000000        0.0000000000000000     
   1.3750000000000000       0.56250000000000000        0.0000000000000000     
   1.4062500000000000       0.56250000000000000        0.0000000000000000     
   1.4375000000000000       0.56250000000000000        0.0000000000000000     
   1.4687500000000000       0.56250000000000000        0.0000000000000000     
   1.5000000000000000       0.56250000000000000        0.0000000000000000     
   1.3750000000000000       0.59375000000000000        0.0000000000000000     
   1.4062500000000000       0.59375000000000000        0.0000000000000000     
   1.4375000000000000       0.59375000000000000        0.0000000000000000     
   1.4687500000000000       0.59375000000000000        0.0000000000000000     
   1.5000000000000000       0.59375000000000000        0.0000000000000000     
   1.3750000000000000       0.62500000000000000        0.0000000000000000     
   1.4062500000000000       0.62500000000000000        0.0000000000000000     
   1.4375000000000000       0.62500000000000000        0.0000000000000000     
   1.4687500000000000       0.62500000000000000        0.0000000000000000     
   1.5000000000000000       0.62500000000000000        0.0000000000000000     
  0.50000000000000000       0.62500000000000000        0.0000000000000000     
  0.53125000000000000       0.62500000000000000        0.0000000000000000     
  0.56250000000000000       0.62500000000000000        0.0000000000000000     
  0.59375000000000000       0.62500000000000000        0.0000000000000000     
  0.62500000000000000       0.62500000000000000        0.0000000000000000     
  0.50000000000000000       0.65625000000000000        0.0000000000000000     
  0.53125000000000000       0.65625000000000000        0.0000000000000000     
  0.56250000000000000       0.65625000000000000        0.0000000000000000     
  0.59375000000000000       0.65625000000000000        0.0000000000000000     
  0.62500000000000000       0.65625000000000000        0.0000000000000000     
  0.50000000000000000       0.68750000000000000        0.0000000000000000     
  0.53125000000000000       0.68750000000000000        0.0000000000000000     
  0.56250000000000000       0.68750000000000000        0.0000000000000000     
  0.59375000000000000       0.68750000000000000        0.0000000000000000     
  0.62500000000000000       0.68750000000000000        0.0000000000000000     
  0.50000000000000000       0.71875000000000000        0.0000000000000000     
  0.53125000000000000       0.71875000000000000        0.0000000000000000     
  0.56250000000000000       0.71875000000000000        0.0000000000000000     
  0.59375000000000000       0.71875000000000000        0.0000000000000000     
  0.62500000000000000       0.71875000000000000        0.0000000000000000     
  0.50000000000000000       0.75000000000000000        0.0000000000000000     
  0.53125000000000000       0.75000000000000000        0.0000000000000000     
  0.56250000000000000       0.75000000000000000        0.0000000000000000     
  0.59375000000000000       0.75000000000000000        0.0000000000000000     
  0.62500000000000000       0.75000000000000000        0.0000000000000000     
  0.62500000000000000       0.62500000000000000        0.0000000000000000     
  0.65625000000000000       0.62500000000000000        0.0000000000000000     
  0.68750000000000000       0.62500000000000000        0.0000000000000000     
  0.71875000000000000       0.62500000000000000        0.0000000000000000     
  0.75000000000000000       0.62500000000000000        0.0000000000000000     
  0.62500000000000000       0.65625000000000000        0.0000000000000000     
  0.65625000000000000       0.65625000000000000        0.0000000000000000     
  0.68750000000000000       0.65625000000000000        0.0000000000000000     
  0.71875000000000000       0.65625000000000000        0.0000000000000000     
  0.75000000000000000       0.65625000000000000        0.0000000000000000     
  0.62500000000000000       0.68750000000000000        0.0000000000000000     
  0.65625000000000000       0.68750000000000000        0.0000000000000000     
  0.68750000000000000       0.68750000000000000        0.0000000000000000     
  0.71875000000000000       0.68750000000000000        0.0000000000000000     
  0.75000000000000000       0.68750000000000000        0.0000000000000000     
  0.62500000000000000       0.71875000000000000        0.0000000000000000     
  0.65625000000000000       0.71875000000000000        0.0000000000000000     
  0.68750000000000000       0.71875000000000000        0.0000000000000000     
  0.71875000000000000       0.71875000000000000        0.0000000000000000     
  0.75000000000000000       0.71875000000000000        0.0000000000000000     
  0.62500000000000000       0.75000000000000000        0.0000000000000000     
  0.65625000000000000       0.75000000000000000        0.0000000000000000     
  0.68750000000000000       0.75000000000000000        0.0000000000000000     
  0.71875000000000000       0.75000000000000000        0.0000000000000000     
  0.75000000000000000       0.75000000000000000        0.0000000000000000     
  0.75000000000000000       0.62500000000000000        0.0000000000000000     
  0.78125000000000000       0.62500000000000000        0.0000000000000000     
  0.81250000000000000       0.62500000000000000        0.0000000000000000     
  0.84375000000000000       0.62500000000000000        0.0000000000000000     
  0.87500000000000000       0.62500000000000000        0.0000000000000000     
  0.75000000000000000       0.65625000000000000        0.0000000000000000     
  0.78125000000000000       0.65625000000000000        0.0000000000000000     
  0.81250000000000000       0.65625000000000000        0.0000000000000000     
  0.84375000000000000       0.65625000000000000        0.0000000000000000     
  0.87500000000000000       0.65625000000000000        0.0000000000000000     
  0.75000000000000000       0.68750000000000000        0.0000000000000000     
  0.78125000000000000       0.68750000000000000        0.0000000000000000     
  0.81250000000000000       0.68750000000000000        0.0000000000000000     
  0.84375000000000000       0.68750000000000000        0.0000000000000000     
  0.87500000000000000       0.68750000000000000        0.0000000000000000     
  0.75000000000000000       0.71875000000000000        0.0000000000000000     
  0.78125000000000000       0.71875000000000000        0.0000000000000000     
  0.81250000000000000       0.71875000000000000        0.0000000000000000     
  0.84375000000000000       0.71875000000000000        0.0000000000000000     
  0.87500000000000000       0.71875000000000000        0.0000000000000000     
  0.75000000000000000       0.75000000000000000        0.0000000000000000     
  0.78125000000000000       0.75000000000000000        0.0000000000000000     
  0.81250000000000000       0.75000000000000000        0.0000000000000000     
  0.84375000000000000       0.75000000000000000        0.0000000000000000     
  0.87500000000000000       0.75000000000000000        0.0000000000000000     
  0.87500000000000000       0.62500000000000000        0.0000000000000000     
  0.90625000000000000       0.62500000000000000        0.0000000000000000     
  0.93750000000000000       0.62500000000000000        0.0000000000000000     
  0.96875000000000000       0.62500000000000000        0.0000000000000000     
   1.0000000000000000       0.62500000000000000        0.0000000000000000     
  0.87500000000000000       0.65625000000000000        0.0000000000000000     
  0.90625000000000000       0.65625000000000000        0.0000000000000000     
  0.93750000000000000       0.65625000000000000        0.0000000000000000     
  0.96875000000000000       0.65625000000000000        0.0000000000000000     
   1.0000000000000000       0.65625000000000000        0.0000000000000000     
  0.87500000000000000       0.68750000000000000        0.0000000000000000     
  0.90625000000000000       0.68750000000000000        0.0000000000000000     
  0.93750000000000000       0.68750000000000000        0.0000000000000000     
  0.96875000000000000       0.68750000000000000        0.0000000000000000     
   1.0000000000000000       0.68750000000000000        0.0000000000000000     
  0.87500000000000000       0.71875000000000000        0.0000000000000000     
  0.90625000000000000       0.71875000000000000        0.0000000000000000     
  0.93750000000000000       0.71875000000000000        0.0000000000000000     
  0.96875000000000000       0.71875000000000000        0.0000000000000000     
   1.0000000000000000       0.71875000000000000        0.0000000000000000     
  0.87500000000000000       0.75000000000000000        0.0000000000000000     
  0.90625000000000000       0.75000000000000000        0.0000000000000000     
  0.93750000000000000       0.75000000000000000        0.0000000000000000     
  0.96875000000000000       0.75000000000000000        0.0000000000000000     
   1.0000000000000000       0.75000000000000000        0.0000000000000000     
   1.0000000000000000       0.62500000000000000        0.0000000000000000     
   1.0312500000000000       0.62500000000000000        0.0000000000000000     
   1.0625000000000000       0.62500000000000000        0.0000000000000000     
   1.0937500000000000       0.62500000000000000        0.0000000000000000     
   1.1250000000000000       0.62500000000000000        0.0000000000000000     
   1.0000000000000000       0.65625000000000000        0.0000000000000000     
   1.0312500000000000       0.65625000000000000        0.0000000000000000     
   1.0625000000000000       0.65625000000000000        0.0000000000000000     
   1.0937500000000000       0.65625000000000000        0.0000000000000000     
   1.1250000000000000       0.65625000000000000        0.0000000000000000     
   1.0000000000000000       0.68750000000000000        0.0000000000000000     
   1.0312500000000000       0.68750000000000000        0.0000000000000000     
   1.0625000000000000       0.68750000000000000        0.0000000000000000     
   1.0937500000000000       0.68750000000000000        0.0000000000000000     
   1.1250000000000000       0.68750000000000000        0.0000000000000000     
   1.0000000000000000       0.71875000000000000        0.0000000000000000     
   1.0312500000000000       0.71875000000000000        0.0000000000000000     
   1.0625000000000000       0.71875000000000000        0.0000000000000000     
   1.0937500000000000       0.71875000000000000        0.0000000000000000     
   1.1250000000000000       0.71875000000000000        0.0000000000000000     
   1.0000000000000000       0.75000000000000000        0.0000000000000000     
   1.0312500000000000       0.75000000000000000        0.0000000000000000     
   1.0625000000000000       0.75000000000000000        0.0000000000000000     
   1.0937500000000000       0.75000000000000000        0.0000000000000000     
   1.1250000000000000       0.75000000000000000        0.0000000000000000     
   1.1250000000000000       0.62500000000000000        0.0000000000000000     
   1.1562500000000000       0.62500000000000000        0.0000000000000000     
   1.1875000000000000       0.62500000000000000        0.0000000000000000     
   1.2187500000000000       0.62500000000000000        0.0000000000000000     
   1.2500000000000000       0.62500000000000000        0.0000000000000000     
   1.1250000000000000       0.65625000000000000        0.0000000000000000     
   1.1562500000000000       0.65625000000000000        0.0000000000000000     
   1.1875000000000000       0.65625000000000000        0.0000000000000000     
   1.2187500000000000       0.65625000000000000        0.0000000000000000     
   1.2500000000000000       0.65625000000000000        0.0000000000000000     
   1.1250000000000000       0.68750000000000000        0.0000000000000000     
   1.1562500000000000       0.68750000000000000        0.0000000000000000     
   1.1875000000000000       0.68750000000000000        0.0000000000000000     
   1.2187500000000000       0.68750000000000000        0.0000000000000000     
   1.2500000000000000       0.68750000000000000        0.0000000000000000     
   1.1250000000000000       0.71875000000000000        0.0000000000000000     
   1.1562500000000000       0.71875000000000000        0.0000000000000000     
   1.1875000000000000       0.71875000000000000        0.0000000000000000     
   1.2187500000000000       0.71875000000000000        0.0000000000000000     
   1.2500000000000000       0.71875000000000000        0.0000000000000000     
   1.1250000000000000       0.75000000000000000        0.0000000000000000     
   1.1562500000000000       0.75000000000000000        0.0000000000000000     
   1.1875000000000000       0.75000000000000000        0.0000000000000000     
   1.2187500000000000       0.75000000000000000        0.0000000000000000     
   1.2500000000000000       0.75000000000000000        0.0000000000000000     
   1.2500000000000000       0.62500000000000000        0.0000000000000000     
   1.2812500000000000       0.62500000000000000        0.0000000000000000     
   1.3125000000000000       0.62500000000000000        0.0000000000000000     
   1.3437500000000000       0.62500000000000000        0.0000000000000000     
   1.3750000000000000       0.62500000000000000        0.0000000000000000     
   1.2500000000000000       0.65625000000000000        0.0000000000000000     
   1.2812500000000000       0.65625000000000000        0.0000000000000000     
   1.3125000000000000       0.65625000000000000        0.0000000000000000     
   1.3437500000000000       0.65625000000000000        0.0000000000000000     
   1.3750000000000000       0.65625000000000000        0.0000000000000000     
   1.2500000000000000       0.68750000000000000        0.0000000000000000     
   1.2812500000000000       0.68750000000000000        0.0000000000000000     
   1.3125000000000000       0.68750000000000000        0.0000000000000000     
   1.3437500000000000       0.68750000000000000        0.0000000000000000     
   1.3750000000000000       0.68750000000000000        0.0000000000000000     
   1.2500000000000000       0.71875000000000000        0.0000000000000000     
   1.2812500000000000       0.71875000000000000        0.0000000000000000     
   1.3125000000000000       0.71875000000000000        0.0000000000000000     
   1.3437500000000000       0.71875000000000000        0.0000000000000000     
   1.3750000000000000       0.71875000000000000        0.0000000000000000     
   1.2500000000000000       0.75000000000000000        0.0000000000000000     
   1.2812500000000000       0.75000000000000000        0.0000000000000000     
   1.3125000000000000       0.75000000000000000        0.0000000000000000     
   1.3437500000000000       0.75000000000000000        0.0000000000000000     
   1.3750000000000000       0.75000000000000000        0.0000000000000000     
   1.3750000000000000       0.62500000000000000        0.0000000000000000     
   1.4062500000000000       0.62500000000000000        0.0000000000000000     
   1.4375000000000000       0.62500000000000000        0.0000000000000000     
   1.4687500000000000       0.62500000000000000        0.0000000000000000     
   1.5000000000000000       0.62500000000000000        0.0000000000000000     
   1.3750000000000000       0.65625000000000000        0.0000000000000000     
   1.4062500000000000       0.65625000000000000        0.0000000000000000     
   1.4375000000000000       0.65625000000000000        0.0000000000000000     
   1.4687500000000000       0.65625000000000000        0.0000000000000000     
   1.5000000000000000       0.65625000000000000        0.0000000000000000     
   1.3750000000000000       0.68750000000000000        0.0000000000000000     
   1.4062500000000000       0.68750000000000000        0.0000000000000000     
   1.4375000000000000       0.68750000000000000        0.0000000000000000     
   1.4687500000000000       0.68750000000000000        0.0000000000000000     
   1.5000000000000000       0.68750000000000000        0.0000000000000000     
   1.3750000000000000       0.71875000000000000        0.0000000000000000     
   1.4062500000000000       0.71875000000000000        0.0000000000000000     
   1.4375000000000000       0.71875000000000000        0.0000000000000000     
   1.4687500000000000       0.71875000000000000        0.0000000000000000     
   1.5000000000000000       0.71875000000000000        0.0000000000000000     
   1.3750000000000000       0.75000000000000000        0.0000000000000000     
   1.4062500000000000       0.75000000000000000        0.0000000000000000     
   1.4375000000000000       0.75000000000000000        0.0000000000000000     
   1.4687500000000000       0.75000000000000000        0.0000000000000000     
   1.5000000000000000       0.75000000000000000        0.0000000000000000     
  0.50000000000000000       0.75000000000000000        0.0000000000000000     
  0.53125000000000000       0.75000000000000000        0.0000000000000000     
  0.56250000000000000       0.75000000000000000        0.0000000000000000     
  0.59375000000000000       0.75000000000000000        0.0000000000000000     
  0.62500000000000000       0.75000000000000000        0.0000000000000000     
  0.50000000000000000       0.78125000000000000        0.0000000000000000     
  0.53125000000000000       0.78125000000000000        0.0000000000000000     
  0.56250000000000000       0.78125000000000000        0.0000000000000000     
  0.59375000000000000       0.78125000000000000        0.0000000000000000     
  0.62500000000000000       0.78125000000000000        0.0000000000000000     
  0.50000000000000000       0.81250000000000000        0.0000000000000000     
  0.53125000000000000       0.81250000000000000        0.0000000000000000     
  0.56250000000000000       0.81250000000000000        0.0000000000000000     
  0.59375000000000000       0.81250000000000000        0.0000000000000000     
  0.62500000000000000       0.81250000000000000        0.0000000000000000     
  0.50000000000000000       0.84375000000000000        0.0000000000000000     
  0.53125000000000000       0.84375000000000000        0.0000000000000000     
  0.56250000000000000       0.84375000000000000        0.0000000000000000     
  0.59375000000000000       0.84375000000000000        0.0000000000000000     
  0.62500000000000000       0.84375000000000000        0.0000000000000000     
  0.50000000000000000       0.87500000000000000        0.0000000000000000     
  0.53125000000000000       0.87500000000000000        0.0000000000000000     
  0.56250000000000000       0.87500000000000000        0.0000000000000000     
  0.59375000000000000       0.87500000000000000        0.0000000000000000     
  0.62500000000000000       0.87500000000000000        0.0000000000000000     
  0.62500000000000000       0.75000000000000000        0.0000000000000000     
  0.65625000000000000       0.75000000000000000        0.0000000000000000     
  0.68750000000000000       0.75000000000000000        0.0000000000000000     
  0.71875000000000000       0.75000000000000000        0.0000000000000000     
  0.75000000000000000       0.75000000000000000        0.0000000000000000     
  0.62500000000000000       0.78125000000000000        0.0000000000000000     
  0.65625000000000000       0.78125000000000000        0.0000000000000000     
  0.68750000000000000       0.78125000000000000        0.0000000000000000     
  0.71875000000000000       0.78125000000000000        0.0000000000000000     
  0.75000000000000000       0.78125000000000000        0.0000000000000000     
  0.62500000000000000       0.81250000000000000        0.0000000000000000     
  0.65625000000000000       0.81250000000000000        0.0000000000000000     
  0.68750000000000000       0.81250000000000000        0.0000000000000000     
  0.71875000000000000       0.81250000000000000        0.0000000000000000     
  0.75000000000000000       0.81250000000000000        0.0000000000000000     
  0.62500000000000000       0.84375000000000000        0.0000000000000000     
  0.65625000000000000       0.84375000000000000        0.0000000000000000     
  0.68750000000000000       0.84375000000000000        0.0000000000000000     
  0.71875000000000000       0.84375000000000000        0.0000000000000000     
  0.75000000000000000       0.84375000000000000        0.0000000000000000     
  0.62500000000000000       0.87500000000000000        0.0000000000000000     
  0.65625000000000000       0.87500000000000000        0.0000000000000000     
  0.68750000000000000       0.87500000000000000        0.0000000000000000     
  0.71875000000000000       0.87500000000000000        0.0000000000000000     
  0.75000000000000000       0.87500000000000000        0.0000000000000000     
  0.75000000000000000       0.75000000000000000        0.0000000000000000     
  0.78125000000000000       0.75000000000000000        0.0000000000000000     
  0.81250000000000000       0.75000000000000000        0.0000000000000000     
  0.84375000000000000       0.75000000000000000        0.0000000000000000     
  0.87500000000000000       0.75000000000000000        0.0000000000000000     
  0.75000000000000000       0.78125000000000000        0.0000000000000000     
  0.78125000000000000       0.78125000000000000        0.0000000000000000     
  0.81250000000000000       0.78125000000000000        0.0000000000000000     
  0.84375000000000000       0.78125000000000000        0.0000000000000000     
  0.87500000000000000       0.78125000000000000        0.0000000000000000     
  0.75000000000000000       0.81250000000000000        0.0000000000000000     
  0.78125000000000000       0.81250000000000000        0.0000000000000000     
  0.81250000000000000       0.81250000000000000        0.0000000000000000     
  0.84375000000000000       0.81250000000000000        0.0000000000000000     
  0.87500000000000000       0.81250000000000000        0.0000000000000000     
  0.75000000000000000       0.84375000000000000        0.0000000000000000     
  0.78125000000000000       0.84375000000000000        0.0000000000000000     
  0.81250000000000000       0.84375000000000000        0.0000000000000000     
  0.84375000000000000       0.84375000000000000        0.0000000000000000     
  0.87500000000000000       0.84375000000000000        0.0000000000000000     
  0.75000000000000000       0.87500000000000000        0.0000000000000000     
  0.78125000000000000       0.87500000000000000        0.0000000000000000     
  0.81250000000000000       0.87500000000000000        0.0000000000000000     
  0.84375000000000000       0.87500000000000000        0.0000000000000000     
  0.87500000000000000       0.87500000000000000        0.0000000000000000     
  0.87500000000000000       0.75000000000000000        0.0000000000000000     
  0.90625000000000000       0.75000000000000000        0.0000000000000000     
  0.93750000000000000       0.75000000000000000        0.0000000000000000     
  0.96875000000000000       0.75000000000000000        0.0000000000000000     
   1.0000000000000000       0.75000000000000000        0.0000000000000000     
  0.87500000000000000       0.78125000000000000        0.0000000000000000     
  0.90625000000000000       0.78125000000000000        0.0000000000000000     
  0.93750000000000000       0.78125000000000000        0.0000000000000000     
  0.96875000000000000       0.78125000000000000        0.0000000000000000     
   1.0000000000000000       0.78125000000000000        0.0000000000000000     
  0.87500000000000000       0.81250000000000000        0.0000000000000000     
  0.90625000000000000       0.81250000000000000        0.0000000000000000     
  0.93750000000000000       0.81250000000000000        0.0000000000000000     
  0.96875000000000000       0.81250000000000000        0.0000000000000000     
   1.0000000000000000       0.81250000000000000        0.0000000000000000     
  0.87500000000000000       0.84375000000000000        0.0000000000000000     
  0.90625000000000000       0.84375000000000000        0.0000000000000000     
  0.93750000000000000       0.84375000000000000        0.0000000000000000     
  0.96875000000000000       0.84375000000000000        0.0000000000000000     
   1.0000000000000000       0.84375000000000000        0.0000000000000000     
  0.87500000000000000       0.87500000000000000        0.0000000000000000     
  0.90625000000000000       0.87500000000000000        0.0000000000000000     
  0.93750000000000000       0.87500000000000000        0.0000000000000000     
  0.96875000000000000       0.87500000000000000        0.0000000000000000     
   1.0000000000000000       0.87500000000000000        0.0000000000000000     
   1.0000000000000000       0.75000000000000000        0.0000000000000000     
   1.0312500000000000       0.75000000000000000        0.0000000000000000     
   1.0625000000000000       0.75000000000000000        0.0000000000000000     
   1.0937500000000000       0.75000000000000000        0.0000000000000000     
   1.1250000000000000       0.75000000000000000        0.0000000000000000     
   1.0000000000000000       0.78125000000000000        0.0000000000000000     
   1.0312500000000000       0.78125000000000000        0.0000000000000000     
   1.0625000000000000       0.78125000000000000        0.0000000000000000     
   1.0937500000000000       0.78125000000000000        0.0000000000000000     
   1.1250000000000000       0.78125000000000000        0.0000000000000000     
   1.0000000000000000       0.81250000000000000        0.0000000000000000     
   1.0312500000000000       0.81250000000000000        0.0000000000000000     
   1.0625000000000000       0.81250000000000000        0.0000000000000000     
   1.0937500000000000       0.81250000000000000        0.0000000000000000     
   1.1250000000000000       0.81250000000000000        0.0000000000000000     
   1.0000000000000000       0.84375000000000000        0.0000000000000000     
   1.0312500000000000       0.84375000000000000        0.0000000000000000     
   1.0625000000000000       0.84375000000000000        0.0000000000000000     
   1.0937500000000000       0.84375000000000000        0.0000000000000000     
   1.1250000000000000       0.84375000000000000        0.0000000000000000     
   1.0000000000000000       0.87500000000000000        0.0000000000000000     
   1.0312500000000000       0.87500000000000000        0.0000000000000000     
   1.0625000000000000       0.87500000000000000        0.0000000000000000     
   1.0937500000000000       0.87500000000000000        0.0000000000000000     
   1.1250000000000000       0.87500000000000000        0.0000000000000000     
   1.1250000000000000       0.75000000000000000        0.0000000000000000     
   1.1562500000000000       0.75000000000000000        0.0000000000000000     
   1.1875000000000000       0.75000000000000000        0.0000000000000000     
   1.2187500000000000       0.75000000000000000        0.0000000000000000     
   1.2500000000000000       0.75000000000000000        0.0000000000000000     
   1.1250000000000000       0.78125000000000000        0.0000000000000000     
   1.1562500000000000       0.78125000000000000        0.0000000000000000     
   1.1875000000000000       0.78125000000000000        0.0000000000000000     
   1.2187500000000000       0.78125000000000000        0.0000000000000000     
   1.2500000000000000       0.78125000000000000        0.0000000000000000     
   1.1250000000000000       0.81250000000000000        0.0000000000000000     
   1.1562500000000000       0.81250000000000000        0.0000000000000000     
   1.1875000000000000       0.81250000000000000        0.0000000000000000     
   1.2187500000000000       0.81250000000000000        0.0000000000000000     
   1.2500000000000000       0.81250000000000000        0.0000000000000000     
   1.1250000000000000       0.84375000000000000        0.0000000000000000     
   1.1562500000000000       0.84375000000000000        0.0000000000000000     
   1.1875000000000000       0.84375000000000000        0.0000000000000000     
   1.2187500000000000       0.84375000000000000        0.0000000000000000     
   1.2500000000000000       0.84375000000000000        0.0000000000000000     
   1.1250000000000000       0.87500000000000000        0.0000000000000000     
   1.1562500000000000       0.87500000000000000        0.0000000000000000     
   1.1875000000000000       0.87500000000000000        0.0000000000000000     
   1.2187500000000000       0.87500000000000000        0.0000000000000000     
   1.2500000000000000       0.87500000000000000        0.0000000000000000     
   1.2500000000000000       0.75000000000000000        0.0000000000000000     
   1.2812500000000000       0.75000000000000000        0.0000000000000000     
   1.3125000000000000       0.75000000000000000        0.0000000000000000     
   1.3437500000000000       0.75000000000000000        0.0000000000000000     
   1.3750000000000000       0.75000000000000000        0.0000000000000000     
   1.2500000000000000       0.78125000000000000        0.0000000000000000     
   1.2812500000000000       0.78125000000000000        0.0000000000000000     
   1.3125000000000000       0.78125000000000000        0.0000000000000000     
   1.3437500000000000       0.78125000000000000        0.0000000000000000     
   1.3750000000000000       0.78125000000000000        0.0000000000000000     
   1.2500000000000000       0.81250000000000000        0.0000000000000000     
   1.2812500000000000       0.81250000000000000        0.0000000000000000     
   1.3125000000000000       0.81250000000000000        0.0000000000000000     
   1.3437500000000000       0.81250000000000000        0.0000000000000000     
   1.3750000000000000       0.81250000000000000        0.0000000000000000     
   1.2500000000000000       0.84375000000000000        0.0000000000000000     
   1.2812500000000000       0.84375000000000000        0.0000000000000000     
   1.3125000000000000       0.84375000000000000        0.0000000000000000     
   1.3437500000000000       0.84375000000000000        0.0000000000000000     
   1.3750000000000000       0.84375000000000000        0.0000000000000000     
   1.2500000000000000       0.87500000000000000        0.0000000000000000     
   1.2812500000000000       0.87500000000000000        0.0000000000000000     
   1.3125000000000000       0.87500000000000000        0.0000000000000000     
   1.3437500000000000       0.87500000000000000        0.0000000000000000     
   1.3750000000000000       0.87500000000000000        0.0000000000000000     
   1.3750000000000000       0.75000000000000000        0.0000000000000000     
   1.4062500000000000       0.75000000000000000        0.0000000000000000     
   1.4375000000000000       0.75000000000000000        0.0000000000000000     
   1.4687500000000000       0.75000000000000000        0.0000000000000000     
   1.5000000000000000       0.75000000000000000        0.0000000000000000     
   1.3750000000000000       0.78125000000000000        0.0000000000000000     
   1.4062500000000000       0.78125000000000000        0.0000000000000000     
   1.4375000000000000       0.78125000000000000        0.0000000000000000     
   1.4687500000000000       0.78125000000000000        0.0000000000000000     
   1.5000000000000000       0.78125000000000000        0.0000000000000000     
   1.3750000000000000       0.81250000000000000        0.0000000000000000     
   1.4062500000000000       0.81250000000000000        0.0000000000000000     
   1.4375000000000000       0.81250000000000000        0.0000000000000000     
   1.4687500000000000       0.81250000000000000        0.0000000000000000     
   1.5000000000000000       0.81250000000000000        0.0000000000000000     
   1.3750000000000000       0.84375000000000000        0.0000000000000000     
   1.4062500000000000       0.84375000000000000        0.0000000000000000     
   1.4375000000000000       0.84375000000000000        0.0000000000000000     
   1.4687500000000000       0.84375000000000000        0.0000000000000000     
   1.5000000000000000       0.84375000000000000        0.0000000000000000     
   1.3750000000000000       0.87500000000000000        0.0000000000000000     
   1.4062500000000000       0.87500000000000000        0.0000000000000000     
   1.4375000000000000       0.87500000000000000        0.0000000000000000     
   1.4687500000000000       0.87500000000000000        0.0000000000000000     
   1.5000000000000000       0.87500000000000000        0.0000000000000000     
  0.50000000000000000       0.87500000000000000        0.0000000000000000     
  0.53125000000000000       0.87500000000000000        0.0000000000000000     
  0.56250000000000000       0.87500000000000000        0.0000000000000000     
  0.59375000000000000       0.87500000000000000        0.0000000000000000     
  0.62500000000000000       0.87500000000000000        0.0000000000000000     
  0.50000000000000000       0.90625000000000000        0.0000000000000000     
  0.53125000000000000       0.90625000000000000        0.0000000000000000     
  0.56250000000000000       0.90625000000000000        0.0000000000000000     
  0.59375000000000000       0.90625000000000000        0.0000000000000000     
  0.62500000000000000       0.90625000000000000        0.0000000000000000     
  0.50000000000000000       0.93750000000000000        0.0000000000000000     
  0.53125000000000000       0.93750000000000000        0.0000000000000000     
  0.56250000000000000       0.93750000000000000        0.0000000000000000     
  0.59375000000000000       0.93750000000000000        0.0000000000000000     
  0.62500000000000000       0.93750000000000000        0.0000000000000000     
  0.50000000000000000       0.96875000000000000        0.0000000000000000     
  0.53125000000000000       0.96875000000000000        0.0000000000000000     
  0.56250000000000000       0.96875000000000000        0.0000000000000000     
  0.59375000000000000       0.96875000000000000        0.0000000000000000     
  0.62500000000000000       0.96875000000000000        0.0000000000000000     
  0.50000000000000000        1.0000000000000000        0.0000000000000000     
  0.53125000000000000        1.0000000000000000        0.0000000000000000     
  0.56250000000000000        1.0000000000000000        0.0000000000000000     
  0.59375000000000000        1.0000000000000000        0.0000000000000000     
  0.62500000000000000        1.0000000000000000        0.0000000000000000     
  0.62500000000000000       0.87500000000000000        0.0000000000000000     
  0.65625000000000000       0.87500000000000000        0.0000000000000000     
  0.68750000000000000       0.87500000000000000        0.0000000000000000     
  0.71875000000000000       0.87500000000000000        0.0000000000000000     
  0.75000000000000000       0.87500000000000000        0.0000000000000000     
  0.62500000000000000       0.90625000000000000        0.0000000000000000     
  0.65625000000000000       0.90625000000000000        0.0000000000000000     
  0.68750000000000000       0.90625000000000000        0.0000000000000000     
  0.71875000000000000       0.90625000000000000        0.0000000000000000     
  0.75000000000000000       0.90625000000000000        0.0000000000000000     
  0.62500000000000000       0.93750000000000000        0.0000000000000000     
  0.65625000000000000       0.93750000000000000        0.0000000000000000     
  0.68750000000000000       0.93750000000000000        0.0000000000000000     
  0.71875000000000000       0.93750000000000000        0.0000000000000000     
  0.75000000000000000       0.93750000000000000        0.0000000000000000     
  0.62500000000000000       0.96875000000000000        0.0000000000000000     
  0.65625000000000000       0.96875000000000000        0.0000000000000000     
  0.68750000000000000       0.96875000000000000        0.0000000000000000     
  0.71875000000000000       0.96875000000000000        0.0000000000000000     
  0.75000000000000000       0.96875000000000000        0.0000000000000000     
  0.62500000000000000        1.0000000000000000        0.0000000000000000     
  0.65625000000000000        1.0000000000000000        0.0000000000000000     
  0.68750000000000000        1.0000000000000000        0.0000000000000000     
  0.71875000000000000        1.0000000000000000        0.0000000000000000     
  0.75000000000000000        1.0000000000000000        0.0000000000000000     
  0.75000000000000000       0.87500000000000000        0.0000000000000000     
  0.78125000000000000       0.87500000000000000        0.0000000000000000     
  0.81250000000000000       0.87500000000000000        0.0000000000000000     
  0.84375000000000000       0.87500000000000000        0.0000000000000000     
  0.87500000000000000       0.87500000000000000        0.0000000000000000     
  0.75000000000000000       0.90625000000000000        0.0000000000000000     
  0.78125000000000000       0.90625000000000000        0.0000000000000000     
  0.81250000000000000       0.90625000000000000        0.0000000000000000     
  0.84375000000000000       0.90625000000000000        0.0000000000000000     
  0.87500000000000000       0.90625000000000000        0.0000000000000000     
  0.75000000000000000       0.93750000000000000        0.0000000000000000     
  0.78125000000000000       0.93750000000000000        0.0000000000000000     
  0.81250000000000000       0.93750000000000000        0.0000000000000000     
  0.84375000000000000       0.93750000000000000        0.0000000000000000     
  0.87500000000000000       0.93750000000000000        0.0000000000000000     
  0.75000000000000000       0.96875000000000000        0.0000000000000000     
  0.78125000000000000       0.96875000000000000        0.0000000000000000     
  0.81250000000000000       0.96875000000000000        0.0000000000000000     
  0.84375000000000000       0.96875000000000000        0.0000000000000000     
  0.87500000000000000       0.96875000000000000        0.0000000000000000     
  0.75000000000000000        1.0000000000000000        0.0000000000000000     
  0.78125000000000000        1.0000000000000000        0.0000000000000000     
  0.81250000000000000        1.0000000000000000        0.0000000000000000     
  0.84375000000000000        1.0000000000000000        0.0000000000000000     
  0.87500000000000000        1.0000000000000000        0.0000000000000000     
  0.87500000000000000       0.87500000000000000        0.0000000000000000     
  0.90625000000000000       0.87500000000000000        0.0000000000000000     
  0.93750000000000000       0.87500000000000000        0.0000000000000000     
  0.96875000000000000       0.87500000000000000        0.0000000000000000     
   1.0000000000000000       0.87500000000000000        0.0000000000000000     
  0.87500000000000000       0.90625000000000000        0.0000000000000000     
  0.90625000000000000       0.90625000000000000        0.0000000000000000     
  0.93750000000000000       0.90625000000000000        0.0000000000000000     
  0.96875000000000000       0.90625000000000000        0.0000000000000000     
   1.0000000000000000       0.90625000000000000        0.0000000000000000     
  0.87500000000000000       0.93750000000000000        0.0000000000000000     
  0.90625000000000000       0.93750000000000000        0.0000000000000000     
  0.93750000000000000       0.93750000000000000        0.0000000000000000     
  0.96875000000000000       0.93750000000000000        0.0000000000000000     
   1.0000000000000000       0.93750000000000000        0.0000000000000000     
  0.87500000000000000       0.96875000000000000        0.0000000000000000     
  0.90625000000000000       0.96875000000000000        0.0000000000000000     
  0.93750000000000000       0.96875000000000000        0.0000000000000000     
  0.96875000000000000       0.96875000000000000        0.0000000000000000     
   1.0000000000000000       0.96875000000000000        0.0000000000000000     
  0.87500000000000000        1.0000000000000000        0.0000000000000000     
  0.90625000000000000        1.0000000000000000        0.0000000000000000     
  0.93750000000000000        1.0000000000000000        0.0000000000000000     
  0.96875000000000000        1.0000000000000000        0.0000000000000000     
   1.0000000000000000        1.0000000000000000        0.0000000000000000     
   1.0000000000000000       0.87500000000000000        0.0000000000000000     
   1.0312500000000000       0.87500000000000000        0.0000000000000000     
   1.0625000000000000       0.87500000000000000        0.0000000000000000     
   1.0937500000000000       0.87500000000000000        0.0000000000000000     
   1.1250000000000000       0.87500000000000000        0.0000000000000000     
   1.0000000000000000       0.90625000000000000        0.0000000000000000     
   1.0312500000000000       0.90625000000000000        0.0000000000000000     
   1.0625000000000000       0.90625000000000000        0.0000000000000000     
   1.0937500000000000       0.90625000000000000        0.0000000000000000     
   1.1250000000000000       0.90625000000000000        0.0000000000000000     
   1.0000000000000000       0.93750000000000000        0.0000000000000000     
   1.0312500000000000       0.93750000000000000        0.0000000000000000     
   1.0625000000000000       0.93750000000000000        0.0000000000000000     
   1.0937500000000000       0.93750000000000000        0.0000000000000000     
   1.1250000000000000       0.93750000000000000        0.0000000000000000     
   1.0000000000000000       0.96875000000000000        0.0000000000000000     
   1.0312500000000000       0.96875000000000000        0.0000000000000000     
   1.0625000000000000       0.96875000000000000        0.0000000000000000     
   1.0937500000000000       0.96875000000000000        0.0000000000000000     
   1.1250000000000000       0.96875000000000000        0.0000000000000000     
   1.0000000000000000        1.0000000000000000        0.0000000000000000     
   1.0312500000000000        1.0000000000000000        0.0000000000000000     
   1.0625000000000000        1.0000000000000000        0.0000000000000000     
   1.0937500000000000        1.0000000000000000        0.0000000000000000     
   1.1250000000000000        1.0000000000000000        0.0000000000000000     
   1.1250000000000000       0.87500000000000000        0.0000000000000000     
   1.1562500000000000       0.87500000000000000        0.0000000000000000     
   1.1875000000000000       0.87500000000000000        0.0000000000000000     
   1.2187500000000000       0.87500000000000000        0.0000000000000000     
   1.2500000000000000       0.87500000000000000        0.0000000000000000     
   1.1250000000000000       0.90625000000000000        0.0000000000000000     
   1.1562500000000000       0.90625000000000000        0.0000000000000000     
   1.1875000000000000       0.90625000000000000        0.0000000000000000     
   1.2187500000000000       0.90625000000000000        0.0000000000000000     
   1.2500000000000000       0.90625000000000000        0.0000000000000000     
   1.1250000000000000       0.93750000000000000        0.0000000000000000     
   1.1562500000000000       0.93750000000000000        0.0000000000000000     
   1.1875000000000000       0.93750000000000000        0.0000000000000000     
   1.2187500000000000       0.93750000000000000        0.0000000000000000     
   1.2500000000000000       0.93750000000000000        0.0000000000000000     
   1.1250000000000000       0.96875000000000000        0.0000000000000000     
   1.1562500000000000       0.96875000000000000        0.0000000000000000     
   1.1875000000000000       0.96875000000000000        0.0000000000000000     
   1.2187500000000000       0.96875000000000000        0.0000000000000000     
   1.2500000000000000       0.96875000000000000        0.0000000000000000     
   1.1250000000000000        1.0000000000000000        0.0000000000000000     
   1.1562500000000000        1.0000000000000000        0.0000000000000000     
   1.1875000000000000        1.0000000000000000        0.0000000000000000     
   1.2187500000000000        1.0000000000000000        0.0000000000000000     
   1.2500000000000000        1.0000000000000000        0.0000000000000000     
   1.2500000000000000       0.87500000000000000        0.0000000000000000     
   1.2812500000000000       0.87500000000000000        0.0000000000000000     
   1.3125000000000000       0.87500000000000000        0.0000000000000000     
   1.3437500000000000       0.87500000000000000        0.0000000000000000     
   1.3750000000000000       0.87500000000000000        0.0000000000000000     
   1.2500000000000000       0.90625000000000000        0.0000000000000000     
   1.2812500000000000       0.90625000000000000        0.0000000000000000     
   1.3125000000000000       0.90625000000000000        0.0000000000000000     
   1.3437500000000000       0.90625000000000000        0.0000000000000000     
   1.3750000000000000       0.90625000000000000        0.0000000000000000     
   1.2500000000000000       0.93750000000000000        0.0000000000000000     
   1.2812500000000000       0.93750000000000000        0.0000000000000000     
   1.3125000000000000       0.93750000000000000        0.0000000000000000     
   1.3437500000000000       0.93750000000000000        0.0000000000000000     
   1.3750000000000000       0.93750000000000000        0.0000000000000000     
   1.2500000000000000       0.96875000000000000        0.0000000000000000     
   1.2812500000000000       0.96875000000000000        0.0000000000000000     
   1.3125000000000000       0.96875000000000000        0.0000000000000000     
   1.3437500000000000       0.96875000000000000        0.0000000000000000     
   1.3750000000000000       0.96875000000000000        0.0000000000000000     
   1.2500000000000000        1.0000000000000000        0.0000000000000000     
   1.2812500000000000        1.0000000000000000        0.0000000000000000     
   1.3125000000000000        1.0000000000000000        0.0000000000000000     
   1.3437500000000000        1.0000000000000000        0.0000000000000000     
   1.3750000000000000        1.0000000000000000        0.0000000000000000     
   1.3750000000000000       0.87500000000000000        0.0000000000000000     
   1.4062500000000000       0.87500000000000000        0.0000000000000000     
   1.4375000000000000       0.87500000000000000        0.0000000000000000     
   1.4687500000000000       0.87500000000000000        0.0000000000000000     
   1.5000000000000000       0.87500000000000000        0.0000000000000000     
   1.3750000000000000       0.90625000000000000        0.0000000000000000     
   1.4062500000000000       0.90625000000000000        0.0000000000000000     
   1.4375000000000000       0.90625000000000000        0.0000000000000000     
   1.4687500000000000       0.90625000000000000        0.0000000000000000     
   1.5000000000000000       0.90625000000000000        0.0000000000000000     
   1.3750000000000000       0.93750000000000000        0.0000000000000000     
   1.4062500000000000       0.93750000000000000        0.0000000000000000     
   1.4375000000000000       0.93750000000000000        0.0000000000000000     
   1.4687500000000000       0.93750000000000000        0.0000000000000000     
   1.5000000000000000       0.93750000000000000        0.0000000000000000     
   1.3750000000000000       0.96875000000000000        0.0000000000000000     
   1.4062500000000000       0.96875000000000000        0.0000000000000000     
   1.4375000000000000       0.96875000000000000        0.0000000000000000     
   1.4687500000000000       0.96875000000000000        0.0000000000000000     
   1.5000000000000000       0.96875000000000000        0.0000000000000000     
   1.3750000000000000        1.0000000000000000        0.0000000000000000     
   1.4062500000000000        1.0000000000000000        0.0000000000000000     
   1.4375000000000000        1.0000000000000000        0.0000000000000000     
   1.4687500000000000        1.0000000000000000        0.0000000000000000     
   1.5000000000000000        1.0000000000000000        0.0000000000000000     
 </DataArray>
 </Points>
 <Cells>
 <DataArray  type="Int32"  Name="connectivity"  format="ascii">
           0           1           6           5
           1           2           7           6
           2           3           8           7
           3           4           9           8
           5           6          11          10
           6           7          12          11
           7           8          13          12
           8           9          14          13
          10          11          16          15
          11          12          17          16
          12          13          18          17
          13          14          19          18
          15          16          21          20
          16          17          22          21
          17          18          23          22
          18          19          24          23
          25          26          31          30
          26          27          32          31
          27          28          33          32
          28          29          34          33
          30          31          36          35
          31          32          37          36
          32          33          38          37
          33          34          39          38
          35          36          41          40
          36          37          42          41
          37          38          43          42
          38          39          44          43
          40          41          46          45
          41          42          47          46
          42          43          48          47
          43          44          49          48
          50          51          56          55
          51          52          57          56
          52          53          58          57
          53          54          59          58
          55          56          61          60
          56          57          62          61
          57          58          63          62
          58          59          64          63
          60          61          66          65
          61          62          67          66
          62          63          68          67
          63          64          69          68
          65          66          71          70
          66          67          72          71
          67          68          73          72
          68          69          74          73
          75          76          81          80
          76          77          82          81
          77          78          83          82
          78          79          84          83
          80          81          86          85
          81          82          87          86
          82          83          88          87
          83          84          89          88
          85          86          91          90
          86          87          92          91
          87          88          93          92
          88          89          94          93
          90          91          96          95
          91          92          97          96
          92          93          98          97
          93          94          99          98
         100         101         106         105
         101         102         107         106
         102         103         108         107
         103         104         109         108
         105         106         111         110
         106         107         112         111
         107         108         113         112
         108         109         114         113
         110         111         116         115
         111         112         117         116
         112         113         118         117
         113         114         119         118
         115         116         121         120
         116         117         122         121
         117         118         123         122
         118         119         124         123
         125         126         131         130
         126         127         132         131
         127         128         133         132
         128         129         134         133
         130         131         136         135
         131         132         137         136
         132         133         138         137
         133         134         139         138
         135         136         141         140
         136         137         142         141
         137         138         143         142
         138         139         144         143
         140         141         146         145
         141         142         147         146
         142         143         148         147
         143         144         149         148
         150         151         156         155
         151         152         157         156
         152         153         158         157
         153         154         159         158
         155         156         161         160
         156         157         162         161
         157         158         163         162
         158         159         164         163
         160         161         166         165
         161         162         167         166
         162         163         168         167
         163         164         169         168
         165         166         171         170
         166         167         172         171
         167         168         173         172
         168         169         174         173
         175         176         181         180
         176         177         182         181
         177         178         183         182
         178         179         184         183
         180         181         186         185
         181         182         187         186
         182         183         188         187
         183         184         189         188
         185         186         191         190
         186         187         192         191
         187         188         193         192
         188         189         194         193
         190         191         196         195
         191         192         197         196
         192         193         198         197
         193         194         199         198
         200         201         206         205
         201         202         207         206
         202         203         208         207
         203         204         209         208
         205         206         211         210
         206         207         212         211
         207         208         213         212
         208         209         214         213
         210         211         216         215
         211         212         217         216
         212         213         218         217
         213         214         219         218
         215         216         221         220
         216         217         222         221
         217         218         223         222
         218         219         224         223
         225         226         231         230
         226         227         232         231
         227         228         233         232
         228         229         234         233
         230         231         236         235
         231         232         237         236
         232         233         238         237
         233         234         239         238
         235         236         241         240
         236         237         242         241
         237         238         243         242
         238         239         244         243
         240         241         246         245
         241         242         247         246
         242         243         248         247
         243         244         249         248
         250         251         256         255
         251         252         257         256
         252         253         258         257
         253         254         259         258
         255         256         261         260
         256         257         262         261
         257         258         263         262
         258         259         264         263
         260         261         266         265
         261         262         267         266
         262         263         268         267
         263         264         269         268
         265         266         271         270
         266         267         272         271
         267         268         273         272
         268         269         274         273
         275         276         281         280
         276         277         282         281
         277         278         283         282
         278         279         284         283
         280         281         286         285
         281         282         287         286
         282         283         288         287
         283         284         289         288
         285         286         291         290
         286         287         292         291
         287         288         293         292
         288         289         294         293
         290         291         296         295
         291         292         297         296
         292         293         298         297
         293         294         299         298
         300         301         306         305
         301         302         307         306
         302         303         308         307
         303         304         309         308
         305         306         311         310
         306         307         312         311
         307         308         313         312
         308         309         314         313
         310         311         316         315
         311         312         317         316
         312         313         318         317
         313         314         319         318
         315         316         321         320
         316         317         322         321
         317         318         323         322
         318         319         324         323
         325         326         331         330
         326         327         332         331
         327         328         333         332
         328         329         334         333
         330         331         336         335
         331         332         337         336
         332         333         338         337
         333         334         339         338
         335         336         341         340
         336         337         342         341
         337         338         343         342
         338         339         344         343
         340         341         346         345
         341         342         347         346
         342         343         348         347
         343         344         349         348
         350         351         356         355
         351         352         357         356
         352         353         358         357
         353         354         359         358
         355         356         361         360
         356         357         362         361
         357         358         363         362
         358         359         364         363
         360         361         366         365
         361         362         367         366
         362         363         368         367
         363         364         369         368
         365         366         371         370
         366         367         372         371
         367         368         373         372
         368         369         374         373
         375         376         381         380
         376         377         382         381
         377         378         383         382
         378         379         384         383
         380         381         386         385
         381         382         387         386
         382         383         388         387
         383         384         389         388
         385         386         391         390
         386         387         392         391
         387         388         393         392
         388         389         394         393
         390         391         396         395
         391         392         397         396
         392         393         398         397
         393         394         399         398
         400         401         406         405
         401         402         407         406
         402         403         408         407
         403         404         409         408
         405         406         411         410
         406         407         412         411
         407         408         413         412
         408         409         414         413
         410         411         416         415
         411         412         417         416
         412         413         418         417
         413         414         419         418
         415         416         421         420
         416         417         422         421
         417         418         423         422
         418         419         424         423
         425         426         431         430
         426         427         432         431
         427         428         433         432
         428         429         434         433
         430         431         436         435
         431         432         437         436
         432         433         438         437
         433         434         439         438
         435         436         441         440
         436         437         442         441
         437         438         443         442
         438         439         444         443
         440         441         446         445
         441         442         447         446
         442         443         448         447
         443         444         449         448
         450         451         456         455
         451         452         457         456
         452         453         458         457
         453         454         459         458
         455         456         461         460
         456         457         462         461
         457         458         463         462
         458         459         464         463
         460         461         466         465
         461         462         467         466
         462         463         468         467
         463         464         469         468
         465         466         471         470
         466         467         472         471
         467         468         473         472
         468         469         474         473
         475         476         481         480
         476         477         482         481
         477         478         483         482
         478         479         484         483
         480         481         486         485
         481         482         487         486
         482         483         488         487
         483         484         489         488
         485         486         491         490
         486         487         492         491
         487         488         493         492
         488         489         494         493
         490         491         496         495
         491         492         497         496
         492         493         498         497
         493         494         499         498
         500         501         506         505
         501         502         507         506
         502         503         508         507
         503         504         509         508
         505         506         511         510
         506         507         512         511
         507         508         513         512
         508         509         514         513
         510         511         516         515
         511         512         517         516
         512         513         518         517
         513         514         519         518
         515         516         521         520
         516         517         522         521
         517         518         523         522
         518         519         524         523
         525         526         531         530
         526         527         532         531
         527         528         533         532
         528         529         534         533
         530         531         536         535
         531         532         537         536
         532         533         538         537
         533         534         539         538
         535         536         541         540
         536         537         542         541
         537         538         543         542
         538         539         544         543
         540         541         546         545
         541         542         547         546
         542         543         548         547
         543         544         549         548
         550         551         556         555
         551         552         557         556
         552         553         558         557
         553         554         559         558
         555         556         561         560
         556         557         562         561
         557         558         563         562
         558         559         564         563
         560         561         566         565
         561         562         567         566
         562         563         568         567
         563         564         569         568
         565         566         571         570
         566         567         572         571
         567         568         573         572
         568         569         574         573
         575         576         581         580
         576         577         582         581
         577         578         583         582
         578         579         584         583
         580         581         586         585
         581         582         587         586
         582         583         588         587
         583         584         589         588
         585         586         591         590
         586         587         592         591
         587         588         593         592
         588         589         594         593
         590         591         596         595
         591         592         597         596
         592         593         598         597
         593         594         599         598
         600         601         606         605
         601         602         607         606
         602         603         608         607
         603         604         609         608
         605         606         611         610
         606         607         612         611
         607         608         613         612
         608         609         614         613
         610         611         616         615
         611         612         617         616
         612         613         618         617
         613         614         619         618
         615         616         621         620
         616         617         622         621
         617         618         623         622
         618         619         624         623
         625         626         631         630
         626         627         632         631
         627         628         633         632
         628         629         634         633
         630         631         636         635
         631         632         637         636
         632         633         638         637
         633         634         639         638
         635         636         641         640
         636         637         642         641
         637         638         643         642
         638         639         644         643
         640         641         646         645
         641         642         647         646
         642         643         648         647
         643         644         649         648
         650         651         656         655
         651         652         657         656
         652         653         658         657
         653         654         659         658
         655         656         661         660
         656         657         662         661
         657         658         663         662
         658         659         664         663
         660         661         666         665
         661         662         667         666
         662         663         668         667
         663         664         669         668
         665         666         671         670
         666         667         672         671
         667         668         673         672
         668         669         674         673
         675         676         681         680
         676         677         682         681
         677         678         683         682
         678         679         684         683
         680         681         686         685
         681         682         687         686
         682         683         688         687
         683         684         689         688
         685         686         691         690
         686         687         692         691
         687         688         693         692
         688         689         694         693
         690         691         696         695
         691         692         697         696
         692         693         698         697
         693         694         699         698
         700         701         706         705
         701         702         707         706
         702         703         708         707
         703         704         709         708
         705         706         711         710
         706         707         712         711
         707         708         713         712
         708         709         714         713
         710         711         716         715
         711         712         717         716
         712         713         718         717
         713         714         719         718
         715         716         721         720
         716         717         722         721
         717         718         723         722
         718         719         724         723
         725         726         731         730
         726         727         732         731
         727         728         733         732
         728         729         734         733
         730         731         736         735
         731         732         737         736
         732         733         738         737
         733         734         739         738
         735         736         741         740
         736         737         742         741
         737         738         743         742
         738         739         744         743
         740         741         746         745
         741         742         747         746
         742         743         748         747
         743         744         749         748
         750         751         756         755
         751         752         757         756
         752         753         758         757
         753         754         759         758
         755         756         761         760
         756         757         762         761
         757         758         763         762
         758         759         764         763
         760         761         766         765
         761         762         767         766
         762         763         768         767
         763         764         769         768
         765         766         771         770
         766         767         772         771
         767         768         773         772
         768         769         774         773
         775         776         781         780
         776         777         782         781
         777         778         783         782
         778         779         784         783
         780         781         786         785
         781         782         787         786
         782         783         788         787
         783         784         789         788
         785         786         791         790
         786         787         792         791
         787         788         793         792
         788         789         794         793
         790         791         796         795
         791         792         797         796
         792         793         798         797
         793         794         799         798
         800         801         806         805
         801         802         807         806
         802         803         808         807
         803         804         809         808
         805         806         811         810
         806         807         812         811
         807         808         813         812
         808         809         814         813
         810         811         816         815
         811         812         817         816
         812         813         818         817
         813         814         819         818
         815         816         821         820
         816         817         822         821
         817         818         823         822
         818         819         824         823
         825         826         831         830
         826         827         832         831
         827         828         833         832
         828         829         834         833
         830         831         836         835
         831         832         837         836
         832         833         838         837
         833         834         839         838
         835         836         841         840
         836         837         842         841
         837         838         843         842
         838         839         844         843
         840         841         846         845
         841         842         847         846
         842         843         848         847
         843         844         849         848
         850         851         856         855
         851         852         857         856
         852         853         858         857
         853         854         859         858
         855         856         861         860
         856         857         862         861
         857         858         863         862
         858         859         864         863
         860         861         866         865
         861         862         867         866
         862         863         868         867
         863         864         869         868
         865         866         871         870
         866         867         872         871
         867         868         873         872
         868         869         874         873
         875         876         881         880
         876         877         882         881
         877         878         883         882
         878         879         884         883
         880         881         886         885
         881         882         887         886
         882         883         888         887
         883         884         889         888
         885         886         891         890
         886         887         892         891
         887         888         893         892
         888         889         894         893
         890         891         896         895
         891         892         897         896
         892         893         898         897
         893         894         899         898
         900         901         906         905
         901         902         907         906
         902         903         908         907
         903         904         909         908
         905         906         911         910
         906         907         912         911
         907         908         913         912
         908         909         914         913
         910         911         916         915
         911         912         917         916
         912         913         918         917
         913         914         919         918
         915         916         921         920
         916         917         922         921
         917         918         923         922
         918         919         924         923
         925         926         931         930
         926         927         932         931
         927         928         933         932
         928         929         934         933
         930         931         936         935
         931         932         937         936
         932         933         938         937
         933         934         939         938
         935         936         941         940
         936         937         942         941
         937         938         943         942
         938         939         944         943
         940         941         946         945
         941         942         947         946
         942         943         948         947
         943         944         949         948
         950         951         956         955
         951         952         957         956
         952         953         958         957
         953         954         959         958
         955         956         961         960
         956         957         962         961
         957         958         963         962
         958         959         964         963
         960         961         966         965
         961         962         967         966
         962         963         968         967
         963         964         969         968
         965         966         971         970
         966         967         972         971
         967         968         973         972
         968         969         974         973
         975         976         981         980
         976         977         982         981
         977         978         983         982
         978         979         984         983
         980         981         986         985
         981         982         987         986
         982         983         988         987
         983         984         989         988
         985         986         991         990
         986         987         992         991
         987         988         993         992
         988         989         994         993
         990         991         996         995
         991         992         997         996
         992         993         998         997
         993         994         999         998
        1000        1001        1006        1005
        1001        1002        1007        1006
        1002        1003        1008        1007
        1003        1004        1009        1008
        1005        1006        1011        1010
        1006        1007        1012        1011
        1007        1008        1013        1012
        1008        1009        1014        1013
        1010        1011        1016        1015
        1011        1012        1017        1016
        1012        1013        1018        1017
        1013        1014        1019        1018
        1015        1016        1021        1020
        1016        1017        1022        1021
        1017        1018        1023        1022
        1018        1019        1024        1023
        1025        1026        1031        1030
        1026        1027        1032        1031
        1027        1028        1033        1032
        1028        1029        1034        1033
        1030        1031        1036        1035
        1031        1032        1037        1036
        1032        1033        1038        1037
        1033        1034        1039        1038
        1035        1036        1041        1040
        1036        1037        1042        1041
        1037        1038        1043        1042
        1038        1039        1044        1043
        1040        1041        1046        1045
        1041        1042        1047        1046
        1042        1043        1048        1047
        1043        1044        1049        1048
        1050        1051        1056        1055
        1051        1052        1057        1056
        1052        1053        1058        1057
        1053        1054        1059        1058
        1055        1056        1061        1060
        1056        1057        1062        1061
        1057        1058        1063        1062
        1058        1059        1064        1063
        1060        1061        1066        1065
        1061        1062        1067        1066
        1062        1063        1068        1067
        1063        1064        1069        1068
        1065        1066        1071        1070
        1066        1067        1072        1071
        1067        1068        1073        1072
        1068        1069        1074        1073
        1075        1076        1081        1080
        1076        1077        1082        1081
        1077        1078        1083        1082
        1078        1079        1084        1083
        1080        1081        1086        1085
        1081        1082        1087        1086
        1082        1083        1088        1087
        1083        1084        1089        1088
        1085        1086        1091        1090
        1086        1087        1092        1091
        1087        1088        1093        1092
        1088        1089        1094        1093
        1090        1091        1096        1095
        1091        1092        1097        1096
        1092        1093        1098        1097
        1093        1094        1099        1098
        1100        1101        1106        1105
        1101        1102        1107        1106
        1102        1103        1108        1107
        1103        1104        1109        1108
        1105        1106        1111        1110
        1106        1107        1112        1111
        1107        1108        1113        1112
        1108        1109        1114        1113
        1110        1111        1116        1115
        1111        1112        1117        1116
        1112        1113        1118        1117
        1113        1114        1119        1118
        1115        1116        1121        1120
        1116        1117        1122        1121
        1117        1118        1123        1122
        1118        1119        1124        1123
        1125        1126        1131        1130
        1126        1127        1132        1131
        1127        1128        1133        1132
        1128        1129        1134        1133
        1130        1131        1136        1135
        1131        1132        1137        1136
        1132        1133        1138        1137
        1133        1134        1139        1138
        1135        1136        1141        1140
        1136        1137        1142        1141
        1137        1138        1143        1142
        1138        1139        1144        1143
        1140        1141        1146        1145
        1141        1142        1147        1146
        1142        1143        1148        1147
        1143        1144        1149        1148
        1150        1151        1156        1155
        1151        1152        1157        1156
        1152        1153        1158        1157
        1153        1154        1159        1158
        1155        1156        1161        1160
        1156        1157        1162        1161
        1157        1158        1163        1162
        1158        1159        1164        1163
        1160        1161        1166        1165
        1161        1162        1167        1166
        1162        1163        1168        1167
        1163        1164        1169        1168
        1165        1166        1171        1170
        1166        1167        1172        1171
        1167        1168        1173        1172
        1168        1169        1174        1173
        1175        1176        1181        1180
        1176        1177        1182        1181
        1177        1178        1183        1182
        1178        1179        1184        1183
        1180        1181        1186        1185
        1181        1182        1187        1186
        1182        1183        1188        1187
        1183        1184        1189        1188
        1185        1186        1191        1190
        1186        1187        1192        1191
        1187        1188        1193        1192
        1188        1189        1194        1193
        1190        1191        1196        1195
        1191        1192        1197        1196
        1192        1193        1198        1197
        1193        1194        1199        1198
        1200        1201        1206        1205
        1201        1202        1207        1206
        1202        1203        1208        1207
        1203        1204        1209        1208
        1205        1206        1211        1210
        1206        1207        1212        1211
        1207        1208        1213        1212
        1208        1209        1214        1213
        1210        1211        1216        1215
        1211        1212        1217        1216
        1212        1213        1218        1217
        1213        1214        1219        1218
        1215        1216        1221        1220
        1216        1217        1222        1221
        1217        1218        1223        1222
        1218        1219        1224        1223
        1225        1226        1231        1230
        1226        1227        1232        1231
        1227        1228        1233        1232
        1228        1229        1234        1233
        1230        1231        1236        1235
        1231        1232        1237        1236
        1232        1233        1238        1237
        1233        1234        1239        1238
        1235        1236        1241        1240
        1236        1237        1242        1241
        1237        1238        1243        1242
        1238        1239        1244        1243
        1240        1241        1246        1245
        1241        1242        1247        1246
        1242        1243        1248        1247
        1243        1244        1249        1248
        1250        1251        1256        1255
        1251        1252        1257        1256
        1252        1253        1258        1257
        1253        1254        1259        1258
        1255        1256        1261        1260
        1256        1257        1262        1261
        1257        1258        1263        1262
        1258        1259        1264        1263
        1260        1261        1266        1265
        1261        1262        1267        1266
        1262        1263        1268        1267
        1263        1264        1269        1268
        1265        1266        1271        1270
        1266        1267        1272        1271
        1267        1268        1273        1272
        1268        1269        1274        1273
        1275        1276        1281        1280
        1276        1277        1282        1281
        1277        1278        1283        1282
        1278        1279        1284        1283
        1280        1281        1286        1285
        1281        1282        1287        1286
        1282        1283        1288        1287
        1283        1284        1289        1288
        1285        1286        1291        1290
        1286        1287        1292        1291
        1287        1288        1293        1292
        1288        1289        1294        1293
        1290        1291        1296        1295
        1291        1292        1297        1296
        1292        1293        1298        1297
        1293        1294        1299        1298
        1300        1301        1306        1305
        1301        1302        1307        1306
        1302        1303        1308        1307
        1303        1304        1309        1308
        1305        1306        1311        1310
        1306        1307        1312        1311
        1307        1308        1313        1312
        1308        1309        1314        1313
        1310        1311        1316        1315
        1311        1312        1317        1316
        1312        1313        1318        1317
        1313        1314        1319        1318
        1315        1316        1321        1320
        1316        1317        1322        1321
        1317        1318        1323        1322
        1318        1319        1324        1323
        1325        1326        1331        1330
        1326        1327        1332        1331
        1327        1328        1333        1332
        1328        1329        1334        1333
        1330        1331        1336        1335
        1331        1332        1337        1336
        1332        1333        1338        1337
        1333        1334        1339        1338
        1335        1336        1341        1340
        1336        1337        1342        1341
        1337        1338        1343        1342
        1338        1339        1344        1343
        1340        1341        1346        1345
        1341        1342        1347        1346
        1342        1343        1348        1347
        1343        1344        1349        1348
        1350        1351        1356        1355
        1351        1352        1357        1356
        1352        1353        1358        1357
        1353        1354        1359        1358
        1355        1356        1361        1360
        1356        1357        1362        1361
        1357        1358        1363        1362
        1358        1359        1364        1363
        1360        1361        1366        1365
        1361        1362        1367        1366
        1362        1363        1368        1367
        1363        1364        1369        1368
        1365        1366        1371        1370
        1366        1367        1372        1371
        1367        1368        1373        1372
        1368        1369        1374        1373
        1375        1376        1381        1380
        1376        1377        1382        1381
        1377        1378        1383        1382
        1378        1379        1384        1383
        1380        1381        1386        1385
        1381        1382        1387        1386
        1382        1383        1388        1387
        1383        1384        1389        1388
        1385        1386        1391        1390
        1386        1387        1392        1391
        1387        1388        1393        1392
        1388        1389        1394        1393
        1390        1391        1396        1395
        1391        1392        1397        1396
        1392        1393        1398        1397
        1393        1394        1399        1398
        1400        1401        1406        1405
        1401        1402        1407        1406
        1402        1403        1408        1407
        1403        1404        1409        1408
        1405        1406        1411        1410
        1406        1407        1412        1411
        1407        1408        1413        1412
        1408        1409        1414        1413
        1410        1411        1416        1415
        1411        1412        1417        1416
        1412        1413        1418        1417
        1413        1414        1419        1418
        1415        1416        1421        1420
        1416        1417        1422        1421
        1417        1418        1423        1422
        1418        1419        1424        1423
        1425        1426        1431        1430
        1426        1427        1432        1431
        1427        1428        1433        1432
        1428        1429        1434        1433
        1430        1431        1436        1435
        1431        1432        1437        1436
        1432        1433        1438        1437
        1433        1434        1439        1438
        1435        1436        1441        1440
        1436        1437        1442        1441
        1437        1438        1443        1442
        1438        1439        1444        1443
        1440        1441        1446        1445
        1441        1442        1447        1446
        1442        1443        1448        1447
        1443        1444        1449        1448
        1450        1451        1456        1455
        1451        1452        1457        1456
        1452        1453        1458        1457
        1453        1454        1459        1458
        1455        1456        1461        1460
        1456        1457        1462        1461
        1457        1458        1463        1462
        1458        1459        1464        1463
        1460        1461        1466        1465
        1461        1462        1467        1466
        1462        1463        1468        1467
        1463        1464        1469        1468
        1465        1466        1471        1470
        1466        1467        1472        1471
        1467        1468        1473        1472
        1468        1469        1474        1473
        1475        1476        1481        1480
        1476        1477        1482        1481
        1477        1478        1483        1482
        1478        1479        1484        1483
        1480        1481        1486        1485
        1481        1482        1487        1486
        1482        1483        1488        1487
        1483        1484        1489        1488
        1485        1486        1491        1490
        1486        1487        1492        1491
        1487        1488        1493        1492
        1488        1489        1494        1493
        1490        1491        1496        1495
        1491        1492        1497        1496
        1492        1493        1498        1497
        1493        1494        1499        1498
        1500        1501        1506        1505
        1501        1502        1507        1506
        1502        1503        1508        1507
        1503        1504        1509        1508
        1505        1506        1511        1510
        1506        1507        1512        1511
        1507        1508        1513        1512
        1508        1509        1514        1513
        1510        1511        1516        1515
        1511        1512        1517        1516
        1512        1513        1518        1517
        1513        1514        1519        1518
        1515        1516        1521        1520
        1516        1517        1522        1521
        1517        1518        1523        1522
        1518        1519        1524        1523
        1525        1526        1531        1530
        1526        1527        1532        1531
        1527        1528        1533        1532
        1528        1529        1534        1533
        1530        1531        1536        1535
        1531        1532        1537        1536
        1532        1533        1538        1537
        1533        1534        1539        1538
        1535        1536        1541        1540
        1536        1537        1542        1541
        1537        1538        1543        1542
        1538        1539        1544        1543
        1540        1541        1546        1545
        1541        1542        1547        1546
        1542        1543        1548        1547
        1543        1544        1549        1548
        1550        1551        1556        1555
        1551        1552        1557        1556
        1552        1553        1558        1557
        1553        1554        1559        1558
        1555        1556        1561        1560
        1556        1557        1562        1561
        1557        1558        1563        1562
        1558        1559        1564        1563
        1560        1561        1566        1565
        1561        1562        1567        1566
        1562        1563        1568        1567
        1563        1564        1569        1568
        1565        1566        1571        1570
        1566        1567        1572        1571
        1567        1568        1573        1572
        1568        1569        1574        1573
        1575        1576        1581        1580
        1576        1577        1582        1581
        1577        1578        1583        1582
        1578        1579        1584        1583
        1580        1581        1586        1585
        1581        1582        1587        1586
        1582        1583        1588        1587
        1583        1584        1589        1588
        1585        1586        1591        1590
        1586        1587        1592        1591
        1587        1588        1593        1592
        1588        1589        1594        1593
        1590        1591        1596        1595
        1591        1592        1597        1596
        1592        1593        1598        1597
        1593        1594        1599        1598
 </DataArray>
 <DataArray  type="Int32"  Name="offsets"  format="ascii"> 
           4
           8
          12
          16
          20
          24
          28
          32
          36
          40
          44
          48
          52
          56
          60
          64
          68
          72
          76
          80
          84
          88
          92
          96
         100
         104
         108
         112
         116
         120
         124
         128
         132
         136
         140
         144
         148
         152
         156
         160
         164
         168
         172
         176
         180
         184
         188
         192
         196
         200
         204
         208
         212
         216
         220
         224
         228
         232
         236
         240
         244
         248
         252
         256
         260
         264
         268
         272
         276
         280
         284
         288
         292
         296
         300
         304
         308
         312
         316
         320
         324
         328
         332
         336
         340
         344
         348
         352
         356
         360
         364
         368
         372
         376
         380
         384
         388
         392
         396
         400
         404
         408
         412
         416
         420
         424
         428
         432
         436
         440
         444
         448
         452
         456
         460
         464
         468
         472
         476
         480
         484
         488
         492
         496
         500
         504
         508
         512
         516
         520
         524
         528
         532
         536
         540
         544
         548
         552
         556
         560
         564
         568
         572
         576
         580
         584
         588
         592
         596
         600
         604
         608
         612
         616
         620
         624
         628
         632
         636
         640
         644
         648
         652
         656
         660
         664
         668
         672
         676
         680
         684
         688
         692
         696
         700
         704
         708
         712
         716
         720
         724
         728
         732
         736
         740
         744
         748
         752
         756
         760
         764
         768
         772
         776
         780
         784
         788
         792
         796
         800
         804
         808
         812
         816
         820
         824
         828
         832
         836
         840
         844
         848
         852
         856
         860
         864
         868
         872
         876
         880
         884
         888
         892
         896
         900
         904
         908
         912
         916
         920
         924
         928
         932
         936
         940
         944
         948
         952
         956
         960
         964
         968
         972
         976
         980
         984
         988
         992
         996
        1000
        1004
        1008
        1012
        1016
        1020
        1024
        1028
        1032
        1036
        1040
        1044
        1048
        1052
        1056
        1060
        1064
        1068
        1072
        1076
        1080
        1084
        1088
        1092
        1096
        1100
        1104
        1108
        1112
        1116
        1120
        1124
        1128
        1132
        1136
        1140
        1144
        1148
        1152
        1156
        1160
        1164
        1168
        1172
        1176
        1180
        1184
        1188
        1192
        1196
        1200
        1204
        1208
        1212
        1216
        1220
        1224
        1228
        1232
        1236
        1240
        1244
        1248
        1252
        1256
        1260
        1264
        1268
        1272
        1276
        1280
        1284
        1288
        1292
        1296
        1300
        1304
        1308
        1312
        1316
        1320
        1324
        1328
        1332
        1336
        1340
        1344
        1348
        1352
        1356
        1360
        1364
        1368
        1372
        1376
        1380
        1384
        1388
        1392
        1396
        1400
        1404
        1408
        1412
        1416
        1420
        1424
        1428
        1432
        1436
        1440
        1444
        1448
        1452
        1456
        1460
        1464
        1468
        1472
        1476
        1480
        1484
        1488
        1492
        1496
        1500
        1504
        1508
        1512
        1516
        1520
        1524
        1528
        1532
        1536
        1540
        1544
        1548
        1552
        1556
        1560
        1564
        1568
        1572
        1576
        1580
        1584
        1588
        1592
        1596
        1600
        1604
        1608
        1612
        1616
        1620
        1624
        1628
        1632
        1636
        1640
        1644
        1648
        1652
        1656
        1660
        1664
        1668
        1672
        1676
        1680
        1684
        1688
        1692
        1696
        1700
        1704
        1708
        1712
        1716
        1720
        1724
        1728
        1732
        1736
        1740
        1744
        1748
        1752
        1756
        1760
        1764
        1768
        1772
        1776
        1780
        1784
        1788
        1792
        1796
        1800
        1804
        1808
        1812
        1816
        1820
        1824
        1828
        1832
        1836
        1840
        1844
        1848
        1852
        1856
        1860
        1864
        1868
        1872
        1876
        1880
        1884
        1888
        1892
        1896
        1900
        1904
        1908
        1912
        1916
        1920
        1924
        1928
        1932
        1936
        1940
        1944
        1948
        1952
        1956
        1960
        1964
        1968
        1972
        1976
        1980
        1984
        1988
        1992
        1996
        2000
        2004
        2008
        2012
        2016
        2020
        2024
        2028
        2032
        2036
        2040
        2044
        2048
        2052
        2056
        2060
        2064
        2068
        2072
        2076
        2080
        2084
        2088
        2092
        2096
        2100
        2104
        2108
        2112
        2116
        2120
        2124
        2128
        2132
        2136
        2140
        2144
        2148
        2152
        2156
        2160
        2164
        2168
        2172
        2176
        2180
        2184
        2188
        2192
        2196
        2200
        2204
        2208
        2212
        2216
        2220
        2224
        2228
        2232
        2236
        2240
        2244
        2248
        2252
        2256
        2260
        2264
        2268
        2272
        2276
        2280
        2284
        2288
        2292
        2296
        2300
        2304
        2308
        2312
        2316
        2320
        2324
        2328
        2332
        2336
        2340
        2344
        2348
        2352
        2356
        2360
        2364
        2368
        2372
        2376
        2380
        2384
        2388
        2392
        2396
        2400
        2404
        2408
        2412
        2416
        2420
        2424
        2428
        2432
        2436
        2440
        2444
        2448
        2452
        2456
        2460
        2464
        2468
        2472
        2476
        2480
        2484
        2488
        2492
        2496
        2500
        2504
        2508
        2512
        2516
        2520
        2524
        2528
        2532
        2536
        2540
        2544
        2548
        2552
        2556
        2560
        2564
        2568
        2572
        2576
        2580
        2584
        2588
        2592
        2596
        2600
        2604
        2608
        2612
        2616
        2620
        2624
        2628
        2632
        2636
        2640
        2644
        2648
        2652
        2656
        2660
        2664
        2668
        2672
        2676
        2680
        2684
        2688
        2692
        2696
        2700
        2704
        2708
        2712
        2716
        2720
        2724
        2728
        2732
        2736
        2740
        2744
        2748
        2752
        2756
        2760
        2764
        2768
        2772
        2776
        2780
        2784
        2788
        2792
        2796
        2800
        2804
        2808
        2812
        2816
        2820
        2824
        2828
        2832
        2836
        2840
        2844
        2848
        2852
        2856
        2860
        2864
        2868
        2872
        2876
        2880
        2884
        2888
        2892
        2896
        2900
        2904
        2908
        2912
        2916
        2920
        2924
        2928
        2932
        2936
        2940
        2944
        2948
        2952
        2956
        2960
        2964
        2968
        2972
        2976
        2980
        2984
        2988
        2992
        2996
        3000
        3004
        3008
        3012
        3016
        3020
        3024
        3028
        3032
        3036
        3040
        3044
        3048
        3052
        3056
        3060
        3064
        3068
        3072
        3076
        3080
        3084
        3088
        3092
        3096
        3100
        3104
        3108
        3112
        3116
        3120
        3124
        3128
        3132
        3136
        3140
        3144
        3148
        3152
        3156
        3160
        3164
        3168
        3172
        3176
        3180
        3184
        3188
        3192
        3196
        3200
        3204
        3208
        3212
        3216
        3220
        3224
        3228
        3232
        3236
        3240
        3244
        3248
        3252
        3256
        3260
        3264
        3268
        3272
        3276
        3280
        3284
        3288
        3292
        3296
        3300
        3304
        3308
        3312
        3316
        3320
        3324
        3328
        3332
        3336
        3340
        3344
        3348
        3352
        3356
        3360
        3364
        3368
        3372
        3376
        3380
        3384
        3388
        3392
        3396
        3400
        3404
        3408
        3412
        3416
        3420
        3424
        3428
        3432
        3436
        3440
        3444
        3448
        3452
        3456
        3460
        3464
        3468
        3472
        3476
        3480
        3484
        3488
        3492
        3496
        3500
        3504
        3508
        3512
        3516
        3520
        3524
        3528
        3532
        3536
        3540
        3544
        3548
        3552
        3556
        3560
        3564
        3568
        3572
        3576
        3580
        3584
        3588
        3592
        3596
        3600
        3604
        3608
        3612
        3616
        3620
        3624
        3628
        3632
        3636
        3640
        3644
        3648
        3652
        3656
        3660
        3664
        3668
        3672
        3676
        3680
        3684
        3688
        3692
        3696
        3700
        3704
        3708
        3712
        3716
        3720
        3724
        3728
        3732
        3736
        3740
        3744
        3748
        3752
        3756
        3760
        3764
        3768
        3772
        3776
        3780
        3784
        3788
        3792
        3796
        3800
        3804
        3808
        3812
        3816
        3820
        3824
        3828
        3832
        3836
        3840
        3844
        3848
        3852
        3856
        3860
        3864
        3868
        3872
        3876
        3880
        3884
        3888
        3892
        3896
        3900
        3904
        3908
        3912
        3916
        3920
        3924
        3928
        3932
        3936
        3940
        3944
        3948
        3952
        3956
        3960
        3964
        3968
        3972
        3976
        3980
        3984
        3988
        3992
        3996
        4000
        4004
        4008
        4012
        4016
        4020
        4024
        4028
        4032
        4036
        4040
        4044
        4048
        4052
        4056
        4060
        4064
        4068
        4072
        4076
        4080
        4084
        4088
        4092
        4096
 </DataArray>
 <DataArray  type="UInt8"  Name="types"  format="ascii">
 9
 9
 9
 9
 9
 9
 9
 9
 9
 9
 9
 9
 9
 9
 9
 9
 9
 9
 9
 9
 9
 9
 9
 9
 9
 9
 9
 9
 9
 9
 9
 9
 9
 9
 9
 9
 9
 9
 9
 9
 9
 9
 9
 9
 9
 9
 9
 9
 9
 9
 9
 9
 9
 9
 9
 9
 9
 9
 9
 9
 9
 9
 9
 9
 9
 9
 9
 9
 9
 9
 9
 9
 9
 9
 9
 9
 9
 9
 9
 9
 9
 9
 9
 9
 9
 9
 9
 9
 9
 9
 9
 9
 9
 9
 9
 9
 9
 9
 9
 9
 9
 9
 9
 9
 9
 9
 9
 9
 9
 9
 9
 9
 9
 9
 9
 9
 9
 9
 9
 9
 9
 9
 9
 9
 9
 9
 9
 9
 9
 9
 9
 9
 9
 9
 9
 9
 9
 9
 9
 9
 9
 9
 9
 9
 9
 9
 9
 9
 9
 9
 9
 9
 9
 9
 9
 9
 9
 9
 9
 9
 9
 9
 9
 9
 9
 9
 9
 9
 9
 9
 9
 9
 9
 9
 9
 9
 9
 9
 9
 9
 9
 9
 9
 9
 9
 9
 9
 9
 9
 9
 9
 9
 9
 9
 9
 9
 9
 9
 9
 9
 9
 9
 9
 9
 9
 9
 9
 9
 9
 9
 9
 9
 9
 9
 9
 9
 9
 9
 9
 9
 9
 9
 9
 9
 9
 9
 9
 9
 9
 9
 9
 9
 9
 9
 9
 9
 9
 9
 9
 9
 9
 9
 9
 9
 9
 9
 9
 9
 9
 9
 9
 9
 9
 9
 9
 9
 9
 9
 9
 9
 9
 9
 9
 9
 9
 9
 9
 9
 9
 9
 9
 9
 9
 9
 9
 9
 9
 9
 9
 9
 9
 9
 9
 9
 9
 9
 9
 9
 9
 9
 9
 9
 9
 9
 9
 9
 9
 9
 9
 9
 9
 9
 9
 9
 9
 9
 9
 9
 9
 9
 9
 9
 9
 9
 9
 9
 9
 9
 9
 9
 9
 9
 9
 9
 9
 9
 9
 9
 9
 9
 9
 9
 9
 9
 9
 9
 9
 9
 9
 9
 9
 9
 9
 9
 9
 9
 9
 9
 9
 9
 9
 9
 9
 9
 9
 9
 9
 9
 9
 9
 9
 9
 9
 9
 9
 9
 9
 9
 9
 9
 9
 9
 9
 9
 9
 9
 9
 9
 9
 9
 9
 9
 9
 9
 9
 9
 9
 9
 9
 9
 9
 9
 9
 9
 9
 9
 9
 9
 9
 9
 9
 9
 9
 9
 9
 9
 9
 9
 9
 9
 9
 9
 9
 9
 9
 9
 9
 9
 9
 9
 9
 9
 9
 9
 9
 9
 9
 9
 9
 9
 9
 9
 9
 9
 9
 9
 9
 9
 9
 9
 9
 9
 9
 9
 9
 9
 9
 9
 9
 9
 9
 9
 9
 9
 9
 9
 9
 9
 9
 9
 9
 9
 9
 9
 9
 9
 9
 9
 9
 9
 9
 9
 9
 9
 9
 9
 9
 9
 9
 9
 9
 9
 9
 9
 9
 9
 9
 9
 9
 9
 9
 9
 9
 9
 9
 9
 9
 9
 9
 9
 9
 9
 9
 9
 9
 9
 9
 9
 9
 9
 9
 9
 9
 9
 9
 9
 9
 9
 9
 9
 9
 9
 9
 9
 9
 9
 9
 9
 9
 9
 9
 9
 9
 9
 9
 9
 9
 9
 9
 9
 9
 9
 9
 9
 9
 9
 9
 9
 9
 9
 9
 9
 9
 9
 9
 9
 9
 9
 9
 9
 9
 9
 9
 9
 9
 9
 9
 9
 9
 9
 9
 9
 9
 9
 9
 9
 9
 9
 9
 9
 9
 9
 9
 9
 9
 9
 9
 9
 9
 9
 9
 9
 9
 9
 9
 9
 9
 9
 9
 9
 9
 9
 9
 9
 9
 9
 9
 9
 9
 9
 9
 9
 9
 9
 9
 9
 9
 9
 9
 9
 9
 9
 9
 9
 9
 9
 9
 9
 9
 9
 9
 9
 9
 9
 9
 9
 9
 9
 9
 9
 9
 9
 9
 9
 9
 9
 9
 9
 9
 9
 9
 9
 9
 9
 9
 9
 9
 9
 9
 9
 9
 9
 9
 9
 9
 9
 9
 9
 9
 9
 9
 9
 9
 9
 9
 9
 9
 9
 9
 9
 9
 9
 9
 9
 9
 9
 9
 9
 9
 9
 9
 9
 9
 9
 9
 9
 9
 9
 9
 9
 9
 9
 9
 9
 9
 9
 9
 9
 9
 9
 9
 9
 9
 9
 9
 9
 9
 9
 9
 9
 9
 9
 9
 9
 9
 9
 9
 9
 9
 9
 9
 9
 9
 9
 9
 9
 9
 9
 9
 9
 9
 9
 9
 9
 9
 9
 9
 9
 9
 9
 9
 9
 9
 9
 9
 9
 9
 9
 9
 9
 9
 9
 9
 9
 9
 9
 9
 9
 9
 9
 9
 9
 9
 9
 9
 9
 9
 9
 9
 9
 9
 9
 9
 9
 9
 9
 9
 9
 9
 9
 9
 9
 9
 9
 9
 9
 9
 9
 9
 9
 9
 9
 9
 9
 9
 9
 9
 9
 9
 9
 9
 9
 9
 9
 9
 9
 9
 9
 9
 9
 9
 9
 9
 9
 9
 9
 9
 9
 9
 9
 9
 9
 9
 9
 9
 9
 9
 9
 9
 9
 9
 9
 9
 9
 9
 9
 9
 9
 9
 9
 9
 9
 9
 9
 9
 9
 9
 9
 9
 9
 9
 9
 9
 9
 9
 9
 9
 9
 9
 9
 9
 9
 9
 9
 9
 9
 9
 9
 9
 9
 9
 9
 9
 9
 9
 9
 9
 9
 9
 9
 9
 9
 9
 9
 9
 9
 9
 9
 9
 9
 9
 9
 9
 9
 9
 9
 9
 9
 9
 9
 9
 9
 9
 9
 9
 9
 9
 9
 9
 9
 9
 9
 9
 9
 9
 9
 9
 9
 9
 9
 9
 9
 9
 9
 9
 9
 9
 9
 9
 9
 9
 9
 9
 9
 9
 9
 9
 9
 9
 9
 9
 9
 9
 9
 9
 9
 9
 9
 9
 9
 9
 9
 9
 9
 9
 9
 9
 9
 9
 9
 9
 9
 9
 9
 9
 9
 9
 9
 9
 9
 9
 9
 9
 9
 9
 9
 9
 9
 9
 9
 9
 9
 9
 9
 9
 9
 9
 9
 9
 9
 9
 9
 9
 9
 9
 9
 9
 9
 9
 9
 9
 9
 9
 9
 9
 9
 9
 9
 9
 9
 9
 9
 9
 9
 </DataArray>
 </Cells> 
 <PointData>
 <DataArray  type="Float64" Name="disp" NumberOfComponents="3" format="ascii">
   6.5369156606950529E-002   6.2789226035285445E-002   0.0000000000000000     
   6.8420691256901617E-002   6.8179412900868375E-002   0.0000000000000000     
   7.1372665946618508E-002   7.3747357359577465E-002   0.0000000000000000     
   7.4225080676101202E-002   7.9493059411412728E-002   0.0000000000000000     
   7.6977935445349699E-002   8.5416519056374179E-002   0.0000000000000000     
   6.0108377840107113E-002   6.1888304171125660E-002   0.0000000000000000     
   6.3004222566987553E-002   6.7302501857249203E-002   0.0000000000000000     
   6.5797032545956369E-002   7.2896190732098895E-002   0.0000000000000000     
   6.8486807777013575E-002   7.8669370795674737E-002   0.0000000000000000     
   7.1073548260159158E-002   8.4622042047976742E-002   0.0000000000000000     
   5.5089721409933061E-002   6.1042690163911194E-002   0.0000000000000000     
   5.7814372242518453E-002   6.6481004289052792E-002   0.0000000000000000     
   6.0436573642058719E-002   7.2099826493075114E-002   0.0000000000000000     
   6.2956325608553854E-002   7.7899156775978168E-002   0.0000000000000000     
   6.5373628142003856E-002   8.3878995137761952E-002   0.0000000000000000     
   5.0313187316428365E-002   6.0252384013642059E-002   0.0000000000000000     
   5.2851140283494309E-002   6.5714920196279128E-002   0.0000000000000000     
   5.5291289234925531E-002   7.1358264642506108E-002   0.0000000000000000     
   5.7633634170722037E-002   7.7182417352323007E-002   0.0000000000000000     
   5.9878175090883834E-002   8.3187378325729783E-002   0.0000000000000000     
   4.5778775559593032E-002   5.9517385720318235E-002   0.0000000000000000     
   4.8114526689915116E-002   6.5004249578928253E-002   0.0000000000000000     
   5.0361179324556818E-002   7.0671505180391919E-002   0.0000000000000000     
   5.2518733463518139E-002   7.6519152524709255E-002   0.0000000000000000     
   5.4587189106799071E-002   8.2547191611880247E-002   0.0000000000000000     
   7.6977935445349699E-002   8.5416519056374179E-002   0.0000000000000000     
   7.9638674074919355E-002   9.1508552383880143E-002   0.0000000000000000     
   8.2214740385365526E-002   9.7759975483348999E-002   0.0000000000000000     
   8.4706134376688183E-002  0.10417078835478072        0.0000000000000000     
   8.7112856048887355E-002  0.11074099099817530        0.0000000000000000     
   7.1073548260159158E-002   8.4622042047976742E-002   0.0000000000000000     
   7.3569293864308646E-002   9.0743709266478900E-002   0.0000000000000000     
   7.5986084458377595E-002   9.7023877228655228E-002   0.0000000000000000     
   7.8323920042365977E-002  0.10346254593450571        0.0000000000000000     
   8.0582800616273820E-002  0.11005971538403037        0.0000000000000000     
   6.5373628142003856E-002   8.3878995137761952E-002   0.0000000000000000     
   6.7703053467506213E-002   9.0028044267969690E-002   0.0000000000000000     
   6.9959173810158412E-002   9.6335006856144600E-002   0.0000000000000000     
   7.2141989169960424E-002  0.10279988290228670        0.0000000000000000     
   7.4251499546912250E-002  0.10942267240639597        0.0000000000000000     
   5.9878175090883834E-002   8.3187378325729783E-002   0.0000000000000000     
   6.2039952884512098E-002   8.9361557388352483E-002   0.0000000000000000     
   6.4134008440707990E-002   9.5693364365817102E-002   0.0000000000000000     
   6.6160341759471511E-002  0.10218279925812365        0.0000000000000000     
   6.8118952840802660E-002  0.10882986206527215        0.0000000000000000     
   5.4587189106799071E-002   8.2547191611880247E-002   0.0000000000000000     
   5.6579992115326251E-002   8.8744248627627281E-002   0.0000000000000000     
   5.8510588350026316E-002   9.5098949757672732E-002   0.0000000000000000     
   6.0378977810899258E-002  0.10161129500201659        0.0000000000000000     
   6.2185160497945063E-002  0.10828128436065887        0.0000000000000000     
   8.7112856048887355E-002  0.11074099099817530        0.0000000000000000     
   8.9425383248895762E-002  0.11745700833811444        0.0000000000000000     
   9.1634193823646112E-002  0.12430526529917980        0.0000000000000000     
   9.3739287773138419E-002  0.13128576188137137        0.0000000000000000     
   9.5740665097372696E-002  0.13839849808468918        0.0000000000000000     
   8.0582800616273820E-002  0.11005971538403037        0.0000000000000000     
   8.2753261875177592E-002  0.11680254804468176        0.0000000000000000     
   8.4825839514153858E-002  0.12367820638391250        0.0000000000000000     
   8.6800533533202551E-002  0.13068669040172257        0.0000000000000000     
   8.8677343932323710E-002  0.13782800009811202        0.0000000000000000     
   7.4251499546912250E-002  0.10942267240639597        0.0000000000000000     
   7.6278404634674904E-002  0.11619104345602194        0.0000000000000000     
   7.8213404126909303E-002  0.12309266413871413        0.0000000000000000     
   8.0056498023615502E-002  0.13012753445447250        0.0000000000000000     
   8.1807686324793447E-002  0.13729565440329705        0.0000000000000000     
   6.8118952840802660E-002  0.10882986206527215        0.0000000000000000     
   7.0000811527387602E-002  0.11562249457213501        0.0000000000000000     
   7.1796887661912487E-002  0.12254863856358465        0.0000000000000000     
   7.3507181244377245E-002  0.12960829403962112        0.0000000000000000     
   7.5131692274781947E-002  0.13680146100024435        0.0000000000000000     
   6.2185160497945063E-002  0.10828128436065887        0.0000000000000000     
   6.3920482553315769E-002  0.11509690139302095        0.0000000000000000     
   6.5576290119163355E-002  0.12204612965852413        0.0000000000000000     
   6.7152583195487822E-002  0.12912896915716846        0.0000000000000000     
   6.8649361782289184E-002  0.13634541988895391        0.0000000000000000     
   9.5740665097372696E-002  0.13839849808468918        0.0000000000000000     
   9.7645271120822746E-002  0.14563264427730921        0.0000000000000000     
   9.9460051167962471E-002  0.15297737082740748        0.0000000000000000     
  0.10118500523879187       0.16043267773498393        0.0000000000000000     
  0.10282013333331091       0.16799856500003868        0.0000000000000000     
   8.8677343932323710E-002  0.13782800009811202        0.0000000000000000     
   9.0463098054203092E-002  0.14509047535615335        0.0000000000000000     
   9.2164623241526494E-002  0.15246245605891920        0.0000000000000000     
   9.3781919494293917E-002  0.15994394220640948        0.0000000000000000     
   9.5314986812505359E-002  0.16753493379862433        0.0000000000000000     
   8.1807686324793447E-002  0.13729565440329705        0.0000000000000000     
   8.3473369889058915E-002  0.14458485013164474        0.0000000000000000     
   8.5059949575027632E-002  0.15198294778597241        0.0000000000000000     
   8.6567425382699556E-002  0.15948994736628014        0.0000000000000000     
   8.7995797312074742E-002  0.16710584887256780        0.0000000000000000     
   7.5131692274781947E-002  0.13680146100024435        0.0000000000000000     
   7.6676086625390258E-002  0.14411576860378336        0.0000000000000000     
   7.8146030168465858E-002  0.15153884600856721        0.0000000000000000     
   7.9541522904008774E-002  0.15907069321459577        0.0000000000000000     
   8.0862564832019021E-002  0.16671131022186914        0.0000000000000000     
   6.8649361782289184E-002  0.13634541988895391        0.0000000000000000     
   7.0071248263197106E-002  0.14368323077256931        0.0000000000000000     
   7.1422865021841239E-002  0.15113015072670349        0.0000000000000000     
   7.2704212058221612E-002  0.15868617975135649        0.0000000000000000     
   7.3915289372338211E-002  0.16635131784652829        0.0000000000000000     
  0.10282013333331091       0.16799856500003868        0.0000000000000000     
  0.10436732413203595       0.17566439470839013        0.0000000000000000     
  0.10582846631548334       0.18341952894585672        0.0000000000000000     
  0.10720355988365310       0.19126396771243842        0.0000000000000000     
  0.10849260483654519       0.19919771100813530        0.0000000000000000     
   9.5314986812505359E-002  0.16753493379862433        0.0000000000000000     
   9.6763788431337622E-002  0.17522574352619871        0.0000000000000000     
   9.8128287585967464E-002  0.18300668407976772        0.0000000000000000     
   9.9408484276394912E-002  0.19087775545933125        0.0000000000000000     
  0.10060437850261993       0.19883895766488940        0.0000000000000000     
   8.7995797312074742E-002  0.16710584887256780        0.0000000000000000     
   8.9343686801017660E-002  0.17482144033076771        0.0000000000000000     
   9.0609715287392811E-002  0.18262750976681205        0.0000000000000000     
   9.1793882771200222E-002  0.19052405718070067        0.0000000000000000     
   9.2896189252439865E-002  0.19851108257243380        0.0000000000000000     
   8.0862564832019021E-002  0.16671131022186914        0.0000000000000000     
   8.2107019241076065E-002  0.17445148512209716        0.0000000000000000     
   8.3272749419759415E-002  0.18228200600698968        0.0000000000000000     
   8.4359755368069056E-002  0.19020287287654677        0.0000000000000000     
   8.5368037086005003E-002  0.19821408573076837        0.0000000000000000     
   7.3915289372338211E-002  0.16635131784652829        0.0000000000000000     
   7.5053785751512822E-002  0.17411587790018695        0.0000000000000000     
   7.6117389983067218E-002  0.18197017280030070        0.0000000000000000     
   7.7106102067001400E-002  0.18991420254686944        0.0000000000000000     
   7.8019922003315367E-002  0.19794796713989321        0.0000000000000000     
  0.10849260483654519       0.19919771100813530        0.0000000000000000     
  0.10970090544709714       0.20721700576955604        0.0000000000000000     
  0.11083376598824649       0.21531809893330939        0.0000000000000000     
  0.11189118645999320       0.22350099049939531        0.0000000000000000     
  0.11287316686233731       0.23176568046781387        0.0000000000000000     
  0.10060437850261993       0.19883895766488940        0.0000000000000000     
  0.10172153321007987       0.20688399368114979        0.0000000000000000     
  0.10276551134421211       0.21500656649281993        0.0000000000000000     
  0.10373631290501656       0.22320667609989994        0.0000000000000000     
  0.10463393789249331       0.23148432250238973        0.0000000000000000     
   9.2896189252439865E-002  0.19851108257243380        0.0000000000000000     
   9.3921543098111349E-002  0.20658086259286948        0.0000000000000000     
   9.4874852675214227E-002  0.21472567389286609        0.0000000000000000     
   9.5756117983748529E-002  0.22294551647242367        0.0000000000000000     
   9.6565339023714239E-002  0.23124039033154212        0.0000000000000000     
   8.5368037086005003E-002  0.19821408573076837        0.0000000000000000     
   8.6300935111191551E-002  0.20630761250471519        0.0000000000000000     
   8.7161789981252902E-002  0.21447542113344795        0.0000000000000000     
   8.7950601696189082E-002  0.22271751161696654        0.0000000000000000     
   8.8667370256000078E-002  0.23103388395527105        0.0000000000000000     
   7.8019922003315367E-002  0.19794796713989321        0.0000000000000000     
   7.8859709249320481E-002  0.20606424341668683        0.0000000000000000     
   7.9626323262328116E-002  0.21425580821456530        0.0000000000000000     
   8.0319764042338218E-002  0.22252266153352854        0.0000000000000000     
   8.0940031589350842E-002  0.23086480337357654        0.0000000000000000     
  0.11287316686233731       0.23176568046781387        0.0000000000000000     
  0.11380791234476433       0.24012868993819902        0.0000000000000000     
  0.11472362805675973       0.24860654001018481        0.0000000000000000     
  0.11562031399832354       0.25719923068377121        0.0000000000000000     
  0.11649797016945576       0.26590676195895824        0.0000000000000000     
  0.10463393789249331       0.23148432250238973        0.0000000000000000     
  0.10546339884000701       0.23986298484795643        0.0000000000000000     
  0.10622970828092242       0.24836614228426707        0.0000000000000000     
  0.10693286621523944       0.25699379481132167        0.0000000000000000     
  0.10757287264295820       0.26574594242912025        0.0000000000000000     
   9.6565339023714239E-002  0.23124039033154212        0.0000000000000000     
   9.7293321001200903E-002  0.23963677829229102        0.0000000000000000     
   9.7930869122298092E-002  0.24816116317673995        0.0000000000000000     
   9.8477983387005807E-002  0.25681354498488884        0.0000000000000000     
   9.8934663795324049E-002  0.26559392371673785        0.0000000000000000     
   8.8667370256000078E-002  0.23103388395527105        0.0000000000000000     
   8.9297678828345953E-002  0.23945007027120291        0.0000000000000000     
   8.9827110580886799E-002  0.24799160268760348        0.0000000000000000     
   9.0255665513622546E-002  0.25665848120447282        0.0000000000000000     
   9.0583343626553306E-002  0.26545070582181091        0.0000000000000000     
   8.0940031589350842E-002  0.23086480337357654        0.0000000000000000     
   8.1476472321442200E-002  0.23930286078469204        0.0000000000000000     
   8.1918432656688508E-002  0.24785746081685769        0.0000000000000000     
   8.2265912595089780E-002  0.25652860347007356        0.0000000000000000     
   8.2518912136646000E-002  0.26531628874433949        0.0000000000000000     
  0.11649797016945576       0.26590676195895824        0.0000000000000000     
  0.11729694578865671       0.27489374504183861        0.0000000000000000     
  0.11795759007442673       0.28432479113850528        0.0000000000000000     
  0.11847990302676584       0.29419990024895798        0.0000000000000000     
  0.11886388464567400       0.30451907237319692        0.0000000000000000     
  0.10757287264295820       0.26574594242912025        0.0000000000000000     
  0.10813075984133855       0.27475472525090877        0.0000000000000000     
  0.10858756008764048       0.28415228338993326        0.0000000000000000     
  0.10894327338186398       0.29393861684619366        0.0000000000000000     
  0.10919789972400908       0.30411372561968997        0.0000000000000000     
   9.8934663795324049E-002  0.26559392371673785        0.0000000000000000     
   9.9311943627899260E-002  0.27460057911814023        0.0000000000000000     
   9.9620856165377900E-002  0.28393179093494975        0.0000000000000000     
   9.9861401407759967E-002  0.29358755916716633        0.0000000000000000     
  0.10003357935504546       0.30356788381479000        0.0000000000000000     
   9.0583343626553306E-002  0.26545070582181091        0.0000000000000000     
   9.0840497148338820E-002  0.27443130664353310        0.0000000000000000     
   9.1057478307638995E-002  0.28366331377355491        0.0000000000000000     
   9.1234287104453776E-002  0.29314672721187618        0.0000000000000000     
   9.1370923538783191E-002  0.30288154695849706        0.0000000000000000     
   8.2518912136646000E-002  0.26531628874433949        0.0000000000000000     
   8.2716420402657281E-002  0.27424690782708727        0.0000000000000000     
   8.2897426514423750E-002  0.28334685190574843        0.0000000000000000     
   8.3061930471945419E-002  0.29261612098032308        0.0000000000000000     
   8.3209932275222262E-002  0.30205471505081105        0.0000000000000000     
   4.5778775559593032E-002   5.9517385720318235E-002   0.0000000000000000     
   4.8114526689915116E-002   6.5004249578928253E-002   0.0000000000000000     
   5.0361179324556818E-002   7.0671505180391919E-002   0.0000000000000000     
   5.2518733463518139E-002   7.6519152524709255E-002   0.0000000000000000     
   5.4587189106799071E-002   8.2547191611880247E-002   0.0000000000000000     
   4.1417234901129384E-002   5.8840327358754746E-002   0.0000000000000000     
   4.3547073796099026E-002   6.4349906597312420E-002   0.0000000000000000     
   4.5597791353713890E-002   7.0039376338390941E-002   0.0000000000000000     
   4.7569387573973984E-002   7.5908736581990280E-002   0.0000000000000000     
   4.9461862456879301E-002   8.1957987328110452E-002   0.0000000000000000     
   3.7159314102739760E-002   5.8223841003766597E-002   0.0000000000000000     
   3.9091323936364178E-002   6.3752805411743996E-002   0.0000000000000000     
   4.0952672765158064E-002   6.9461706348161595E-002   0.0000000000000000     
   4.2743360589121419E-002   7.5350543813019435E-002   0.0000000000000000     
   4.4463387408254250E-002   8.1419317806317490E-002   0.0000000000000000     
   3.3005013164424148E-002   5.7667926655353800E-002   0.0000000000000000     
   3.4747277110710552E-002   6.3212946022222952E-002   0.0000000000000000     
   3.6425823558889334E-002   6.8938495209703923E-002   0.0000000000000000     
   3.8040652508960444E-002   7.4844574217796736E-002   0.0000000000000000     
   3.9591763960923919E-002   8.0931183046501348E-002   0.0000000000000000     
   2.8954332086182553E-002   5.7172584313516329E-002   0.0000000000000000     
   3.0514933319138186E-002   6.2730328428749302E-002   0.0000000000000000     
   3.2017243734907691E-002   6.8469742923017884E-002   0.0000000000000000     
   3.3461263333491059E-002   7.4390827796322154E-002   0.0000000000000000     
   3.4846992114888301E-002   8.0493583048662054E-002   0.0000000000000000     
   5.4587189106799071E-002   8.2547191611880247E-002   0.0000000000000000     
   5.6579992115326251E-002   8.8744248627627281E-002   0.0000000000000000     
   5.8510588350026316E-002   9.5098949757672732E-002   0.0000000000000000     
   6.0378977810899258E-002  0.10161129500201659        0.0000000000000000     
   6.2185160497945063E-002  0.10828128436065887        0.0000000000000000     
   4.9461862456879301E-002   8.1957987328110452E-002   0.0000000000000000     
   5.1286319019646538E-002   8.8176074964058909E-002   0.0000000000000000     
   5.3053860279492368E-002   9.4551945877143162E-002   0.0000000000000000     
   5.4764486236416818E-002  0.10108560006736317        0.0000000000000000     
   5.6418196890419867E-002  0.10777703753471897        0.0000000000000000     
   4.4463387408254250E-002   8.1419317806317490E-002   0.0000000000000000     
   4.6122081457170748E-002   8.7656993375912207E-002   0.0000000000000000     
   4.7728770970485127E-002   9.4052535569660062E-002   0.0000000000000000     
   4.9283455948197344E-002  0.10060594438756107        0.0000000000000000     
   5.0786136390307456E-002  0.10731721982961519        0.0000000000000000     
   3.9591763960923919E-002   8.0931183046501348E-002   0.0000000000000000     
   4.1087279427898901E-002   8.7187003863187132E-002   0.0000000000000000     
   4.2535320423004536E-002   9.3600718835223445E-002   0.0000000000000000     
   4.3935886946240864E-002  0.10017232796261023        0.0000000000000000     
   4.5288978997607851E-002  0.10690183124534758        0.0000000000000000     
   3.4846992114888301E-002   8.0493583048662054E-002   0.0000000000000000     
   3.6181912931830977E-002   8.6766106425883727E-002   0.0000000000000000     
   3.7473508637050651E-002   9.3196495673833285E-002   0.0000000000000000     
   3.8721779230547350E-002   9.9784750792510743E-002   0.0000000000000000     
   3.9926724712321046E-002  0.10653087178191610        0.0000000000000000     
   6.2185160497945063E-002  0.10828128436065887        0.0000000000000000     
   6.3920482553315769E-002  0.11509690139302095        0.0000000000000000     
   6.5576290119163355E-002  0.12204612965852413        0.0000000000000000     
   6.7152583195487822E-002  0.12912896915716846        0.0000000000000000     
   6.8649361782289184E-002  0.13634541988895391        0.0000000000000000     
   5.6418196890419867E-002  0.10777703753471897        0.0000000000000000     
   5.8006826688850703E-002  0.11461421123243576        0.0000000000000000     
   5.9522210079058530E-002  0.12158507411373873        0.0000000000000000     
   6.0964347061043332E-002  0.12868962617862792        0.0000000000000000     
   6.2333237634805146E-002  0.13592786742710333        0.0000000000000000     
   5.0786136390307456E-002  0.10731721982961519        0.0000000000000000     
   5.2229252910383751E-002  0.11417437140413543        0.0000000000000000     
   5.3605246121994563E-002  0.12116540861943469        0.0000000000000000     
   5.4914116025139910E-002  0.12829033147551294        0.0000000000000000     
   5.6155862619819766E-002  0.13554913997237025        0.0000000000000000     
   4.5288978997607851E-002  0.10690183124534758        0.0000000000000000     
   4.6587761217914914E-002  0.11377738190811996        0.0000000000000000     
   4.7825398247971482E-002  0.12078713317561195        0.0000000000000000     
   4.9001890087777535E-002  0.12793108504782355        0.0000000000000000     
   5.0117236737333086E-002  0.13520923752475472        0.0000000000000000     
   3.9926724712321046E-002  0.10653087178191610        0.0000000000000000     
   4.1082351611444197E-002  0.11342324274438936        0.0000000000000000     
   4.2182666456989253E-002  0.12045024778227055        0.0000000000000000     
   4.3227669248956213E-002  0.12761188689555966        0.0000000000000000     
   4.4217359987345078E-002  0.13490816008425671        0.0000000000000000     
   6.8649361782289184E-002  0.13634541988895391        0.0000000000000000     
   7.0071248263197106E-002  0.14368323077256931        0.0000000000000000     
   7.1422865021841239E-002  0.15113015072670349        0.0000000000000000     
   7.2704212058221612E-002  0.15868617975135649        0.0000000000000000     
   7.3915289372338211E-002  0.16635131784652829        0.0000000000000000     
   6.2333237634805146E-002  0.13592786742710333        0.0000000000000000     
   6.3632448787038859E-002  0.14328776988906872        0.0000000000000000     
   6.4865547504439444E-002  0.15075730559442790        0.0000000000000000     
   6.6032533787006908E-002  0.15833647454318092        0.0000000000000000     
   6.7133407634741238E-002  0.16602527673532774        0.0000000000000000     
   5.6155862619819766E-002  0.13554913997237025        0.0000000000000000     
   5.7333282181474932E-002  0.14292991920434789        0.0000000000000000     
   5.8449170985546202E-002  0.15042075426578702        0.0000000000000000     
   5.9503529032033556E-002  0.15802164515668779        0.0000000000000000     
   6.0496356320937000E-002  0.16573259187705003        0.0000000000000000     
   5.0117236737333086E-002  0.13520923752475472        0.0000000000000000     
   5.1173748446505331E-002  0.14260967871840674        0.0000000000000000     
   5.2173735465161492E-002  0.15012049674078085        0.0000000000000000     
   5.3117197793301554E-002  0.15774169159187695        0.0000000000000000     
   5.4004135430925519E-002  0.16547326327169515        0.0000000000000000     
   4.4217359987345078E-002  0.13490816008425671        0.0000000000000000     
   4.5153847582130056E-002  0.14232704843124536        0.0000000000000000     
   4.6039240943285327E-002  0.14985653301940935        0.0000000000000000     
   4.6873540070810911E-002  0.15749661384874855        0.0000000000000000     
   4.7656744964706788E-002  0.16524729091926310        0.0000000000000000     
   7.3915289372338211E-002  0.16635131784652829        0.0000000000000000     
   7.5053785751512822E-002  0.17411587790018695        0.0000000000000000     
   7.6117389983067218E-002  0.18197017280030070        0.0000000000000000     
   7.7106102067001400E-002  0.18991420254686944        0.0000000000000000     
   7.8019922003315367E-002  0.19794796713989321        0.0000000000000000     
   6.7133407634741238E-002  0.16602527673532774        0.0000000000000000     
   6.8165929703096623E-002  0.17381340862527139        0.0000000000000000     
   6.9127860647527239E-002  0.18169056666741487        0.0000000000000000     
   7.0019200468033102E-002  0.18965675086175821        0.0000000000000000     
   7.0839949164614197E-002  0.19771196120830137        0.0000000000000000     
   6.0496356320937000E-002  0.16573259187705003        0.0000000000000000     
   6.1425394466596117E-002  0.17354286725758455        0.0000000000000000     
   6.2288385083350439E-002  0.18144174412900202        0.0000000000000000     
   6.3085328171200009E-002  0.18942922249130245        0.0000000000000000     
   6.3816223730144783E-002  0.19750530234448579        0.0000000000000000     
   5.4004135430925519E-002  0.16547326327169515        0.0000000000000000     
   5.4832180042011312E-002  0.17330425379712652        0.0000000000000000     
   5.5598963290536839E-002  0.18122370518506223        0.0000000000000000     
   5.6304485176502106E-002  0.18923161743550226        0.0000000000000000     
   5.6948745699907100E-002  0.19732799054844666        0.0000000000000000     
   4.7656744964706788E-002  0.16524729091926310        0.0000000000000000     
   4.8386286429342208E-002  0.17309756824389727        0.0000000000000000     
   4.9059595269086417E-002  0.18103644983559547        0.0000000000000000     
   4.9676671483939408E-002  0.18906393569435764        0.0000000000000000     
   5.0237515073901187E-002  0.19718002582018387        0.0000000000000000     
   7.8019922003315367E-002  0.19794796713989321        0.0000000000000000     
   7.8859709249320481E-002  0.20606424341668683        0.0000000000000000     
   7.9626323262328116E-002  0.21425580821456530        0.0000000000000000     
   8.0319764042338218E-002  0.22252266153352854        0.0000000000000000     
   8.0940031589350842E-002  0.23086480337357654        0.0000000000000000     
   7.0839949164614197E-002  0.19771196120830137        0.0000000000000000     
   7.1588572877945664E-002  0.20584992231343188        0.0000000000000000     
   7.2263537748702589E-002  0.21406435878353744        0.0000000000000000     
   7.2864843776885013E-002  0.22235527061861798        0.0000000000000000     
   7.3392490962492909E-002  0.23072265781867354        0.0000000000000000     
   6.3816223730144783E-002  0.19750530234448579        0.0000000000000000     
   6.4478233362514556E-002  0.20566381617959761        0.0000000000000000     
   6.5068518670639119E-002  0.21389859648768339        0.0000000000000000     
   6.5587079654518474E-002  0.22220964326874315        0.0000000000000000     
   6.6033916314152619E-002  0.23059695652277692        0.0000000000000000     
   5.6948745699907100E-002  0.19732799054844666        0.0000000000000000     
   5.7528690703027185E-002  0.20550592501518405        0.0000000000000000     
   5.8041266028137695E-002  0.21375852132700324        0.0000000000000000     
   5.8486471675238627E-002  0.22208577948390412        0.0000000000000000     
   5.8864307644329990E-002  0.23048769948588677        0.0000000000000000     
   5.0237515073901187E-002  0.19718002582018387        0.0000000000000000     
   5.0739944899483545E-002  0.20537624882019123        0.0000000000000000     
   5.1181779821198300E-002  0.21364413330149687        0.0000000000000000     
   5.1563019839045467E-002  0.22198367926410079        0.0000000000000000     
   5.1883664953025023E-002  0.23039488670800301        0.0000000000000000     
   8.0940031589350842E-002  0.23086480337357654        0.0000000000000000     
   8.1476472321442200E-002  0.23930286078469204        0.0000000000000000     
   8.1918432656688508E-002  0.24785746081685769        0.0000000000000000     
   8.2265912595089780E-002  0.25652860347007356        0.0000000000000000     
   8.2518912136646000E-002  0.26531628874433949        0.0000000000000000     
   7.3392490962492909E-002  0.23072265781867354        0.0000000000000000     
   7.3843188456692258E-002  0.23918017265946848        0.0000000000000000     
   7.4213645410649065E-002  0.24774146741676714        0.0000000000000000     
   7.4503861824363291E-002  0.25640654209056962        0.0000000000000000     
   7.4713837697834948E-002  0.26517539668087586        0.0000000000000000     
   6.6033916314152619E-002  0.23059695652277692        0.0000000000000000     
   6.6411314210298805E-002  0.23906702872224220        0.0000000000000000     
   6.6721558903714270E-002  0.24762635233959651        0.0000000000000000     
   6.6964650394399014E-002  0.25627492737483987        0.0000000000000000     
   6.7140588682353050E-002  0.26501275382797224        0.0000000000000000     
   5.8864307644329990E-002  0.23048769948588677        0.0000000000000000     
   5.9180849582261816E-002  0.23896342897301326        0.0000000000000000     
   5.9442173135884138E-002  0.24751211558534572        0.0000000000000000     
   5.9648278305196957E-002  0.25613375932288418        0.0000000000000000     
   5.9799165090200279E-002  0.26482836018562872        0.0000000000000000     
   5.1883664953025023E-002  0.23039488670800301        0.0000000000000000     
   5.2151794572581317E-002  0.23886937341178169        0.0000000000000000     
   5.2375488107158683E-002  0.24739875715401491        0.0000000000000000     
   5.2554745556757126E-002  0.25598303793470273        0.0000000000000000     
   5.2689566921376663E-002  0.26462221575384509        0.0000000000000000     
   8.2518912136646000E-002  0.26531628874433949        0.0000000000000000     
   8.2716420402657281E-002  0.27424690782708727        0.0000000000000000     
   8.2897426514423750E-002  0.28334685190574843        0.0000000000000000     
   8.3061930471945419E-002  0.29261612098032308        0.0000000000000000     
   8.3209932275222262E-002  0.30205471505081105        0.0000000000000000     
   7.4713837697834948E-002  0.26517539668087586        0.0000000000000000     
   7.4884524381443052E-002  0.27404169642582710        0.0000000000000000     
   7.5056873225566631E-002  0.28299910656356431        0.0000000000000000     
   7.5230884230205658E-002  0.29204762709408777        0.0000000000000000     
   7.5406557395360133E-002  0.30118725801739715        0.0000000000000000     
   6.7140588682353050E-002  0.26501275382797224        0.0000000000000000     
   6.7289620075284634E-002  0.27380998619677671        0.0000000000000000     
   6.7451990880902035E-002  0.28263677897903633        0.0000000000000000     
   6.7627701099205254E-002  0.29149313217475081        0.0000000000000000     
   6.7816750730194317E-002  0.30037904578392061        0.0000000000000000     
   5.9799165090200279E-002  0.26482836018562872        0.0000000000000000     
   5.9931707484181980E-002  0.27355177713993634        0.0000000000000000     
   6.0082779480429976E-002  0.28225986915216417        0.0000000000000000     
   6.0252381078944234E-002  0.29095263622231260        0.0000000000000000     
   6.0440512279724766E-002  0.29963007835038136        0.0000000000000000     
   5.2689566921376663E-002  0.26462221575384509        0.0000000000000000     
   5.2810786608135131E-002  0.27326706925530575        0.0000000000000000     
   5.2949239024150441E-002  0.28186837708294826        0.0000000000000000     
   5.3104924169422564E-002  0.29042613923677285        0.0000000000000000     
   5.3277842043951529E-002  0.29894035571677935        0.0000000000000000     
   2.8954332086182553E-002   5.7172584313516329E-002   0.0000000000000000     
   3.0514933319138186E-002   6.2730328428749302E-002   0.0000000000000000     
   3.2017243734907691E-002   6.8469742923017884E-002   0.0000000000000000     
   3.3461263333491059E-002   7.4390827796322154E-002   0.0000000000000000     
   3.4846992114888301E-002   8.0493583048662054E-002   0.0000000000000000     
   2.5021844911205883E-002   5.6736911725875250E-002   0.0000000000000000     
   2.6400504589776688E-002   6.2305055429068057E-002   0.0000000000000000     
   2.7726160089497139E-002   6.8056162074869711E-002   0.0000000000000000     
   2.8998811410367233E-002   7.3990231663280198E-002   0.0000000000000000     
   3.0218458552386973E-002   8.0107264194299532E-002   0.0000000000000000     
   2.1222125682685042E-002   5.6360006640051627E-002   0.0000000000000000     
   2.2410202950755707E-002   6.1937229820924290E-002   0.0000000000000000     
   2.3551799418941678E-002   6.7698465252025525E-002   0.0000000000000000     
   2.4646915087242951E-002   7.3643712933355351E-002   0.0000000000000000     
   2.5695549955659529E-002   7.9772972864913735E-002   0.0000000000000000     
   1.7555174400620033E-002   5.6041869056045447E-002   0.0000000000000000     
   1.8544028402075249E-002   6.1626851604317995E-002   0.0000000000000000     
   1.9494161723241303E-002   6.7396652454485395E-002   0.0000000000000000     
   2.0405574364118207E-002   7.3351271606547599E-002   0.0000000000000000     
   2.1278266324705947E-002   7.9490709060504650E-002   0.0000000000000000     
   1.4020991065010854E-002   5.5782498973856703E-002   0.0000000000000000     
   1.4801980943735303E-002   6.1373920779249171E-002   0.0000000000000000     
   1.5553247002396017E-002   6.7150723682249253E-002   0.0000000000000000     
   1.6274789240993001E-002   7.3112907682856956E-002   0.0000000000000000     
   1.6966607659526248E-002   7.9260472781072289E-002   0.0000000000000000     
   3.4846992114888301E-002   8.0493583048662054E-002   0.0000000000000000     
   3.6181912931830977E-002   8.6766106425883727E-002   0.0000000000000000     
   3.7473508637050651E-002   9.3196495673833285E-002   0.0000000000000000     
   3.8721779230547350E-002   9.9784750792510743E-002   0.0000000000000000     
   3.9926724712321046E-002  0.10653087178191610        0.0000000000000000     
   3.0218458552386973E-002   8.0107264194299532E-002   0.0000000000000000     
   3.1392104303363436E-002   8.6394704439632486E-002   0.0000000000000000     
   3.2526751451103668E-002   9.2839997170983846E-002   0.0000000000000000     
   3.3622399995607691E-002   9.9443142388353625E-002   0.0000000000000000     
   3.4679049936875483E-002  0.10620414009174178        0.0000000000000000     
   2.5695549955659529E-002   7.9772972864913735E-002   0.0000000000000000     
   2.6703975876892702E-002   8.6073201280063974E-002   0.0000000000000000     
   2.7678464703643779E-002   9.2531354412169378E-002   0.0000000000000000     
   2.8619016435912741E-002   9.9147432261229962E-002   0.0000000000000000     
   2.9525631073699602E-002  0.10592143482724570        0.0000000000000000     
   2.1278266324705947E-002   7.9490709060504650E-002   0.0000000000000000     
   2.2117527652418794E-002   8.5801596947178177E-002   0.0000000000000000     
   2.2928648394670979E-002   9.2270567397389910E-002   0.0000000000000000     
   2.3711628551462516E-002   9.8897620411139781E-002   0.0000000000000000     
   2.4466468122793406E-002  0.10568275598842783        0.0000000000000000     
   1.6966607659526248E-002   7.9260472781072289E-002   0.0000000000000000     
   1.7632759629941697E-002   8.5579891440975123E-002   0.0000000000000000     
   1.8277302524185288E-002   9.2057636126645401E-002   0.0000000000000000     
   1.8900236342257019E-002   9.8693706838083081E-002   0.0000000000000000     
   1.9501561084156883E-002  0.10548810357528818        0.0000000000000000     
   3.9926724712321046E-002  0.10653087178191610        0.0000000000000000     
   4.1082351611444197E-002  0.11342324274438936        0.0000000000000000     
   4.2182666456989253E-002  0.12045024778227055        0.0000000000000000     
   4.3227669248956213E-002  0.12761188689555966        0.0000000000000000     
   4.4217359987345078E-002  0.13490816008425671        0.0000000000000000     
   3.4679049936875483E-002  0.10620414009174178        0.0000000000000000     
   3.5691534318557996E-002  0.11311161323419715        0.0000000000000000     
   3.6654686184306146E-002  0.12015418476876844        0.0000000000000000     
   3.7568505534119938E-002  0.12733185469545572        0.0000000000000000     
   3.8432992367999380E-002  0.13464462301425886        0.0000000000000000     
   2.9525631073699602E-002  0.10592143482724570        0.0000000000000000     
   3.0393819566842711E-002  0.11284215269879681        0.0000000000000000     
   3.1219092865180403E-002  0.11989837646446354        0.0000000000000000     
   3.2001450968712701E-002  0.12709010612424587        0.0000000000000000     
   3.2740893877439593E-002  0.13441734167814384        0.0000000000000000     
   2.4466468122793406E-002  0.10568275598842783        0.0000000000000000     
   2.5189207356298340E-002  0.11261486113818843        0.0000000000000000     
   2.5875886499612036E-002  0.11968282286935590        0.0000000000000000     
   2.6526505552734503E-002  0.12688664118193033        0.0000000000000000     
   2.7141064515665718E-002  0.13422631607591162        0.0000000000000000     
   1.9501561084156883E-002  0.10548810357528818        0.0000000000000000     
   2.0077697686924894E-002  0.11242973855237190        0.0000000000000000     
   2.0625067087601041E-002  0.11950752398344550        0.0000000000000000     
   2.1143669286185329E-002  0.12672145986850894        0.0000000000000000     
   2.1633504282677764E-002  0.13407154620756223        0.0000000000000000     
   4.4217359987345078E-002  0.13490816008425671        0.0000000000000000     
   4.5153847582130056E-002  0.14232704843124536        0.0000000000000000     
   4.6039240943285327E-002  0.14985653301940935        0.0000000000000000     
   4.6873540070810911E-002  0.15749661384874855        0.0000000000000000     
   4.7656744964706788E-002  0.16524729091926310        0.0000000000000000     
   3.8432992367999380E-002  0.13464462301425886        0.0000000000000000     
   3.9250139792716840E-002  0.14208032692234659        0.0000000000000000     
   4.0021940915044713E-002  0.14962680361688752        0.0000000000000000     
   4.0748395734982977E-002  0.15728405309788157        0.0000000000000000     
   4.1429504252531661E-002  0.16505207536532882        0.0000000000000000     
   3.2740893877439593E-002  0.13441734167814384        0.0000000000000000     
   3.3439185282633441E-002  0.14186781277119334        0.0000000000000000     
   3.4098088875566632E-002  0.14942924904843044        0.0000000000000000     
   3.4717604656239159E-002  0.15710165050985506        0.0000000000000000     
   3.5297732624651024E-002  0.16488501715546727        0.0000000000000000     
   2.7141064515665718E-002  0.13422631607591162        0.0000000000000000     
   2.7720984051879866E-002  0.14168950597778565        0.0000000000000000     
   2.8267684824851105E-002  0.14926386931403812        0.0000000000000000     
   2.8781166834579441E-002  0.15694940608466906        0.0000000000000000     
   2.9261430081064865E-002  0.16474611628967845        0.0000000000000000     
   2.1633504282677764E-002  0.13407154620756223        0.0000000000000000     
   2.2095536100456108E-002  0.14154540654212341        0.0000000000000000     
   2.2530728762898126E-002  0.14913066441371051        0.0000000000000000     
   2.2939082270003824E-002  0.15682731982232348        0.0000000000000000     
   2.3320596621773201E-002  0.16463537276796242        0.0000000000000000     
   4.7656744964706788E-002  0.16524729091926310        0.0000000000000000     
   4.8386286429342208E-002  0.17309756824389727        0.0000000000000000     
   4.9059595269086417E-002  0.18103644983559547        0.0000000000000000     
   4.9676671483939408E-002  0.18906393569435764        0.0000000000000000     
   5.0237515073901187E-002  0.19718002582018387        0.0000000000000000     
   4.1429504252531661E-002  0.16505207536532882        0.0000000000000000     
   4.2062561005914420E-002  0.17291987750204232        0.0000000000000000     
   4.2644860533354915E-002  0.18087646659083534        0.0000000000000000     
   4.3176402834853154E-002  0.18892184263170778        0.0000000000000000     
   4.3657187910409130E-002  0.19705600562465966        0.0000000000000000     
   3.5297732624651024E-002  0.16488501715546727        0.0000000000000000     
   3.5835851149053549E-002  0.17276824847570732        0.0000000000000000     
   3.6329338597698060E-002  0.18074024396101551        0.0000000000000000     
   3.6778194970584585E-002  0.18880100361139185        0.0000000000000000     
   3.7182420267713082E-002  0.19695052742683633        0.0000000000000000     
   2.9261430081064865E-002  0.16474611628967845        0.0000000000000000     
   2.9706156858759609E-002  0.17264268116489218        0.0000000000000000     
   3.0113029462115883E-002  0.18062778194613596        0.0000000000000000     
   3.0482047891133693E-002  0.18870141863340986        0.0000000000000000     
   3.0813212145813028E-002  0.19686359122671387        0.0000000000000000     
   2.3320596621773201E-002  0.16463537276796242        0.0000000000000000     
   2.3673478135032594E-002  0.17254317556959692        0.0000000000000000     
   2.3995933126608356E-002  0.18053908054619675        0.0000000000000000     
   2.4287961596500481E-002  0.18862308769776187        0.0000000000000000     
   2.4549563544708976E-002  0.19679519702429227        0.0000000000000000     
   5.0237515073901187E-002  0.19718002582018387        0.0000000000000000     
   5.0739944899483545E-002  0.20537624882019123        0.0000000000000000     
   5.1181779821198300E-002  0.21364413330149687        0.0000000000000000     
   5.1563019839045467E-002  0.22198367926410079        0.0000000000000000     
   5.1883664953025023E-002  0.23039488670800301        0.0000000000000000     
   4.3657187910409130E-002  0.19705600562465966        0.0000000000000000     
   4.4086275111473422E-002  0.20526855949867626        0.0000000000000000     
   4.4462723789496582E-002  0.21354910818274267        0.0000000000000000     
   4.4786533944478617E-002  0.22189765167685904        0.0000000000000000     
   4.5057705576419527E-002  0.23031418998102529        0.0000000000000000     
   3.7182420267713082E-002  0.19695052742683633        0.0000000000000000     
   3.7541960498586595E-002  0.20517662895469629        0.0000000000000000     
   3.7856761672708149E-002  0.21346712174231908        0.0000000000000000     
   3.8126823790077723E-002  0.22182200578970465        0.0000000000000000     
   3.8352146850695337E-002  0.23024128109685302        0.0000000000000000     
   3.0813212145813028E-002  0.19686359122671387        0.0000000000000000     
   3.1107001060823078E-002  0.20510045718825146        0.0000000000000000     
   3.1363893470832988E-002  0.21339817398022601        0.0000000000000000     
   3.1583889375842784E-002  0.22175674160263767        0.0000000000000000     
   3.1766988775852441E-002  0.23017616005548638        0.0000000000000000     
   2.4549563544708976E-002  0.19679519702429227        0.0000000000000000     
   2.4781396798182843E-002  0.20504004419934160        0.0000000000000000     
   2.4984119183871115E-002  0.21334226489646355        0.0000000000000000     
   2.5157730701773785E-002  0.22170185911565810        0.0000000000000000     
   2.5302231351890855E-002  0.23011882685692522        0.0000000000000000     
   5.1883664953025023E-002  0.23039488670800301        0.0000000000000000     
   5.2151794572581317E-002  0.23886937341178169        0.0000000000000000     
   5.2375488107158683E-002  0.24739875715401491        0.0000000000000000     
   5.2554745556757126E-002  0.25598303793470273        0.0000000000000000     
   5.2689566921376663E-002  0.26462221575384509        0.0000000000000000     
   4.5057705576419527E-002  0.23031418998102529        0.0000000000000000     
   4.5285037735127959E-002  0.23878343165013244        0.0000000000000000     
   4.5477329470412546E-002  0.24729008523907173        0.0000000000000000     
   4.5634580782273323E-002  0.25583415074784305        0.0000000000000000     
   4.5756791670710256E-002  0.26441562817644648        0.0000000000000000     
   3.8352146850695337E-002  0.23024128109685302        0.0000000000000000     
   3.8541467623772419E-002  0.23870417329965063        0.0000000000000000     
   3.8703522878520427E-002  0.24718990803398400        0.0000000000000000     
   3.8838312614939356E-002  0.25569848529985301        0.0000000000000000     
   3.8945836833029199E-002  0.26422990509725769        0.0000000000000000     
   3.1766988775852441E-002  0.23017616005548638        0.0000000000000000     
   3.1921084238514710E-002  0.23863159836033632        0.0000000000000000     
   3.2054068331482298E-002  0.24709822553875169        0.0000000000000000     
   3.2165941054755218E-002  0.25557604159073255        0.0000000000000000     
   3.2256702408333456E-002  0.26406504651627888        0.0000000000000000     
   2.5302231351890855E-002  0.23011882685692522        0.0000000000000000     
   2.5423887579354817E-002  0.23856570683218936        0.0000000000000000     
   2.5528965829298169E-002  0.24701503775337483        0.0000000000000000     
   2.5617466101720915E-002  0.25546681962048162        0.0000000000000000     
   2.5689388396623054E-002  0.26392105243350988        0.0000000000000000     
   5.2689566921376663E-002  0.26462221575384509        0.0000000000000000     
   5.2810786608135131E-002  0.27326706925530575        0.0000000000000000     
   5.2949239024150441E-002  0.28186837708294826        0.0000000000000000     
   5.3104924169422564E-002  0.29042613923677285        0.0000000000000000     
   5.3277842043951529E-002  0.29894035571677935        0.0000000000000000     
   4.5756791670710256E-002  0.26441562817644648        0.0000000000000000     
   4.5868101658402431E-002  0.27298457101081969        0.0000000000000000     
   4.5992650268028880E-002  0.28149103273690057        0.0000000000000000     
   4.6130437499589616E-002  0.28993501335468913        0.0000000000000000     
   4.6281463353084626E-002  0.29831651286418526        0.0000000000000000     
   3.8945836833029199E-002  0.26422990509725769        0.0000000000000000     
   3.9044896846242225E-002  0.27273299087441288        0.0000000000000000     
   3.9154293968030725E-002  0.28115656607953321        0.0000000000000000     
   3.9274028198394699E-002  0.28950063071261878        0.0000000000000000     
   3.9404099537334127E-002  0.29776518477366959        0.0000000000000000     
   3.2256702408333456E-002  0.26406504651627888        0.0000000000000000     
   3.2341172171654553E-002  0.27251232884608523        0.0000000000000000     
   3.2434170124156003E-002  0.28086497711084629        0.0000000000000000     
   3.2535696265837834E-002  0.28912299131056196        0.0000000000000000     
   3.2645750596700024E-002  0.29728637144523240        0.0000000000000000     
   2.5689388396623054E-002  0.26392105243350988        0.0000000000000000     
   2.5756927634639382E-002  0.27232258492583677        0.0000000000000000     
   2.5832278736404701E-002  0.28061626583083976        0.0000000000000000     
   2.5915441701919010E-002  0.28880209514851862        0.0000000000000000     
   2.6006416531182311E-002  0.29688007287887364        0.0000000000000000     
   1.4020991065010854E-002   5.5782498973856703E-002   0.0000000000000000     
   1.4801980943735303E-002   6.1373920779249171E-002   0.0000000000000000     
   1.5553247002396017E-002   6.7150723682249253E-002   0.0000000000000000     
   1.6274789240993001E-002   7.3112907682856956E-002   0.0000000000000000     
   1.6966607659526248E-002   7.9260472781072289E-002   0.0000000000000000     
   1.0543829601581718E-002   5.5581260934456832E-002   0.0000000000000000     
   1.1116869199768920E-002   6.1177739541378687E-002   0.0000000000000000     
   1.1669254139564579E-002   6.6959985267736069E-002   0.0000000000000000     
   1.2200984420968697E-002   7.2927998113529013E-002   0.0000000000000000     
   1.2712060043981278E-002   7.9081778078757450E-002   0.0000000000000000     
   7.0479439360568337E-003   5.5437519478817213E-002   0.0000000000000000     
   7.4215017942091399E-003   6.1037610086367447E-002   0.0000000000000000     
   7.7823820179057524E-003   6.6823743543364816E-002   0.0000000000000000     
   8.1305846071466747E-003   7.2795919849809321E-002   0.0000000000000000     
   8.4661095619319015E-003   7.8954139005700988E-002   0.0000000000000000     
   3.5333340684362041E-003   5.5351274606937881E-002   0.0000000000000000     
   3.7158787270559633E-003   6.0953532414215444E-002   0.0000000000000000     
   3.8926306374195366E-003   6.6741998509135439E-002   0.0000000000000000     
   4.0635897995269232E-003   7.2716672891697934E-002   0.0000000000000000     
   4.2287562133781235E-003   7.8877555561902832E-002   0.0000000000000000     
  -1.2801725825239973E-012   5.5322526318818815E-002   0.0000000000000000     
  -1.6906077232592409E-012   6.0925506524922665E-002   0.0000000000000000     
  -1.8940681271659154E-012   6.6714750165047979E-002   0.0000000000000000     
  -1.8905519239952734E-012   7.2690257239194769E-002   0.0000000000000000     
  -1.6800601708444329E-012   7.8852027747363052E-002   0.0000000000000000     
   1.6966607659526248E-002   7.9260472781072289E-002   0.0000000000000000     
   1.7632759629941697E-002   8.5579891440975123E-002   0.0000000000000000     
   1.8277302524185288E-002   9.2057636126645401E-002   0.0000000000000000     
   1.8900236342257019E-002   9.8693706838083081E-002   0.0000000000000000     
   1.9501561084156883E-002  0.10548810357528818        0.0000000000000000     
   1.2712060043981278E-002   7.9081778078757450E-002   0.0000000000000000     
   1.3205266211874143E-002   8.5407729859734577E-002   0.0000000000000000     
   1.3683388127919131E-002   9.1892258152773493E-002   0.0000000000000000     
   1.4146425792116233E-002   9.8535362957874253E-002   0.0000000000000000     
   1.4594379204465460E-002  0.10533704427503679        0.0000000000000000     
   8.4661095619319015E-003   7.8954139005700988E-002   0.0000000000000000     
   8.7906418006288550E-003   8.5284757301736305E-002   0.0000000000000000     
   9.1058662416049433E-003   9.1774131028611872E-002   0.0000000000000000     
   9.4117828848601700E-003   9.8422260186327687E-002   0.0000000000000000     
   9.7083917303945350E-003  0.10522914477488374        0.0000000000000000     
   4.2287562133781235E-003   7.8877555561902832E-002   0.0000000000000000     
   4.3888863962058284E-003   8.5210973766980350E-002   0.0000000000000000     
   4.5447368652427270E-003   9.1703254754160524E-002   0.0000000000000000     
   4.6963076204888229E-003   9.8354398523443409E-002   0.0000000000000000     
   4.8435986619441143E-003  0.10516440507482898        0.0000000000000000     
  -1.6800601708444329E-012   7.8852027747363052E-002   0.0000000000000000     
  -1.3949345151198500E-012   8.5186379255466640E-002   0.0000000000000000     
  -1.1675160621268943E-012   9.1679629329419435E-002   0.0000000000000000     
  -9.9780586896268397E-013   9.8331777969221421E-002   0.0000000000000000     
  -8.8580271589977500E-013  0.10514282517487256        0.0000000000000000     
   1.9501561084156883E-002  0.10548810357528818        0.0000000000000000     
   2.0077697686924894E-002  0.11242973855237190        0.0000000000000000     
   2.0625067087601041E-002  0.11950752398344550        0.0000000000000000     
   2.1143669286185329E-002  0.12672145986850894        0.0000000000000000     
   2.1633504282677764E-002  0.13407154620756223        0.0000000000000000     
   1.4594379204465460E-002  0.10533704427503679        0.0000000000000000     
   1.5024122782350748E-002  0.11228620521626306        0.0000000000000000     
   1.5432530943156053E-002  0.11937174889355504        0.0000000000000000     
   1.5819603686881373E-002  0.12659367530691262        0.0000000000000000     
   1.6185341013526706E-002  0.13395198445633591        0.0000000000000000     
   9.7083917303945350E-003  0.10522914477488374        0.0000000000000000     
   9.9933148662042972E-003  0.11218368140477766        0.0000000000000000     
   1.0264174380285715E-002  0.11927476668650719        0.0000000000000000     
   1.0520970272638793E-002  0.12650240062007229        0.0000000000000000     
   1.0763702543263524E-002  0.13386658320547293        0.0000000000000000     
   4.8435986619441143E-003  0.10516440507482898        0.0000000000000000     
   4.9852739384855377E-003  0.11212216711791570        0.0000000000000000     
   5.1199973989900296E-003  0.11921657736230198        0.0000000000000000     
   5.2477690434575919E-003  0.12644763580798785        0.0000000000000000     
   5.3685888718882201E-003  0.13381534245497329        0.0000000000000000     
  -8.8580271589977500E-013  0.10514282517487256        0.0000000000000000     
  -8.0552860388938274E-013  0.11210166235567715        0.0000000000000000     
  -7.3100444968055012E-013  0.11919718092093942        0.0000000000000000     
  -6.6222998222273399E-013  0.12642938087065939        0.0000000000000000     
  -5.9920558098669474E-013  0.13379826220483704        0.0000000000000000     
   2.1633504282677764E-002  0.13407154620756223        0.0000000000000000     
   2.2095536100456108E-002  0.14154540654212341        0.0000000000000000     
   2.2530728762898126E-002  0.14913066441371051        0.0000000000000000     
   2.2939082270003824E-002  0.15682731982232348        0.0000000000000000     
   2.3320596621773201E-002  0.16463537276796242        0.0000000000000000     
   1.6185341013526706E-002  0.13395198445633591        0.0000000000000000     
   1.6530261610324479E-002  0.14143428525493806        0.0000000000000000     
   1.6854884164507113E-002  0.14902818661583234        0.0000000000000000     
   1.7159208676074619E-002  0.15673368853901865        0.0000000000000000     
   1.7443235145026985E-002  0.16455079102449710        0.0000000000000000     
   1.0763702543263524E-002  0.13386658320547293        0.0000000000000000     
   1.0992580763447300E-002  0.14135491290696101        0.0000000000000000     
   1.1207814504477503E-002  0.14895498818878825        0.0000000000000000     
   1.1409403766354135E-002  0.15666680905095479        0.0000000000000000     
   1.1597348549077194E-002  0.16449037549346049        0.0000000000000000     
   5.3685888718882201E-003  0.13381534245497329        0.0000000000000000     
   5.4824935598245684E-003  0.14130728949819218        0.0000000000000000     
   5.5895197828092864E-003  0.14891106913257837        0.0000000000000000     
   5.6896675408423724E-003  0.15662668135813179        0.0000000000000000     
   5.7829368339238274E-003  0.16445412617485256        0.0000000000000000     
  -5.9920558098669474E-013  0.13379826220483704        0.0000000000000000     
  -5.4371264435193467E-013  0.14129141502863166        0.0000000000000000     
  -4.9753300437882508E-013  0.14889642944720261        0.0000000000000000     
  -4.6066546844497624E-013  0.15661330546054983        0.0000000000000000     
  -4.3311231337495038E-013  0.16444204306867338        0.0000000000000000     
   2.3320596621773201E-002  0.16463537276796242        0.0000000000000000     
   2.3673478135032594E-002  0.17254317556959692        0.0000000000000000     
   2.3995933126608356E-002  0.18053908054619675        0.0000000000000000     
   2.4287961596500481E-002  0.18862308769776187        0.0000000000000000     
   2.4549563544708976E-002  0.19679519702429227        0.0000000000000000     
   1.7443235145026985E-002  0.16455079102449710        0.0000000000000000     
   1.7705757546234803E-002  0.17246751017425738        0.0000000000000000     
   1.7945569854568674E-002  0.18047186209028931        0.0000000000000000     
   1.8162672070028588E-002  0.18856384677259286        0.0000000000000000     
   1.8357064192614549E-002  0.19674346422116798        0.0000000000000000     
   1.1597348549077194E-002  0.16449037549346049        0.0000000000000000     
   1.1770937660728535E-002  0.17241346346330930        0.0000000000000000     
   1.1929459909390018E-002  0.18042384890750507        0.0000000000000000     
   1.2072915295061635E-002  0.18852153182604781        0.0000000000000000     
   1.2201303817743394E-002  0.19670651221893753        0.0000000000000000     
   5.7829368339238274E-003  0.16445412617485256        0.0000000000000000     
   5.8690184785137860E-003  0.17238103543675265        0.0000000000000000     
   5.9476032910723859E-003  0.18039504099784409        0.0000000000000000     
   6.0186912715996261E-003  0.18849614285812683        0.0000000000000000     
   6.0822824200955057E-003  0.19668434101760099        0.0000000000000000     
  -4.3311231337495038E-013  0.16444204306867338        0.0000000000000000     
  -4.0943940946003288E-013  0.17237022609458746        0.0000000000000000     
  -3.8421501223628862E-013  0.18038543836130630        0.0000000000000000     
  -3.5744058537665047E-013  0.18848767986882986        0.0000000000000000     
  -3.2911433994753381E-013  0.19667695061715820        0.0000000000000000     
   2.4549563544708976E-002  0.19679519702429227        0.0000000000000000     
   2.4781396798182843E-002  0.20504004419934160        0.0000000000000000     
   2.4984119183871115E-002  0.21334226489646355        0.0000000000000000     
   2.5157730701773785E-002  0.22170185911565810        0.0000000000000000     
   2.5302231351890855E-002  0.23011882685692522        0.0000000000000000     
   1.8357064192614549E-002  0.19674346422116798        0.0000000000000000     
   1.8529364491968695E-002  0.20499407729921629        0.0000000000000000     
   1.8680191237733169E-002  0.21329904886993922        0.0000000000000000     
   1.8809544429907961E-002  0.22165837893333679        0.0000000000000000     
   1.8917424068493074E-002  0.23007206748940909        0.0000000000000000     
   1.2201303817743394E-002  0.19670651221893753        0.0000000000000000     
   1.2315120923483403E-002  0.20496124379912498        0.0000000000000000     
   1.2414862058329777E-002  0.21326818027956074        0.0000000000000000     
   1.2500527222282514E-002  0.22162732166024482        0.0000000000000000     
   1.2572116415341613E-002  0.23003866794117725        0.0000000000000000     
   6.0822824200955057E-003  0.19668434101760099        0.0000000000000000     
   6.1386660927269660E-003  0.20494154369906759        0.0000000000000000     
   6.1881316456609469E-003  0.21324965912532801        0.0000000000000000     
   6.2306790788974470E-003  0.22160868729638208        0.0000000000000000     
   6.2663083924364704E-003  0.23001862821222993        0.0000000000000000     
  -3.2911433994753381E-013  0.19667695061715820        0.0000000000000000     
  -3.0061478480114534E-013  0.20493497699904428        0.0000000000000000     
  -2.7332162141208149E-013  0.21324348540724108        0.0000000000000000     
  -2.4723590687746044E-013  0.22160247584174864        0.0000000000000000     
  -2.2235555410810015E-013  0.23001194830256694        0.0000000000000000     
   2.5302231351890855E-002  0.23011882685692522        0.0000000000000000     
   2.5423887579354817E-002  0.23856570683218936        0.0000000000000000     
   2.5528965829298169E-002  0.24701503775337483        0.0000000000000000     
   2.5617466101720915E-002  0.25546681962048162        0.0000000000000000     
   2.5689388396623054E-002  0.26392105243350988        0.0000000000000000     
   1.8917424068493074E-002  0.23007206748940909        0.0000000000000000     
   1.9008192133549436E-002  0.23851097573744379        0.0000000000000000     
   1.9086210605137963E-002  0.24694596487672890        0.0000000000000000     
   1.9151479483258658E-002  0.25537703490726438        0.0000000000000000     
   1.9203998767911522E-002  0.26380418582905019        0.0000000000000000     
   1.2572116415341613E-002  0.23003866794117725        0.0000000000000000     
   1.2632312388355250E-002  0.23847188209833362        0.0000000000000000     
   1.2683797892171595E-002  0.24689662710768939        0.0000000000000000     
   1.2726572926790651E-002  0.25531290296924464        0.0000000000000000     
   1.2760637492212415E-002  0.26372070968299921        0.0000000000000000     
   6.2663083924364704E-003  0.23001862821222993        0.0000000000000000     
   6.2962483437722597E-003  0.23844842591485885        0.0000000000000000     
   6.3217276903990670E-003  0.24686702444625636        0.0000000000000000     
   6.3427464323168896E-003  0.25527442380642235        0.0000000000000000     
   6.3593045695257300E-003  0.26367062399535690        0.0000000000000000     
  -2.2235555410810015E-013  0.23001194830256694        0.0000000000000000     
  -1.9953331521771478E-013  0.23844060718701945        0.0000000000000000     
  -1.7962270126153923E-013  0.24685715689242965        0.0000000000000000     
  -1.6262119146952247E-013  0.25526159741879767        0.0000000000000000     
  -1.4853049346008618E-013  0.26365392876612331        0.0000000000000000     
   2.5689388396623054E-002  0.26392105243350988        0.0000000000000000     
   2.5756927634639382E-002  0.27232258492583677        0.0000000000000000     
   2.5832278736404701E-002  0.28061626583083976        0.0000000000000000     
   2.5915441701919010E-002  0.28880209514851862        0.0000000000000000     
   2.6006416531182311E-002  0.29688007287887364        0.0000000000000000     
   1.9203998767911522E-002  0.26380418582905019        0.0000000000000000     
   1.9253741306294255E-002  0.27217008566789985        0.0000000000000000     
   1.9310679945604564E-002  0.28041740244962676        0.0000000000000000     
   1.9374814685842446E-002  0.28854613617423086        0.0000000000000000     
   1.9446145527007908E-002  0.29655628684171231        0.0000000000000000     
   1.2760637492212415E-002  0.26372070968299921        0.0000000000000000     
   1.2793191257716706E-002  0.27206115762650673        0.0000000000000000     
   1.2831433892583356E-002  0.28027535717732061        0.0000000000000000     
   1.2875365396812355E-002  0.28836330833544088        0.0000000000000000     
   1.2924985770403706E-002  0.29632501110086745        0.0000000000000000     
   6.3593045695257300E-003  0.26367062399535690        0.0000000000000000     
   6.3752774889067393E-003  0.27199580080165747        0.0000000000000000     
   6.3945405773410740E-003  0.28019013001392123        0.0000000000000000     
   6.4170938348287344E-003  0.28825361163214847        0.0000000000000000     
   6.4429372613697194E-003  0.29618624565633905        0.0000000000000000     
  -1.4853049346008618E-013  0.26365392876612331        0.0000000000000000     
  -1.3564973797008939E-013  0.27197401519335201        0.0000000000000000     
  -1.2227827257682566E-013  0.28016172095942882        0.0000000000000000     
  -1.0841550096910013E-013  0.28821704606435394        0.0000000000000000     
  -9.4061911037890411E-014  0.29613999050812712        0.0000000000000000     
  -1.2801725825239973E-012   5.5322526318818815E-002   0.0000000000000000     
  -1.6906077232592409E-012   6.0925506524922665E-002   0.0000000000000000     
  -1.8940681271659154E-012   6.6714750165047979E-002   0.0000000000000000     
  -1.8905519239952734E-012   7.2690257239194769E-002   0.0000000000000000     
  -1.6800601708444329E-012   7.8852027747363052E-002   0.0000000000000000     
  -3.5333340707695902E-003   5.5351274613683027E-002   0.0000000000000000     
  -3.7158787302126982E-003   6.0953532418094668E-002   0.0000000000000000     
  -3.8926306409975543E-003   6.6741998510975675E-002   0.0000000000000000     
  -4.0635898031241560E-003   7.2716672892326029E-002   0.0000000000000000     
  -4.2287562165925071E-003   7.8877555562145762E-002   0.0000000000000000     
  -7.0479439377093452E-003   5.5437519490753505E-002   0.0000000000000000     
  -7.4215017966924278E-003   6.1037610093336983E-002   0.0000000000000000     
  -7.7823820208534110E-003   6.6823743546791742E-002   0.0000000000000000     
  -8.1305846101922923E-003   7.2795919851117802E-002   0.0000000000000000     
  -8.4661095647090776E-003   7.8954139006315149E-002   0.0000000000000000     
  -1.0543829602099436E-002   5.5581260950030256E-002   0.0000000000000000     
  -1.1116869201129802E-002   6.1177739550649618E-002   0.0000000000000000     
  -1.1669254141461643E-002   6.6959985272496220E-002   0.0000000000000000     
  -1.2200984423094967E-002   7.2927998115570061E-002   0.0000000000000000     
  -1.2712060046029771E-002   7.9081778079871184E-002   0.0000000000000000     
  -1.4020991063939867E-002   5.5782498991513274E-002   0.0000000000000000     
  -1.4801980943524808E-002   6.1373920790032566E-002   0.0000000000000000     
  -1.5553247002822245E-002   6.7150723688089081E-002   0.0000000000000000     
  -1.6274789241832174E-002   7.3112907685682876E-002   0.0000000000000000     
  -1.6966607660554588E-002   7.9260472782813882E-002   0.0000000000000000     
  -1.6800601708444329E-012   7.8852027747363052E-002   0.0000000000000000     
  -1.3949345151198500E-012   8.5186379255466640E-002   0.0000000000000000     
  -1.1675160621268943E-012   9.1679629329419435E-002   0.0000000000000000     
  -9.9780586896268397E-013   9.8331777969221421E-002   0.0000000000000000     
  -8.8580271589977500E-013  0.10514282517487256        0.0000000000000000     
  -4.2287562165925071E-003   7.8877555562145762E-002   0.0000000000000000     
  -4.3888863988895948E-003   8.5210973767242085E-002   0.0000000000000000     
  -4.5447368675024030E-003   9.1703254754422217E-002   0.0000000000000000     
  -4.6963076224309360E-003   9.8354398523686160E-002   0.0000000000000000     
  -4.8435986636751922E-003  0.10516440507503393        0.0000000000000000     
  -8.4661095647090776E-003   7.8954139006315149E-002   0.0000000000000000     
  -8.7906418029943117E-003   8.5284757302353464E-002   0.0000000000000000     
  -9.1058662436385510E-003   9.1774131029202469E-002   0.0000000000000000     
  -9.4117828866417917E-003   9.8422260186862134E-002   0.0000000000000000     
  -9.7083917320040323E-003  0.10522914477533248        0.0000000000000000     
  -1.2712060046029771E-002   7.9081778079871184E-002   0.0000000000000000     
  -1.3205266213709092E-002   8.5407729860800793E-002   0.0000000000000000     
  -1.3683388129575955E-002   9.1892258153760190E-002   0.0000000000000000     
  -1.4146425793630369E-002   9.8535362958749331E-002   0.0000000000000000     
  -1.4594379205872324E-002  0.10533704427576825        0.0000000000000000     
  -1.6966607660554588E-002   7.9260472782813882E-002   0.0000000000000000     
  -1.7632759631033924E-002   8.5579891442584086E-002   0.0000000000000000     
  -1.8277302525314617E-002   9.2057636128095366E-002   0.0000000000000000     
  -1.8900236343396666E-002   9.8693706839347764E-002   0.0000000000000000     
  -1.9501561085280061E-002  0.10548810357634122        0.0000000000000000     
  -8.8580271589977500E-013  0.10514282517487256        0.0000000000000000     
  -8.0552860388938274E-013  0.11210166235567715        0.0000000000000000     
  -7.3100444968055012E-013  0.11919718092093942        0.0000000000000000     
  -6.6222998222273399E-013  0.12642938087065939        0.0000000000000000     
  -5.9920558098669474E-013  0.13379826220483704        0.0000000000000000     
  -4.8435986636751922E-003  0.10516440507503393        0.0000000000000000     
  -4.9852739400639626E-003  0.11212216711807839        0.0000000000000000     
  -5.1199974004260355E-003  0.11921657736243256        0.0000000000000000     
  -5.2477690447614109E-003  0.12644763580809640        0.0000000000000000     
  -5.3685888730700872E-003  0.13381534245506990        0.0000000000000000     
  -9.7083917320040323E-003  0.10522914477533248        0.0000000000000000     
  -9.9933148676848230E-003  0.11218368140513579        0.0000000000000000     
  -1.0264174381643709E-002  0.11927476668679449        0.0000000000000000     
  -1.0520970273880688E-002  0.12650240062030849        0.0000000000000000     
  -1.0763702544395761E-002  0.13386658320567779        0.0000000000000000     
  -1.4594379205872324E-002  0.10533704427576825        0.0000000000000000     
  -1.5024122783668117E-002  0.11228620521684936        0.0000000000000000     
  -1.5432530944384027E-002  0.11937174889402515        0.0000000000000000     
  -1.5819603688020059E-002  0.12659367530729557        0.0000000000000000     
  -1.6185341014576218E-002  0.13395198445666071        0.0000000000000000     
  -1.9501561085280061E-002  0.10548810357634122        0.0000000000000000     
  -2.0077697688013832E-002  0.11242973855321907        0.0000000000000000     
  -2.0625067088646993E-002  0.11950752398412461        0.0000000000000000     
  -2.1143669287179531E-002  0.12672145986905778        0.0000000000000000     
  -2.1633504283611469E-002  0.13407154620801862        0.0000000000000000     
  -5.9920558098669474E-013  0.13379826220483704        0.0000000000000000     
  -5.4371264435193467E-013  0.14129141502863166        0.0000000000000000     
  -4.9753300437882508E-013  0.14889642944720261        0.0000000000000000     
  -4.6066546844497624E-013  0.15661330546054983        0.0000000000000000     
  -4.3311231337495038E-013  0.16444204306867338        0.0000000000000000     
  -5.3685888730700872E-003  0.13381534245506990        0.0000000000000000     
  -5.4824935608983440E-003  0.14130728949828170        0.0000000000000000     
  -5.5895197837924487E-003  0.14891106913266045        0.0000000000000000     
  -5.6896675417524066E-003  0.15662668135820612        0.0000000000000000     
  -5.7829368347782125E-003  0.16445412617491867        0.0000000000000000     
  -1.0763702544395761E-002  0.13386658320567779        0.0000000000000000     
  -1.0992580764480122E-002  0.14135491290714469        0.0000000000000000     
  -1.1207814505424955E-002  0.14895498818895139        0.0000000000000000     
  -1.1409403767230267E-002  0.15666680905109792        0.0000000000000000     
  -1.1597348549896061E-002  0.16449037549358422        0.0000000000000000     
  -1.6185341014576218E-002  0.13395198445666071        0.0000000000000000     
  -1.6530261611289034E-002  0.14143428525522062        0.0000000000000000     
  -1.6854884165395045E-002  0.14902818661607548        0.0000000000000000     
  -1.7159208676894255E-002  0.15673368853922529        0.0000000000000000     
  -1.7443235145786651E-002  0.16455079102467005        0.0000000000000000     
  -2.1633504283611469E-002  0.13407154620801862        0.0000000000000000     
  -2.2095536101325097E-002  0.14154540654250944        0.0000000000000000     
  -2.2530728763702726E-002  0.14913066441403264        0.0000000000000000     
  -2.2939082270744360E-002  0.15682731982258821        0.0000000000000000     
  -2.3320596622449993E-002  0.16463537276817614        0.0000000000000000     
  -4.3311231337495038E-013  0.16444204306867338        0.0000000000000000     
  -4.0943940946003288E-013  0.17237022609458746        0.0000000000000000     
  -3.8421501223628862E-013  0.18038543836130630        0.0000000000000000     
  -3.5744058537665047E-013  0.18848767986882986        0.0000000000000000     
  -3.2911433994753381E-013  0.19667695061715820        0.0000000000000000     
  -5.7829368347782125E-003  0.16445412617491867        0.0000000000000000     
  -5.8690184793198843E-003  0.17238103543680872        0.0000000000000000     
  -5.9476032918274364E-003  0.18039504099788675        0.0000000000000000     
  -6.0186912723008638E-003  0.18849614285815278        0.0000000000000000     
  -6.0822824207401698E-003  0.19668434101760679        0.0000000000000000     
  -1.1597348549896061E-002  0.16449037549358422        0.0000000000000000     
  -1.1770937661496289E-002  0.17241346346341141        0.0000000000000000     
  -1.1929459910104918E-002  0.18042384890758048        0.0000000000000000     
  -1.2072915295721945E-002  0.18852153182609138        0.0000000000000000     
  -1.2201303818347369E-002  0.19670651221894425        0.0000000000000000     
  -1.7443235145786651E-002  0.16455079102467005        0.0000000000000000     
  -1.7705757546938653E-002  0.17246751017439552        0.0000000000000000     
  -1.7945569855216670E-002  0.18047186209038737        0.0000000000000000     
  -1.8162672070620684E-002  0.18856384677264579        0.0000000000000000     
  -1.8357064193150710E-002  0.19674346422117056        0.0000000000000000     
  -2.3320596622449993E-002  0.16463537276817614        0.0000000000000000     
  -2.3673478135646984E-002  0.17254317556976104        0.0000000000000000     
  -2.3995933127162680E-002  0.18053908054630760        0.0000000000000000     
  -2.4287961596997084E-002  0.18862308769781588        0.0000000000000000     
  -2.4549563545150192E-002  0.19679519702428575        0.0000000000000000     
  -3.2911433994753381E-013  0.19667695061715820        0.0000000000000000     
  -3.0061478480114534E-013  0.20493497699904428        0.0000000000000000     
  -2.7332162141208149E-013  0.21324348540724108        0.0000000000000000     
  -2.4723590687746044E-013  0.22160247584174864        0.0000000000000000     
  -2.2235555410810015E-013  0.23001194830256694        0.0000000000000000     
  -6.0822824207401698E-003  0.19668434101760679        0.0000000000000000     
  -6.1386660933149427E-003  0.20494154369905421        0.0000000000000000     
  -6.1881316461947665E-003  0.21324965912530047        0.0000000000000000     
  -6.2306790793796377E-003  0.22160868729634547        0.0000000000000000     
  -6.2663083928695632E-003  0.23001862821218930        0.0000000000000000     
  -1.2201303818347369E-002  0.19670651221894425        0.0000000000000000     
  -1.2315120924031617E-002  0.20496124379909672        0.0000000000000000     
  -1.2414862058825112E-002  0.21326818027950648        0.0000000000000000     
  -1.2500527222727858E-002  0.22162732166017360        0.0000000000000000     
  -1.2572116415739850E-002  0.23003866794109798        0.0000000000000000     
  -1.8357064193150710E-002  0.19674346422117056        0.0000000000000000     
  -1.8529364492450639E-002  0.20499407729917174        0.0000000000000000     
  -1.8680191238164365E-002  0.21329904886985920        0.0000000000000000     
  -1.8809544430291890E-002  0.22165837893323292        0.0000000000000000     
  -1.8917424068833216E-002  0.23007206748929296        0.0000000000000000     
  -2.4549563545150192E-002  0.19679519702428575        0.0000000000000000     
  -2.4781396798572008E-002  0.20504004419927932        0.0000000000000000     
  -2.4984119184212523E-002  0.21334226489635863        0.0000000000000000     
  -2.5157730702071741E-002  0.22170185911552356        0.0000000000000000     
  -2.5302231352149662E-002  0.23011882685677429        0.0000000000000000     
  -2.2235555410810015E-013  0.23001194830256694        0.0000000000000000     
  -1.9953331521771478E-013  0.23844060718701945        0.0000000000000000     
  -1.7962270126153923E-013  0.24685715689242965        0.0000000000000000     
  -1.6262119146952247E-013  0.25526159741879767        0.0000000000000000     
  -1.4853049346008618E-013  0.26365392876612331        0.0000000000000000     
  -6.2663083928695632E-003  0.23001862821218930        0.0000000000000000     
  -6.2962483441603607E-003  0.23844842591481613        0.0000000000000000     
  -6.3217276907478609E-003  0.24686702444621003        0.0000000000000000     
  -6.3427464326320576E-003  0.25527442380637111        0.0000000000000000     
  -6.3593045698129552E-003  0.26367062399529928        0.0000000000000000     
  -1.2572116415739850E-002  0.23003866794109798        0.0000000000000000     
  -1.2632312388710454E-002  0.23847188209824952        0.0000000000000000     
  -1.2683797892489032E-002  0.24689662710759791        0.0000000000000000     
  -1.2726572927075592E-002  0.25531290296914322        0.0000000000000000     
  -1.2760637492470127E-002  0.26372070968288547        0.0000000000000000     
  -1.8917424068833216E-002  0.23007206748929296        0.0000000000000000     
  -1.9008192133849813E-002  0.23851097573731966        0.0000000000000000     
  -1.9086210605403144E-002  0.24694596487659343        0.0000000000000000     
  -1.9151479483493224E-002  0.25537703490711416        0.0000000000000000     
  -1.9203998768120047E-002  0.26380418582888188        0.0000000000000000     
  -2.5302231352149662E-002  0.23011882685677429        0.0000000000000000     
  -2.5423887579578430E-002  0.23856570683202660        0.0000000000000000     
  -2.5528965829490196E-002  0.24701503775319639        0.0000000000000000     
  -2.5617466101884957E-002  0.25546681962028378        0.0000000000000000     
  -2.5689388396762713E-002  0.26392105243328867        0.0000000000000000     
  -1.4853049346008618E-013  0.26365392876612331        0.0000000000000000     
  -1.3564973797008939E-013  0.27197401519335201        0.0000000000000000     
  -1.2227827257682566E-013  0.28016172095942882        0.0000000000000000     
  -1.0841550096910013E-013  0.28821704606435394        0.0000000000000000     
  -9.4061911037890411E-014  0.29613999050812712        0.0000000000000000     
  -6.3593045698129552E-003  0.26367062399529928        0.0000000000000000     
  -6.3752774891683885E-003  0.27199580080159147        0.0000000000000000     
  -6.3945405775761993E-003  0.28019013001384457        0.0000000000000000     
  -6.4170938350363886E-003  0.28825361163205865        0.0000000000000000     
  -6.4429372615489562E-003  0.29618624565623364        0.0000000000000000     
  -1.2760637492470127E-002  0.26372070968288547        0.0000000000000000     
  -1.2793191257949404E-002  0.27206115762637684        0.0000000000000000     
  -1.2831433892790187E-002  0.28027535717716984        0.0000000000000000     
  -1.2875365396992482E-002  0.28836330833526436        0.0000000000000000     
  -1.2924985770556285E-002  0.29632501110066051        0.0000000000000000     
  -1.9203998768120047E-002  0.26380418582888188        0.0000000000000000     
  -1.9253741306478691E-002  0.27217008566770823        0.0000000000000000     
  -1.9310679945764235E-002  0.28041740244940466        0.0000000000000000     
  -1.9374814685976689E-002  0.28854613617397112        0.0000000000000000     
  -1.9446145527116050E-002  0.29655628684140778        0.0000000000000000     
  -2.5689388396762713E-002  0.26392105243328867        0.0000000000000000     
  -2.5756927634756253E-002  0.27232258492558553        0.0000000000000000     
  -2.5832278736498359E-002  0.28061626583054899        0.0000000000000000     
  -2.5915441701989020E-002  0.28880209514817895        0.0000000000000000     
  -2.6006416531228246E-002  0.29688007287847545        0.0000000000000000     
  -1.4020991063939867E-002   5.5782498991513274E-002   0.0000000000000000     
  -1.4801980943524808E-002   6.1373920790032566E-002   0.0000000000000000     
  -1.5553247002822245E-002   6.7150723688089081E-002   0.0000000000000000     
  -1.6274789241832174E-002   7.3112907685682876E-002   0.0000000000000000     
  -1.6966607660554588E-002   7.9260472782813882E-002   0.0000000000000000     
  -1.7555174397954180E-002   5.6041869074393139E-002   0.0000000000000000     
  -1.8544028400280983E-002   6.1626851615907793E-002   0.0000000000000000     
  -1.9494161722177918E-002   6.7396652461177958E-002   0.0000000000000000     
  -2.0405574363644981E-002   7.3351271610203619E-002   0.0000000000000000     
  -2.1278266324682164E-002   7.9490709062984763E-002   0.0000000000000000     
  -2.1222125678865927E-002   5.6360006657860409E-002   0.0000000000000000     
  -2.2410202947801838E-002   6.1937229832697296E-002   0.0000000000000000     
  -2.3551799416771345E-002   6.7698465259370427E-002   0.0000000000000000     
  -2.4646915085774445E-002   7.3643712937879774E-002   0.0000000000000000     
  -2.5695549954811145E-002   7.9772972868225336E-002   0.0000000000000000     
  -2.5021844906675111E-002   5.6736911741915100E-002   0.0000000000000000     
  -2.6400504586087385E-002   6.2305055440401061E-002   0.0000000000000000     
  -2.7726160086602541E-002   6.8056162082666488E-002   0.0000000000000000     
  -2.8998811408220592E-002   7.3990231668711312E-002   0.0000000000000000     
  -3.0218458550941529E-002   8.0107264198535602E-002   0.0000000000000000     
  -2.8954332081381727E-002   5.7172584326557176E-002   0.0000000000000000     
  -3.0514933315137601E-002   6.2730328439019087E-002   0.0000000000000000     
  -3.2017243731671495E-002   6.8469742931066141E-002   0.0000000000000000     
  -3.3461263330983398E-002   7.4390827802698262E-002   0.0000000000000000     
  -3.4846992113073315E-002   8.0493583053915546E-002   0.0000000000000000     
  -1.6966607660554588E-002   7.9260472782813882E-002   0.0000000000000000     
  -1.7632759631033924E-002   8.5579891442584086E-002   0.0000000000000000     
  -1.8277302525314617E-002   9.2057636128095366E-002   0.0000000000000000     
  -1.8900236343396666E-002   9.8693706839347764E-002   0.0000000000000000     
  -1.9501561085280061E-002  0.10548810357634122        0.0000000000000000     
  -2.1278266324682164E-002   7.9490709062984763E-002   0.0000000000000000     
  -2.2117527652730340E-002   8.5801596949406672E-002   0.0000000000000000     
  -2.2928648395230341E-002   9.2270567399354575E-002   0.0000000000000000     
  -2.3711628552182177E-002   9.8897620412828513E-002   0.0000000000000000     
  -2.4466468123585845E-002  0.10568275598982844        0.0000000000000000     
  -2.5695549954811145E-002   7.9772972868225336E-002   0.0000000000000000     
  -2.6703975876559836E-002   8.6073201282971953E-002   0.0000000000000000     
  -2.7678464703698925E-002   9.2531354414684422E-002   0.0000000000000000     
  -2.8619016436228401E-002   9.9147432263362728E-002   0.0000000000000000     
  -2.9525631074148267E-002  0.10592143482900693        0.0000000000000000     
  -3.0218458550941529E-002   8.0107264198535602E-002   0.0000000000000000     
  -3.1392104302522428E-002   8.6394704443279915E-002   0.0000000000000000     
  -3.2526751450720356E-002   9.2839997174084837E-002   0.0000000000000000     
  -3.3622399995535325E-002   9.9443142390950423E-002   0.0000000000000000     
  -3.4679049936967334E-002  0.10620414009387663        0.0000000000000000     
  -3.4846992113073315E-002   8.0493583053915546E-002   0.0000000000000000     
  -3.6181912930618114E-002   8.6766106430330545E-002   0.0000000000000000     
  -3.7473508636294665E-002   9.3196495677555877E-002   0.0000000000000000     
  -3.8721779230102969E-002   9.9784750795591570E-002   0.0000000000000000     
  -3.9926724712043025E-002  0.10653087178443761        0.0000000000000000     
  -1.9501561085280061E-002  0.10548810357634122        0.0000000000000000     
  -2.0077697688013832E-002  0.11242973855321907        0.0000000000000000     
  -2.0625067088646993E-002  0.11950752398412461        0.0000000000000000     
  -2.1143669287179531E-002  0.12672145986905778        0.0000000000000000     
  -2.1633504283611469E-002  0.13407154620801862        0.0000000000000000     
  -2.4466468123585845E-002  0.10568275598982844        0.0000000000000000     
  -2.5189207357111321E-002  0.11261486113931804        0.0000000000000000     
  -2.5875886500428588E-002  0.11968282287026091        0.0000000000000000     
  -2.6526505553537645E-002  0.12688664118265711        0.0000000000000000     
  -2.7141064516438482E-002  0.13422631607650662        0.0000000000000000     
  -2.9525631074148267E-002  0.10592143482900693        0.0000000000000000     
  -3.0393819567349940E-002  0.11284215270021929        0.0000000000000000     
  -3.1219092865724826E-002  0.11989837646560222        0.0000000000000000     
  -3.2001450969272933E-002  0.12709010612515573        0.0000000000000000     
  -3.2740893877994261E-002  0.13441734167887978        0.0000000000000000     
  -3.4679049936967334E-002  0.10620414009387663        0.0000000000000000     
  -3.5691534318729685E-002  0.11311161323592288        0.0000000000000000     
  -3.6654686184535712E-002  0.12015418477014855        0.0000000000000000     
  -3.7568505534385399E-002  0.12733185469655364        0.0000000000000000     
  -3.8432992368278768E-002  0.13464462301513816        0.0000000000000000     
  -3.9926724712043025E-002  0.10653087178443761        0.0000000000000000     
  -4.1082351611250546E-002  0.11342324274642879        0.0000000000000000     
  -4.2182666456861216E-002  0.12045024778389986        0.0000000000000000     
  -4.3227669248875042E-002  0.12761188689685085        0.0000000000000000     
  -4.4217359987292024E-002  0.13490816008528173        0.0000000000000000     
  -2.1633504283611469E-002  0.13407154620801862        0.0000000000000000     
  -2.2095536101325097E-002  0.14154540654250944        0.0000000000000000     
  -2.2530728763702726E-002  0.14913066441403264        0.0000000000000000     
  -2.2939082270744360E-002  0.15682731982258821        0.0000000000000000     
  -2.3320596622449993E-002  0.16463537276817614        0.0000000000000000     
  -2.7141064516438482E-002  0.13422631607650662        0.0000000000000000     
  -2.7720984052610125E-002  0.14168950597827742        0.0000000000000000     
  -2.8267684825531561E-002  0.14926386931443761        0.0000000000000000     
  -2.8781166835202796E-002  0.15694940608498717        0.0000000000000000     
  -2.9261430081623831E-002  0.16474611628992608        0.0000000000000000     
  -3.2740893877994261E-002  0.13441734167887978        0.0000000000000000     
  -3.3439185283165924E-002  0.14186781277179078        0.0000000000000000     
  -3.4098088876065101E-002  0.14942924904890506        0.0000000000000000     
  -3.4717604656691763E-002  0.15710165051022265        0.0000000000000000     
  -3.5297732625045909E-002  0.16488501715574352        0.0000000000000000     
  -3.8432992368278768E-002  0.13464462301513816        0.0000000000000000     
  -3.9250139792992508E-002  0.14208032692304948        0.0000000000000000     
  -4.0021940915303332E-002  0.14962680361743494        0.0000000000000000     
  -4.0748395735211239E-002  0.15728405309829468        0.0000000000000000     
  -4.1429504252716250E-002  0.16505207536562849        0.0000000000000000     
  -4.4217359987292024E-002  0.13490816008528173        0.0000000000000000     
  -4.5153847582089873E-002  0.14232704843205354        0.0000000000000000     
  -4.6039240943246289E-002  0.14985653302002735        0.0000000000000000     
  -4.6873540070761270E-002  0.15749661384920319        0.0000000000000000     
  -4.7656744964634824E-002  0.16524729091958099        0.0000000000000000     
  -2.3320596622449993E-002  0.16463537276817614        0.0000000000000000     
  -2.3673478135646984E-002  0.17254317556976104        0.0000000000000000     
  -2.3995933127162680E-002  0.18053908054630760        0.0000000000000000     
  -2.4287961596997084E-002  0.18862308769781588        0.0000000000000000     
  -2.4549563545150192E-002  0.19679519702428575        0.0000000000000000     
  -2.9261430081623831E-002  0.16474611628992608        0.0000000000000000     
  -2.9706156859252708E-002  0.17264268116507434        0.0000000000000000     
  -3.0113029462547469E-002  0.18062778194625193        0.0000000000000000     
  -3.0482047891508116E-002  0.18870141863345888        0.0000000000000000     
  -3.0813212146134642E-002  0.19686359122669519        0.0000000000000000     
  -3.5297732625045909E-002  0.16488501715574352        0.0000000000000000     
  -3.5835851149387282E-002  0.17276824847590172        0.0000000000000000     
  -3.6329338597975561E-002  0.18074024396113123        0.0000000000000000     
  -3.6778194970810758E-002  0.18880100361143209        0.0000000000000000     
  -3.7182420267892868E-002  0.19695052742680427        0.0000000000000000     
  -4.1429504252716250E-002  0.16505207536562849        0.0000000000000000     
  -4.2062561006050686E-002  0.17291987750224325        0.0000000000000000     
  -4.2644860533446932E-002  0.18087646659094556        0.0000000000000000     
  -4.3176402834905002E-002  0.18892184263173545        0.0000000000000000     
  -4.3657187910424895E-002  0.19705600562461292        0.0000000000000000     
  -4.7656744964634824E-002  0.16524729091958099        0.0000000000000000     
  -4.8386286429242933E-002  0.17309756824409886        0.0000000000000000     
  -4.9059595268961621E-002  0.18103644983569483        0.0000000000000000     
  -4.9676671483790867E-002  0.18906393569436900        0.0000000000000000     
  -5.0237515073730685E-002  0.19718002582012129        0.0000000000000000     
  -2.4549563545150192E-002  0.19679519702428575        0.0000000000000000     
  -2.4781396798572008E-002  0.20504004419927932        0.0000000000000000     
  -2.4984119184212523E-002  0.21334226489635863        0.0000000000000000     
  -2.5157730702071741E-002  0.22170185911552356        0.0000000000000000     
  -2.5302231352149662E-002  0.23011882685677429        0.0000000000000000     
  -3.0813212146134642E-002  0.19686359122669519        0.0000000000000000     
  -3.1107001061096509E-002  0.20510045718817141        0.0000000000000000     
  -3.1363893471063185E-002  0.21339817398009825        0.0000000000000000     
  -3.1583889376034666E-002  0.22175674160247560        0.0000000000000000     
  -3.1766988776010946E-002  0.23017616005530350        0.0000000000000000     
  -3.7182420267892868E-002  0.19695052742680427        0.0000000000000000     
  -3.7541960498724922E-002  0.20517662895460001        0.0000000000000000     
  -3.7856761672809942E-002  0.21346712174217164        0.0000000000000000     
  -3.8126823790147910E-002  0.22182200578951905        0.0000000000000000     
  -3.8352146850738844E-002  0.23024128109664241        0.0000000000000000     
  -4.3657187910424895E-002  0.19705600562461292        0.0000000000000000     
  -4.4086275111457247E-002  0.20526855949856504        0.0000000000000000     
  -4.4462723789452777E-002  0.21354910818257869        0.0000000000000000     
  -4.4786533944411483E-002  0.22189765167665396        0.0000000000000000     
  -4.5057705576333346E-002  0.23031418998079084        0.0000000000000000     
  -5.0237515073730685E-002  0.19718002582012129        0.0000000000000000     
  -5.0739944899293496E-002  0.20537624882006655        0.0000000000000000     
  -5.1181779820991723E-002  0.21364413330131954        0.0000000000000000     
  -5.1563019838825379E-002  0.22198367926388035        0.0000000000000000     
  -5.1883664952794450E-002  0.23039488670774891        0.0000000000000000     
  -2.5302231352149662E-002  0.23011882685677429        0.0000000000000000     
  -2.5423887579578430E-002  0.23856570683202660        0.0000000000000000     
  -2.5528965829490196E-002  0.24701503775319639        0.0000000000000000     
  -2.5617466101884957E-002  0.25546681962028378        0.0000000000000000     
  -2.5689388396762713E-002  0.26392105243328867        0.0000000000000000     
  -3.1766988776010946E-002  0.23017616005530350        0.0000000000000000     
  -3.1921084238643552E-002  0.23863159836013745        0.0000000000000000     
  -3.2054068331583987E-002  0.24709822553853275        0.0000000000000000     
  -3.2165941054832260E-002  0.25557604159048947        0.0000000000000000     
  -3.2256702408388356E-002  0.26406504651600765        0.0000000000000000     
  -3.8352146850738844E-002  0.23024128109664241        0.0000000000000000     
  -3.8541467623792430E-002  0.23870417329941948        0.0000000000000000     
  -3.8703522878518345E-002  0.24718990803372834        0.0000000000000000     
  -3.8838312614916604E-002  0.25569848529956885        0.0000000000000000     
  -3.8945836832987191E-002  0.26422990509694111        0.0000000000000000     
  -4.5057705576333346E-002  0.23031418998079084        0.0000000000000000     
  -4.5285037735025048E-002  0.23878343164987270        0.0000000000000000     
  -4.5477329470293260E-002  0.24729008523878304        0.0000000000000000     
  -4.5634580782137980E-002  0.25583415074752175        0.0000000000000000     
  -4.5756791670559231E-002  0.26441562817608882        0.0000000000000000     
  -5.1883664952794450E-002  0.23039488670774891        0.0000000000000000     
  -5.2151794572341412E-002  0.23886937341149714        0.0000000000000000     
  -5.2375488106908737E-002  0.24739875715369689        0.0000000000000000     
  -5.2554745556496418E-002  0.25598303793434818        0.0000000000000000     
  -5.2689566921104464E-002  0.26462221575345096        0.0000000000000000     
  -2.5689388396762713E-002  0.26392105243328867        0.0000000000000000     
  -2.5756927634756253E-002  0.27232258492558553        0.0000000000000000     
  -2.5832278736498359E-002  0.28061626583054899        0.0000000000000000     
  -2.5915441701989020E-002  0.28880209514817895        0.0000000000000000     
  -2.6006416531228246E-002  0.29688007287847545        0.0000000000000000     
  -3.2256702408388356E-002  0.26406504651600765        0.0000000000000000     
  -3.2341172171688436E-002  0.27251232884577808        0.0000000000000000     
  -3.2434170124168667E-002  0.28086497711049158        0.0000000000000000     
  -3.2535696265829021E-002  0.28912299131014813        0.0000000000000000     
  -3.2645750596669521E-002  0.29728637144474784        0.0000000000000000     
  -3.8945836832987191E-002  0.26422990509694111        0.0000000000000000     
  -3.9044896846181606E-002  0.27273299087405511        0.0000000000000000     
  -3.9154293967951295E-002  0.28115656607912115        0.0000000000000000     
  -3.9274028198296257E-002  0.28950063071213916        0.0000000000000000     
  -3.9404099537216505E-002  0.29776518477310920        0.0000000000000000     
  -4.5756791670559231E-002  0.26441562817608882        0.0000000000000000     
  -4.5868101658235731E-002  0.27298457101041679        0.0000000000000000     
  -4.5992650267846227E-002  0.28149103273643783        0.0000000000000000     
  -4.6130437499390720E-002  0.28993501335415217        0.0000000000000000     
  -4.6281463352869208E-002  0.29831651286355959        0.0000000000000000     
  -5.2689566921104464E-002  0.26462221575345096        0.0000000000000000     
  -5.2810786607850831E-002  0.27326706925486288        0.0000000000000000     
  -5.2949239023853484E-002  0.28186837708244156        0.0000000000000000     
  -5.3104924169112423E-002  0.29042613923618682        0.0000000000000000     
  -5.3277842043627621E-002  0.29894035571609895        0.0000000000000000     
  -2.8954332081381727E-002   5.7172584326557176E-002   0.0000000000000000     
  -3.0514933315137601E-002   6.2730328439019087E-002   0.0000000000000000     
  -3.2017243731671495E-002   6.8469742931066141E-002   0.0000000000000000     
  -3.3461263330983398E-002   7.4390827802698262E-002   0.0000000000000000     
  -3.4846992113073315E-002   8.0493583053915546E-002   0.0000000000000000     
  -3.3005013159679596E-002   5.7667926665296992E-002   0.0000000000000000     
  -3.4747277106683225E-002   6.3212946031358019E-002   0.0000000000000000     
  -3.6425823555547743E-002   6.8938495217951798E-002   0.0000000000000000     
  -3.8040652506273136E-002   7.4844574225078259E-002   0.0000000000000000     
  -3.9591763958859397E-002   8.0931183052737443E-002   0.0000000000000000     
  -3.7159314098262536E-002   5.8223841011644878E-002   0.0000000000000000     
  -3.9091323932454985E-002   6.3752805420224504E-002   0.0000000000000000     
  -4.0952672761800819E-002   6.9461706356705816E-002   0.0000000000000000     
  -4.2743360586300044E-002   7.5350543821088870E-002   0.0000000000000000     
  -4.4463387405952653E-002   8.1419317813373540E-002   0.0000000000000000     
  -4.1417234897130534E-002   5.8840327365600818E-002   0.0000000000000000     
  -4.3547073792452852E-002   6.4349906605618554E-002   0.0000000000000000     
  -4.5597791350430732E-002   7.0039376347328292E-002   0.0000000000000000     
  -4.7569387571064138E-002   7.5908736590730067E-002   0.0000000000000000     
  -4.9461862454353085E-002   8.1957987335823865E-002   0.0000000000000000     
  -4.5778775556283603E-002   5.9517385727164820E-002   0.0000000000000000     
  -4.8114526686676852E-002   6.5004249587540128E-002   0.0000000000000000     
  -5.0361179321437445E-002   7.0671505189819156E-002   0.0000000000000000     
  -5.2518733460565403E-002   7.6519152534001891E-002   0.0000000000000000     
  -5.4587189104060713E-002   8.2547191620088362E-002   0.0000000000000000     
  -3.4846992113073315E-002   8.0493583053915546E-002   0.0000000000000000     
  -3.6181912930618114E-002   8.6766106430330545E-002   0.0000000000000000     
  -3.7473508636294665E-002   9.3196495677555877E-002   0.0000000000000000     
  -3.8721779230102969E-002   9.9784750795591570E-002   0.0000000000000000     
  -3.9926724712043025E-002  0.10653087178443761        0.0000000000000000     
  -3.9591763958859397E-002   8.0931183052737443E-002   0.0000000000000000     
  -4.1087279426376570E-002   8.7187003868399782E-002   0.0000000000000000     
  -4.2535320421894708E-002   9.3600718839535718E-002   0.0000000000000000     
  -4.3935886945413789E-002  0.10017232796614524        0.0000000000000000     
  -4.5288978996933862E-002  0.10690183124822833        0.0000000000000000     
  -4.4463387405952653E-002   8.1419317813373540E-002   0.0000000000000000     
  -4.6122081455327479E-002   8.7656993381763554E-002   0.0000000000000000     
  -4.7728770968993355E-002   9.4052535574462526E-002   0.0000000000000000     
  -4.9283455946950300E-002  0.10060594439147046        0.0000000000000000     
  -5.0786136389198294E-002  0.10731721983278732        0.0000000000000000     
  -4.9461862454353085E-002   8.1957987335823865E-002   0.0000000000000000     
  -5.1286319017470841E-002   8.8176074970421847E-002   0.0000000000000000     
  -5.3053860277590639E-002   9.4551945882336300E-002   0.0000000000000000     
  -5.4764486234712473E-002  0.10108560007156718        0.0000000000000000     
  -5.6418196888836349E-002  0.10777703753811455        0.0000000000000000     
  -5.4587189104060713E-002   8.2547191620088362E-002   0.0000000000000000     
  -5.6579992112806662E-002   8.8744248634374689E-002   0.0000000000000000     
  -5.8510588347686528E-002   9.5098949763157081E-002   0.0000000000000000     
  -6.0378977808700315E-002  0.10161129500643551        0.0000000000000000     
  -6.2185160495848019E-002  0.10828128436420997        0.0000000000000000     
  -3.9926724712043025E-002  0.10653087178443761        0.0000000000000000     
  -4.1082351611250546E-002  0.11342324274642879        0.0000000000000000     
  -4.2182666456861216E-002  0.12045024778389986        0.0000000000000000     
  -4.3227669248875042E-002  0.12761188689685085        0.0000000000000000     
  -4.4217359987292024E-002  0.13490816008528173        0.0000000000000000     
  -4.5288978996933862E-002  0.10690183124822833        0.0000000000000000     
  -4.6587761217322513E-002  0.11377738191044870        0.0000000000000000     
  -4.7825398247447380E-002  0.12078713317746996        0.0000000000000000     
  -4.9001890087308493E-002  0.12793108504929213        0.0000000000000000     
  -5.0117236736905817E-002  0.13520923752591518        0.0000000000000000     
  -5.0786136389198294E-002  0.10731721983278732        0.0000000000000000     
  -5.2229252909355539E-002  0.11417437140669434        0.0000000000000000     
  -5.3605246121040229E-002  0.12116540862147265        0.0000000000000000     
  -5.4914116024252356E-002  0.12829033147712227        0.0000000000000000     
  -5.6155862618991928E-002  0.13554913997364321        0.0000000000000000     
  -5.6418196888836349E-002  0.10777703753811455        0.0000000000000000     
  -5.8006826687349647E-002  0.11461421123516563        0.0000000000000000     
  -5.9522210077639748E-002  0.12158507411590788        0.0000000000000000     
  -6.0964347059706644E-002  0.12868962618034133        0.0000000000000000     
  -6.2333237633550344E-002  0.13592786742846585        0.0000000000000000     
  -6.2185160495848019E-002  0.10828128436420997        0.0000000000000000     
  -6.3920482551304822E-002  0.11509690139586266        0.0000000000000000     
  -6.5576290117245944E-002  0.12204612966077573        0.0000000000000000     
  -6.7152583193671359E-002  0.12912896915894923        0.0000000000000000     
  -6.8649361780581078E-002  0.13634541989038307        0.0000000000000000     
  -4.4217359987292024E-002  0.13490816008528173        0.0000000000000000     
  -4.5153847582089873E-002  0.14232704843205354        0.0000000000000000     
  -4.6039240943246289E-002  0.14985653302002735        0.0000000000000000     
  -4.6873540070761270E-002  0.15749661384920319        0.0000000000000000     
  -4.7656744964634824E-002  0.16524729091958099        0.0000000000000000     
  -5.0117236736905817E-002  0.13520923752591518        0.0000000000000000     
  -5.1173748446108829E-002  0.14260967871931526        0.0000000000000000     
  -5.2173735464786972E-002  0.15012049674146838        0.0000000000000000     
  -5.3117197792940267E-002  0.15774169159237467        0.0000000000000000     
  -5.4004135430568680E-002  0.16547326327203402        0.0000000000000000     
  -5.6155862618991928E-002  0.13554913997364321        0.0000000000000000     
  -5.7333282180700204E-002  0.14292991920534678        0.0000000000000000     
  -5.8449170984818458E-002  0.15042075426654419        0.0000000000000000     
  -5.9503529031346675E-002  0.15802164515723549        0.0000000000000000     
  -6.0496356320284883E-002  0.16573259187742068        0.0000000000000000     
  -6.2333237633550344E-002  0.13592786742846585        0.0000000000000000     
  -6.3632448785863965E-002  0.14328776989014813        0.0000000000000000     
  -6.4865547503340712E-002  0.15075730559525471        0.0000000000000000     
  -6.6032533785980521E-002  0.15833647454378566        0.0000000000000000     
  -6.7133407633783421E-002  0.16602527673574094        0.0000000000000000     
  -6.8649361780581078E-002  0.13634541989038307        0.0000000000000000     
  -7.0071248261600175E-002  0.14368323077371933        0.0000000000000000     
  -7.1422865020353749E-002  0.15113015072760005        0.0000000000000000     
  -7.2704212056841785E-002  0.15868617975202526        0.0000000000000000     
  -7.3915289371064299E-002  0.16635131784699486        0.0000000000000000     
  -4.7656744964634824E-002  0.16524729091958099        0.0000000000000000     
  -4.8386286429242933E-002  0.17309756824409886        0.0000000000000000     
  -4.9059595268961621E-002  0.18103644983569483        0.0000000000000000     
  -4.9676671483790867E-002  0.18906393569436900        0.0000000000000000     
  -5.0237515073730685E-002  0.19718002582012129        0.0000000000000000     
  -5.4004135430568680E-002  0.16547326327203402        0.0000000000000000     
  -5.4832180041653765E-002  0.17330425379733205        0.0000000000000000     
  -5.5598963290177036E-002  0.18122370518515443        0.0000000000000000     
  -5.6304485176138501E-002  0.18923161743550101        0.0000000000000000     
  -5.6948745699538159E-002  0.19732799054837197        0.0000000000000000     
  -6.0496356320284883E-002  0.16573259187742068        0.0000000000000000     
  -6.1425394465972914E-002  0.17354286725780646        0.0000000000000000     
  -6.2288385082750648E-002  0.18144174412909955        0.0000000000000000     
  -6.3085328170618085E-002  0.18942922249129995        0.0000000000000000     
  -6.3816223729575197E-002  0.19750530234440766        0.0000000000000000     
  -6.7133407633783421E-002  0.16602527673574094        0.0000000000000000     
  -6.8165929702200395E-002  0.17381340862552194        0.0000000000000000     
  -6.9127860646682457E-002  0.18169056666753025        0.0000000000000000     
  -7.0019200467229578E-002  0.18965675086176573        0.0000000000000000     
  -7.0839949163841814E-002  0.19771196120822848        0.0000000000000000     
  -7.3915289371064299E-002  0.16635131784699486        0.0000000000000000     
  -7.5053785750336194E-002  0.17411587790047872        0.0000000000000000     
  -7.6117389981972428E-002  0.18197017280044656        0.0000000000000000     
  -7.7106102065973028E-002  0.18991420254689842        0.0000000000000000     
  -7.8019922002337982E-002  0.19794796713983431        0.0000000000000000     
  -5.0237515073730685E-002  0.19718002582012129        0.0000000000000000     
  -5.0739944899293496E-002  0.20537624882006655        0.0000000000000000     
  -5.1181779820991723E-002  0.21364413330131954        0.0000000000000000     
  -5.1563019838825379E-002  0.22198367926388035        0.0000000000000000     
  -5.1883664952794450E-002  0.23039488670774891        0.0000000000000000     
  -5.6948745699538159E-002  0.19732799054837197        0.0000000000000000     
  -5.7528690702652825E-002  0.20550592501504958        0.0000000000000000     
  -5.8041266027759310E-002  0.21375852132681636        0.0000000000000000     
  -5.8486471674857633E-002  0.22208577948367231        0.0000000000000000     
  -5.8864307643947761E-002  0.23048769948561731        0.0000000000000000     
  -6.3816223729575197E-002  0.19750530234440766        0.0000000000000000     
  -6.4478233361954407E-002  0.20566381617945928        0.0000000000000000     
  -6.5068518670088088E-002  0.21389859648749138        0.0000000000000000     
  -6.5587079653976227E-002  0.22220964326850381        0.0000000000000000     
  -6.6033916313618865E-002  0.23059695652249670        0.0000000000000000     
  -7.0839949163841814E-002  0.19771196120822848        0.0000000000000000     
  -7.1588572877198234E-002  0.20584992231329566        0.0000000000000000     
  -7.2263537747978057E-002  0.21406435878334448        0.0000000000000000     
  -7.2864843776181215E-002  0.22235527061837501        0.0000000000000000     
  -7.3392490961807749E-002  0.23072265781838722        0.0000000000000000     
  -7.8019922002337982E-002  0.19794796713983431        0.0000000000000000     
  -7.8859709248384355E-002  0.20606424341655860        0.0000000000000000     
  -7.9626323261429210E-002  0.21425580821437581        0.0000000000000000     
  -8.0319764041472577E-002  0.22252266153328581        0.0000000000000000     
  -8.0940031588514455E-002  0.23086480337328869        0.0000000000000000     
  -5.1883664952794450E-002  0.23039488670774891        0.0000000000000000     
  -5.2151794572341412E-002  0.23886937341149714        0.0000000000000000     
  -5.2375488106908737E-002  0.24739875715369689        0.0000000000000000     
  -5.2554745556496418E-002  0.25598303793434818        0.0000000000000000     
  -5.2689566921104464E-002  0.26462221575345096        0.0000000000000000     
  -5.8864307643947761E-002  0.23048769948561731        0.0000000000000000     
  -5.9180849581878164E-002  0.23896342897270864        0.0000000000000000     
  -5.9442173135497260E-002  0.24751211558500347        0.0000000000000000     
  -5.9648278304805062E-002  0.25613375932250182        0.0000000000000000     
  -5.9799165089801563E-002  0.26482836018520356        0.0000000000000000     
  -6.6033916313618865E-002  0.23059695652249670        0.0000000000000000     
  -6.6411314209771893E-002  0.23906702872192317        0.0000000000000000     
  -6.6721558903191314E-002  0.24762635233923641        0.0000000000000000     
  -6.6964650393877070E-002  0.25627492737443625        0.0000000000000000     
  -6.7140588681829191E-002  0.26501275382752282        0.0000000000000000     
  -7.3392490961807749E-002  0.23072265781838722        0.0000000000000000     
  -7.3843188456022640E-002  0.23918017265914079        0.0000000000000000     
  -7.4213645409990883E-002  0.24774146741639558        0.0000000000000000     
  -7.4503861823712450E-002  0.25640654209015157        0.0000000000000000     
  -7.4713837697187341E-002  0.26517539668040863        0.0000000000000000     
  -8.0940031588514455E-002  0.23086480337328869        0.0000000000000000     
  -8.1476472320630378E-002  0.23930286078436142        0.0000000000000000     
  -8.1918432655895976E-002  0.24785746081648108        0.0000000000000000     
  -8.2265912594311166E-002  0.25652860346964768        0.0000000000000000     
  -8.2518912135876019E-002  0.26531628874386115        0.0000000000000000     
  -5.2689566921104464E-002  0.26462221575345096        0.0000000000000000     
  -5.2810786607850831E-002  0.27326706925486288        0.0000000000000000     
  -5.2949239023853484E-002  0.28186837708244156        0.0000000000000000     
  -5.3104924169112423E-002  0.29042613923618682        0.0000000000000000     
  -5.3277842043627621E-002  0.29894035571609895        0.0000000000000000     
  -5.9799165089801563E-002  0.26482836018520356        0.0000000000000000     
  -5.9931707483775104E-002  0.27355177713945955        0.0000000000000000     
  -6.0082779480013976E-002  0.28225986915162038        0.0000000000000000     
  -6.0252381078518193E-002  0.29095263622168621        0.0000000000000000     
  -6.0440512279287754E-002  0.29963007834965683        0.0000000000000000     
  -6.7140588681829191E-002  0.26501275382752282        0.0000000000000000     
  -6.7289620074756681E-002  0.27380998619627273        0.0000000000000000     
  -6.7451990880368587E-002  0.28263677897846262        0.0000000000000000     
  -6.7627701098664880E-002  0.29149313217409256        0.0000000000000000     
  -6.7816750729645589E-002  0.30037904578316260        0.0000000000000000     
  -7.4713837697187341E-002  0.26517539668040863        0.0000000000000000     
  -7.4884524380795639E-002  0.27404169642530246        0.0000000000000000     
  -7.5056873224917359E-002  0.28299910656296828        0.0000000000000000     
  -7.5230884229552542E-002  0.29204762709340631        0.0000000000000000     
  -7.5406557394701132E-002  0.30118725801661639        0.0000000000000000     
  -8.2518912135876019E-002  0.26531628874386115        0.0000000000000000     
  -8.2716420401891921E-002  0.27424690782654870        0.0000000000000000     
  -8.2897426513660277E-002  0.28334685190513736        0.0000000000000000     
  -8.3061930471181100E-002  0.29261612097962714        0.0000000000000000     
  -8.3209932274454390E-002  0.30205471505001813        0.0000000000000000     
  -4.5778775556283603E-002   5.9517385727164820E-002   0.0000000000000000     
  -4.8114526686676852E-002   6.5004249587540128E-002   0.0000000000000000     
  -5.0361179321437445E-002   7.0671505189819156E-002   0.0000000000000000     
  -5.2518733460565403E-002   7.6519152534001891E-002   0.0000000000000000     
  -5.4587189104060713E-002   8.2547191620088362E-002   0.0000000000000000     
  -5.0313187313474055E-002   6.0252384021052999E-002   0.0000000000000000     
  -5.2851140280375852E-002   6.5714920205412100E-002   0.0000000000000000     
  -5.5291289231721254E-002   7.1358264652402387E-002   0.0000000000000000     
  -5.7633634167510293E-002   7.7182417362023872E-002   0.0000000000000000     
  -5.9878175087742957E-002   8.3187378334276557E-002   0.0000000000000000     
  -5.5089721406454205E-002   6.1042690171981481E-002   0.0000000000000000     
  -5.7814372238798734E-002   6.6481004298657304E-002   0.0000000000000000     
  -6.0436573638182410E-002   7.2099826503301975E-002   0.0000000000000000     
  -6.2956325604605234E-002   7.7899156785915510E-002   0.0000000000000000     
  -6.5373628138067241E-002   8.3878995146497909E-002   0.0000000000000000     
  -6.0108377835224047E-002   6.1888304179950275E-002   0.0000000000000000     
  -6.3004222561945503E-002   6.7302501867275724E-002   0.0000000000000000     
  -6.5797032540820893E-002   7.2896190742517894E-002   0.0000000000000000     
  -6.8486807771850261E-002   7.8669370805676805E-002   0.0000000000000000     
  -7.1073548255033522E-002   8.4622042056752431E-002   0.0000000000000000     
  -6.5369156599783595E-002   6.2789226044959359E-002   0.0000000000000000     
  -6.8420691249816173E-002   6.8179412911267390E-002   0.0000000000000000     
  -7.1372665939636745E-002   7.3747357370050198E-002   0.0000000000000000     
  -7.4225080669245311E-002   7.9493059421307771E-002   0.0000000000000000     
  -7.6977935438641884E-002   8.5416519065040108E-002   0.0000000000000000     
  -5.4587189104060713E-002   8.2547191620088362E-002   0.0000000000000000     
  -5.6579992112806662E-002   8.8744248634374689E-002   0.0000000000000000     
  -5.8510588347686528E-002   9.5098949763157081E-002   0.0000000000000000     
  -6.0378977808700315E-002  0.10161129500643551        0.0000000000000000     
  -6.2185160495848019E-002  0.10828128436420997        0.0000000000000000     
  -5.9878175087742957E-002   8.3187378334276557E-002   0.0000000000000000     
  -6.2039952881482126E-002   8.9361557395368940E-002   0.0000000000000000     
  -6.4134008437790740E-002   9.5693364371509604E-002   0.0000000000000000     
  -6.6160341756668739E-002  0.10218279926269846        0.0000000000000000     
  -6.8118952838116170E-002  0.10882986206893561        0.0000000000000000     
  -6.5373628138067241E-002   8.3878995146497909E-002   0.0000000000000000     
  -6.7703053463644428E-002   9.0028044275151486E-002   0.0000000000000000     
  -6.9959173806412908E-002   9.6335006861978587E-002   0.0000000000000000     
  -7.2141989166372683E-002  0.10279988290697921        0.0000000000000000     
  -7.4251499543523725E-002  0.10942267241015337        0.0000000000000000     
  -7.1073548255033522E-002   8.4622042056752431E-002   0.0000000000000000     
  -7.3569293859293547E-002   9.0743709273722314E-002   0.0000000000000000     
  -7.5986084453553093E-002   9.7023877234564113E-002   0.0000000000000000     
  -7.8323920037812106E-002  0.10346254593927774        0.0000000000000000     
  -8.0582800612070640E-002  0.11005971538786326        0.0000000000000000     
  -7.6977935438641884E-002   8.5416519065040108E-002   0.0000000000000000     
  -7.9638674068429505E-002   9.1508552391081452E-002   0.0000000000000000     
  -8.2214740379211212E-002   9.7759975489266113E-002   0.0000000000000000     
  -8.4706134370987021E-002  0.10417078835959405        0.0000000000000000     
  -8.7112856043756945E-002  0.11074099100206529        0.0000000000000000     
  -6.2185160495848019E-002  0.10828128436420997        0.0000000000000000     
  -6.3920482551304822E-002  0.11509690139586266        0.0000000000000000     
  -6.5576290117245944E-002  0.12204612966077573        0.0000000000000000     
  -6.7152583193671359E-002  0.12912896915894923        0.0000000000000000     
  -6.8649361780581078E-002  0.13634541989038307        0.0000000000000000     
  -6.8118952838116170E-002  0.10882986206893561        0.0000000000000000     
  -7.0000811524822515E-002  0.11562249457505626        0.0000000000000000     
  -7.1796887659477268E-002  0.12254863856589573        0.0000000000000000     
  -7.3507181242080444E-002  0.12960829404145399        0.0000000000000000     
  -7.5131692272632014E-002  0.13680146100173105        0.0000000000000000     
  -7.4251499543523725E-002  0.10942267241015337        0.0000000000000000     
  -7.6278404631504204E-002  0.11619104345901736        0.0000000000000000     
  -7.8213404123952238E-002  0.12309266414108742        0.0000000000000000     
  -8.0056498020867853E-002  0.13012753445636363        0.0000000000000000     
  -8.1807686322251022E-002  0.13729565440484592        0.0000000000000000     
  -8.0582800612070640E-002  0.11005971538786326        0.0000000000000000     
  -8.2753261871349820E-002  0.11680254804774587        0.0000000000000000     
  -8.4825839510670811E-002  0.12367820638635083        0.0000000000000000     
  -8.6800533530033586E-002  0.13068669040367811        0.0000000000000000     
  -8.8677343929438143E-002  0.13782800009972773        0.0000000000000000     
  -8.7112856043756945E-002  0.11074099100206529        0.0000000000000000     
  -8.9425383244359447E-002  0.11745700834124190        0.0000000000000000     
  -9.1634193819633003E-002  0.12430526530168597        0.0000000000000000     
  -9.3739287769577628E-002  0.13128576188339747        0.0000000000000000     
  -9.5740665094193336E-002  0.13839849808637644        0.0000000000000000     
  -6.8649361780581078E-002  0.13634541989038307        0.0000000000000000     
  -7.0071248261600175E-002  0.14368323077371933        0.0000000000000000     
  -7.1422865020353749E-002  0.15113015072760005        0.0000000000000000     
  -7.2704212056841785E-002  0.15868617975202526        0.0000000000000000     
  -7.3915289371064299E-002  0.16635131784699486        0.0000000000000000     
  -7.5131692272632014E-002  0.13680146100173105        0.0000000000000000     
  -7.6676086623389747E-002  0.14411576860499986        0.0000000000000000     
  -7.8146030166611397E-002  0.15153884600953343        0.0000000000000000     
  -7.9541522902297018E-002  0.15907069321533171        0.0000000000000000     
  -8.0862564830446529E-002  0.16671131022239480        0.0000000000000000     
  -8.1807686322251022E-002  0.13729565440484592        0.0000000000000000     
  -8.3473369886713639E-002  0.14458485013292918        0.0000000000000000     
  -8.5059949572867541E-002  0.15198294778700810        0.0000000000000000     
  -8.6567425380712715E-002  0.15948994736708272        0.0000000000000000     
  -8.7995797310249146E-002  0.16710584887315313        0.0000000000000000     
  -8.8677343929438143E-002  0.13782800009972773        0.0000000000000000     
  -9.0463098051571850E-002  0.14509047535750719        0.0000000000000000     
  -9.2164623239122112E-002  0.15246245606002404        0.0000000000000000     
  -9.3781919492088875E-002  0.15994394220727828        0.0000000000000000     
  -9.5314986810472166E-002  0.16753493379926990        0.0000000000000000     
  -9.5740665094193336E-002  0.13839849808637644        0.0000000000000000     
  -9.7645271117964394E-002  0.14563264427873401        0.0000000000000000     
  -9.9460051165375138E-002  0.15297737082858132        0.0000000000000000     
 -0.10118500523642550       0.16043267773591832        0.0000000000000000     
 -0.10282013333111556       0.16799856500074506        0.0000000000000000     
  -7.3915289371064299E-002  0.16635131784699486        0.0000000000000000     
  -7.5053785750336194E-002  0.17411587790047872        0.0000000000000000     
  -7.6117389981972428E-002  0.18197017280044656        0.0000000000000000     
  -7.7106102065973028E-002  0.18991420254689842        0.0000000000000000     
  -7.8019922002337982E-002  0.19794796713983431        0.0000000000000000     
  -8.0862564830446529E-002  0.16671131022239480        0.0000000000000000     
  -8.2107019239631707E-002  0.17445148512243736        0.0000000000000000     
  -8.3272749418424302E-002  0.18228200600717412        0.0000000000000000     
  -8.4359755366824302E-002  0.19020287287660517        0.0000000000000000     
  -8.5368037084831733E-002  0.19821408573073040        0.0000000000000000     
  -8.7995797310249146E-002  0.16710584887315313        0.0000000000000000     
  -8.9343686799338323E-002  0.17482144033115862        0.0000000000000000     
  -9.0609715285841719E-002  0.18262750976703856        0.0000000000000000     
  -9.1793882769759305E-002  0.19052405718079299        0.0000000000000000     
  -9.2896189251091082E-002  0.19851108257242181        0.0000000000000000     
  -9.5314986810472166E-002  0.16753493379926990        0.0000000000000000     
  -9.6763788429456057E-002  0.17522574352664255        0.0000000000000000     
  -9.8128287584224677E-002  0.18300668408003987        0.0000000000000000     
  -9.9408484274777983E-002  0.19087775545946195        0.0000000000000000     
 -0.10060437850111600       0.19883895766490858        0.0000000000000000     
 -0.10282013333111556       0.16799856500074506        0.0000000000000000     
 -0.10436732412998488       0.17566439470888912        0.0000000000000000     
 -0.10582846631357316       0.18341952894617808        0.0000000000000000     
 -0.10720355988188038       0.19126396771261198        0.0000000000000000     
 -0.10849260483490653       0.19919771100819078        0.0000000000000000     
  -7.8019922002337982E-002  0.19794796713983431        0.0000000000000000     
  -7.8859709248384355E-002  0.20606424341655860        0.0000000000000000     
  -7.9626323261429210E-002  0.21425580821437581        0.0000000000000000     
  -8.0319764041472577E-002  0.22252266153328581        0.0000000000000000     
  -8.0940031588514455E-002  0.23086480337328869        0.0000000000000000     
  -8.5368037084831733E-002  0.19821408573073040        0.0000000000000000     
  -8.6300935110077040E-002  0.20630761250460067        0.0000000000000000     
  -8.7161789980190738E-002  0.21447542113326667        0.0000000000000000     
  -8.7950601695172784E-002  0.22271751161672854        0.0000000000000000     
  -8.8667370255023234E-002  0.23103388395498611        0.0000000000000000     
  -9.2896189251091082E-002  0.19851108257242181        0.0000000000000000     
  -9.3921543096840684E-002  0.20658086259277406        0.0000000000000000     
  -9.4874852674011800E-002  0.21472567389269856        0.0000000000000000     
  -9.5756117982604347E-002  0.22294551647219540        0.0000000000000000     
  -9.6565339022618407E-002  0.23124039033126448        0.0000000000000000     
 -0.10060437850111600       0.19883895766490858        0.0000000000000000     
 -0.10172153320867529       0.20688399368107888        0.0000000000000000     
 -0.10276551134289233       0.21500656649267144        0.0000000000000000     
 -0.10373631290376727       0.22320667609968642        0.0000000000000000     
 -0.10463393789129996       0.23148432250212367        0.0000000000000000     
 -0.10849260483490653       0.19919771100819078        0.0000000000000000     
 -0.10970090544558084       0.20721700576951502        0.0000000000000000     
 -0.11083376598683248       0.21531809893318526        0.0000000000000000     
 -0.11189118645866150       0.22350099049920152        0.0000000000000000     
 -0.11287316686106788       0.23176568046756374        0.0000000000000000     
  -8.0940031588514455E-002  0.23086480337328869        0.0000000000000000     
  -8.1476472320630378E-002  0.23930286078436142        0.0000000000000000     
  -8.1918432655895976E-002  0.24785746081648108        0.0000000000000000     
  -8.2265912594311166E-002  0.25652860346964768        0.0000000000000000     
  -8.2518912135876019E-002  0.26531628874386115        0.0000000000000000     
  -8.8667370255023234E-002  0.23103388395498611        0.0000000000000000     
  -8.9297678827402027E-002  0.23945007027087400        0.0000000000000000     
  -8.9827110579969116E-002  0.24799160268722670        0.0000000000000000     
  -9.0255665512724514E-002  0.25665848120404416        0.0000000000000000     
  -9.0583343625668222E-002  0.26545070582132646        0.0000000000000000     
  -9.6565339022618407E-002  0.23124039033126448        0.0000000000000000     
  -9.7293321000144400E-002  0.23963677829196750        0.0000000000000000     
  -9.7930869121272829E-002  0.24816116317636619        0.0000000000000000     
  -9.8477983386003623E-002  0.25681354498446052        0.0000000000000000     
  -9.8934663794336880E-002  0.26559392371625051        0.0000000000000000     
 -0.10463393789129996       0.23148432250212367        0.0000000000000000     
 -0.10546339883885752       0.23986298484764187        0.0000000000000000     
 -0.10622970827980707       0.24836614228389961        0.0000000000000000     
 -0.10693286621414858       0.25699379481089668        0.0000000000000000     
 -0.10757287264188205       0.26574594242863331        0.0000000000000000     
 -0.11287316686106788       0.23176568046756374        0.0000000000000000     
 -0.11380791234354141       0.24012868993789716        0.0000000000000000     
 -0.11472362805557189       0.24860654000982682        0.0000000000000000     
 -0.11562031399715930       0.25719923068335276        0.0000000000000000     
 -0.11649797016830368       0.26590676195847507        0.0000000000000000     
  -8.2518912135876019E-002  0.26531628874386115        0.0000000000000000     
  -8.2716420401891921E-002  0.27424690782654870        0.0000000000000000     
  -8.2897426513660277E-002  0.28334685190513736        0.0000000000000000     
  -8.3061930471181100E-002  0.29261612097962714        0.0000000000000000     
  -8.3209932274454390E-002  0.30205471505001813        0.0000000000000000     
  -9.0583343625668222E-002  0.26545070582132646        0.0000000000000000     
  -9.0840497147461743E-002  0.27443130664298565        0.0000000000000000     
  -9.1057478306766665E-002  0.28366331377293413        0.0000000000000000     
  -9.1234287103582973E-002  0.29314672721117185        0.0000000000000000     
  -9.1370923537910625E-002  0.30288154695769876        0.0000000000000000     
  -9.8934663794336880E-002  0.26559392371625051        0.0000000000000000     
  -9.9311943626921362E-002  0.27460057911758751        0.0000000000000000     
  -9.9620856164405885E-002  0.28393179093432291        0.0000000000000000     
  -9.9861401406790479E-002  0.29358755916645690        0.0000000000000000     
 -0.10003357935407513       0.30356788381398936        0.0000000000000000     
 -0.10757287264188205       0.26574594242863331        0.0000000000000000     
 -0.10813075984027075       0.27475472525035416        0.0000000000000000     
 -0.10858756008657794       0.28415228338930376        0.0000000000000000     
 -0.10894327338080367       0.29393861684548234        0.0000000000000000     
 -0.10919789972294790       0.30411372561888977        0.0000000000000000     
 -0.11649797016830368       0.26590676195847507        0.0000000000000000     
 -0.11729694578750989       0.27489374504128566        0.0000000000000000     
 -0.11795759007328283       0.28432479113787668        0.0000000000000000     
 -0.11847990302562252       0.29419990024824821        0.0000000000000000     
 -0.11886388464452892       0.30451907237240017        0.0000000000000000     
 </DataArray>
 <DataArray  type="Float64" Name="stress" NumberOfComponents="3" format="ascii">
   5955675201.2907982        3837038.5329349041       -59469685.778411008     
   5760779257.1811686       -8632363.0003032684       -37449016.977629215     
   5567207447.3944635       -16687983.457124949       -19493460.016383447     
   5374959771.9307032       -20329822.837489605       -5603014.8946967656     
   5184036230.7898617       -19557881.141436338        4222318.3874590117     
   5665860332.5822172        23083663.255384207        136419318.09358269     
   5463699821.3323135        8637679.0567378998        148271094.12556571     
   5262409793.4860449       -2906693.7964444160        159055987.88889316     
   5061990249.0434198       -11549455.304158926        168773999.38356891     
   4862441188.0044260       -17290605.466416836        177425128.60959420     
   5339050603.2219706        31231829.782330513        332650946.85183382     
   5138191895.0343418        17379173.979047775        333804570.70917237     
   4937750019.3310585        4915959.7902557850        336889541.86874992     
   4737724976.1121292       -6157812.7840306759        341905860.33057219     
   4538116765.3775501       -15842143.743822575        348853526.09463602     
   4975246013.2100592        28281538.113777161        529225200.49633664     
   4784255478.2872601        17592121.766615391        519151412.77319515     
   4593228124.9295206        6779977.3029856682        514007201.92318875     
   4402163953.1368427       -4154895.2771079540        513792567.94631571     
   4211062962.9092231       -15212495.973667145        518507510.84258455     
   4574446562.5464926        14232788.249730349        726142079.02709699     
   4401890571.0910730        9276522.4194614887        704311620.31763506     
   4228844110.2814293        2685358.7417604923        690408968.05220699     
   4055307180.1175547       -5540702.7833709717        684434122.23080873     
   3881279780.5994458       -15401662.155943394        686387082.85343587     
   5184036230.7898617       -19557881.141436338        4222318.3874590117     
   5024856932.4738035       -8252699.8045890331        574593.94895815919     
   4865019412.0062943        858407.69406509399        1173724.8575727222     
   4704523669.3872986        7775441.3544399738        6019711.1133180726     
   4543369704.6168442        12498401.176622868        15112552.716181401     
   4862441188.0044260       -17290605.466416836        177425128.60959420     
   4713899354.8433847       -7117984.8210363388        172140765.51335666     
   4564890292.6375523        1497205.6750452518        171053572.73342699     
   4415414001.3869305        8554966.0218269825        174163550.26979655     
   4265470481.0915160        14055296.219295263        181470698.12246820     
   4538116765.3775501       -15842143.743822575        348853526.09463602     
   4400070440.1406012       -6844670.9591965675        342155349.63179439     
   4261747878.9655447        1232015.3650591373        339604658.45442748     
   4123149081.8523731        8387915.2289302349        341201452.56255448     
   3984274048.8010898        14623028.632438421        346945731.95616126     
   4211062962.9092231       -15212495.973667145        518507510.84258455     
   4083370188.3654613       -7432758.2190682888        510618346.30425781     
   3955592170.9902673        62836.764085054398        506826982.02058673     
   3827728910.7836423        7274288.9758050442        507133417.99159235     
   3699780407.7455802        14201598.416069746        511537654.21725488     
   3881279780.5994458       -15401662.155943394        686387082.85343587     
   3763798599.5179644       -8882246.6006362438        677529755.53074610     
   3646423168.7117186       -2010330.1278676987        672720543.43190432     
   3529153488.1807275        5214087.2624120712        671959446.55691063     
   3411989557.9249730        12791005.570158482        675246464.90576243     
   4543369704.6168442        12498401.176622868        15112552.716181401     
   4341916364.5896587        4773669.4041707516        8406432.1302419640     
   4140885282.5265260       -1543535.8214352131        5954216.1321936613     
   3940276458.4274335       -6453214.5002398491        7755904.7220198382     
   3740089892.2923884       -9955366.6322264671        13811497.899721777     
   4265470481.0915160        14055296.219295263        181470698.12246820     
   4075515885.6287889        7328478.8798487186        174096880.85954094     
   3885880942.2965112        1667168.6418910027        171084059.18917468     
   3696565651.0946960       -2928634.4945213795        172432233.11134830     
   3507570012.0233269       -6458930.5294458866        178141402.62607780     
   3984274048.8010898        14623028.632438421        346945731.95616126     
   3806124172.2018728        8985918.0156865120        338784511.21038866     
   3628191341.8995161        4072295.0551297665        335091377.06184655     
   3450475557.8940253       -117840.24919605255        335866329.51051486     
   3272976820.1854000       -3584487.8973121643        341109368.55640602     
   3699780407.7455802        14201598.416069746        511537654.21725488     
   3533741224.3089237        9745986.8117275238        502469323.18279272     
   3367816481.3355355        5671843.4182734489        497976169.75021070     
   3202006178.8254275        1979168.2357575893        498058193.91952044     
   3036310316.7785883       -1332038.7358632088        502715395.69071794     
   3411989557.9249730        12791005.570158482        675246464.90576243     
   3258367041.9499307        9608685.2679352760        665151316.77673912     
   3104756360.6045723        6465813.7313203812        659738437.25427365     
   2951157513.8888984        3362390.9603281021        659007826.33836341     
   2797570501.8029022        298416.95492970943        662959484.02900720     
   3740089892.2923884       -9955366.6322264671        13811497.899721777     
   3569007411.5890279       -5344053.9238979816        8153246.0320371110     
   3397095358.1155267       -3497983.7827279568        6802465.7965489645     
   3224353731.8719091       -4417156.2085993290        9759157.1932675876     
   3050782532.8581462       -8101571.2016242743        17023320.222172480     
   3507570012.0233269       -6458930.5294458866        178141402.62607780     
   3347278486.6849580       -1698833.8324050903        170789438.41600630     
   3186455765.4438500        1290609.8554960489        167396402.70325193     
   3025101848.3000145        2509400.5343163013        167962295.48782429     
   2863216735.2534332        1957538.2039824724        172487116.76971507     
   3272976820.1854000       -3584487.8973121643        341109368.55640602     
   3122480412.6838002        1025641.5299948454        332411798.34924310     
   2971751186.1468644        4859707.5061539412        327324613.50453073     
   2820789140.5745869        7917710.0311915874        325847814.02225608     
   2669594275.9669724        10199649.105098128        327981399.90242296     
   3036310316.7785883       -1332038.7358632088        502715395.69071794     
   2894613189.5855446        2829372.1632487774        493020325.83176506     
   2752981620.2245550        7209309.1692013741        486587098.20037186     
   2611415608.6956215        11807772.282002807        483415712.79655355     
   2469915154.9987364        16624761.501657844        483506169.62029171     
   2797570501.8029022        298416.95492970943        662959484.02900720     
   2663676817.3901892        3712358.0673760176        652615020.86355782     
   2530147067.6769218        8339414.8446234465        645183856.79079127     
   2396981252.6631126        14179587.286756873        640665991.81071460     
   2264179372.3487549        21232875.393707395        639061425.92332709     
   3050782532.8581462       -8101571.2016242743        17023320.222172480     
   2885103694.2376928       -9653228.8261754513        11246205.800475605     
   2720099515.8052464       -8956019.1573462486        6501826.7355003543     
   2555769997.5608449       -6009942.1950423717        2790183.0272134212     
   2392115139.5044546       -814997.93937671185        111274.67564298908     
   2863216735.2534332        1957538.2039824724        172487116.76971507     
   2701096573.3718228        1092769.4940310717        165457089.27693847     
   2539347788.6704702        1465924.7182649374        159973257.24627984     
   2377970381.1493349        3077003.8765720129        156035620.67773280     
   2216964350.8084693        5926006.9690901041        153644179.57131144     
   2669594275.9669724        10199649.105098128        327981399.90242296     
   2512499819.6968102        10461877.971521020        319344629.16281742     
   2355473457.5991182        10951087.412850380        312767513.99073255     
   2198515189.6738911        11667277.429059625        308250054.38618231     
   2041625015.9211261        12610448.020135999        305792250.34915340     
   2469915154.9987364        16624761.501657844        483506169.62029171     
   2319313433.2126398        18454096.606263757        472908825.45810604     
   2168476522.5912247        19499468.926486611        464884596.96886766     
   2017404423.1344922        19760878.462320685        459433484.15256667     
   1866097134.8424516        19238325.213776231        456555487.00919539     
   2264179372.3487549        21232875.393707395        639061425.92332709     
   2121537413.9193158        25069425.398250580        626149678.16282606     
   1978356983.6467824        27111069.259158134        616324506.18067443     
   1834638081.5311520        27357806.976402521        609585909.97687602     
   1690380707.5724399        25809638.550041616        605933889.55143201     
   2392115139.5044546       -814997.93937671185        111274.67564298908     
   2249553862.2801738        6797188.8230900764       -6549664.2126106918     
   2103739354.4879680        3565273.6924748421       -11121427.667449579     
   1954671616.1278481       -10510743.331176877       -13604015.688887762     
   1802350647.1998160       -35430862.247891784       -13997428.276903465     
   2216964350.8084693        5926006.9690901041        153644179.57131144     
   2078547574.7722511        12866822.812557817        143352546.07191676     
   1937989115.9247880        12668695.951876402        134314746.72661164     
   1795288974.2660742        5331626.3870149851        126530781.53541599     
   1650447149.7960975       -9144385.8820559978        120000650.49832658     
   2041625015.9211261        12610448.020135999        305792250.34915340     
   1904966051.7035470        18163886.133851051        293166727.95471597     
   1767276952.4313672        20283540.732247472        280959698.43507308     
   1628557718.1045952        18969411.815322340        269171161.79022151     
   1488808348.7232139        14221499.383043647        257801118.02014518     
   1866097134.8424516        19238325.213776231        456555487.00919539     
   1728809293.0740440        22688378.786901355        442892881.43582004     
   1591602864.0076880        26409808.033533514        428813427.45793205     
   1454477847.6433899        30402612.953691661        414317125.07550716     
   1317434243.9811492        34666793.547382176        399403974.28857440     
   1690380707.5724399        25809638.550041616        605933889.55143201     
   1550077298.8837376        26440300.771683931        592531006.51522207     
   1410966850.6537411        31047497.855705857        577875933.79517353     
   1273049362.8824766        39631229.802160263        561968671.39129984     
   1136324835.5699294        52191496.610994339        544809219.30359912     
   1802350647.1998160       -35430862.247891784       -13997428.276903465     
   1771451688.6895819       -16636859.853116035       -8345772.2196371537     
   1748610917.7931025        29017767.920841336       -41493940.916485891     
   1733828334.5103636        101533021.07392865       -113441934.36745223     
   1727103938.8413739        200908899.60619098       -224189752.57250801     
   1650447149.7960975       -9144385.8820559978        120000650.49832658     
   1527768152.6048524       -13904734.290249348        135592038.76205659     
   1409252914.4956336       -4785885.7583546638        124818841.44133973     
   1294901435.4683886        18212159.713452458        87681058.536167711     
   1184713715.5231743        55089402.125362337        24178690.046557840     
   1488808348.7232139        14221499.383043647        257801118.02014518     
   1309878567.6214266       -3434423.3969248533        278788738.53664970     
   1131218117.0698974       -20192577.676029027        285847012.63835698     
   952826997.06862676       -36052963.454279304        278975940.32527769     
   774705207.61759949       -51015580.731712252        258175521.59741849     
   1317434243.9811492        34666793.547382176        399403974.28857440     
   1117782933.7392652        14774072.826739013        421244327.10414153     
   914506525.51588655       -17202307.832213342        441590572.67457598     
   707605019.31101453       -61262348.429459691        460442710.99988317     
   497078415.12466252       -117406048.96499214        477800742.08005500     
   1136324835.5699294        52191496.610994339        544809219.30359912     
   951481250.95838070        40720754.380779266        562958804.46453917     
   759118139.83361053        4184923.7731427550        592049521.54999471     
   559235502.19560492       -57415995.211931050        632081370.55998242     
   351833338.04436618       -144082002.57445985        683054351.49450362     
   1727103938.8413739        200908899.60619098       -224189752.57250801     
   1456611094.1165595        184586617.81472164       -96632288.849794418     
   1153949539.3997643        61035302.716682136        60099385.485468112     
   819119274.69105613       -169745045.68776625        246005270.43326807     
   452120299.99031597       -507754427.39895487        461085365.99365544     
   1184713715.5231743        55089402.125362337        24178690.046557840     
   977657319.63721788        11857909.140727460        155571249.25128251     
   732779055.25324821       -157446478.83726206        312796684.14869219     
   450078922.37126446       -452823761.80859339        495854994.73876899     
   129556920.99131966       -874273939.77325070        704746181.02155638     
   774705207.61759949       -51015580.731712252        258175521.59741849     
   621538589.37087834       -124020286.26940590        386807824.69375741     
   424896944.12011015       -341941748.48724782        537931668.56293476     
   184780271.86533099       -704779967.38515699        711547053.20492196     
  -98811427.393526495       -1212534942.9632747        907653978.61971748     
   497078415.12466252       -117406048.96499214        477800742.08005500     
   388254903.31756520       -223047968.41562474        597077437.47766292     
   230303206.00039402       -492450506.23317963        735504338.72822511     
   23223323.173145056       -925613662.41766286        893081445.83171999     
  -232984745.16418952       -1522537436.9690838        1069808758.7882051     
   351833338.04436618       -144082002.57445985        683054351.49450362     
   277806261.47728819       -285225137.29790610        786380087.60298061     
   148997840.89406946       -608972752.07513213        905514694.64454186     
  -34591923.705227256       -1115324846.9059739        1040458172.6192098     
  -272963032.32066566       -1804281421.7906103        1191210521.5269530     
   4574446562.5464926        14232788.249730349        726142079.02709699     
   4401890571.0910730        9276522.4194614887        704311620.31763506     
   4228844110.2814293        2685358.7417604923        690408968.05220699     
   4055307180.1175547       -5540702.7833709717        684434122.23080873     
   3881279780.5994458       -15401662.155943394        686387082.85343587     
   4167809103.1158490        8539803.0451889038        819620868.08907580     
   4014195905.8594074        2872371.2609441280        803389375.78531849     
   3860438640.7446489       -3275286.7177031040        793965572.41074049     
   3706537307.7715669       -9903170.8907558918        791349457.96533680     
   3552491906.9401650       -17011281.258210421        795541032.44911373     
   3779826420.4579229        8443250.8724625111        910438357.22190595     
   3641955681.6437383        1104552.4072260857        900209966.40241158     
   3504287276.4671378       -5559700.5993866920        895669146.99724460     
   3366821204.9281321       -11549508.147365332        896815899.00639915     
   3229557467.0267115       -16864870.236717343        903650222.42987752     
   3410498514.5727234        13943131.731553078        998594546.42557788     
   3285169898.4440608        3973065.8583009243        994773392.16891527     
   3160390017.4489026       -4167882.9032884836        995519691.81171751     
   3036158871.5872388       -10479714.553218722        1000833445.3539923     
   2912476460.8590722       -14962429.091490984        1010714652.7957358     
   3059825385.4602404        25039445.622460604        1084089435.7001004     
   2943838556.2603855        11477911.614184856        1087079653.0848215     
   2828746863.6899366        900166.37059462070        1093517206.8541577     
   2714550307.7488976       -6693790.1082979441        1103402097.0081115     
   2601248888.4372635       -11303957.822505355        1116734323.5466800     
   3881279780.5994458       -15401662.155943394        686387082.85343587     
   3763798599.5179644       -8882246.6006362438        677529755.53074610     
   3646423168.7117186       -2010330.1278676987        672720543.43190432     
   3529153488.1807275        5214087.2624120712        671959446.55691063     
   3411989557.9249730        12791005.570158482        675246464.90576243     
   3552491906.9401650       -17011281.258210421        795541032.44911373     
   3445261974.9611077       -10186449.158136845        788694605.86235440     
   3338102463.6833196       -3126881.3871593475        785615159.54328501     
   3231013373.1068048        4167422.0547279119        786302693.49190283     
   3123994703.2315655        11696461.167528510        790757207.70821095     
   3229557467.0267115       -16864870.236717343        903650222.42987752     
   3131775541.4181981       -9975594.4114441872        898773478.74274802     
   3034028706.9369855       -2969348.1618410349        897382580.36714983     
   2936316963.5830765        4153868.5121088028        899477527.30308294     
   2838640311.3564692        11394055.610398412        905058319.55054677     
   2912476460.8590722       -14962429.091490984        1010714652.7957358     
   2823339298.8892322       -8249682.3605731726        1007766374.1719346     
   2734201898.4727201       -1537730.4518923759        1008022805.9035047     
   2645064259.6095381        5173426.6345508099        1011483947.9904504     
   2555926382.2996836        11883788.898756623        1018149800.4327694     
   2601248888.4372635       -11303957.822505355        1116734323.5466800     
   2519953247.3742118       -5008713.0055150986        1115673292.1499064     
   2438622038.2905173        1167971.7426642179        1117535836.1523461     
   2357255261.1861815        7226096.4220371246        1122321955.5540040     
   2275852916.0612030        13165661.032606244        1130031650.3548803     
   3411989557.9249730        12791005.570158482        675246464.90576243     
   3258367041.9499307        9608685.2679352760        665151316.77673912     
   3104756360.6045723        6465813.7313203812        659738437.25427365     
   2951157513.8888984        3362390.9603281021        659007826.33836341     
   2797570501.8029022        298416.95492970943        662959484.02900720     
   3123994703.2315655        11696461.167528510        790757207.70821095     
   2982597828.8946052        9150559.3382819891        781590253.32470822     
   2841287800.0518365        6894142.4896759987        776998504.25478590     
   2700064616.7032528        4927210.6216987371        776981960.49845815     
   2558928278.8488684        3249763.7343602180        781540622.05571747     
   2838640311.3564692        11394055.610398412        905058319.55054677     
   2709163183.5348182        9392803.7172867060        896907071.58782351     
   2579847912.0718603        7931073.0198335648        893223965.64571464     
   2450694496.9676132        7008863.5180679560        894009001.72422600     
   2321702938.2220612        6626175.2119685411        899262179.82335222     
   2555926382.2996836        11883788.898756623        1018149800.4327694     
   2438063105.8705697        10335418.404951811        1011101771.5660859     
   2320436696.6646652        9576605.3218334913        1008414821.4270505     
   2203047154.6819720        9607349.6494350433        1010088950.0156602     
   2085894479.9224944        10427651.387737513        1016124157.3319277     
   2275852916.0612030        13165661.032606244        1130031650.3548803     
   2169297595.9018626        11978403.401275396        1124174353.2594981     
   2063054153.8302395        11830739.395671844        1122571071.5987883     
   1957122589.8463416        12722669.015819788        1125221805.3727648     
   1851502903.9501619        14654192.261689901        1132126554.5814235     
   2797570501.8029022        298416.95492970943        662959484.02900720     
   2663676817.3901892        3712358.0673760176        652615020.86355782     
   2530147067.6769218        8339414.8446234465        645183856.79079127     
   2396981252.6631126        14179587.286756873        640665991.81071460     
   2264179372.3487549        21232875.393707395        639061425.92332709     
   2558928278.8488684        3249763.7343602180        781540622.05571747     
   2433037080.4408445        6732018.6396660805        772235846.99166715     
   2307445515.6322880        11213052.209864259        766157766.57864714     
   2182153584.4232054        16692864.444964886        763306380.81664968     
   2057161286.8135853        23171455.344964027        763681689.70568895     
   2321702938.2220612        6626175.2119685411        899262179.82335222     
   2204709641.6996999        10445368.674420953        890922074.91073549     
   2087951677.6768270        15049003.801844597        886122060.20748472     
   1971429046.1534398        20437080.594218850        884862135.71360183     
   1855141747.1295483        26609599.051573634        887142301.42908394     
   2085894479.9224944        10427651.387737513        1016124157.3319277     
   1978694501.1667633        14852408.171632528        1008673704.6207570     
   1871665553.8105381        19847269.620557666        1005076737.6772985     
   1764807637.8538251        25412235.734513164        1005333256.5015438     
   1658120753.2966225        31547306.513513386        1009443261.0934994     
   1851502903.9501619        14654192.261689901        1132126554.5814235     
   1754991658.8420310        19953137.131318808        1125490736.1217327     
   1658587144.0334311        25607849.666043699        1123021798.9880865     
   1562289359.5243561        31618329.865853131        1124719743.1804938     
   1466098305.3148174        37984577.730789304        1130584568.6989403     
   2264179372.3487549        21232875.393707395        639061425.92332709     
   2121537413.9193158        25069425.398250580        626149678.16282606     
   1978356983.6467824        27111069.259158134        616324506.18067443     
   1834638081.5311520        27357806.976402521        609585909.97687602     
   1690380707.5724399        25809638.550041616        605933889.55143201     
   2057161286.8135853        23171455.344964027        763681689.70568895     
   1922689920.0055721        26716759.103373647        752085654.33985126     
   1787859864.8406742        29066435.005518675        743755324.34585917     
   1652671121.3188961        30220483.051382959        738690699.72371280     
   1517123689.4402359        30178903.240978181        736891780.47343051     
   1855141747.1295483        26609599.051573634        887142301.42908394     
   1729352770.7815216        30017196.215402961        877071725.85847819     
   1603384889.5628307        32828443.810338676        870445985.25322628     
   1477238103.4734745        35043341.836393535        867265079.61332619     
   1350912412.5134487        36661890.293553054        867529008.93877530     
   1658120753.2966225        31547306.513513386        1009443261.0934994     
   1541525966.2471666        34970736.734338522        1001107892.7187203     
   1424932057.8132513        38397095.673647821        996396488.90278959     
   1308339027.9948857        41826383.331450701        995309049.64571249     
   1191746876.7920661        45258599.707736075        997845574.94749439     
   1466098305.3148174        37984577.730789304        1130584568.6989403     
   1359209506.4025035        41577380.660184860        1124194154.9205668     
   1252501369.5919421        45772390.595439732        1121606835.2945423     
   1145973894.8831458        50569607.536569655        1122822609.8208709     
   1039627082.2761061        55969031.483565748        1127841478.4995565     
   1690380707.5724399        25809638.550041616        605933889.55143201     
   1550077298.8837376        26440300.771683931        592531006.51522207     
   1410966850.6537411        31047497.855705857        577875933.79517353     
   1273049362.8824766        39631229.802160263        561968671.39129984     
   1136324835.5699294        52191496.610994339        544809219.30359912     
   1517123689.4402359        30178903.240978181        736891780.47343051     
   1375079116.9705050        28113587.485478818        727724931.11268365     
   1233344050.1536164        27079957.239444435        719093063.44508862     
   1091918488.9895728        27078012.502913058        710996177.47064352     
   950802433.47838569        28107753.275873482        703434273.18935430     
   1350912412.5134487        36661890.293553054        867529008.93877530     
   1212232880.1969249        33432457.741162717        861567495.97998106     
   1072979398.7273723        28289861.345347226        857928136.09131753     
   933151968.10479689        21234101.106117606        856610929.27278721     
   792750588.32919168        12265177.023460865        857615875.52439785     
   1191746876.7920661        45258599.707736075        997845574.94749439     
   1061538588.5629859        42396911.538732290        994058701.11712289     
   929872896.37501216        34677210.173411906        994381151.73387134     
   796749800.22813427        22099495.611749470        998812926.79772913     
   662169300.12235594        4663767.8537474871        1007354026.3087150     
   1039627082.2761061        55969031.483565748        1127841478.4995565     
   922996242.06870604        55006948.878212899        1125198546.5241003     
   804024543.09653521        46242003.723641485        1128452110.3727429     
   682711985.35958779        29674196.019811183        1137602170.0454845     
   559058568.85787547        5303525.7667540610        1152648725.5423200     
   1136324835.5699294        52191496.610994339        544809219.30359912     
   951481250.95838070        40720754.380779266        562958804.46453917     
   759118139.83361053        4184923.7731427550        592049521.54999471     
   559235502.19560492       -57415995.211931050        632081370.55998242     
   351833338.04436618       -144082002.57445985        683054351.49450362     
   950802433.47838569        28107753.275873482        703434273.18935430     
   791635864.00477815        11091979.249584913        721348241.33547115     
   623832078.58567357       -34714514.595021635        749352250.38532889     
   447391077.22106266       -109311728.25798097        787446300.33894730     
   262312859.91095957       -212699661.73925602        835630391.19631040     
   792750588.32919168        12265177.023460865        857615875.52439785     
   656829345.36273336       -11025135.388152152        873990255.65137219     
   511153197.01851219       -66831799.058973342        899603585.66132748     
   355722143.29652339       -155154813.98901671        934455865.55425489     
   190536184.19676995       -275994180.17828369        978547095.33016455     
   662169300.12235594        4663767.8537474871        1007354026.3087150     
   547061695.03225911       -25630589.532419682        1020884847.4122505     
   421081495.13213408       -92166929.618680060        1042803527.3779827     
   284228700.42197216       -194945252.40506926        1073110066.2059139     
   136503310.90177637       -333965557.89156097        1111804463.8960516     
   559058568.85787547        5303525.7667540610        1152648725.5423200     
   462332913.01335388       -32724383.183203131        1162032016.6181009     
   353616972.92653638       -110719906.27415769        1178952075.5353038     
   232910748.59742278       -228683043.50609928        1203408902.2939320     
   100214240.02600607       -386613794.87905121        1235402496.8939857     
   351833338.04436618       -144082002.57445985        683054351.49450362     
   277806261.47728819       -285225137.29790610        786380087.60298061     
   148997840.89406946       -608972752.07513213        905514694.64454186     
  -34591923.705227256       -1115324846.9059739        1040458172.6192098     
  -272963032.32066566       -1804281421.7906103        1191210521.5269530     
   262312859.91095957       -212699661.73925602        835630391.19631040     
   223605139.66261476       -352363223.19933701        885012758.88584387     
   140664232.87799653       -639470739.78030729        945413551.28821003     
   13490139.557126284       -1074022211.4821107        1016832768.4034511     
  -157917140.30000710       -1656017638.3048158        1099270410.2315197     
   190536184.19676995       -275994180.17828369        978547095.33016455     
   173460831.06646618       -418284265.13520384        986292278.32723939     
   122700448.87976736       -672857780.28012991        1000265439.8169315     
   38255037.636650085       -1039714725.6130898        1020466579.7992275     
  -79875402.662860990       -1518855101.1340621        1046895698.2741392     
   136503310.90177637       -333965557.89156097        1111804463.8960516     
   127373335.68884999       -482988263.10550767        1090218645.9271829     
   95106488.899364650       -709133873.57461762        1070070360.2306693     
   39702770.533329070       -1012402389.2989255        1051359606.8065395     
  -38837819.409254432       -1392793810.2783766        1034086385.6547736     
   100214240.02600607       -386613794.87905121        1235402496.8939857     
   85342653.529749215       -546475217.11027014        1196791861.6856515     
   57882352.936812878       -748299019.66374850        1154828312.5294464     
   17833338.247170091       -992085202.53959525        1109511849.4253812     
  -34804390.539171100       -1277833765.7377481        1060842472.3734492     
   3059825385.4602404        25039445.622460604        1084089435.7001004     
   2943838556.2603855        11477911.614184856        1087079653.0848215     
   2828746863.6899366        900166.37059462070        1093517206.8541577     
   2714550307.7488976       -6693790.1082979441        1103402097.0081115     
   2601248888.4372635       -11303957.822505355        1116734323.5466800     
   2707569477.5763235        32196276.746782780        1189335899.1800342     
   2601901288.0285759        19195722.896576643        1186899685.1490393     
   2496974262.1111245        8665714.4806712866        1188824092.8908813     
   2392788399.8239608        606251.49905788898        1195109122.4055572     
   2289343701.1670818       -4982666.0482645035        1205754773.6930718     
   2335777619.4219790        33492322.789974809        1293697329.5744963     
   2243037456.3498392        21835565.144892931        1285655048.9621403     
   2150884483.9088659        12136109.603710294        1282886675.5108504     
   2059318702.0990624        4393956.1664265394        1285392209.2206151     
   1968340110.9204302       -1390895.1669583321        1293171650.0914345     
   1944449810.9972115        28927583.752039313        1397173726.8834820     
   1867247061.2241573        19397438.359126925        1383345744.5241368     
   1790477529.0831537        11311351.739713430        1375704954.7140710     
   1714141214.5742013        4669323.8938056231        1374251357.4532812     
   1638238117.6973019       -528645.17859327793        1378984952.7417765     
   1533586052.3020182        18502059.632979453        1499765091.1069958     
   1474530102.6515388        11881342.539276600        1479971771.8350186     
   1415753397.6339936        6191440.8886829615        1467278930.5005414     
   1357255937.2493801        1432354.6811994910        1461686567.1035633     
   1299037721.4976993       -2395916.0831772685        1463194681.6440861     
   2601248888.4372635       -11303957.822505355        1116734323.5466800     
   2519953247.3742118       -5008713.0055150986        1115673292.1499064     
   2438622038.2905173        1167971.7426642179        1117535836.1523461     
   2357255261.1861815        7226096.4220371246        1122321955.5540040     
   2275852916.0612030        13165661.032606244        1130031650.3548803     
   2289343701.1670818       -4982666.0482645035        1205754773.6930718     
   2215829121.7274022       -440203.46872937679        1201770801.8754663     
   2142333166.1486616        4164338.6472619772        1201253174.8852608     
   2068855834.4308553        8830960.2997101545        1204201892.7224615     
   1995397126.5739906        13559661.488623381        1210616955.3870692     
   1968340110.9204302       -1390895.1669583321        1293171650.0914345     
   1904157362.8989427        1864016.1135545969        1286327961.7148380     
   1840047430.6199777        5361646.5358084440        1283493387.5938334     
   1776010314.0835278        9101996.0997763872        1284667927.7284241     
   1712046013.2895966        13085064.805477738        1289851582.1186066     
   1638238117.6973019       -528645.17859327793        1378984952.7417765     
   1584937970.8888328        1903945.7413501143        1369344771.6680319     
   1531764831.7044687        4759895.4083070755        1364256474.2780695     
   1478718700.1441975        8039203.8222449422        1363720060.5718920     
   1425799576.2080288        11741870.983185828        1367735530.5494936     
   1299037721.4976993       -2395916.0831772685        1463194681.6440861     
   1258170945.6970720       -320414.58535462618        1450821231.7350402     
   1217485369.4021347        2359085.2647640705        1443542434.9379656     
   1176980992.6128633        5642583.4671030641        1441358291.2528608     
   1136657815.3292794        9530080.0217326880        1444268800.6797297     
   2275852916.0612030        13165661.032606244        1130031650.3548803     
   2169297595.9018626        11978403.401275396        1124174353.2594981     
   2063054153.8302395        11830739.395671844        1122571071.5987883     
   1957122589.8463416        12722669.015819788        1125221805.3727648     
   1851502903.9501619        14654192.261689901        1132126554.5814235     
   1995397126.5739906        13559661.488623381        1210616955.3870692     
   1900282268.5744903        12238236.803512454        1204250818.1262136     
   1805443326.8253355        11836532.952885628        1202461982.5660403     
   1710880301.3265219        12354549.936732173        1205250448.7065535     
   1616593192.0780542        13792287.755061507        1212616216.5477529     
   1712046013.2895966        13085064.805477738        1289851582.1186066     
   1629295292.4956708        11906575.580323696        1282934649.2153370     
   1546784526.1147106        11527934.398389280        1280918304.2787571     
   1464513714.1467144        11949141.259664953        1283802547.3088648     
   1382482856.5916803        13170196.164153278        1291587378.3056643     
   1425799576.2080288        11741870.983185828        1367735530.5494936     
   1356336667.6654031        10983419.731699586        1360225846.5268660     
   1287077751.6983657        10904943.732177138        1357940036.7369344     
   1218022828.3069112        11506442.984600723        1360878101.1796963     
   1149171897.4910426        12787917.488969207        1369040039.8551517     
   1136657815.3292794        9530080.0217326880        1444268800.6797297     
   1081406394.0836794        9468769.2576321363        1436124410.0608029     
   1026323003.5762953        9967560.9542424083        1433527179.9405763     
   971407643.80711055        11026455.111520946        1436477110.3190510     
   916660314.77613664        12645451.729501426        1444974201.1962230     
   1851502903.9501619        14654192.261689901        1132126554.5814235     
   1754991658.8420310        19953137.131318808        1125490736.1217327     
   1658587144.0334311        25607849.666043699        1123021798.9880865     
   1562289359.5243561        31618329.865853131        1124719743.1804938     
   1466098305.3148174        37984577.730789304        1130584568.6989403     
   1616593192.0780542        13792287.755061507        1212616216.5477529     
   1530912895.6797161        18407635.053998470        1206468296.5410619     
   1445349363.6632795        23412196.959277987        1204642747.5013967     
   1359902596.0287461        28805973.470895529        1207139569.4287550     
   1274572592.7761099        34588964.588844299        1213958762.3231504     
   1382482856.5916803        13170196.164153278        1291587378.3056643     
   1308077765.0202210        17235222.727530718        1285939063.1814034     
   1233799471.9130311        21722910.838475585        1284768608.6651492     
   1159647977.2701151        26633260.497004688        1288076014.7569070     
   1085623281.0914783        31966271.703118861        1295861281.4566667     
   1149171897.4910426        12787917.488969207        1369040039.8551517     
   1086486266.8635449        16435900.151905179        1363903036.0427616     
   1023937468.7826883        20539991.303655386        1363399382.4793541     
   961525503.24848092        25100190.944233000        1367529079.1649363     
   899250370.26091635        30116499.073615938        1376292126.0995030     
   916660314.77613664        12645451.729501426        1444974201.1962230     
   866138401.20968735        16009667.327135384        1440360215.1251309     
   815763354.27224743        19863438.354796559        1440535068.9440017     
   765535173.96383226        24206764.812538058        1445498762.6528447     
   715453860.28443336        29039646.700336665        1455251296.2516549     
   1466098305.3148174        37984577.730789304        1130584568.6989403     
   1359209506.4025035        41577380.660184860        1124194154.9205668     
   1252501369.5919421        45772390.595439732        1121606835.2945423     
   1145973894.8831458        50569607.536569655        1122822609.8208709     
   1039627082.2761061        55969031.483565748        1127841478.4995565     
   1274572592.7761099        34588964.588844299        1213958762.3231504     
   1177909820.1666021        37225968.587604702        1208845272.0804422     
   1081297652.6397326        40031656.195155203        1208015430.7484627     
   984736090.19549239        43006027.411473811        1211469238.3272023     
   888225132.83387959        46149082.236541957        1219206694.8166699     
   1085623281.0914783        31966271.703118861        1295861281.4566667     
   1000559548.3801274        34059380.849874079        1291872981.5606499     
   915416363.73227715        35887650.208296120        1292648885.3337247     
   830193727.14792967        37451079.778398424        1298188992.7758880     
   744891638.62708068        38749669.560156494        1308493303.8871439     
   899250370.26091635        30116499.073615938        1376292126.0995030     
   827158691.04306090        32077617.446955025        1373277283.3611872     
   754857502.86957777        33340372.634870887        1375507199.0503299     
   682346805.74046111        33904764.637344658        1382981873.1669397     
   609626599.65571880        33770793.454390436        1395701305.7110062     
   715453860.28443336        29039646.700336665        1455251296.2516549     
   657707248.15540934        31280678.378860563        1453058177.4820557     
   599621070.05162895        32389823.474857479        1456590371.8982873     
   541195325.97309804        32367081.988355845        1465847879.5003431     
   482430015.91979367        31212453.919275433        1480830700.2882347     
   1039627082.2761061        55969031.483565748        1127841478.4995565     
   922996242.06870604        55006948.878212899        1125198546.5241003     
   804024543.09653521        46242003.723641485        1128452110.3727429     
   682711985.35958779        29674196.019811183        1137602170.0454845     
   559058568.85787547        5303525.7667540610        1152648725.5423200     
   888225132.83387959        46149082.236541957        1219206694.8166699     
   786619695.23232949        44350837.694591999        1216659011.8840845     
   682713352.35361755        34882908.895429850        1219965795.5788150     
   576506104.19774187        17745295.839056283        1229127045.9008594     
   467997950.76469249       -7062001.4745653868        1244142762.8502157     
   744891638.62708068        38749669.560156494        1308493303.8871439     
   658191520.21199250        36079238.055779487        1306087482.3996494     
   569230450.00734186        25872300.586210757        1309494098.3426766     
   478008428.01313376        8128857.1514393985        1318713151.7162287     
   384525454.22936481       -17151092.248528168        1333744642.5203021     
   609626599.65571880        33770793.454390436        1395701305.7110062     
   537711717.00769389        30192149.961780190        1393483958.0707998     
   463575836.05772012        19210178.796007916        1397037018.6643307     
   387218956.80577946        824879.95701196790        1406360487.4915874     
   308641079.25189161       -24963746.555141330        1421454364.5525889     
   482430015.91979367        31212453.919275433        1480830700.2882347     
   425180285.61943114        26689573.412585020        1478848438.8975236     
   365749510.50473022        14896543.524761304        1482594556.5437648     
   304137690.57567519       -4166635.7442387491        1492069053.2269464     
   240344825.83227772       -30499964.394383356        1507271928.9470840     
   559058568.85787547        5303525.7667540610        1152648725.5423200     
   462332913.01335388       -32724383.183203131        1162032016.6181009     
   353616972.92653638       -110719906.27415769        1178952075.5353038     
   232910748.59742278       -228683043.50609928        1203408902.2939320     
   100214240.02600607       -386613794.87905121        1235402496.8939857     
   467997950.76469249       -7062001.4745653868        1244142762.8502157     
   390397039.49404579       -41472995.797542602        1242671375.7184908     
   302651405.15455580       -109699733.68332291        1247539890.1190178     
   204761047.74624628       -211742215.13183910        1258748306.0517871     
   96725967.269102603       -347600440.14313555        1276296623.5168226     
   384525454.22936481       -17151092.248528168        1333744642.5203021     
   322629669.50636679       -48971057.352406710        1323571731.8834605     
   252434722.88800114       -108454895.44084115        1318541856.4696929     
   173940614.37427506       -195602606.51381749        1318655016.2789938     
   87147343.965181187       -310414190.57134187        1323911211.3113749     
   308641079.25189161       -24963746.555141330        1421454364.5525889     
   259030803.05033326       -55218567.847763821        1404733085.1130140     
   202966926.12687168       -106985391.54672144        1391957974.5873220     
   140449448.48150533       -180264217.65202871        1383129032.9755325     
   71478370.114242747       -275055046.16366500        1378246260.2776377     
   240344825.83227772       -30499964.394383356        1507271928.9470840     
   199600440.12592858       -60215527.283652276        1486155435.4071319     
   154248014.87114966       -105291222.00101781        1467788244.4719074     
   104287550.06793922       -165727048.54648840        1452170356.1413960     
   49719045.716300532       -241523006.92005596        1439301770.4156165     
   100214240.02600607       -386613794.87905121        1235402496.8939857     
   85342653.529749215       -546475217.11027014        1196791861.6856515     
   57882352.936812878       -748299019.66374850        1154828312.5294464     
   17833338.247170091       -992085202.53959525        1109511849.4253812     
  -34804390.539171100       -1277833765.7377481        1060842472.3734492     
   96725967.269102603       -347600440.14313555        1276296623.5168226     
   79790856.844761223       -488777988.60369992        1221974694.8533762     
   51473448.962806761       -667896528.58963013        1165106690.8614209     
   11773743.623254418       -884956060.10089898        1105692611.5409682     
  -39308259.173919380       -1139956583.1375587        1043732456.8920180     
   87147343.965181187       -310414190.57134187        1323911211.3113749     
   70453962.810931623       -432216289.30181533        1255285475.2717419     
   43584700.838163078       -587937990.76068401        1184920502.5229762     
   6539558.0468722880       -777579294.94795942        1112816293.0650761     
  -40681465.562936604       -1001140201.8636369        1038972846.8980299     
   71478370.114242747       -275055046.16366500        1378246260.2776377     
   57331971.428270593       -376790119.20458359        1296724202.9407694     
   34216108.562863380       -508423406.17695749        1214269747.5141098     
   2130781.5180274248       -669954907.08075678        1130882893.9976809     
  -38924009.706243187       -861384621.91600168        1046563642.3914919     
   49719045.716300532       -241523006.92005596        1439301770.4156165     
   40424882.696789354       -322499478.31197786        1346290877.8604283     
   23367672.136926651       -429352774.83839381        1253154425.8348258     
  -1452585.9632714093       -562082896.49927342        1159892414.3388238     
  -34035891.603824735       -720689843.29466224        1066504843.3724033     
   1533586052.3020182        18502059.632979453        1499765091.1069958     
   1474530102.6515388        11881342.539276600        1479971771.8350186     
   1415753397.6339936        6191440.8886829615        1467278930.5005414     
   1357255937.2493801        1432354.6811994910        1461686567.1035633     
   1299037721.4976993       -2395916.0831772685        1463194681.6440861     
   1121659786.8175111        5317620.8073489070        1489529710.3215444     
   1080824260.3446279        1389012.9369336367        1476275144.7703724     
   1040198167.4209557       -1841483.1027736664        1469314555.4437115     
   999781508.04649508       -4373867.3117819428        1468647942.3415542     
   959574282.22124577       -6208139.6900849938        1474275305.4639068     
   728753356.48839033       -2160867.4716691673        1478268122.7721126     
   703833962.58455431       -4088653.3013588190        1471470864.6774068     
   679054191.14620781       -5551030.9127504528        1470161081.0942166     
   654414042.17335105       -6548000.3058430851        1474338772.0225401     
   629913515.66598356       -7079561.4806370735        1484003937.4623823     
   354866761.31465578       -3933405.2040704042        1465980328.4587021     
   343559209.37131977       -4551656.1756000370        1465558931.5561154     
   332321468.80975008       -4937202.5412366092        1469818507.4520562     
   321153539.62994725       -5090044.3009861559        1478759056.1465204     
   310055421.83191597       -5010181.4548299462        1492380577.6395080     
   1.2963108608521590        7.6101468533467180        1452666327.3813090     
  0.70492375672956264        4.3142119455640415        1458539345.4065082     
  0.41158386223015342        2.0117663487465416        1468286834.5172372     
  0.41628820354225848       0.70280292574620307        1481908794.7134993     
  0.71904144726265684       0.38733515021745230        1499405225.9952910     
   1299037721.4976993       -2395916.0831772685        1463194681.6440861     
   1258170945.6970720       -320414.58535462618        1450821231.7350402     
   1217485369.4021347        2359085.2647640705        1443542434.9379656     
   1176980992.6128633        5642583.4671030641        1441358291.2528608     
   1136657815.3292794        9530080.0217326880        1444268800.6797297     
   959574282.22124577       -6208139.6900849938        1474275305.4639068     
   931292668.65885413       -3940973.0716150999        1465241444.1981039     
   903146954.72390676       -1220807.6950008869        1460749593.4372878     
   875137140.41640055        1952356.4397512078        1460799753.1814551     
   847263225.73633218        5578519.3326298594        1465391923.4306042     
   629913515.66598356       -7079561.4806370735        1484003937.4623823     
   612638085.46472216       -5094423.4046573341        1478256814.9818795     
   595453255.01266706       -2807286.1646556556        1476499060.3993750     
   578359024.30981064       -218149.76065859199        1478730673.7148690     
   561355393.35615885        2672985.8073542118        1484951654.9283569     
   310055421.83191597       -5010181.4548299462        1492380577.6395080     
   302207196.11467898       -3780765.5844708234        1489867344.0863626     
   294404270.26840717       -2400350.1442282945        1490790835.8242266     
   286646644.29310304       -868935.13409379125        1495151052.8531013     
   278934318.18876159        813479.44591720402        1502947995.1729891     
  0.71904144726265684       0.38733515021745230        1499405225.9952910     
  0.60872497518817315       0.38894244967581570        1500073031.5115542     
  0.49113696168609222       0.36631093076415960        1503624919.7118433     
  0.36627539371466600       0.31943457723271462        1510060890.5961559     
  0.23413816673024901       0.24830568004660505        1519380944.1644914     
   1136657815.3292794        9530080.0217326880        1444268800.6797297     
   1081406394.0836794        9468769.2576321363        1436124410.0608029     
   1026323003.5762953        9967560.9542424083        1433527179.9405763     
   971407643.80711055        11026455.111520946        1436477110.3190510     
   916660314.77613664        12645451.729501426        1444974201.1962230     
   847263225.73633218        5578519.3326298594        1465391923.4306042     
   806331000.69871473        5684438.5191442072        1458580356.1098990     
   765524798.71556664        6210434.5538932681        1457197803.0772574     
   724844619.78688681        7156507.4368663132        1461244264.3326840     
   684290463.91268003        8522657.1680860519        1470719739.8761773     
   561355393.35615885        2672985.8073542118        1484951654.9283569     
   534404803.92471284        2844866.7639284730        1479423901.9415085     
   507538229.86400217        3296798.9562891126        1479207017.0320911     
   480755671.17402101        4028782.3844155073        1484301000.2001104     
   454057127.85477912        5040817.0483357608        1494705851.4455683     
   278934318.18876159        813479.44591720402        1502947995.1729891     
   265627803.76168019        950053.99200351536        1498655047.5556347     
   252363297.02160245        1226654.1614381820        1499554821.8050876     
   239140797.96851549        1643279.9541745782        1505647317.9213421     
   225960306.60242894        2199931.3702448457        1516932535.9044006     
  0.23413816673024901       0.24830568004660505        1519380944.1644914     
  0.20962178879149415       0.20338415018073719        1516273792.9522765     
  0.18836576071828309       0.16933114708940566        1518241217.3962364     
  0.17036875573310012       0.14614086040211072        1525283217.4963672     
  0.15563676721024031       0.13383465581194987        1537399793.2526677     
   916660314.77613664        12645451.729501426        1444974201.1962230     
   866138401.20968735        16009667.327135384        1440360215.1251309     
   815763354.27224743        19863438.354796559        1440535068.9440017     
   765535173.96383226        24206764.812538058        1445498762.6528447     
   715453860.28443336        29039646.700336665        1455251296.2516549     
   684290463.91268003        8522657.1680860519        1470719739.8761773     
   646043140.67518592        10939052.446640134        1467044980.6108069     
   607905967.40937877        13722614.297486365        1468242101.7821417     
   569878944.11524761        16873342.720585853        1474311103.3901861     
   531962070.79280412        20391237.715976089        1485251985.4349377     
   454057127.85477912        5040817.0483357608        1494705851.4455683     
   428321653.65121675        6580569.6193261445        1491927482.8856945     
   402659612.76200378        8365099.9048105776        1494104035.3092711     
   377071005.18713552        10394407.904778630        1501235508.7162936     
   351555830.92661715        12668493.619248137        1513321903.1067665     
   225960306.60242894        2199931.3702448457        1516932535.9044006     
   212973940.13777205        2934218.8451620340        1515007721.9497988     
   200024290.33012635        3790895.1767842546        1518120869.5253894     
   187111357.17948982        4769960.3651030511        1526271978.6311622     
   174235140.68587080        5871414.4101457372        1539461049.2671318     
  0.15563676721024031       0.13383465581194987        1537399793.2526677     
  0.13485229416648575       0.12415540207643627        1536285697.8031180     
  0.11374806774144941       0.11341099762604037        1540292604.4305000     
   9.2319101081710209E-002  0.10158412572663494        1549420513.1348064     
   7.0570289538791547E-002   8.8690410327240982E-002   1563669423.9160423     
   715453860.28443336        29039646.700336665        1455251296.2516549     
   657707248.15540934        31280678.378860563        1453058177.4820557     
   599621070.05162895        32389823.474857479        1456590371.8982873     
   541195325.97309804        32367081.988355845        1465847879.5003431     
   482430015.91979367        31212453.919275433        1480830700.2882347     
   531962070.79280412        20391237.715976089        1485251985.4349377     
   488883774.22986305        22141510.232805490        1483765141.4725437     
   445550803.18552160        23042867.811633915        1487949556.1047797     
   401963157.65978080        23095310.452461615        1497805229.3316350     
   358120837.65263879        22298838.155288026        1513332161.1531103     
   351555830.92661715        12668493.619248137        1513321903.1067665     
   322991408.24059874        13881674.467628375        1512640374.0271676     
   294257202.56653881        14528912.022541061        1517576048.9509852     
   265353213.90443483        14610206.283972114        1528128927.8782277     
   236279442.25429225        14125557.251939818        1544299010.8088834     
   174235140.68587080        5871414.4101457372        1539461049.2671318     
   160030150.18761608        6501171.0833324045        1539683875.1459146     
   145740268.19468048        6847956.1075822115        1545469850.4369078     
   131365494.70705903        6911769.4828803241        1556818975.1401212     
   116905829.72475982        6692611.2092508189        1573731249.2555444     
   7.0570289538791547E-002   8.8690410327240982E-002   1563669423.9160423     
   7.0917722244107639E-002   7.9921737726031561E-002   1564895644.8287923     
   6.9949952423782255E-002   6.6768362816626875E-002   1571630960.5625503     
   6.7650829992883021E-002   4.9177145871976038E-002   1583875371.1173124     
   6.4030557412996125E-002   2.7182788986756710E-002   1601628876.4930904     
   482430015.91979367        31212453.919275433        1480830700.2882347     
   425180285.61943114        26689573.412585020        1478848438.8975236     
   365749510.50473022        14896543.524761304        1482594556.5437648     
   304137690.57567519       -4166635.7442387491        1492069053.2269464     
   240344825.83227772       -30499964.394383356        1507271928.9470840     
   358120837.65263879        22298838.155288026        1513332161.1531103     
   315942250.60602045        19134290.973826990        1509898624.2726645     
   272127879.94909292        10517131.758003265        1512016433.9369311     
   226677725.68185881       -3552639.4921744615        1519685590.1459312     
   179591787.80431539       -23075022.776720732        1532906092.8996525     
   236279442.25429225        14125557.251939818        1544299010.8088834     
   208666191.34078497        12167601.259524852        1540050336.5100629     
   179962418.02100626        6574570.5795370713        1541175976.2637446     
   150168122.29494750       -2653534.7880519554        1547675930.0699294     
   119283304.16262063       -15516714.843197845        1559550197.9286213     
   116905829.72475982        6692611.2092508189        1573731249.2555444     
   103352107.82372533        5789504.2696704902        1569303575.6097302     
   89253124.720456526        3068859.9893119745        1570073183.5241990     
   74608880.414944828       -1469321.6318568662        1576040072.9989488     
   59419374.907206029       -7825040.5937842466        1587204244.0339816     
   6.4030557412996125E-002   2.7182788986756710E-002   1601628876.4930904     
   5.4841296339312284E-002   4.2721320986310943E-003   1597658341.5716591     
   4.7453250120552584E-002  -1.2635863051861512E-002   1598708055.7182944     
   4.1854180377908480E-002  -2.3578174669102423E-002   1604778018.9329855     
   3.8067991982136840E-002  -2.8481017910387076E-002   1615868231.2157395     
   240344825.83227772       -30499964.394383356        1507271928.9470840     
   199600440.12592858       -60215527.283652276        1486155435.4071319     
   154248014.87114966       -105291222.00101781        1467788244.4719074     
   104287550.06793922       -165727048.54648840        1452170356.1413960     
   49719045.716300532       -241523006.92005596        1439301770.4156165     
   179591787.80431539       -23075022.776720732        1532906092.8996525     
   148366540.47104216       -45561782.360170491        1507318964.7951810     
   113685263.47631694       -79568640.815124214        1484636762.8408556     
   75547956.820148319       -125095598.14155805        1464859487.0366871     
   33954620.502531856       -182142654.33948046        1447987137.3826559     
   119283304.16262063       -15516714.843197845        1559550197.9286213     
   98021833.903642669       -30641279.510465950        1530836446.7944417     
   74456343.870198756       -53445910.092617080        1505183245.3558416     
   48586834.062290929       -83930606.589647874        1482590593.6128192     
   20413304.479917116       -122095369.00156879        1463058491.5653672     
   59419374.907206029       -7825040.5937842466        1587204244.0339816     
   48566320.423742682       -15454018.734499898        1556707881.4049067     
   36561256.052794442       -26923029.833498687        1529427692.0168495     
   23404181.794366501       -42232073.890764371        1505363675.8697844     
   9095097.6484548785       -61381150.906306371        1484515832.9637218     
   3.8067991982136840E-002  -2.8481017910387076E-002   1615868231.2157395     
   3.1337661403569909E-002  -3.2288686376628281E-002   1584933268.6265957     
   2.4106723943047685E-002  -3.7763656670606355E-002   1557370102.8238795     
   1.6379411563335732E-002  -4.4894250862635751E-002   1533178733.8075905     
   8.1525445734912834E-003  -5.3689333199049782E-002   1512359161.5777280     
   49719045.716300532       -241523006.92005596        1439301770.4156165     
   40424882.696789354       -322499478.31197786        1346290877.8604283     
   23367672.136926651       -429352774.83839381        1253154425.8348258     
  -1452585.9632714093       -562082896.49927342        1159892414.3388238     
  -34035891.603824735       -720689843.29466224        1066504843.3724033     
   33954620.502531856       -182142654.33948046        1447987137.3826559     
   29805349.866226062       -242028602.39698535        1347500397.6568127     
   19833793.574462608       -321322169.30601299        1246229783.0805106     
   4039951.6272609830       -420023355.06649637        1144175293.6537559     
  -17576175.975407094       -538132159.67854428        1041336929.3765574     
   20413304.479917116       -122095369.00156879        1463058491.5653672     
   19528025.140984260       -161455064.05039966        1357360126.8678935     
   14761222.031491876       -213753171.66776502        1250219571.9399252     
   6112895.1514443010       -278989691.85365093        1141636826.7814713     
  -6416955.4991655499       -357164624.60806584        1031611891.3925194     
   9095097.6484548785       -61381150.906306371        1484515832.9637218     
   9592908.5210646689       -80778863.272222310        1375870065.4936633     
   8149957.5080182627       -106645781.92365754        1265123792.4130828     
   4766244.6092973277       -138981906.86067110        1152277013.7219567     
  -558230.17509282380       -177787238.08325136        1037329729.4203159     
   8.1525445734912834E-003  -5.3689333199049782E-002   1512359161.5777280     
   6.4722952272392130E-003  -6.2433483291693306E-002   1403030213.5341425     
   4.0235214427596748E-003  -7.3737993732980969E-002   1290942444.4999816     
   7.9606650941529272E-004  -8.7638801893208496E-002   1176095854.4752324     
  -3.1915861894718789E-003 -0.10407499038402609        1058490443.4599192     
   1.2963108608521590        7.6101468533467180        1452666327.3813090     
  0.70492375672956264        4.3142119455640415        1458539345.4065082     
  0.41158386223015342        2.0117663487465416        1468286834.5172372     
  0.41628820354225848       0.70280292574620307        1481908794.7134993     
  0.71904144726265684       0.38733515021745230        1499405225.9952910     
  -354866759.69834965        3933417.1477936208        1465980326.3722098     
  -343559208.47859442        4551663.1341668665        1465558930.0766096     
  -332321468.18988723        4937206.0170432329        1469818506.5619779     
  -321153538.83222538        5090045.7964361161        1478759055.8283160     
  -310055420.40561533        5010182.4723243117        1492380577.8756230     
  -728753355.83377314        2160876.1432081759        1478268119.2489183     
  -703833962.24448109        4088658.5794087052        1471470862.1985762     
  -679054190.81533146        5551033.8151340187        1470161079.6246405     
  -654414041.54632401        6548001.8503868580        1474338771.5271103     
  -629913514.43745923        7079562.6851639748        1484003937.9059875     
  -1121659787.1099527       -5317615.4036040306        1489529706.0114255     
  -1080824260.5927351       -1389009.3500608802        1476275141.7723997     
  -1040198167.4647509        1841485.4060310125        1469314553.7052171     
  -999781507.72600579        4373868.8646611571        1468647941.8098798     
  -959574281.37649512        6208141.0258460641        1474275306.0863845     
  -1533586053.5268924       -18502057.492641032        1499765086.6597378     
  -1474530103.5233560       -11881340.654238880        1479971768.7980864     
  -1415753398.1381462       -6191439.2102673054        1467278928.8037128     
  -1357255937.3712671       -1432353.1607291102        1461686566.6766236     
  -1299037721.2227216        2395917.4943677187        1463194682.4168103     
  0.71904144726265684       0.38733515021745230        1499405225.9952910     
  0.60872497518817315       0.38894244967581570        1500073031.5115542     
  0.49113696168609222       0.36631093076415960        1503624919.7118433     
  0.36627539371466600       0.31943457723271462        1510060890.5961559     
  0.23413816673024901       0.24830568004660505        1519380944.1644914     
  -310055420.40561533        5010182.4723243117        1492380577.8756230     
  -302207194.91219312        3780766.5376922339        1489867344.2499962     
  -294404269.29909331        2400351.0019866526        1490790835.9285069     
  -286646643.56631601        868935.86520515382        1495151052.9111547     
  -278934317.71385950       -813478.87264533341        1502947995.1979408     
  -629913514.43745923        7079562.6851639748        1484003937.9059875     
  -612638084.42569673        5094424.4886563420        1478256815.2865815     
  -595453254.16730201        2807287.1142554879        1476499060.5914271     
  -578359023.66227639        218150.56195843220        1478730673.8205206     
  -561355392.91061723       -2672985.1682277620        1484951654.9738655     
  -959574281.37649512        6208141.0258460641        1474275306.0863845     
  -931292667.93178105        3940974.2418512106        1465241444.6213126     
  -903146954.11348212        1220808.7031429410        1460749593.7006004     
  -875137139.92160165       -1952355.5902944803        1460799753.3242528     
  -847263225.35613120       -5578518.6384319663        1465391923.4922678     
  -1299037721.2227216        2395917.4943677187        1463194682.4168103     
  -1258170945.4304490        320415.79726934433        1450821232.2541826     
  -1217485369.1376388       -2359084.2313701510        1443542435.2560318     
  -1176980992.3442936       -5642582.5915576816        1441358291.4223547     
  -1136657815.0504050       -9530079.2832708359        1444268800.7531543     
  0.23413816673024901       0.24830568004660505        1519380944.1644914     
  0.20962178879149415       0.20338415018073719        1516273792.9522765     
  0.18836576071828309       0.16933114708940566        1518241217.3962364     
  0.17036875573310012       0.14614086040211072        1525283217.4963672     
  0.15563676721024031       0.13383465581194987        1537399793.2526677     
  -278934317.71385950       -813478.87264533341        1502947995.1979408     
  -265627803.33704987       -950053.52080610394        1498655047.5763795     
  -252363296.64098385       -1226653.7714477926        1499554821.8234904     
  -239140797.62566358       -1643279.6245732009        1505647317.9392774     
  -225960306.29108498       -2199931.0801714808        1516932535.9237361     
  -561355392.91061723       -2672985.1682277620        1484951654.9738655     
  -534404803.52532995       -2844866.2374705374        1479423901.9782867     
  -507538229.50479645       -3296798.5225581527        1479207017.0638773     
  -480755670.84901118       -4028782.0234749615        1484301000.2306476     
  -454057127.55797768       -5040816.7402288914        1494705851.4785872     
  -847263225.35613120       -5578518.6384319663        1465391923.4922678     
  -806331000.35522449       -5684437.9466268122        1458580356.1579947     
  -765524798.40307474       -6210434.0840153098        1457197803.1173961     
  -724844619.49967992       -7156507.0505798757        1461244264.3704724     
  -684290463.64504170       -8522656.8463410139        1470719739.9172230     
  -1136657815.0504050       -9530079.2832708359        1444268800.7531543     
  -1081406393.8267264       -9468768.6482569575        1436124410.1155119     
  -1026323003.3358176       -9967560.4558068514        1433527179.9840455     
  -971407643.57766569       -11026454.705881953        1436477110.3587563     
  -916660314.55227423       -12645451.398490429        1444974201.2396460     
  0.15563676721024031       0.13383465581194987        1537399793.2526677     
  0.13485229416648575       0.12415540207643627        1536285697.8031180     
  0.11374806774144941       0.11341099762604037        1540292604.4305000     
   9.2319101081710209E-002  0.10158412572663494        1549420513.1348064     
   7.0570289538791547E-002   8.8690410327240982E-002   1563669423.9160423     
  -225960306.29108498       -2199931.0801714808        1516932535.9237361     
  -212973939.87001210       -2934218.5884842724        1515007721.9645975     
  -200024290.10575849       -3790894.9528623000        1518120869.5373387     
  -187111356.99833632       -4769960.1733443588        1526271978.6419554     
  -174235140.54773885       -5871414.2499078587        1539461049.2784545     
  -454057127.55797768       -5040816.7402288914        1494705851.4785872     
  -428321653.39519215       -6580569.3572186530        1491927482.9106100     
  -402659612.54573065       -8365099.6852885932        1494104035.3294585     
  -377071005.00959843       -10394407.724454850        1501235508.7351320     
  -351555830.78679729       -12668493.474724218        1513321903.1276338     
  -684290463.64504170       -8522656.8463410139        1470719739.9172230     
  -646043140.44068551       -10939052.182037026        1467044980.6411521     
  -607905967.20616448       -13722614.083853364        1468242101.8068559     
  -569878943.94146931       -16873342.551754624        1474311103.4143336     
  -531962070.64660925       -20391237.585773349        1485251985.4635892     
  -916660314.55227423       -12645451.398490429        1444974201.2396460     
  -866138401.00649858       -16009667.062964618        1440360215.1562214     
  -815763354.08705568       -19863438.148543715        1440535068.9695280     
  -765535173.79394233       -24206764.655223846        1445498762.6795576     
  -715453860.12716782       -29039646.583033115        1455251296.2863092     
   7.0570289538791547E-002   8.8690410327240982E-002   1563669423.9160423     
   7.0917722244107639E-002   7.9921737726031561E-002   1564895644.8287923     
   6.9949952423782255E-002   6.6768362816626875E-002   1571630960.5625503     
   6.7650829992883021E-002   4.9177145871976038E-002   1583875371.1173124     
   6.4030557412996125E-002   2.7182788986756710E-002   1601628876.4930904     
  -174235140.54773885       -5871414.2499078587        1539461049.2784545     
  -160030150.05050406       -6501170.9441705495        1539683875.1561434     
  -145740268.06019875       -6847955.9948639199        1545469850.4455473     
  -131365494.57681425       -6911769.4019599408        1556818975.1466625     
  -116905829.60036324       -6692611.1655019894        1573731249.2594886     
  -351555830.78679729       -12668493.474724218        1513321903.1276338     
  -322991408.10495317       -13881674.348164394        1512640374.0470600     
  -294257202.43564373       -14528911.930051789        1517576048.9689043     
  -265353213.77886516       -14610206.220376119        1528128927.8931580     
  -236279442.13462570       -14125557.219164014        1544299010.8198235     
  -531962070.64660925       -20391237.585773349        1485251985.4635892     
  -488883774.09243274       -22141510.132070690        1483765141.5015447     
  -445550803.05640078       -23042867.738846570        1487949556.1326177     
  -401963157.53850728       -23095310.406084627        1497805229.3568072     
  -358120837.53875262       -22298838.133787051        1513332161.1741133     
  -715453860.12716782       -29039646.583033115        1455251296.2863092     
  -657707248.01294160       -31280678.295882434        1453058177.5195911     
  -599621069.92246211       -32389823.421222657        1456590371.9366887     
  -541195325.85572398       -32367081.959034711        1465847879.5376050     
  -482430015.81273854       -31212453.909354478        1480830700.3223407     
   6.4030557412996125E-002   2.7182788986756710E-002   1601628876.4930904     
   5.4841296339312284E-002   4.2721320986310943E-003   1597658341.5716591     
   4.7453250120552584E-002  -1.2635863051861512E-002   1598708055.7182944     
   4.1854180377908480E-002  -2.3578174669102423E-002   1604778018.9329855     
   3.8067991982136840E-002  -2.8481017910387076E-002   1615868231.2157395     
  -116905829.60036324       -6692611.1655019894        1573731249.2594886     
  -103352107.71573514       -5789504.2644167244        1569303575.6169739     
  -89253124.626017839       -3068860.0130337253        1570073183.5345716     
  -74608880.331241086        1469321.5885489732        1576040073.0122764     
  -59419374.831383184        7825040.5403986648        1587204244.0500894     
  -236279442.13462570       -14125557.219164014        1544299010.8198235     
  -208666191.23602897       -12167601.257985815        1540050336.5267162     
  -179962417.92908284       -6574570.6023097709        1541175976.2857604     
  -150168122.21379733        2653534.7478311583        1547675930.0969560     
  -119283304.09015906        15516714.792480938        1559550197.9603100     
  -358120837.53875262       -22298838.133787051        1513332161.1741133     
  -315942250.50605732       -19134290.976492748        1509898624.3008864     
  -272127879.86173832       -10517131.780452967        1512016433.9718618     
  -226677725.60581160        3552639.4542792737        1519685590.1870377     
  -179591787.73825741        23075022.727769807        1532906092.9464197     
  -482430015.81273854       -31212453.909354478        1480830700.3223407     
  -425180285.52581245       -26689573.419914410        1478848438.9394848     
  -365749510.42398739       -14896543.547475874        1482594556.5928755     
  -304137690.50728613        4166635.7078838795        1492069053.2825184     
  -240344825.77568063        30499964.346254542        1507271929.0084066     
   3.8067991982136840E-002  -2.8481017910387076E-002   1615868231.2157395     
   3.1337661403569909E-002  -3.2288686376628281E-002   1584933268.6265957     
   2.4106723943047685E-002  -3.7763656670606355E-002   1557370102.8238795     
   1.6379411563335732E-002  -4.4894250862635751E-002   1533178733.8075905     
   8.1525445734912834E-003  -5.3689333199049782E-002   1512359161.5777280     
  -59419374.831383184        7825040.5403986648        1587204244.0500894     
  -48566320.361433059        15454018.672442377        1556707881.4190068     
  -36561256.004805185        26923029.760076120        1529427692.0291357     
  -23404181.761496749        42232073.803311579        1505363675.8804634     
  -9095097.6315075383        61381150.802149639        1484515832.9730117     
  -119283304.09015906        15516714.792480938        1559550197.9603100     
  -98021833.844166294        30641279.450173035        1530836446.8223355     
  -74456343.824312001        53445910.020736605        1505183245.3803451     
  -48586834.030602872        83930606.504148215        1482590593.6343431     
  -20413304.463034198        122095368.90042531        1463058491.5843186     
  -179591787.73825741        23075022.727769807        1532906092.9464197     
  -148366540.41685653        45561782.300922416        1507318964.8365936     
  -113685263.43441489        79568640.744212031        1484636762.8775287     
  -75547956.790940702        125095598.05760877        1464859487.0692232     
  -33954620.486425661        182142654.24114317        1447987137.4116788     
  -240344825.77568063        30499964.346254542        1507271929.0084066     
  -199600440.07950622        60215527.224683955        1486155435.4617677     
  -154248014.83511025        105291221.93051636        1467788244.5206671     
  -104287550.04250467        165727048.46371651        1452170356.1851091     
  -49719045.701687232        241523006.82428673        1439301770.4550848     
   8.1525445734912834E-003  -5.3689333199049782E-002   1512359161.5777280     
   6.4722952272392130E-003  -6.2433483291693306E-002   1403030213.5341425     
   4.0235214427596748E-003  -7.3737993732980969E-002   1290942444.4999816     
   7.9606650941529272E-004  -8.7638801893208496E-002   1176095854.4752324     
  -3.1915861894718789E-003 -0.10407499038402609        1058490443.4599192     
  -9095097.6315075383        61381150.802149639        1484515832.9730117     
  -9592908.5072093867        80778863.151690319        1375870065.5008898     
  -8149957.4987648129        106645781.78171973        1265123792.4181883     
  -4766244.6061722562        138981906.69224420        1152277013.7249060     
   558230.17055003345        177787237.88319412        1037329729.4210429     
  -20413304.463034198        122095368.90042531        1463058491.5843186     
  -19528025.127069063        161455063.93396735        1357360126.8827515     
  -14761222.022045925        213753171.53103545        1250219571.9505770     
  -6112895.1479627043        278989691.69164038        1141636826.7878170     
   6416955.4951751679        357164624.41575497        1031611891.3944640     
  -33954620.486425661        182142654.24114317        1447987137.4116788     
  -29805349.853110939        242028602.28437978        1347500397.6797206     
  -19833793.565826431        321322169.17418516        1246229783.0971525     
  -4039951.6245565116        420023354.91060233        1144175293.6639676     
   17576175.970672756        538132159.49355745        1041336929.3801986     
  -49719045.701687232        241523006.82428673        1439301770.4550848     
  -40424882.685330674        322499478.20294547        1346290877.8917956     
  -23367672.130097300        429352774.71119434        1253154425.8578856     
   1452585.9640447497        562082896.34914112        1159892414.3533652     
   34035891.597053587        720689843.11663842        1066504843.3782345     
  -1533586053.5268924       -18502057.492641032        1499765086.6597378     
  -1474530103.5233560       -11881340.654238880        1479971768.7980864     
  -1415753398.1381462       -6191439.2102673054        1467278928.8037128     
  -1357255937.3712671       -1432353.1607291102        1461686566.6766236     
  -1299037721.2227216        2395917.4943677187        1463194682.4168103     
  -1944449812.9364431       -28927584.187683105        1397173722.2207086     
  -1867247062.6014719       -19397437.822288394        1383345741.2336435     
  -1790477530.0004501       -11311350.570057869        1375704952.7434006     
  -1714141215.1333778       -4669322.4309895039        1374251356.7499785     
  -1638238118.0002556        528646.59491312504        1378984953.2533810     
  -2335777622.0641503       -33492325.798174024        1293697325.2122946     
  -2243037458.1704841       -21835565.937609076        1285655045.7982566     
  -2150884485.1263843       -12136108.908932805        1282886673.5105860     
  -2059318702.9318564       -4393954.7121590376        1285392208.3492815     
  -1968340111.5868921        1390896.6527296305        1293171650.3143392     
  -2707569480.9100199       -32196282.324112773        1189335895.6344819     
  -2601901290.2303915       -19195725.000196576        1186899682.4919200     
  -2496974263.5159540       -8665714.2269073725        1188824091.1052682     
  -2392788400.7666988       -606250.00423491001        1195109121.4745235     
  -2289343701.9826345        4982667.6678117514        1205754773.5996835     
  -3059825389.4740434       -25039453.765497565        1084089433.4872847     
  -2943838558.7811933       -11477915.010053992        1087079651.3146451     
  -2828746865.1691494       -900166.52395820618        1093517205.5274518     
  -2714550308.6379128        6693791.6927747726        1103402096.1257088     
  -2601248889.1874790        11303959.640166521        1116734323.1094182     
  -1299037721.2227216        2395917.4943677187        1463194682.4168103     
  -1258170945.4304490        320415.79726934433        1450821232.2541826     
  -1217485369.1376388       -2359084.2313701510        1443542435.2560318     
  -1176980992.3442936       -5642582.5915576816        1441358291.4223547     
  -1136657815.0504050       -9530079.2832708359        1444268800.7531543     
  -1638238118.0002556        528646.59491312504        1378984953.2533810     
  -1584937971.0929029       -1903944.5555179119        1369344772.0039041     
  -1531764831.7979350       -4759894.4138975739        1364256474.4753981     
  -1478718700.1153488       -8039202.9802110791        1363720060.6678591     
  -1425799576.0451486       -11741870.254489720        1367735530.5812960     
  -1968340111.5868921        1390896.6527296305        1293171650.3143392     
  -1904157363.4030466       -1864014.9026079178        1286327961.8462706     
  -1840047430.9445100       -5361645.5423049927        1283493387.6556673     
  -1776010314.2112761       -9101995.2663459778        1284667927.7425268     
  -1712046013.2033467       -13085064.074735045        1289851582.1068554     
  -2289343701.9826345        4982667.6678117514        1205754773.5996835     
  -2215829122.3608847        440204.75598502159        1201770801.7812850     
  -2142333166.5773633       -4164337.6166009903        1201253174.7968426     
  -2068855834.6320672       -8830959.4499299526        1204201892.6463602     
  -1995397126.5249977       -13559660.744026065        1210616955.3298376     
  -2601248889.1874790        11303959.640166521        1116734323.1094182     
  -2519953247.9664087        5008714.4202871323        1115673291.8089426     
  -2438622038.6964946       -1167970.6367721558        1117535835.8989193     
  -2357255261.3777218       -7226095.5309746265        1122321955.3793516     
  -2275852916.0101008       -13165660.262342930        1130031650.2502372     
  -1136657815.0504050       -9530079.2832708359        1444268800.7531543     
  -1081406393.8267264       -9468768.6482569575        1436124410.1155119     
  -1026323003.3358176       -9967560.4558068514        1433527179.9840455     
  -971407643.57766569       -11026454.705881953        1436477110.3587563     
  -916660314.55227423       -12645451.398490429        1444974201.2396460     
  -1425799576.0451486       -11741870.254489720        1367735530.5812960     
  -1356336667.5087612       -10983419.132419646        1360225846.5586605     
  -1287077751.5425360       -10904943.244226813        1357940036.7733815     
  -1218022828.1464663       -11506442.589884162        1360878101.2254601     
  -1149171897.3205616       -12787917.169426322        1369040039.9148927     
  -1712046013.2033467       -13085064.074735045        1289851582.1068554     
  -1629295292.4080219       -11906574.981747627        1282934649.2222643     
  -1546784526.0202584       -11527933.913953841        1280918304.3062122     
  -1464513714.0400457       -11949140.871336520        1283802547.3586950     
  -1382482856.4673924       -13170195.853915274        1291587378.3797121     
  -1995397126.5249977       -13559660.744026065        1210616955.3298376     
  -1900282268.5245144       -12238236.196251392        1204250818.1063325     
  -1805443326.7689807       -11836532.464974642        1202461982.5825415     
  -1710880301.2584105       -12354549.550232887        1205250448.7584629     
  -1616593191.9927809       -13792287.451973140        1212616216.6341004     
  -2275852916.0101008       -13165660.262342930        1130031650.2502372     
  -2169297595.8582320       -11978402.775915980        1124174353.2108524     
  -2063054153.7887130       -11830738.897315145        1122571071.6023622     
  -1957122589.8015378       -12722668.626527309        1125221805.4247639     
  -1851502903.8967183       -14654191.963595748        1132126554.6780591     
  -916660314.55227423       -12645451.398490429        1444974201.2396460     
  -866138401.00649858       -16009667.062964618        1440360215.1562214     
  -815763354.08705568       -19863438.148543715        1440535068.9695280     
  -765535173.79394233       -24206764.655223846        1445498762.6795576     
  -715453860.12716782       -29039646.583033115        1455251296.2863092     
  -1149171897.3205616       -12787917.169426322        1369040039.9148927     
  -1086486266.6992576       -16435899.899696350        1363903036.0948379     
  -1023937468.6216580       -20539991.108971298        1363399382.5282590     
  -961525503.08775628       -25100190.797247410        1367529079.2151620     
  -899250370.09756136       -30116498.964539140        1376292126.1555462     
  -1382482856.4673924       -13170195.853915274        1291587378.3797121     
  -1308077764.8941259       -17235222.487057567        1285939063.2527566     
  -1233799471.7819302       -21722910.657108963        1284768608.7360330     
  -1159647977.1308036       -26633260.364054084        1288076014.8295465     
  -1085623280.9407446       -31966271.607892096        1295861281.5332921     
  -1616593191.9927809       -13792287.451973140        1212616216.6341004     
  -1530912895.5911059       -18407634.825057268        1206468296.6299839     
  -1445349363.5678725       -23412196.792939723        1204642747.5928533     
  -1359902595.9230721       -28805973.355607331        1207139569.5227110     
  -1274572592.6567156       -34588964.513079703        1213958762.4195569     
  -1851502903.8967183       -14654191.963595748        1132126554.6780591     
  -1754991658.7901943       -19953136.913682818        1125490736.2265155     
  -1658587143.9794812       -25607849.516470492        1123021799.0987122     
  -1562289359.4645731       -31618329.771945298        1124719743.2946570     
  -1466098305.2454691       -37984577.680095375        1130584568.8143377     
  -715453860.12716782       -29039646.583033115        1455251296.2863092     
  -657707248.01294160       -31280678.295882434        1453058177.5195911     
  -599621069.92246211       -32389823.421222657        1456590371.9366887     
  -541195325.85572398       -32367081.959034711        1465847879.5376050     
  -482430015.81273854       -31212453.909354478        1480830700.3223407     
  -899250370.09756136       -30116498.964539140        1376292126.1555462     
  -827158690.89908922       -32077617.374654353        1373277283.4162118     
  -754857502.74283826       -33340372.592166513        1375507199.1033864     
  -682346805.62879908       -33904764.617058873        1382981873.2170720     
  -609626599.55697489       -33770793.449325979        1395701305.7572594     
  -1085623280.9407446       -31966271.607892096        1295861281.5332921     
  -1000559548.2503467       -34059380.792960823        1291872981.6331346     
  -915416363.62063599       -35887650.180323541        1292648885.4021766     
  -830193727.05161405       -37451079.769985050        1298188992.8404105     
  -744891638.54327917       -38749669.561927825        1308493303.9478426     
  -1274572592.6567156       -34588964.513079703        1213958762.4195569     
  -1177909820.0667138       -37225968.550812840        1208845272.1703594     
  -1081297652.5558655       -40031656.185723364        1208015430.8330455     
  -984736090.12417662       -43006027.417828739        1211469238.4076147     
  -888225132.77164507       -46149082.247133195        1219206694.8940656     
  -1466098305.2454691       -37984577.680095375        1130584568.8143377     
  -1359209506.3481755       -41577380.648159802        1124194155.0278859     
  -1252501369.5485189       -45772390.608342111        1121606835.3960009     
  -1145973894.8464918       -50569607.560629547        1122822609.9186895     
  -1039627082.2420864       -55969031.504981220        1127841478.5959487     
  -482430015.81273854       -31212453.909354478        1480830700.3223407     
  -425180285.52581245       -26689573.419914410        1478848438.9394848     
  -365749510.42398739       -14896543.547475874        1482594556.5928755     
  -304137690.50728613        4166635.7078838795        1492069053.2825184     
  -240344825.77568063        30499964.346254542        1507271929.0084066     
  -609626599.55697489       -33770793.449325979        1395701305.7572594     
  -537711716.92203295       -30192149.968764096        1393483958.1231287     
  -463575835.98515099       -19210178.815072834        1397037018.7224934     
  -387218956.74632597       -824879.98823542893        1406360487.5553706     
  -308641079.20556378        24963746.511725515        1421454364.6217463     
  -744891638.54327917       -38749669.561927825        1308493303.9478426     
  -658191520.13959110       -36079238.064016759        1306087482.4639812     
  -569230449.94691241       -25872300.602815002        1309494098.4108839     
  -478008427.96524477       -8128857.1783115864        1318713151.7885449     
  -384525454.19459999        17151092.209450573        1333744642.5969620     
  -888225132.77164507       -46149082.247133195        1219206694.8940656     
  -786619695.17848527       -44350837.705672771        1216659011.9620395     
  -682713352.30928338       -34882908.910743743        1219965795.6580305     
  -576506104.16404486       -17745295.862362206        1229127045.9820361     
  -467997950.74278271        7062001.4394416511        1244142762.9340560     
  -1039627082.2420864       -55969031.504981220        1127841478.5959487     
  -922996242.03871763       -55006948.893723488        1125198546.6173103     
  -804024543.07227147       -46242003.738882691        1128452110.4639442     
  -682711985.34272969       -29674196.040381193        1137602170.1358469     
  -559058568.85012162       -5303525.7983340621        1152648725.6330192     
  -240344825.77568063        30499964.346254542        1507271929.0084066     
  -199600440.07950622        60215527.224683955        1486155435.4617677     
  -154248014.83511025        105291221.93051636        1467788244.5206671     
  -104287550.04250467        165727048.46371651        1452170356.1851091     
  -49719045.701687232        241523006.82428673        1439301770.4550848     
  -308641079.20556378        24963746.511725515        1421454364.6217463     
  -259030803.01204097        55218567.793587372        1404733085.1748593     
  -202966926.09666201        106985391.48164074        1391957974.6426773     
  -140449448.45943409        180264217.57585973        1383129033.0252028     
  -71478370.100355178        275055046.07623953        1378246260.3224304     
  -384525454.19459999        17151092.209450573        1333744642.5969620     
  -322629669.47754037        48971057.302608058        1323571731.9524066     
  -252434722.86498675        108454895.38073990        1318541856.5317173     
  -173940614.35694659        195602606.44382805        1318655016.3348987     
  -87147343.953413561        310414190.49189526        1323911211.3619568     
  -467997950.74278271        7062001.4394416511        1244142762.9340560     
  -390397039.47600442        41472995.751719356        1242671375.7944024     
  -302651405.14008385        109699733.62780736        1247539890.1877916     
  -204761047.73504457        211742215.06762740        1258748306.1142130     
  -96725967.260866076        347600440.07123601        1276296623.5736725     
  -559058568.85012162       -5303525.7983340621        1152648725.6330192     
  -462332913.00742626        32724383.140969962        1162032016.7008553     
  -353616972.92195678        110719906.22284041        1178952075.6108935     
  -232910748.59372926        228683043.44724864        1203408902.3631406     
  -100214240.02272594        386613794.81423455        1235402496.9575861     
  -49719045.701687232        241523006.82428673        1439301770.4550848     
  -40424882.685330674        322499478.20294547        1346290877.8917956     
  -23367672.130097300        429352774.71119434        1253154425.8578856     
   1452585.9640447497        562082896.34914112        1159892414.3533652     
   34035891.597053587        720689843.11663842        1066504843.3782345     
  -71478370.100355178        275055046.07623953        1378246260.3224304     
  -57331971.417405084        376790119.10562503        1296724202.9754677     
  -34216108.556216240        508423406.06247360        1214269747.5386488     
  -2130781.5167721212        669954906.94683564        1130882894.0119438     
   38924009.700910747        861384621.75867319        1046563642.3953996     
  -87147343.953413561        310414190.49189526        1323911211.3619568     
  -70453962.801744789        432216289.21260160        1255285475.3105793     
  -43584700.832466096        587937990.65868020        1184920502.5500901     
  -6539558.0455769598        777579294.83012700        1112816293.0804930     
   40681465.558932304        1001140201.7269573        1038972846.9017500     
  -96725967.260866076        347600440.07123601        1276296623.5736725     
  -79790856.838338047        488777988.52392042        1221974694.8971455     
  -51473448.958831549        667896528.49985552        1165106690.8922508     
  -11773743.622342885        884956059.99906003        1105692611.5589788     
   39308259.171104491        1139956583.0214798        1043732456.8973566     
  -100214240.02272594        386613794.81423455        1235402496.9575861     
  -85342653.527189732        546475217.03954852        1196791861.7351530     
  -57882352.935315490        748299019.58600020        1154828312.5651050     
  -17833338.247113287        992085202.45354962        1109511849.4474444     
   34804390.537445009        1277833765.6422663        1060842472.3821499     
  -3059825389.4740434       -25039453.765497565        1084089433.4872847     
  -2943838558.7811933       -11477915.010053992        1087079651.3146451     
  -2828746865.1691494       -900166.52395820618        1093517205.5274518     
  -2714550308.6379128        6693791.6927747726        1103402096.1257088     
  -2601248889.1874790        11303959.640166521        1116734323.1094182     
  -3410498517.7530627       -13943137.641724586        998594545.73854244     
  -3285169900.4904037       -3973068.1899192333        994773391.50920033     
  -3160390018.7055640        4167883.0024535656        995519691.17202568     
  -3036158872.3985696        10479715.935371399        1000833444.7270212     
  -2912476461.5693974        14962430.608863354        1010714652.1741893     
  -3779826422.6535850       -8443254.5044076443        910438357.59014630     
  -3641955683.0876188       -1104553.6361894608        900209966.50757241     
  -3504287277.3965082        5559700.9824974537        895669146.82388628     
  -3366821205.5802598        11549509.351656199        896815898.53909016     
  -3229557467.6388693        16864871.471287131        903650221.65318513     
  -4167809104.1755915       -8539804.3535344601        819620869.04210436     
  -4014195906.5728426       -2872371.3488638401        803389376.30976653     
  -3860438641.2419720        3275287.4161920547        793965572.48303616     
  -3706537308.1829901        9903171.9416279793        791349457.56191623     
  -3552491907.3958931        17011282.227447271        795541031.54640830     
  -4574446562.3190994       -14232787.189109802        726142080.09440982     
  -4401890570.9460707       -9276521.3279361725        704311620.91577840     
  -4228844110.2419543       -2685357.6964735985        690408968.14947212     
  -4055307180.2067509        5540703.7052919865        684434121.79549956     
  -3881279780.8404589        15401662.877348185        686387081.85385859     
  -2601248889.1874790        11303959.640166521        1116734323.1094182     
  -2519953247.9664087        5008714.4202871323        1115673291.8089426     
  -2438622038.6964946       -1167970.6367721558        1117535835.8989193     
  -2357255261.3777218       -7226095.5309746265        1122321955.3793516     
  -2275852916.0101008       -13165660.262342930        1130031650.2502372     
  -2912476461.5693974        14962430.608863354        1010714652.1741893     
  -2823339299.4518547        8249683.5401490927        1007766373.6943666     
  -2734201898.8644304        1537731.3710435629        1008022805.5557243     
  -2645064259.8071117       -5173425.8984191418        1011483947.7582635     
  -2555926382.2799072       -11883788.268265009        1018149800.3019835     
  -3229557467.6388693        16864871.471287131        903650221.65318513     
  -3131775541.9084883        9975595.3686472178        898773478.15189040     
  -3034028707.2871833        2969348.9024171829        897382579.94250464     
  -2936316963.7749553       -4153867.9273998737        899477527.02502680     
  -2838640311.3718047       -11394055.120811105        905058319.39945734     
  -3552491907.3958931        17011282.227447271        795541031.54640830     
  -3445261975.3363042        10186449.905796051        788694605.18151653     
  -3338102463.9647608        3126881.9573419094        785615159.05926168     
  -3231013373.2812595       -4167421.6179223061        786302693.17964065     
  -3123994703.2857943       -11696460.819983006        790757207.54265654     
  -3881279780.8404589        15401662.877348185        686387081.85385859     
  -3763798599.7353067        8882247.1515855789        677529754.78324401     
  -3646423168.8971572        2010330.5358188152        672720542.90599358     
  -3529153488.3260183       -5214086.9699828625        671959446.22210670     
  -3411989558.0218811       -12791005.365791082        675246464.73158133     
  -2275852916.0101008       -13165660.262342930        1130031650.2502372     
  -2169297595.8582320       -11978402.775915980        1124174353.2108524     
  -2063054153.7887130       -11830738.897315145        1122571071.6023622     
  -1957122589.8015378       -12722668.626527309        1125221805.4247639     
  -1851502903.8967183       -14654191.963595748        1132126554.6780591     
  -2555926382.2799072       -11883788.268265009        1018149800.3019835     
  -2438063105.8642969       -10335417.904375196        1011101771.4965971     
  -2320436696.6654739       -9576604.9297728539        1008414821.4145477     
  -2203047154.6834331       -9607349.3444488049        1010088950.0558430     
  -2085894479.9181838       -10427651.148426294        1016124157.4204777     
  -2838640311.3718047       -11394055.120811105        905058319.39945734     
  -2709163183.5711803       -9392803.3430953026        896907071.50455904     
  -2579847912.1217766       -7931072.7361133099        893223965.62544811     
  -2450694497.0235882       -7008863.2998584509        894009001.76212585     
  -2321702938.2766271       -6626175.0343468189        899262179.91459131     
  -3123994703.2857943       -11696460.819983006        790757207.54265654     
  -2982597828.9788733       -9150559.0920504332        781590253.23474002     
  -2841287800.1576090       -6894142.3163076639        776998504.23505652     
  -2700064616.8219981       -4927210.4927425385        776981960.54360926     
  -2558928278.9720440       -3249763.6213643551        781540622.16039836     
  -3411989558.0218811       -12791005.365791082        675246464.73158133     
  -3258367042.0873823       -9608685.1512504816        665151316.68713522     
  -3104756360.7729774       -6465813.6703553200        659738437.24337661     
  -2951157514.0786586       -3362390.9230908155        659007826.40029752     
  -2797570502.0044336       -298416.90946388245        662959484.15790284     
  -1851502903.8967183       -14654191.963595748        1132126554.6780591     
  -1754991658.7901943       -19953136.913682818        1125490736.2265155     
  -1658587143.9794812       -25607849.516470492        1123021799.0987122     
  -1562289359.4645731       -31618329.771945298        1124719743.2946570     
  -1466098305.2454691       -37984577.680095375        1130584568.8143377     
  -2085894479.9181838       -10427651.148426294        1016124157.4204777     
  -1978694501.1620612       -14852407.987154245        1008673704.7173735     
  -1871665553.8036685       -19847269.484974027        1005076737.7799063     
  -1764807637.8429999       -25412235.641891837        1005333256.6080759     
  -1658120753.2800694       -31547306.457911253        1009443261.2018743     
  -2321702938.2766271       -6626175.0343468189        899262179.91459131     
  -2204709641.7512040       -10445368.525781989        890922075.00768423     
  -2087951677.7254446       -15049003.682747602        886122060.30830467     
  -1971429046.1993353       -20437080.505214095        884862135.81644928     
  -1855141747.1728768       -26609598.993195891        887142301.53212655     
  -2558928278.9720440       -3249763.6213643551        781540622.16039836     
  -2433037080.5576386       -6732018.5296170712        772235847.09744418     
  -2307445515.7448153       -11213052.109796286        766157766.68390846     
  -2182153584.5335646       -16692864.361899734        763306380.91979313     
  -2057161286.9239011       -23171455.285942435        763681689.80509675     
  -2797570502.0044336       -298416.90946388245        662959484.15790284     
  -2663676817.5813546       -3712357.9986265898        652615020.98665559     
  -2530147067.8617821       -8339414.7661361694        645183856.90672100     
  -2396981252.8457022       -14179587.211969256        640665991.91809630     
  -2264179372.5331316       -21232875.336150765        639061426.02077997     
  -1466098305.2454691       -37984577.680095375        1130584568.8143377     
  -1359209506.3481755       -41577380.648159802        1124194155.0278859     
  -1252501369.5485189       -45772390.608342111        1121606835.3960009     
  -1145973894.8464918       -50569607.560629547        1122822609.9186895     
  -1039627082.2420864       -55969031.504981220        1127841478.5959487     
  -1658120753.2800694       -31547306.457911253        1009443261.2018743     
  -1541525966.2376115       -34970736.711963415        1001107892.8210725     
  -1424932057.8074667       -38397095.673724413        996396489.00182664     
  -1308339027.9896212       -41826383.343154907        995309049.74412739     
  -1191746876.7840881       -45258599.720284045        997845575.04798675     
  -1855141747.1728768       -26609598.993195891        887142301.53212655     
  -1729352770.8224530       -30017196.184385538        877071725.95652223     
  -1603384889.5990126       -32828443.798873603        870445985.34945190     
  -1477238103.5025573       -35043341.836629152        867265079.71091270     
  -1350912412.5330825       -36661890.297664642        867529009.04090846     
  -2057161286.9239011       -23171455.285942435        763681689.80509675     
  -1922689920.1027002       -26716759.065424085        752085654.43423104     
  -1787859864.9231648       -29066434.983797550        743755324.43887925     
  -1652671121.3852952       -30220483.041047096        738690699.81904089     
  -1517123689.4890733       -30178903.237137556        736891780.57472396     
  -2264179372.5331316       -21232875.336150765        639061426.02077997     
  -2121537414.0783565       -25069425.355088830        626149678.25419664     
  -1978356983.7799292       -27111069.228528619        616324506.27011061     
  -1834638081.6378307       -27357806.956400275        609585910.06852388     
  -1690380707.6520765       -25809638.538740814        605933889.64942539     
  -1039627082.2420864       -55969031.504981220        1127841478.5959487     
  -922996242.03871763       -55006948.893723488        1125198546.6173103     
  -804024543.07227147       -46242003.738882691        1128452110.4639442     
  -682711985.34272969       -29674196.040381193        1137602170.1358469     
  -559058568.85012162       -5303525.7983340621        1152648725.6330192     
  -1191746876.7840881       -45258599.720284045        997845575.04798675     
  -1061538588.5573560       -42396911.550159514        994058701.21236956     
  -929872896.37267518       -34677210.186899424        994381151.82510221     
  -796749800.23005891       -22099495.630498171        998812926.88618529     
  -662169300.12950075       -4663767.8809659183        1007354026.3956220     
  -1350912412.5330825       -36661890.297664642        867529009.04090846     
  -1212232880.2170408       -33432457.748909473        861567496.07565320     
  -1072979398.7481978       -28289861.357472658        857928136.18182695     
  -933151968.12654781       -21234101.123349965        856610929.35943377     
  -792750588.35209382       -12265177.046548605        857615875.60846841     
  -1517123689.4890733       -30178903.237137556        736891780.57472396     
  -1375079117.0177853       -28113587.489960670        727724931.20716524     
  -1233344050.1988251       -27079957.250566900        719093063.53411627     
  -1091918489.0322018       -27078012.518947780        710996177.55557930     
  -950802433.51790905       -28107753.295104623        703434273.27155495     
  -1690380707.6520765       -25809638.538740814        605933889.64942539     
  -1550077298.9595950       -26440300.773364663        592531006.60690010     
  -1410966850.7245708       -31047497.866213381        577875933.88197207     
  -1273049362.9470274       -39631229.817311287        561968671.47463512     
  -1136324835.6269498       -52191496.626634896        544809219.38488543     
  -559058568.85012162       -5303525.7983340621        1152648725.6330192     
  -462332913.00742626        32724383.140969962        1162032016.7008553     
  -353616972.92195678        110719906.22284041        1178952075.6108935     
  -232910748.59372926        228683043.44724864        1203408902.3631406     
  -100214240.02272594        386613794.81423455        1235402496.9575861     
  -662169300.12950075       -4663767.8809659183        1007354026.3956220     
  -547061695.03825057        25630589.497556984        1020884847.4913311     
  -421081495.13676494        92166929.576881498        1042803527.4500539     
  -284228700.42501163        194945252.35708880        1073110066.2717901     
  -136503310.90302563        333965557.83807367        1111804463.9565442     
  -792750588.35209382       -12265177.046548605        857615875.60846841     
  -656829345.38141549        11025135.360431850        873990255.72744596     
  -511153197.03300530        66831799.026520401        899603585.73024702     
  -355722143.30685824        155154813.95172006        934455865.61687458     
  -190536184.20299056        275994180.13600987        978547095.38733292     
  -950802433.51790905       -28107753.295104623        703434273.27155495     
  -791635864.03690374       -11091979.270388663        721348241.40919328     
  -623832078.61068785        34714514.571712881        749352250.45147371     
  -447391077.23925394        109311728.23119974        787446300.39838707     
  -262312859.92260462        212699661.70805967        835630391.24995005     
  -1136324835.6269498       -52191496.626634896        544809219.38488543     
  -951481251.00473225       -40720754.394907951        562958804.53658152     
  -759118139.86980808       -4184923.7875142395        592049521.61373222     
  -559235502.22219574        57415995.195515186        632081370.61633098     
  -351833338.06188989        144082002.55419475        683054351.54437399     
  -100214240.02272594        386613794.81423455        1235402496.9575861     
  -85342653.527189732        546475217.03954852        1196791861.7351530     
  -57882352.935315490        748299019.58600020        1154828312.5651050     
  -17833338.247113287        992085202.45354962        1109511849.4474444     
   34804390.537445009        1277833765.6422663        1060842472.3821499     
  -136503310.90302563        333965557.83807367        1111804463.9565442     
  -127373335.68997118        482988263.04645503        1090218645.9732821     
  -95106488.900309324        709133873.51020932        1070070360.2627136     
  -39702770.534039617        1012402389.2292970        1051359606.8248408     
   38837819.408842623        1392793810.2037859        1034086385.6596510     
  -190536184.20299056        275994180.13600987        978547095.38733292     
  -173460831.07150674        418284265.08774179        986292278.37020564     
  -122700448.88315454        672857780.22905719        1000265439.8460914     
  -38255037.637924314        1039714725.5599670        1020466579.8150008     
   79875402.664189219        1518855101.0804636        1046895698.2769011     
  -262312859.92260462        212699661.70805967        835630391.24995005     
  -223605139.67179933        352363223.16341150        885012758.92594576     
  -140664232.88385186        639470739.74256563        945413551.31526887     
  -13490139.558759511        1074022211.4455335        1016832768.4179214     
   157917140.30348295        1656017638.2723455        1099270410.2339056     
  -351833338.06188989        144082002.55419475        683054351.54437399     
  -277806261.49084949        285225137.27344066        786380087.64047623     
  -148997840.90240586        608972752.05069709        905514694.67022514     
   34591923.703462124        1115324846.8860321        1040458172.6336067     
   272963032.32673550        1804281421.7794015        1191210521.5306425     
  -4574446562.3190994       -14232787.189109802        726142080.09440982     
  -4401890570.9460707       -9276521.3279361725        704311620.91577840     
  -4228844110.2419543       -2685357.6964735985        690408968.14947212     
  -4055307180.2067509        5540703.7052919865        684434121.79549956     
  -3881279780.8404589        15401662.877348185        686387081.85385859     
  -4975246012.3938026       -28281536.694139719        529225202.18451637     
  -4784255477.7094116       -17592120.640338182        519151413.86861581     
  -4593228124.5780439       -6779976.4299039841        514007202.41236091     
  -4402163952.9996758        4154895.9371645451        513792567.81574804     
  -4211062962.9743237        15212496.460868359        518507510.07878208     
  -5339050602.1774597       -31231828.111859083        332650949.03364307     
  -5138191894.3322544       -17379172.910590410        333804572.21568620     
  -4937750018.9241552       -4915959.1663477421        336889542.70469981     
  -4737724975.9531593        6157813.1208732128        341905860.50066662     
  -4538116765.4192791        15842143.951058149        348853525.60359102     
  -5665860331.6700830       -23083661.442258596        136419320.64177784     
  -5463699820.8145838       -8637678.1386826038        148271095.95699790     
  -5262409793.2802877        2906694.0942084789        159055989.02648863     
  -5061990249.0672045        11549455.256411791        168773999.85025460     
  -4862441188.1753197        17290605.347923994        177425128.42828891     
  -5955675200.8716707       -3837036.6853606701       -59469682.991066292     
  -5760779257.1564131        8632363.6753690243       -37449014.907463379     
  -5567207447.6464529        16687983.351753712       -19493458.622267853     
  -5374959772.3418026        20329822.343781710       -5603014.1354861222     
  -5184036231.2424564        19557880.651461124        4222318.5528715672     
  -3881279780.8404589        15401662.877348185        686387081.85385859     
  -3763798599.7353067        8882247.1515855789        677529754.78324401     
  -3646423168.8971572        2010330.5358188152        672720542.90599358     
  -3529153488.3260183       -5214086.9699828625        671959446.22210670     
  -3411989558.0218811       -12791005.365791082        675246464.73158133     
  -4211062962.9743237        15212496.460868359        518507510.07878208     
  -4083370188.4639034        7432758.6065416336        510618345.74594915     
  -3955592171.1192865       -62836.467127799988        506826981.63808787     
  -3827728910.9404850       -7274288.7601785660        507133417.75520080     
  -3699780407.9274888       -14201598.272583961        511537654.09728545     
  -4538116765.4192791        15842143.951058149        348853525.60359102     
  -4400070440.2704239        6844671.1381154060        342155349.29326969     
  -4261747879.1861744       -1232015.2235150337        339604658.23952937     
  -4123149082.1665411       -8387915.1338577271        341201452.44237441     
  -3984274049.2115126       -14623028.592901945        346945731.90179741     
  -4862441188.1753197        17290605.347923994        177425128.42828891     
  -4713899355.1548548        7117984.7463319302        172140765.42521036     
  -4564890293.0978060       -1497205.7333140373        171053572.71031860     
  -4415414002.0041695       -8554966.0910084248        174163550.28361997     
  -4265470481.8739457       -14055296.326741219        181470698.14511523     
  -5184036231.2424564        19557880.651461124        4222318.5528715672     
  -5024856933.1172199        8252699.4311382771        574594.14176546782     
  -4865019412.8541975       -858407.99656057358        1173725.0504540100     
  -4704523670.4533882       -7775441.6316385269        6019711.2789534470     
  -4543369705.9147959       -12498401.474108696        15112552.827241281     
  -3411989558.0218811       -12791005.365791082        675246464.73158133     
  -3258367042.0873823       -9608685.1512504816        665151316.68713522     
  -3104756360.7729774       -6465813.6703553200        659738437.24337661     
  -2951157514.0786586       -3362390.9230908155        659007826.40029752     
  -2797570502.0044336       -298416.90946388245        662959484.15790284     
  -3699780407.9274888       -14201598.272583961        511537654.09728545     
  -3533741224.5253959       -9745986.7291204929        502469323.11166120     
  -3367816481.5800366       -5671843.3747906685        497976169.73221499     
  -3202006179.0914192       -1979168.2095931768        498058193.95894849     
  -3036310317.0595398        1332038.7664859295        502715395.79185754     
  -3984274049.2115126       -14623028.592901945        346945731.90179741     
  -3806124172.6118307       -8985918.0015170574        338784511.16556907     
  -3628191342.3055372       -4072295.0547552109        335091377.04101241     
  -3450475558.2926364        117840.24736070633        335866329.52813655     
  -3272976820.5731120        3584487.9048876762        341109368.62692684     
  -4265470481.8739457       -14055296.326741219        181470698.14511523     
  -4075515886.3466835       -7328478.9684121609        174096880.84885573     
  -3885880942.9494724       -1667168.7102453709        171084059.16977438     
  -3696565651.6822829        2928634.4478425980        172432233.10785431     
  -3507570012.5451422        6458930.5057728291        178141402.66310966     
  -4543369705.9147959       -12498401.474108696        15112552.827241281     
  -4341916365.7299795       -4773669.6298902035        8406432.1615348812     
  -4140885283.5118489        1543535.6587290764        5954216.1184962848     
  -3940276459.2604151        6453214.3916947842        7755904.6981208464     
  -3740089892.9756470        9955366.5690822601        13811497.900403284     
  -2797570502.0044336       -298416.90946388245        662959484.15790284     
  -2663676817.5813546       -3712357.9986265898        652615020.98665559     
  -2530147067.8617821       -8339414.7661361694        645183856.90672100     
  -2396981252.8457022       -14179587.211969256        640665991.91809630     
  -2264179372.5331316       -21232875.336150765        639061426.02077997     
  -3036310317.0595398        1332038.7664859295        502715395.79185754     
  -2894613189.8547249       -2829372.1150044203        493020325.91591287     
  -2752981620.4851184       -7209309.1138414145        486587098.27129972     
  -2611415608.9507008       -11807772.229988813        483415712.85801405     
  -2469915155.2514968       -16624761.463510633        483506169.67605931     
  -3272976820.5731120        3584487.9048876762        341109368.62692684     
  -3122480413.0436516       -1025641.5060572624        332411798.39263886     
  -2971751186.4810915       -4859707.4733281136        327324613.52969086     
  -2820789140.8854403       -7917709.9969571829        325847814.03810054     
  -2669594276.2566829       -10199649.076910019        327981399.91785425     
  -3507570012.5451422        6458930.5057728291        178141402.66310966     
  -3347278487.1481256        1698833.8282427788        170789438.41681951     
  -3186455765.8497138       -1290609.8446209431        167396402.68190336     
  -3025101848.6498957       -2509400.5128070116        167962295.45834759     
  -2863216735.5486908       -1957538.1763660908        172487116.74616578     
  -3740089892.9756470        9955366.5690822601        13811497.900403284     
  -3569007412.1681576        5344053.8878622055        8153245.9884706782     
  -3397095358.5909777        3497983.7722868919        6802465.7279218091     
  -3224353732.2440939        4417156.2223919630        9759157.1187669244     
  -3050782533.1275120        8101571.2381473780        17023320.160990652     
  -2264179372.5331316       -21232875.336150765        639061426.02077997     
  -2121537414.0783565       -25069425.355088830        626149678.25419664     
  -1978356983.7799292       -27111069.228528619        616324506.27011061     
  -1834638081.6378307       -27357806.956400275        609585910.06852388     
  -1690380707.6520765       -25809638.538740814        605933889.64942539     
  -2469915155.2514968       -16624761.463510633        483506169.67605931     
  -2319313433.4317188       -18454096.576813817        472908825.51772946     
  -2168476522.7762766       -19499468.904588342        464884597.03330380     
  -2017404423.2851748       -19760878.446834922        459433484.22277462     
  -1866097134.9584181       -19238325.203548908        456555487.08614701     
  -2669594276.2566829       -10199649.076910019        327981399.91785425     
  -2512499819.9535861       -10461877.949074984        319344629.19178301     
  -2355473457.8228431       -10951087.395726919        312767514.03100455     
  -2198515189.8644238       -11667277.416817784        308250054.43554056     
  -2041625016.0783591       -12610448.012399912        305792250.40538472     
  -2863216735.5486908       -1957538.1763660908        172487116.74616578     
  -2701096573.6439843       -1092769.4718997478        165457089.27634302     
  -2539347788.9196272       -1465924.7019375563        159973257.26323327     
  -2377970381.3756142       -3077003.8664580584        156035620.70682293     
  -2216964351.0119243       -5926006.9653767347        153644179.60713711     
  -3050782533.1275120        8101571.2381473780        17023320.160990652     
  -2885103694.5028958        9653228.8547012806        11246205.771420641     
  -2720099516.0666265        8956019.1768006086        6501826.7299573524     
  -2555769997.8186884        6009942.2044397593        2790183.0366171170     
  -2392115139.7591009        814997.93758988380        111274.69139705380     
  -1690380707.6520765       -25809638.538740814        605933889.64942539     
  -1550077298.9595950       -26440300.773364663        592531006.60690010     
  -1410966850.7245708       -31047497.866213381        577875933.88197207     
  -1273049362.9470274       -39631229.817311287        561968671.47463512     
  -1136324835.6269498       -52191496.626634896        544809219.38488543     
  -1866097134.9584181       -19238325.203548908        456555487.08614701     
  -1728809293.1808844       -22688378.787485361        442892881.50644845     
  -1591602864.1043622       -26409808.041463375        428813427.52441812     
  -1454477847.7288566       -30402612.965490401        414317125.14006203     
  -1317434244.0543685       -34666793.559575856        399403974.35337096     
  -2041625016.0783591       -12610448.012399912        305792250.40538472     
  -1904966051.8441300       -18163886.134172797        293166728.00437433     
  -1767276952.5544572       -20283540.737796187        280959698.48111767     
  -1628557718.2093334       -18969411.823256791        269171161.83560443     
  -1488808348.8087788       -14221499.390604258        257801118.06784740     
  -2216964351.0119243       -5926006.9653767347        153644179.60713711     
  -2078547574.9493406       -12866822.813449740        143352546.10068253     
  -1937989116.0748713       -12668695.955255508        134314746.75205773     
  -1795288974.3884668       -5331626.3906068802        126530781.56126454     
  -1650447149.8901904        9144385.8802919388        120000650.52829157     
  -2392115139.7591009        814997.93758988380        111274.69139705380     
  -2249553862.4965153       -6797188.8253358603       -6549664.2046286147     
  -2103739354.6655793       -3565273.6937631369       -11121427.662741806     
  -1954671616.2662644        10510743.332413554       -13604015.682954367     
  -1802350647.2986159        35430862.253023982       -13997428.265258934     
  -1136324835.6269498       -52191496.626634896        544809219.38488543     
  -951481251.00473225       -40720754.394907951        562958804.53658152     
  -759118139.86980808       -4184923.7875142395        592049521.61373222     
  -559235502.22219574        57415995.195515186        632081370.61633098     
  -351833338.06188989        144082002.55419475        683054351.54437399     
  -1317434244.0543685       -34666793.559575856        399403974.35337096     
  -1117782933.7994416       -14774072.837994039        421244327.16057652     
  -914506525.56338501        17202307.820675850        441590572.72367918     
  -707605019.34619701        61262348.416455507        460442711.04268062     
  -497078415.14787161        117406048.94935971        477800742.11757082     
  -1488808348.8087788       -14221499.390604258        257801118.06784740     
  -1309878567.6913085        3434423.3897542357        278788738.57706738     
  -1131218117.1242671        20192577.668668449        285847012.67262924     
  -952826997.10766387        36052963.446136355        278975940.35453808     
  -774705207.64147377        51015580.722225189        258175521.62279049     
  -1650447149.8901904        9144385.8802919388        120000650.52829157     
  -1527768152.6803300        13904734.288368642        135592038.78604907     
  -1409252914.5524662        4785885.7564556599        124818841.46058515     
  -1294901435.5065801       -18212159.715381026        87681058.551912218     
  -1184713715.5426941       -55089402.127221465        24178690.060029756     
  -1802350647.2986159        35430862.253023982       -13997428.265258934     
  -1771451688.7665050        16636859.857830286       -8345772.2124774959     
  -1748610917.8479540       -29017767.915897250       -41493940.912456423     
  -1733828334.5429776       -101533021.06821102       -113441934.36519010     
  -1727103938.8515108       -200908899.59888041       -224189752.57069662     
  -351833338.06188989        144082002.55419475        683054351.54437399     
  -277806261.49084949        285225137.27344066        786380087.64047623     
  -148997840.90240586        608972752.05069709        905514694.67022514     
   34591923.703462124        1115324846.8860321        1040458172.6336067     
   272963032.32673550        1804281421.7794015        1191210521.5306425     
  -497078415.14787161        117406048.94935971        477800742.11757082     
  -388254903.33555454        223047968.39654550        597077437.50582826     
  -230303206.01198989        492450506.21456212        735504338.74729013     
  -23223323.177186608        925613662.40339637        893081445.84194803     
   232984745.16887516        1522537436.9630420        1069808758.7897989     
  -774705207.64147377        51015580.722225189        258175521.62279049     
  -621538589.38915443        124020286.25698864        386807824.71267885     
  -424896944.13176155        341941748.47534418        537931668.57532227     
  -184780271.86927542        704779967.37731528        711547053.21072376     
   98811427.398276985        1212534942.9628615        907653978.61885142     
  -1184713715.5426941       -55089402.127221465        24178690.060029756     
  -977657319.65164137       -11857909.145244479        155571249.26102600     
  -732779055.26167476        157446478.83312374        312796684.15433002     
  -450078922.37280989        452823761.80781376        495854994.73993409     
  -129556920.98503351        874273939.77887344        704746181.01783562     
  -1727103938.8515108       -200908899.59888041       -224189752.57069662     
  -1456611094.1230073       -184586617.81010115       -96632288.849129573     
  -1153949539.4017842       -61035302.712235510        60099385.484294698     
  -819119274.68779111        169745045.69485837        246005270.42958641     
  -452120299.98106337        507754427.41105652        461085365.98671740     
 </DataArray>
 <DataArray  type="Float64" Name="VM" NumberOfComponents="1" format="ascii">
   5954648570.7787695     
   5765465167.0086575     
   5575672399.0789642     
   5385162208.5894194     
   5193847937.8211565     
   5659288651.6695671     
   5465423095.5770292     
   5271068005.5561495     
   5076198960.8430119     
   4880793670.3789396     
   5354592272.8664999     
   5162005126.8167362     
   4969668935.6311026     
   4777650964.9978876     
   4586038006.3676472     
   5045136575.5679808     
   4859403186.3477335     
   4675388626.0061893     
   4493250902.4425411     
   4313223109.5073423     
   4737351976.9351883     
   4563338360.5318279     
   4393377673.9787760     
   4227690442.7006245     
   4066660766.3935876     
   5193847937.8211565     
   5028988459.4402723     
   4864590689.7556057     
   4700652335.1751251     
   4537208921.0602703     
   4880793670.3789396     
   4726875139.7525864     
   4573747808.9662857     
   4421445363.3468046     
   4270044305.1705761     
   4586038006.3676472     
   4443196440.8435354     
   4301539251.8251104     
   4161141595.4061842     
   4022126974.3991055     
   4313223109.5073423     
   4181687617.6016641     
   4051799802.5134678     
   3923680725.3448205     
   3797505269.3055544     
   4066660766.3935876     
   3946749230.4734502     
   3829020144.8628864     
   3713642243.0069332     
   3600842532.0853724     
   4537208921.0602703     
   4339555926.1299343     
   4141670106.1749110     
   3943529906.5894599     
   3745153902.0833879     
   4270044305.1705761     
   4083006892.0218654     
   3896332162.9742146     
   3710071522.8250670     
   3524336439.1119771     
   4022126974.3991055     
   3846658975.8232055     
   3672311618.6272321     
   3499229453.5092425     
   3327640134.3557878     
   3797505269.3055544     
   3634612564.1518397     
   3473767276.4502645     
   3315221873.5726295     
   3159334566.6853266     
   3600842532.0853724     
   3451524055.5635858     
   3305335611.6928716     
   3162640190.9851065     
   3023923244.9802842     
   3745153902.0833879     
   3571710354.6080909     
   3398866121.6815248     
   3226608854.0537581     
   3054983667.7882719     
   3524336439.1119771     
   3361170885.3052020     
   3198977056.2639451     
   3037810115.1325011     
   2877788120.2757435     
   3327640134.3557878     
   3174614188.3687272     
   3022963958.6661091     
   2872822700.5770297     
   2724394263.3722286     
   3159334566.6853266     
   3016589251.0809669     
   2875658827.5038404     
   2736762349.5875635     
   2600198098.8741789     
   3023923244.9802842     
   2891888404.3739748     
   2762136928.3743215     
   2634974519.9158211     
   2510793210.3210874     
   3054983667.7882719     
   2890008046.5135722     
   2724611838.5541120     
   2558784825.8793640     
   2392522750.3460999     
   2877788120.2757435     
   2715713600.8913655     
   2553691676.2152705     
   2391751852.1485577     
   2229943475.9359989     
   2724394263.3722286     
   2567571285.2568417     
   2411648957.3444309     
   2256769542.0726409     
   2103134000.4895365     
   2600198098.8741789     
   2451057484.5551748     
   2304070220.9881496     
   2159556156.7755089     
   2017948657.5278008     
   2510793210.3210874     
   2371614220.1487241     
   2236194017.1581578     
   2105050738.1599581     
   1978861438.9141953     
   2392522750.3460999     
   2246191628.7373629     
   2102047248.4417808     
   1960089758.6599634     
   1820486150.1696906     
   2229943475.9359989     
   2086966969.0162165     
   1945644332.3477874     
   1805975978.0577478     
   1668038431.2236218     
   2103134000.4895365     
   1962769520.2416184     
   1823361640.2140622     
   1684941138.6696599     
   1547567030.0885572     
   2017948657.5278008     
   1881099350.7890925     
   1744564729.4607430     
   1608473264.1547513     
   1473001750.4650893     
   1978861438.9141953     
   1848170228.3782146     
   1717499984.0103707     
   1587198527.5122738     
   1457773249.4326670     
   1820486150.1696906     
   1779887136.7842579     
   1735772631.5051510     
   1696772240.6121726     
   1681381867.7265992     
   1668038431.2236218     
   1552632500.9142873     
   1428110792.1679637     
   1294829086.2741928     
   1158909007.1504617     
   1547567030.0885572     
   1397662984.0495770     
   1244198505.9389241     
   1084902790.6966307     
   917745380.86879671     
   1473001750.4650893     
   1328714831.3582420     
   1198898006.0862412     
   1088039500.3268335     
   1002053786.6096494     
   1457773249.4326670     
   1348702177.2863355     
   1274625011.5873873     
   1243676237.3566158     
   1262904950.6712403     
   1681381867.7265992     
   1383810168.1193097     
   1129481738.0590079     
   1010132161.9743345     
   1153079595.0168011     
   1158909007.1504617     
   1008448666.8954487     
   985217395.48927224     
   1161483255.9199605     
   1544153391.4338856     
   917745380.86879671     
   963138371.67755675     
   1144929262.7097766     
   1476477433.6408062     
   1957472761.5791686     
   1002053786.6096494     
   1164730068.5616107     
   1425433230.6458707     
   1808750730.9399693     
   2334769042.7184248     
   1262904950.6712403     
   1446702441.2331960     
   1715708128.2185390     
   2110503378.3936625     
   2663528797.9990339     
   4737351976.9351883     
   4563338360.5318279     
   4393377673.9787760     
   4227690442.7006245     
   4066660766.3935876     
   4398914466.2748451     
   4247181445.0943189     
   4099607939.8379741     
   3956504170.7211819     
   3818321250.8237829     
   4091691464.5971942     
   3961180837.4534798     
   3834868012.9829683     
   3713130729.7429180     
   3596462581.1722574     
   3817815435.9815507     
   3707833215.7521329     
   3602004017.1430559     
   3500741543.1969404     
   3404548877.6043091     
   3579426175.4896159     
   3489663964.5498986     
   3403909947.6037679     
   3322572402.9988914     
   3246123012.9095645     
   4066660766.3935876     
   3946749230.4734502     
   3829020144.8628864     
   3713642243.0069332     
   3600842532.0853724     
   3818321250.8237829     
   3710949524.0103831     
   3606237543.8413153     
   3504399458.6218696     
   3405705641.2608929     
   3596462581.1722574     
   3501819552.0574732     
   3410312974.7501698     
   3322191589.4545517     
   3237754885.9601259     
   3404548877.6043091     
   3322857761.1836314     
   3244749109.4709306     
   3170490023.1735754     
   3100389307.0016208     
   3246123012.9095645     
   3177576413.4338379     
   3112987247.5512323     
   3052620275.2400169     
   2996770147.0972209     
   3600842532.0853724     
   3451524055.5635858     
   3305335611.6928716     
   3162640190.9851065     
   3023923244.9802842     
   3405705641.2608929     
   3271288901.2626243     
   3140789021.2204418     
   3014659570.4223027     
   2893479880.1282587     
   3237754885.9601259     
   3118899425.5913215     
   3004790233.5407119     
   2895951025.8071136     
   2793023779.5747519     
   3100389307.0016208     
   2997672514.4979129     
   2900516785.7470689     
   2809480856.5714793     
   2725222641.5757155     
   2996770147.0972209     
   2910552310.0627737     
   2830622260.9788623     
   2757528460.2191820     
   2691890985.1486144     
   3023923244.9802842     
   2891888404.3739748     
   2762136928.3743215     
   2634974519.9158211     
   2510793210.3210874     
   2893479880.1282587     
   2773514037.1080437     
   2656981408.0982118     
   2544318458.2001104     
   2436064700.4929380     
   2793023779.5747519     
   2686829197.3239589     
   2585340210.6594305     
   2489096804.3926225     
   2398741083.0650897     
   2725222641.5757155     
   2634071386.9935031     
   2548904893.1661682     
   2470309483.1451807     
   2398953420.4568849     
   2691890985.1486144     
   2616402960.6199441     
   2548063599.8896036     
   2487435282.2638750     
   2435130868.1246810     
   2510793210.3210874     
   2371614220.1487241     
   2236194017.1581578     
   2105050738.1599581     
   1978861438.9141953     
   2436064700.4929380     
   2311488863.1953549     
   2191993838.6934667     
   2078288344.4798784     
   1971247933.3207369     
   2398741083.0650897     
   2290723936.5172896     
   2189135176.2233505     
   2094788592.0248206     
   2008631669.0398755     
   2398953420.4568849     
   2308737316.5647011     
   2226120019.9183321     
   2151905593.1254826     
   2086973775.2708728     
   2435130868.1246810     
   2363070943.4347420     
   2299463087.2441816     
   2245006423.6486073     
   2200420251.6020107     
   1978861438.9141953     
   1848170228.3782146     
   1717499984.0103707     
   1587198527.5122738     
   1457773249.4326670     
   1971247933.3207369     
   1855188742.6254406     
   1743489738.3346598     
   1637070223.2937226     
   1537058789.7607014     
   2008631669.0398755     
   1912326857.7597187     
   1824788406.3702421     
   1747213693.8103178     
   1680891333.0185342     
   2086973775.2708728     
   2011992499.8076031     
   1949359468.9607279     
   1900150691.7533669     
   1865392219.2988298     
   2200420251.6020107     
   2145318607.4556460     
   2105142888.0501893     
   2080656957.6604896     
   2072536340.5153878     
   1457773249.4326670     
   1348702177.2863355     
   1274625011.5873873     
   1243676237.3566158     
   1262904950.6712403     
   1537058789.7607014     
   1476163751.2277653     
   1447968913.0177019     
   1456443596.4095864     
   1504884544.1509042     
   1680891333.0185342     
   1652381576.9731131     
   1651594745.0701549     
   1680900519.5182254     
   1742907615.5291595     
   1865392219.2988298     
   1854878042.9110243     
   1867332789.6011224     
   1904965691.0035803     
   1970807207.7049763     
   2072536340.5153878     
   2069035376.7034485     
   2084763844.7827764     
   2122353657.7146668     
   2185615546.2312737     
   1262904950.6712403     
   1446702441.2331960     
   1715708128.2185390     
   2110503378.3936625     
   2663528797.9990339     
   1504884544.1509042     
   1613286111.4677143     
   1788876816.1568882     
   2066407762.4804890     
   2476086625.3589439     
   1742907615.5291595     
   1787714657.7376814     
   1884660657.6749816     
   2060655382.6349497     
   2340930059.7404838     
   1970807207.7049763     
   1968946810.5803144     
   2003624479.6092849     
   2093514068.7535703     
   2257275760.4417686     
   2185615546.2312737     
   2156267250.8607726     
   2146508884.6376812     
   2166862455.2758207     
   2228397744.2565494     
   3579426175.4896159     
   3489663964.5498986     
   3403909947.6037679     
   3322572402.9988914     
   3246123012.9095645     
   3389447604.4280772     
   3308550437.8977976     
   3233144856.9071717     
   3163675632.1863360     
   3100654796.4934516     
   3224857601.0000415     
   3153005319.8113260     
   3088323597.8511758     
   3031247872.1033678     
   2982277859.5220528     
   3095441310.5581565     
   3031782377.6077509     
   2977142484.8318758     
   2931893314.2158384     
   2896461454.2729807     
   3011932932.6768680     
   2954286737.7723289     
   2907636986.1195722     
   2872243812.8223586     
   2848408881.6095238     
   3246123012.9095645     
   3177576413.4338379     
   3112987247.5512323     
   3052620275.2400169     
   2996770147.0972209     
   3100654796.4934516     
   3040334436.6797915     
   2984914555.9318061     
   2934668475.4990296     
   2889899113.3947358     
   2982277859.5220528     
   2930219826.6511488     
   2884094907.9813471     
   2844159857.7988281     
   2810697751.3047409     
   2896461454.2729807     
   2852074625.9097676     
   2814715313.9688511     
   2784597477.6880465     
   2761956225.7501435     
   2848408881.6095238     
   2810345905.2122355     
   2780440310.9213490     
   2758843245.5506115     
   2745721485.7824764     
   2996770147.0972209     
   2910552310.0627737     
   2830622260.9788623     
   2757528460.2191820     
   2691890985.1486144     
   2889899113.3947358     
   2817556826.2548504     
   2752478878.9394732     
   2695183262.1502390     
   2646239128.1383429     
   2810697751.3047409     
   2751928329.6662502     
   2701314335.5898085     
   2659302626.8335428     
   2626369852.0614915     
   2761956225.7501435     
   2715790057.6670899     
   2678554829.8238797     
   2650597011.4467492     
   2632275813.3582611     
   2745721485.7824764     
   2710470406.1572933     
   2684810766.0931153     
   2668977833.5144515     
   2663209676.8260789     
   2691890985.1486144     
   2616402960.6199441     
   2548063599.8896036     
   2487435282.2638750     
   2435130868.1246810     
   2646239128.1383429     
   2585062842.7525077     
   2531647004.8872128     
   2486473276.9388542     
   2450047586.1324334     
   2626369852.0614915     
   2578708456.4303322     
   2539256276.7986608     
   2508391320.0423927     
   2486496693.0481462     
   2632275813.3582611     
   2596836468.1431689     
   2569905016.3285847     
   2551751199.9288821     
   2542639574.9453769     
   2663209676.8260789     
   2638275592.0830779     
   2622038214.0292296     
   2614669952.1391549     
   2616335224.2535152     
   2435130868.1246810     
   2363070943.4347420     
   2299463087.2441816     
   2245006423.6486073     
   2200420251.6020107     
   2450047586.1324334     
   2393518155.0828819     
   2346364177.6173625     
   2309150979.1866107     
   2282428036.9261789     
   2486496693.0481462     
   2444383033.4087324     
   2412311406.6043148     
   2390693736.0019202     
   2379908604.1873784     
   2542639574.9453769     
   2513236694.9090939     
   2494356502.9024777     
   2486267980.9394364     
   2489205473.1996875     
   2616335224.2535152     
   2597521506.6792860     
   2589621486.2840838     
   2592788674.9349704     
   2607150513.8076119     
   2200420251.6020107     
   2145318607.4556460     
   2105142888.0501893     
   2080656957.6604896     
   2072536340.5153878     
   2282428036.9261789     
   2242014217.8178234     
   2215501960.7957540     
   2203339237.8897495     
   2205912645.3830571     
   2379908604.1873784     
   2351247387.0685744     
   2335442091.0462904     
   2332742078.0852990     
   2343367946.0997663     
   2489205473.1996875     
   2469656536.4302306     
   2462012084.9836168     
   2466408168.5951705     
   2482979032.0579844     
   2607150513.8076119     
   2594440371.9975281     
   2592837454.4542217     
   2602420893.2160687     
   2623286563.6712766     
   2072536340.5153878     
   2069035376.7034485     
   2084763844.7827764     
   2122353657.7146668     
   2185615546.2312737     
   2205912645.3830571     
   2191578708.7610397     
   2192236304.6603966     
   2209855267.6884327     
   2247354707.4570098     
   2343367946.0997663     
   2319011421.3767757     
   2306191973.1298857     
   2306315700.5118322     
   2321470673.4769440     
   2482979032.0579844     
   2450362111.6827474     
   2426313448.8808808     
   2411778806.4567881     
   2408134793.5930920     
   2623286563.6712766     
   2584851876.9444470     
   2552317896.6047597     
   2526266186.5606112     
   2507505214.1054115     
   2185615546.2312737     
   2156267250.8607726     
   2146508884.6376812     
   2166862455.2758207     
   2228397744.2565494     
   2247354707.4570098     
   2182644492.8304410     
   2134369937.4750271     
   2112196380.2559988     
   2127056361.8697319     
   2321470673.4769440     
   2224736142.8427758     
   2141332669.2654424     
   2079624402.8717935     
   2049781101.6194673     
   2408134793.5930920     
   2282836140.5724831     
   2168043918.3004012     
   2070497525.9813986     
   1998963825.2724729     
   2507505214.1054115     
   2357153892.2318358     
   2214974237.5938067     
   2085946801.1767657     
   1976947321.9004550     
   3011932932.6768680     
   2954286737.7723289     
   2907636986.1195722     
   2872243812.8223586     
   2848408881.6095238     
   2812166543.2234201     
   2775760551.8896317     
   2749652144.2595296     
   2733996240.2747002     
   2728963456.0008235     
   2662421978.5332279     
   2644608896.1907864     
   2636102363.7856436     
   2636969882.7094636     
   2647282328.7444506     
   2564105437.5769753     
   2561875554.5315847     
   2567723117.3837433     
   2581663267.8794513     
   2603711248.5828576     
   2516091885.4689112     
   2526264251.0823240     
   2543147397.4683309     
   2566741324.6269383     
   2597046032.5581388     
   2848408881.6095238     
   2810345905.2122355     
   2780440310.9213490     
   2758843245.5506115     
   2745721485.7824764     
   2728963456.0008235     
   2704032032.8507009     
   2686660865.2995529     
   2676932573.5410495     
   2674935529.5119581     
   2647282328.7444506     
   2633287308.2582526     
   2626098340.4141583     
   2625749149.0293455     
   2632274829.8624229     
   2603711248.5828576     
   2598384145.3994455     
   2598991777.1894116     
   2605541430.0325894     
   2618040514.7478433     
   2597046032.5581388     
   2598202705.6418815     
   2604354756.4675865     
   2615502185.0352497     
   2631644991.3448706     
   2745721485.7824764     
   2710470406.1572933     
   2684810766.0931153     
   2668977833.5144515     
   2663209676.8260789     
   2674935529.5119581     
   2651035349.1076946     
   2636586592.0093746     
   2631723386.4249706     
   2636578040.0822711     
   2632274829.8624229     
   2617281322.7024455     
   2611530752.2335024     
   2615081980.3706717     
   2627991859.4466958     
   2618040514.7478433     
   2609254208.9015465     
   2609477565.8495750     
   2618724801.1644320     
   2637009434.5957580     
   2631644991.3448706     
   2626263247.5785151     
   2629670926.6755066     
   2641868028.6358385     
   2662854553.4595079     
   2663209676.8260789     
   2638275592.0830779     
   2622038214.0292296     
   2614669952.1391549     
   2616335224.2535152     
   2636578040.0822711     
   2620512779.6080937     
   2613159108.1624007     
   2614614818.0269189     
   2624970945.1747484     
   2627991859.4466958     
   2618821678.7308455     
   2618372978.7293520     
   2626689040.3554726     
   2643809345.8977404     
   2637009434.5957580     
   2632581772.5897737     
   2636918417.3873172     
   2650030067.1905360     
   2671926330.8843675     
   2662854553.4595079     
   2660924883.5364065     
   2667865049.3962169     
   2683675051.0389256     
   2708354888.4645424     
   2616335224.2535152     
   2597521506.6792860     
   2589621486.2840838     
   2592788674.9349704     
   2607150513.8076119     
   2624970945.1747484     
   2614067702.1144600     
   2613572529.7477989     
   2623563573.5776801     
   2644103777.0644102     
   2643809345.8977404     
   2638991321.0371461     
   2644169878.5418091     
   2659376427.2322559     
   2684635586.4002371     
   2671926330.8843675     
   2671421126.8466611     
   2680619382.3713651     
   2699528229.4891095     
   2728153128.6663947     
   2708354888.4645424     
   2710478765.3867288     
   2722144674.4426155     
   2743352615.6321959     
   2774102588.9554911     
   2607150513.8076119     
   2594440371.9975281     
   2592837454.4542217     
   2602420893.2160687     
   2623286563.6712766     
   2644103777.0644102     
   2633158153.7379217     
   2632467146.5801077     
   2642069945.2322373     
   2662016720.5454640     
   2684635586.4002371     
   2675147805.2382035     
   2675241426.6186981     
   2684931719.0741539     
   2704239379.1388602     
   2728153128.6663947     
   2719973888.9089036     
   2720862186.4578261     
   2730821342.2852011     
   2749856139.7341886     
   2774102588.9554911     
   2767225420.7383451     
   2769043578.9737415     
   2779557063.6616607     
   2798765874.8021150     
   2623286563.6712766     
   2584851876.9444470     
   2552317896.6047597     
   2526266186.5606112     
   2507505214.1054115     
   2662016720.5454640     
   2616654301.8257689     
   2576963376.2170720     
   2543274871.0245695     
   2516051211.2366824     
   2704239379.1388602     
   2654040572.9463396     
   2609427026.3428116     
   2570546158.7821093     
   2537604539.9744654     
   2749856139.7341886     
   2696917934.0656071     
   2649621314.4694839     
   2608002895.0923424     
   2572113996.1146750     
   2798765874.8021150     
   2745184947.8674755     
   2697444144.2797260     
   2655543464.0388660     
   2619482907.1448941     
   2507505214.1054115     
   2357153892.2318358     
   2214974237.5938067     
   2085946801.1767657     
   1976947321.9004550     
   2516051211.2366824     
   2348180554.2774529     
   2183868212.6315866     
   2026214233.9521334     
   1879783136.2037134     
   2537604539.9744654     
   2357303867.1447968     
   2176743095.6099906     
   1997393797.7207608     
   1821533727.4600947     
   2572113996.1146750     
   2384627321.8798494     
   2194065526.2752662     
   2000806851.8331897     
   1805455142.0799222     
   2619482907.1448941     
   2430119614.3953457     
   2235977903.5211339     
   2037057774.5222349     
   1833359227.3986921     
   2516091885.4689112     
   2526264251.0823240     
   2543147397.4683309     
   2566741324.6269383     
   2597046032.5581388     
   2564105434.6181159     
   2561875552.3509045     
   2567723116.0060320     
   2581663267.3285980     
   2603711248.8801842     
   2662421973.6790032     
   2644608892.6728311     
   2636102361.6212387     
   2636969881.9175763     
   2647282329.3430357     
   2812166537.5583711     
   2775760547.8993368     
   2749652141.9263525     
   2733996239.5868478     
   2728963456.9495583     
   3011932927.1851082     
   2954286734.1044369     
   2907636984.2007470     
   2872243812.5866003     
   2848408882.9977999     
   2597046032.5581388     
   2598202705.6418815     
   2604354756.4675865     
   2615502185.0352497     
   2631644991.3448706     
   2603711248.8801842     
   2598384145.5970078     
   2598991777.3079844     
   2605541430.0929112     
   2618040514.7706528     
   2647282329.3430357     
   2633287308.6568656     
   2626098340.6546369     
   2625749149.1535034     
   2632274829.9121532     
   2728963456.9495583     
   2704032033.4909620     
   2686660865.6936135     
   2676932573.7514768     
   2674935529.6017647     
   2848408882.9977999     
   2810345906.1682868     
   2780440311.5264158     
   2758843245.8869376     
   2745721485.9336677     
   2631644991.3448706     
   2626263247.5785151     
   2629670926.6755066     
   2641868028.6358385     
   2662854553.4595079     
   2618040514.7706528     
   2609254208.9179535     
   2609477565.8632550     
   2618724801.1790085     
   2637009434.6147633     
   2632274829.9121532     
   2617281322.7366567     
   2611530752.2595305     
   2615081980.3957920     
   2627991859.4780655     
   2674935529.6017647     
   2651035349.1688137     
   2636586592.0526705     
   2631723386.4613481     
   2636578040.1226411     
   2745721485.9336677     
   2710470406.2616196     
   2684810766.1646819     
   2668977833.5676684     
   2663209676.8756318     
   2662854553.4595079     
   2660924883.5364065     
   2667865049.3962169     
   2683675051.0389256     
   2708354888.4645424     
   2637009434.6147633     
   2632581772.6039066     
   2636918417.3992682     
   2650030067.2029815     
   2671926330.8999557     
   2627991859.4780655     
   2618821678.7526517     
   2618372978.7471747     
   2626689040.3748674     
   2643809345.9242330     
   2636578040.1226411     
   2620512779.6332483     
   2613159108.1810455     
   2614614818.0477610     
   2624970945.2065053     
   2663209676.8756318     
   2638275592.1096697     
   2622038214.0449090     
   2614669952.1560774     
   2616335224.2839456     
   2708354888.4645424     
   2710478765.3867288     
   2722144674.4426155     
   2743352615.6321959     
   2774102588.9554911     
   2671926330.8999557     
   2671421126.8601303     
   2680619382.3819447     
   2699528229.4960170     
   2728153128.6688724     
   2643809345.9242330     
   2638991321.0617895     
   2644169878.5630932     
   2659376427.2486329     
   2684635586.4101691     
   2624970945.2065053     
   2614067702.1472902     
   2613572529.7794647     
   2623563573.6058908     
   2644103777.0868034     
   2616335224.2839456     
   2597521506.7165685     
   2589621486.3253212     
   2592788674.9770966     
   2607150513.8473573     
   2774102588.9554911     
   2767225420.7383451     
   2769043578.9737415     
   2779557063.6616607     
   2798765874.8021150     
   2728153128.6688724     
   2719973888.9175415     
   2720862186.4723759     
   2730821342.3053522     
   2749856139.7596054     
   2684635586.4101691     
   2675147805.2590847     
   2675241426.6499667     
   2684931719.1151471     
   2704239379.1888719     
   2644103777.0868034     
   2633158153.7746992     
   2632467146.6303711     
   2642069945.2949166     
   2662016720.6194372     
   2607150513.8473573     
   2594440372.0538964     
   2592837454.5258374     
   2602420893.3014240     
   2623286563.7687011     
   2798765874.8021150     
   2745184947.8674755     
   2697444144.2797260     
   2655543464.0388660     
   2619482907.1448941     
   2749856139.7596054     
   2696917934.0878086     
   2649621314.4886007     
   2608002895.1084647     
   2572113996.1278286     
   2704239379.1888719     
   2654040572.9902577     
   2609427026.3809376     
   2570546158.8146358     
   2537604540.0014296     
   2662016720.6194372     
   2616654301.8910809     
   2576963376.2742071     
   2543274871.0738273     
   2516051211.2782078     
   2623286563.7687011     
   2584851877.0309095     
   2552317896.6809216     
   2526266186.6269712     
   2507505214.1622081     
   2619482907.1448941     
   2430119614.3953457     
   2235977903.5211339     
   2037057774.5222349     
   1833359227.3986921     
   2572113996.1278286     
   2384627321.8877425     
   2194065526.2766762     
   2000806851.8262691     
   1805455142.0617285     
   2537604540.0014296     
   2357303867.1614141     
   2176743095.6139264     
   1997393797.7085109     
   1821533727.4264064     
   2516051211.2782078     
   2348180554.3037267     
   2183868212.6393676     
   2026214233.9366753     
   1879783136.1583061     
   2507505214.1622081     
   2357153892.2687492     
   2214974237.6068850     
   2085946801.1605165     
   1976947321.8476443     
   3011932927.1851082     
   2954286734.1044369     
   2907636984.2007470     
   2872243812.5866003     
   2848408882.9977999     
   3095441305.3206596     
   3031782374.1093307     
   2977142482.9972029     
   2931893313.9786415     
   2896461455.5758662     
   3224857596.5919962     
   3153005316.9534721     
   3088323596.4432197     
   3031247872.0519543     
   2982277860.7430549     
   3389447601.1682706     
   3308550435.9483776     
   3233144856.1178532     
   3163675632.4091520     
   3100654797.5878081     
   3579426173.4726377     
   3489663963.5967836     
   3403909947.4905305     
   3322572403.4974489     
   3246123013.7953787     
   2848408882.9977999     
   2810345906.1682868     
   2780440311.5264158     
   2758843245.8869376     
   2745721485.9336677     
   2896461455.5758662     
   2852074626.8355837     
   2814715314.5754609     
   2784597478.0349083     
   2761956225.8986416     
   2982277860.7430549     
   2930219827.5443511     
   2884094908.5857286     
   2844159858.1550517     
   2810697751.4553795     
   3100654797.5878081     
   3040334437.4991131     
   2984914556.5008707     
   2934668475.8438721     
   2889899113.5426660     
   3246123013.7953787     
   3177576414.1080132     
   3112987248.0289989     
   3052620275.5369949     
   2996770147.2292457     
   2745721485.9336677     
   2710470406.2616196     
   2684810766.1646819     
   2668977833.5676684     
   2663209676.8756318     
   2761956225.8986416     
   2715790057.7841740     
   2678554829.9199982     
   2650597011.5328350     
   2632275813.4456611     
   2810697751.4553795     
   2751928329.7988405     
   2701314335.7116103     
   2659302626.9523907     
   2626369852.1857214     
   2889899113.5426660     
   2817556826.3979044     
   2752478879.0821767     
   2695183262.2976999     
   2646239128.2961745     
   2996770147.2292457     
   2910552310.2044506     
   2830622261.1324615     
   2757528460.3874931     
   2691890985.3348193     
   2663209676.8756318     
   2638275592.1096697     
   2622038214.0449090     
   2614669952.1560774     
   2616335224.2839456     
   2632275813.4456611     
   2596836468.2081714     
   2569905016.3801322     
   2551751199.9761076     
   2542639574.9975729     
   2626369852.1857214     
   2578708456.5329208     
   2539256276.8856249     
   2508391320.1199508     
   2486496693.1226697     
   2646239128.2961745     
   2585062842.8910098     
   2531647005.0096836     
   2486473277.0487041     
   2450047586.2331057     
   2691890985.3348193     
   2616402960.7919254     
   2548063600.0482049     
   2487435282.4098639     
   2435130868.2586703     
   2616335224.2839456     
   2597521506.7165685     
   2589621486.3253212     
   2592788674.9770966     
   2607150513.8473573     
   2542639574.9975729     
   2513236694.9638028     
   2494356502.9586344     
   2486267980.9957175     
   2489205473.2545280     
   2486496693.1226697     
   2444383033.4822941     
   2412311406.6777120     
   2390693736.0756674     
   2379908604.2617011     
   2450047586.2331057     
   2393518155.1792202     
   2346364177.7120824     
   2309150979.2821875     
   2282428037.0247698     
   2435130868.2586703     
   2363070943.5603843     
   2299463087.3661695     
   2245006423.7714810     
   2200420251.7300754     
   2607150513.8473573     
   2594440372.0538964     
   2592837454.5258374     
   2602420893.3014240     
   2623286563.7687011     
   2489205473.2545280     
   2469656536.5000067     
   2462012085.0676007     
   2466408168.6925144     
   2482979032.1676311     
   2379908604.2617011     
   2351247387.1550422     
   2335442091.1447892     
   2332742078.1955523     
   2343367946.2213368     
   2282428037.0247698     
   2242014217.9246497     
   2215501960.9111829     
   2203339238.0140595     
   2205912645.5163941     
   2200420251.7300754     
   2145318607.5868523     
   2105142888.1852770     
   2080656957.8002138     
   2072536340.6604559     
   2623286563.7687011     
   2584851877.0309095     
   2552317896.6809216     
   2526266186.6269712     
   2507505214.1622081     
   2482979032.1676311     
   2450362111.7805471     
   2426313448.9673667     
   2411778806.5322232     
   2408134793.6575117     
   2343367946.2213368     
   2319011421.4859977     
   2306191973.2270947     
   2306315700.5971074     
   2321470673.5501404     
   2205912645.5163941     
   2191578708.8818374     
   2192236304.7688379     
   2209855267.7844057     
   2247354707.5402074     
   2072536340.6604559     
   2069035376.8361225     
   2084763844.9030402     
   2122353657.8222196     
   2185615546.3257303     
   2507505214.1622081     
   2357153892.2687492     
   2214974237.6068850     
   2085946801.1605165     
   1976947321.8476443     
   2408134793.6575117     
   2282836140.6128664     
   2168043918.3129973     
   2070497525.9611630     
   1998963825.2133920     
   2321470673.5501404     
   2224736142.8885884     
   2141332669.2805104     
   2079624402.8520529     
   2049781101.5606225     
   2247354707.5402074     
   2182644492.8836770     
   2134369937.4956222     
   2112196380.2411356     
   2127056361.8171554     
   2185615546.3257303     
   2156267250.9234486     
   2146508884.6667812     
   2166862455.2699490     
   2228397744.2154369     
   3579426173.4726377     
   3489663963.5967836     
   3403909947.4905305     
   3322572403.4974489     
   3246123013.7953787     
   3817815435.6594429     
   3707833216.0027108     
   3602004017.7595997     
   3500741543.9675779     
   3404548878.3156691     
   4091691465.1989837     
   3961180838.2878757     
   3834868013.8870263     
   3713130730.5463686     
   3596462581.6980424     
   4398914467.1933327     
   4247181446.0244985     
   4099607940.6779141     
   3956504171.3599296     
   3818321251.1397643     
   4737351977.7156372     
   4563338361.1932917     
   4393377674.4890776     
   4227690443.0181947     
   4066660766.4649243     
   3246123013.7953787     
   3177576414.1080132     
   3112987248.0289989     
   3052620275.5369949     
   2996770147.2292457     
   3404548878.3156691     
   3322857761.7319145     
   3244749109.8646712     
   3170490023.4218879     
   3100389307.1139760     
   3596462581.6980424     
   3501819552.4724584     
   3410312975.0567355     
   3322191589.6558404     
   3237754886.0597363     
   3818321251.1397643     
   3710949524.2742505     
   3606237544.0500093     
   3504399458.7732639     
   3405705641.3534293     
   4066660766.4649243     
   3946749230.5599413     
   3829020144.9568014     
   3713642243.1017022     
   3600842532.1751347     
   2996770147.2292457     
   2910552310.2044506     
   2830622261.1324615     
   2757528460.3874931     
   2691890985.3348193     
   3100389307.1139760     
   2997672514.6243453     
   2900516785.8902054     
   2809480856.7344975     
   2725222641.7621436     
   3237754886.0597363     
   3118899425.7124081     
   3004790233.6864786     
   2895951025.9813161     
   2793023779.7815752     
   3405705641.3534293     
   3271288901.3864136     
   3140789021.3794069     
   3014659570.6210093     
   2893479880.3717861     
   3600842532.1751347     
   3451524055.6961026     
   3305335611.8728809     
   3162640191.2181273     
   3023923245.2725239     
   2691890985.3348193     
   2616402960.7919254     
   2548063600.0482049     
   2487435282.4098639     
   2435130868.2586703     
   2725222641.7621436     
   2634071387.1692262     
   2548904893.3312545     
   2470309483.2996998     
   2398953420.6008444     
   2793023779.7815752     
   2686829197.5229683     
   2585340210.8496199     
   2489096804.5729861     
   2398741083.2346125     
   2893479880.3717861     
   2773514037.3467164     
   2656981408.3297863     
   2544318458.4223046     
   2436064700.7034202     
   3023923245.2725239     
   2891888404.6648440     
   2762136928.6603246     
   2634974520.1933675     
   2510793210.5864520     
   2435130868.2586703     
   2363070943.5603843     
   2299463087.3661695     
   2245006423.7714810     
   2200420251.7300754     
   2398953420.6008444     
   2308737316.6986694     
   2226120020.0476413     
   2151905593.2555604     
   2086973775.4072382     
   2398741083.2346125     
   2290723936.6718411     
   2189135176.3683906     
   2094788592.1662130     
   2008631669.1839278     
   2436064700.7034202     
   2311488863.3830533     
   2191993838.8634586     
   2078288344.6378040     
   1971247933.4729652     
   2510793210.5864520     
   2371614220.3813734     
   2236194017.3622723     
   2105050738.3403153     
   1978861439.0763998     
   2200420251.7300754     
   2145318607.5868523     
   2105142888.1852770     
   2080656957.8002138     
   2072536340.6604559     
   2086973775.4072382     
   2011992499.9430931     
   1949359469.0962694     
   1900150691.8899410     
   1865392219.4373894     
   2008631669.1839278     
   1912326857.8992848     
   1824788406.5066087     
   1747213693.9448514     
   1680891333.1526580     
   1971247933.4729652     
   1855188742.7697191     
   1743489738.4726849     
   1637070223.4273865     
   1537058789.8920496     
   1978861439.0763998     
   1848170228.5287907     
   1717499984.1514063     
   1587198527.6460626     
   1457773249.5616941     
   2072536340.6604559     
   2069035376.8361225     
   2084763844.9030402     
   2122353657.8222196     
   2185615546.3257303     
   1865392219.4373894     
   1854878043.0377827     
   1867332789.7162485     
   1904965691.1070285     
   1970807207.7966309     
   1680891333.1526580     
   1652381577.0956199     
   1651594745.1812177     
   1680900519.6179361     
   1742907615.6176178     
   1537058789.8920496     
   1476163751.3475273     
   1447968913.1258924     
   1456443596.5061445     
   1504884544.2359838     
   1457773249.5616941     
   1348702177.4039917     
   1274625011.6934695     
   1243676237.4506528     
   1262904950.7529056     
   2185615546.3257303     
   2156267250.9234486     
   2146508884.6667812     
   2166862455.2699490     
   2228397744.2154369     
   1970807207.7966309     
   1968946810.6407049     
   2003624479.6365139     
   2093514068.7469964     
   2257275760.4032092     
   1742907615.6176178     
   1787714657.7964668     
   1884660657.7023394     
   2060655382.6314321     
   2340930059.7099419     
   1504884544.2359838     
   1613286111.5256512     
   1788876816.1863213     
   2066407762.4831553     
   2476086625.3405004     
   1262904950.7529056     
   1446702441.2911086     
   1715708128.2516737     
   2110503378.4050174     
   2663528797.9955316     
   4737351977.7156372     
   4563338361.1932917     
   4393377674.4890776     
   4227690443.0181947     
   4066660766.4649243     
   5045136575.9886074     
   4859403186.6813049     
   4675388626.2500849     
   4493250902.5872498     
   4313223109.5351076     
   5354592273.0577660     
   5162005126.9394951     
   4969668935.7063522     
   4777650965.0441093     
   4586038006.4002037     
   5659288651.8427296     
   5465423095.6663580     
   5271068005.6024561     
   5076198960.8893909     
   4880793670.4702778     
   5954648571.1989479     
   5765465167.2818327     
   5575672399.2634058     
   5385162208.7498960     
   5193847938.0277824     
   4066660766.4649243     
   3946749230.5599413     
   3829020144.9568014     
   3713642243.1017022     
   3600842532.1751347     
   4313223109.5351076     
   4181687617.6832275     
   4051799802.6408343     
   3923680725.5107989     
   3797505269.5033207     
   4586038006.4002037     
   4443196440.9828587     
   4301539252.0628462     
   4161141595.7345147     
   4022126974.8102903     
   4880793670.4702778     
   4726875140.0164442     
   4573747809.3939219     
   4421445363.9298286     
   4270044305.9004555     
   5193847938.0277824     
   5028988459.8965693     
   4864590690.4524412     
   4700652336.1035929     
   4537208922.2111816     
   3600842532.1751347     
   3451524055.6961026     
   3305335611.8728809     
   3162640191.2181273     
   3023923245.2725239     
   3797505269.5033207     
   3634612564.3724489     
   3473767276.7003760     
   3315221873.8598480     
   3159334567.0184054     
   4022126974.8102903     
   3846658976.2234993     
   3672311619.0226312     
   3499229453.9064760     
   3327640134.7627606     
   4270044305.9004555     
   4083006892.6923900     
   3896332163.5886726     
   3710071523.3869686     
   3524336439.6255798     
   4537208922.2111816     
   4339555927.1577568     
   4141670107.0787735     
   3943529907.3678894     
   3745153902.7349415     
   3023923245.2725239     
   2891888404.6648440     
   2762136928.6603246     
   2634974520.1933675     
   2510793210.5864520     
   3159334567.0184054     
   3016589251.4034972     
   2875658827.8153262     
   2736762349.8875694     
   2600198099.1624503     
   3327640134.7627606     
   3174614188.7480073     
   3022963959.0186601     
   2872822700.9039288     
   2724394263.6748476     
   3524336439.6255798     
   3361170885.7646227     
   3198977056.6701989     
   3037810115.4865761     
   2877788120.5788908     
   3745153902.7349415     
   3571710355.1688590     
   3398866122.1513319     
   3226608854.4321718     
   3054983668.0749345     
   2510793210.5864520     
   2371614220.3813734     
   2236194017.3622723     
   2105050738.3403153     
   1978861439.0763998     
   2600198099.1624503     
   2451057484.8098764     
   2304070221.2106514     
   2159556156.9674845     
   2017948657.6913497     
   2724394263.6748476     
   2567571285.5292859     
   2411648957.5863900     
   2256769542.2838883     
   2103134000.6699362     
   2877788120.5788908     
   2715713601.1728959     
   2553691676.4742503     
   2391751852.3840957     
   2229943476.1472406     
   3054983668.0749345     
   2890008046.7927628     
   2724611838.8252239     
   2558784826.1419530     
   2392522750.5998545     
   1978861439.0763998     
   1848170228.5287907     
   1717499984.1514063     
   1587198527.6460626     
   1457773249.5616941     
   2017948657.6913497     
   1881099350.9362645     
   1744564729.5937386     
   1608473264.2760010     
   1473001750.5772569     
   2103134000.6699362     
   1962769520.3995092     
   1823361640.3513389     
   1684941138.7883084     
   1547567030.1907525     
   2229943476.1472406     
   2086966969.1975348     
   1945644332.5004005     
   1805975978.1828938     
   1668038431.3225651     
   2392522750.5998545     
   2246191628.9525132     
   2102047248.6186671     
   1960089758.7988682     
   1820486150.2708395     
   1457773249.5616941     
   1348702177.4039917     
   1274625011.6934695     
   1243676237.4506528     
   1262904950.7529056     
   1473001750.5772569     
   1328714831.4575968     
   1198898006.1725061     
   1088039500.4000778     
   1002053786.6704783     
   1547567030.1907525     
   1397662984.1359639     
   1244198506.0089538     
   1084902790.7502899     
   917745380.90649438     
   1668038431.3225651     
   1552632500.9942381     
   1428110792.2282438     
   1294829086.3143792     
   1158909007.1699333     
   1820486150.2708395     
   1779887136.8634653     
   1735772631.5620685     
   1696772240.6466484     
   1681381867.7385626     
   1262904950.7529056     
   1446702441.2911086     
   1715708128.2516737     
   2110503378.4050174     
   2663528797.9955316     
   1002053786.6704783     
   1164730068.6058116     
   1425433230.6713233     
   1808750730.9488134     
   2334769042.7159166     
   917745380.90649438     
   963138371.70771921     
   1144929262.7275367     
   1476477433.6463954     
   1957472761.5764868     
   1158909007.1699333     
   1008448666.9117199     
   985217395.49938250     
   1161483255.9218976     
   1544153391.4299035     
   1681381867.7385626     
   1383810168.1273429     
   1129481738.0628607     
   1010132161.9727899     
   1153079595.0105143     
 </DataArray>
 <DataArray  type="Float64" Name="strain" NumberOfComponents="3" format="ascii">
   9.9242068162181951E-002  -2.9714425364238406E-002  -2.5770197170644771E-003
   9.6056149434687654E-002  -2.8947769002577561E-002  -1.6227907356972660E-003
   9.2870230707193357E-002  -2.8114170294591068E-002  -8.4471660070994936E-004
   8.9684311979699172E-002  -2.7213629240278342E-002  -2.4279731210352651E-004
   8.6498393252204875E-002  -2.6246145839639912E-002   1.8296713012322385E-004
   9.4315587226760034E-002  -2.7944573941988016E-002   5.9115037840552498E-003
   9.1018475293588197E-002  -2.7174537789049269E-002   6.4250807454411807E-003
   8.7721363360416305E-002  -2.6360493864037632E-002   6.8924261418520372E-003
   8.4424251427244468E-002  -2.5502442166953083E-002   7.3135399732879858E-003
   8.1127139494072520E-002  -2.4600382697795742E-002   7.6884222397490820E-003
   8.8828017571454532E-002  -2.6174722519737681E-002   1.4414874363579466E-002
   8.5549635714010475E-002  -2.5401306575520921E-002   1.4464864730730803E-002
   8.2271253856566362E-002  -2.4606817433484363E-002   1.4598546814312496E-002
   7.8992871999122305E-002  -2.3791255093627825E-002   1.4815920614324796E-002
   7.5714490141678276E-002  -2.2954619555951461E-002   1.5116986130767562E-002
   8.2779359196265445E-002  -2.4404871097487346E-002   2.2933092021507923E-002
   7.9649630695954599E-002  -2.3628075361992712E-002   2.2496561220171789E-002
   7.6519902195643752E-002  -2.2853141002931177E-002   2.2273645416671511E-002
   7.3390173695332919E-002  -2.2080068020302678E-002   2.2264344611007014E-002
   7.0260445195022059E-002  -2.1308856414107236E-002   2.2468658803178665E-002
   7.6169612101192885E-002  -2.2635019675236956E-002   3.1466156757840869E-002
   7.3318460239420569E-002  -2.1854844148464336E-002   3.0520170213764186E-002
   7.0467308377648363E-002  -2.1099464572377810E-002   2.9917721948928971E-002
   6.7616156515876102E-002  -2.0368880946977291E-002   2.9658811963335044E-002
   6.4765004654103814E-002  -1.9663093272262955E-002   2.9743440256982223E-002
   8.6498393252204875E-002  -2.6246145839639912E-002   1.8296713012322385E-004
   8.3788879040253006E-002  -2.5261829659112167E-002   2.4899071121520233E-005
   8.1079364828301248E-002  -2.4310790265130389E-002   5.0861410494817960E-005
   7.8369850616349435E-002  -2.3393027657695825E-002   2.6085414824378317E-004
   7.5660336404397621E-002  -2.2508541836807172E-002   6.5487728436786075E-004
   8.1127139494072520E-002  -2.4600382697795742E-002   7.6884222397490820E-003
   7.8600579171494933E-002  -2.3688129854567530E-002   7.4594331722454554E-003
   7.6074018848917319E-002  -2.2799498035270344E-002   7.4123214851151698E-003
   7.3547458526339718E-002  -2.1934487239904203E-002   7.5470871783578503E-003
   7.1020898203762117E-002  -2.1093097468469324E-002   7.8637302519736219E-003
   7.5714490141678276E-002  -2.2954619555951461E-002   1.5116986130767562E-002
   7.3368730690472672E-002  -2.2114430050022948E-002   1.4826731817377758E-002
   7.1022971239267124E-002  -2.1288205805410076E-002   1.4716201866358525E-002
   6.8677211788061562E-002  -2.0475946822113025E-002   1.4785396277710694E-002
   6.6331452336855973E-002  -1.9677653100131476E-002   1.5034315051433655E-002
   7.0260445195022059E-002  -2.1308856414107236E-002   2.2468658803178665E-002
   6.8093333597186376E-002  -2.0540730245478450E-002   2.2126795006517840E-002
   6.5926221999350693E-002  -1.9776913575549920E-002   2.1962502554225424E-002
   6.3759110401515010E-002  -1.9017406404321459E-002   2.1975781446302335E-002
   6.1591998803679320E-002  -1.8262208731793406E-002   2.2166631682747712E-002
   6.4765004654103814E-002  -1.9663093272262955E-002   2.9743440256982223E-002
   6.2774387891635919E-002  -1.8967030440933758E-002   2.9359622739665664E-002
   6.0783771129167982E-002  -1.8265621345689723E-002   2.9151223548715854E-002
   5.8793154366700066E-002  -1.7558865986530104E-002   2.9118242684132795E-002
   5.6802537604232095E-002  -1.6846764363455558E-002   2.9260680145916373E-002
   7.5660336404397621E-002  -2.2508541836807172E-002   6.5487728436786075E-004
   7.2341404396140119E-002  -2.1630020666212113E-002   3.6427872564381847E-004
   6.9022472387882616E-002  -2.0730152009656555E-002   2.5801603239505866E-004
   6.5703540379625086E-002  -1.9808935867141164E-002   3.3608920462085967E-004
   6.2384608371367611E-002  -1.8866372238665718E-002   5.9849824232127702E-004
   7.1020898203762117E-002  -2.1093097468469324E-002   7.8637302519736219E-003
   6.7888622366080564E-002  -2.0255438113479796E-002   7.5441981705801076E-003
   6.4756346528399067E-002  -1.9401618567451040E-002   7.4136425648642368E-003
   6.1624070690717542E-002  -1.8531638830382169E-002   7.4720634348250936E-003
   5.8491794853036017E-002  -1.7645498902274070E-002   7.7194607804633719E-003
   6.6331452336855973E-002  -1.9677653100131476E-002   1.5034315051433655E-002
   6.3390473279952786E-002  -1.8880855560747922E-002   1.4680662152450175E-002
   6.0449494223049613E-002  -1.8073085125245414E-002   1.4520626339346684E-002
   5.7508515166146405E-002  -1.7254341793623396E-002   1.4554207612122311E-002
   5.4567536109243225E-002  -1.6424625565882200E-002   1.4781405970777595E-002
   6.1591998803679320E-002  -1.8262208731793406E-002   2.2166631682747712E-002
   5.8846957137756763E-002  -1.7506273008015827E-002   2.1773670671254353E-002
   5.6101915471834227E-002  -1.6744551683039788E-002   2.1578967355842464E-002
   5.3356873805911670E-002  -1.5977044756864511E-002   2.1582521736512553E-002
   5.0611832139989127E-002  -1.5203752229490664E-002   2.1784333813264445E-002
   5.6802537604232095E-002  -1.6846764363455558E-002   2.9260680145916373E-002
   5.4258073939492502E-002  -1.6131690455284065E-002   2.8823223726992031E-002
   5.1713610274752936E-002  -1.5416018240834189E-002   2.8588665614351860E-002
   4.9169146610013328E-002  -1.4699747720105689E-002   2.8557005807995750E-002
   4.6624682945273721E-002  -1.3982878893099016E-002   2.8728244307923645E-002
   6.2384608371367611E-002  -1.8866372238665718E-002   5.9849824232127702E-004
   5.9510177129436626E-002  -1.7934104623343439E-002   3.5330732805494147E-004
   5.6635745887505751E-002  -1.7043776520289766E-002   2.9477351785045514E-004
   5.3761314645574820E-002  -1.6195387929502869E-002   4.2289681170826210E-004
   5.0886883403643890E-002  -1.5388938850984468E-002   7.3767720962747418E-004
   5.8491794853036017E-002  -1.7645498902274070E-002   7.7194607804633719E-003
   5.5796468947244660E-002  -1.6764706330631540E-002   7.4008756646936069E-003
   5.3101143041453358E-002  -1.5910768662960983E-002   7.2538441171409174E-003
   5.0405817135662001E-002  -1.5083685899261470E-002   7.2783661378057196E-003
   4.7710491229870644E-002  -1.4283458039534125E-002   7.4744417266876528E-003
   5.4567536109243225E-002  -1.6424625565882200E-002   1.4781405970777595E-002
   5.2036212003746696E-002  -1.5595308037919087E-002   1.4404511261800534E-002
   4.9504887898250305E-002  -1.4777760805631757E-002   1.4184066585196331E-002
   4.6973563792753817E-002  -1.3971983869019738E-002   1.4120071940964429E-002
   4.4442239687257384E-002  -1.3177977228083226E-002   1.4212527329104996E-002
   5.0611832139989127E-002  -1.5203752229490664E-002   2.1784333813264445E-002
   4.8229406298942831E-002  -1.4425909745206911E-002   2.1364214119376487E-002
   4.5846980457896577E-002  -1.3644752948302752E-002   2.1085440922016113E-002
   4.3464554616850351E-002  -1.2860281838778062E-002   2.0948014221183989E-002
   4.1082128775803979E-002  -1.2072496416632716E-002   2.0951934016879309E-002
   4.6624682945273721E-002  -1.3982878893099016E-002   2.8728244307923645E-002
   4.4376051832832941E-002  -1.3256511452494679E-002   2.8279984237420841E-002
   4.2127420720392245E-002  -1.2511745090974219E-002   2.7957967127600958E-002
   3.9878789607951423E-002  -1.1748579808536282E-002   2.7762192978464301E-002
   3.7630158495510713E-002  -1.0967015605181984E-002   2.7692661790010842E-002
   5.0886883403643890E-002  -1.5388938850984468E-002   7.3767720962747418E-004
   4.8133327714759089E-002  -1.4586405618291387E-002   4.8733558468727622E-004
   4.5379772025874177E-002  -1.3749764564982003E-002   2.8174582520501534E-004
   4.2626216336989292E-002  -1.2879015691054929E-002   1.2090793117924825E-004
   3.9872660648104463E-002  -1.1974158996511886E-002   4.8219026111961938E-006
   4.7710491229870644E-002  -1.4283458039534125E-002   7.4744417266876528E-003
   4.5012812375393563E-002  -1.3487270041958599E-002   7.1698072020006665E-003
   4.2315133520916509E-002  -1.2672306864714600E-002   6.9321744806721264E-003
   3.9617454666439386E-002  -1.1838568507803807E-002   6.7615435627017551E-003
   3.6919775811962374E-002  -1.0986054971224180E-002   6.6579144480901631E-003
   4.4442239687257384E-002  -1.3177977228083226E-002   1.4212527329104996E-002
   4.1822687605089226E-002  -1.2388134465625367E-002   1.3838267263722087E-002
   3.9203135522921054E-002  -1.1594849164448084E-002   1.3553258939598412E-002
   3.6583583440752888E-002  -1.0798121324551796E-002   1.3357502356734566E-002
   3.3964031358584751E-002  -9.9979509459366955E-003   1.3250997515129981E-002
   4.1082128775803979E-002  -1.2072496416632716E-002   2.0951934016879309E-002
   3.8562953403846009E-002  -1.1288998889292134E-002   2.0492715769851261E-002
   3.6043778031887977E-002  -1.0517391464181347E-002   2.0144999201984266E-002
   3.3524602659929938E-002  -9.7576741413004514E-003   1.9908784313277889E-002
   3.1005427287971982E-002  -9.0098469206493226E-003   1.9784071103731801E-002
   3.7630158495510713E-002  -1.0967015605181984E-002   2.7692661790010842E-002
   3.5233609771664010E-002  -1.0189863312959069E-002   2.7133152720389131E-002
   3.2837061047817251E-002  -9.4399337639146097E-003   2.6707395267829226E-002
   3.0440512323970520E-002  -8.7172269580490513E-003   2.6415389432331293E-002
   2.8043963600123789E-002  -8.0217428953615055E-003   2.6257135213895388E-002
   3.9872660648104463E-002  -1.1974158996511886E-002   4.8219026111961938E-006
   3.7458578427220779E-002  -1.1134482831016035E-002  -2.8381878254646331E-004
   3.5044496206337095E-002  -1.0459275544231927E-002  -4.8192853225614840E-004
   3.2630413985453355E-002  -9.9485371361588554E-003  -5.8950734651846970E-004
   3.0216331764569726E-002  -9.6022676067972768E-003  -6.0655522533248352E-004
   3.6919775811962374E-002  -1.0986054971224180E-002   6.6579144480901631E-003
   3.4578125465474729E-002  -1.0178290826985292E-002   6.2119436631163927E-003
   3.2236475118987085E-002  -9.4788006470926667E-003   5.8203056914865048E-003
   2.9894824772499495E-002  -8.8875844315467883E-003   5.4830005332013598E-003
   2.7553174426011906E-002  -8.4046421803480875E-003   5.2000281882608190E-003
   3.3964031358584751E-002  -9.9979509459366955E-003   1.3250997515129981E-002
   3.1658614764389859E-002  -9.2220988229535505E-003   1.2703891544704360E-002
   2.9353198170194883E-002  -8.4983257499527121E-003   1.2174920265519834E-002
   2.7047781575999977E-002  -7.8266317269342703E-003   1.1664083677576265E-002
   2.4742364981805015E-002  -7.2070167538986762E-003   1.1171381780872958E-002
   3.1005427287971982E-002  -9.0098469206493226E-003   1.9784071103731801E-002
   2.8700046323966229E-002  -8.2659068189218643E-003   1.9192024862218868E-002
   2.6394665359960469E-002  -7.5178508528128823E-003   1.8581915189843722E-002
   2.4089284395954709E-002  -6.7656790223220888E-003   1.7953742086605311E-002
   2.1783903431948907E-002  -6.0093913274493760E-003   1.7307505552504890E-002
   2.8043963600123789E-002  -8.0217428953615055E-003   2.6257135213895388E-002
   2.5702420144203875E-002  -7.3097148148906221E-003   2.5676343615659625E-002
   2.3360876688283821E-002  -6.5373759556736077E-003   2.5041290464457522E-002
   2.1019333232363810E-002  -5.7047263177097129E-003   2.4351975760289662E-002
   1.8677789776443854E-002  -4.8117659009997427E-003   2.3608399503155963E-002
   3.0216331764569726E-002  -9.6022676067972768E-003  -6.0655522533248352E-004
   2.9607379110758614E-002  -9.1345394409998448E-003  -3.6165012951761000E-004
   2.8998426456947501E-002  -8.2594251236181582E-003  -1.7980707730477219E-003
   2.8389473803136417E-002  -6.9769246546530078E-003  -4.9158171559229302E-003
   2.7780521149325277E-002  -5.2870380341036860E-003  -9.7148892781420138E-003
   2.7553174426011906E-002  -8.4046421803480875E-003   5.2000281882608190E-003
   2.5532326214865453E-002  -7.8705863345284177E-003   5.8756550130224516E-003
   2.3511478003719000E-002  -7.1260293351174120E-003   5.4088164624580548E-003
   2.1490629792572546E-002  -6.1709711821177349E-003   3.7995125365672677E-003
   1.9469781581426093E-002  -5.0054118755264998E-003   1.0477432353508398E-003
   2.4742364981805015E-002  -7.2070167538986762E-003   1.1171381780872958E-002
   2.1848481577341733E-002  -6.6066332280558804E-003   1.2080845336588153E-002
   1.8954598172878437E-002  -5.9926335466166381E-003   1.2386703880995470E-002
   1.6060714768415175E-002  -5.3650177095811227E-003   1.2088957414095367E-002
   1.3166831363951886E-002  -4.7237857169498687E-003   1.1187605935888134E-002
   2.1783903431948907E-002  -6.0093913274493760E-003   1.7307505552504890E-002
   1.8555845198187391E-002  -5.3426801215840092E-003   1.8253920841179466E-002
   1.5327786964425844E-002  -4.8592377581163221E-003   1.9135591482564961E-002
   1.2099728730664209E-002  -4.5590642370460684E-003   1.9952517476661605E-002
   8.8716704969026700E-003  -4.4421595583731821E-003   2.0704698823469050E-002
   1.8677789776443854E-002  -4.8117659009997427E-003   2.3608399503155963E-002
   1.5654417077402449E-002  -4.0787270151122490E-003   2.4394881526796697E-002
   1.2631044378361128E-002  -3.7258419696156730E-003   2.5655479267166437E-002
   9.6076716793197375E-003  -3.7531107645102091E-003   2.7390192724265905E-002
   6.5842989802784024E-003  -4.1605333997961624E-003   2.9599021898095157E-002
   2.7780521149325277E-002  -5.2870380341036860E-003  -9.7148892781420138E-003
   2.3353918479535718E-002  -4.2066118403374375E-003  -4.1873991834910917E-003
   1.8927315809745993E-002  -4.7524926517207855E-003   2.6043067043702850E-003
   1.4500713139956434E-002  -6.9246804682513846E-003   1.0660228385441617E-002
   1.0074110470166708E-002  -1.0723175289934161E-002   1.9980365859725069E-002
   1.9469781581426093E-002  -5.0054118755264998E-003   1.0477432353508398E-003
   1.6234999114916659E-002  -4.6906547791739639E-003   6.7414208008889087E-003
   1.3000216648407115E-002  -6.2880032568872757E-003   1.3554522979776662E-002
   9.7654341818973756E-003  -9.7974573086662131E-003   2.1487049772013322E-002
   6.5306517153882471E-003  -1.5219016934510776E-002   3.0539001177600777E-002
   1.3166831363951886E-002  -4.7237857169498687E-003   1.1187605935888134E-002
   1.0979077920861668E-002  -5.1746977180111564E-003   1.6761672403396155E-002
   8.7913244777714089E-003  -7.8235138620546818E-003   2.3310372304393839E-002
   6.6035710346813020E-003  -1.2670234149079272E-002   3.0833705638879952E-002
   4.4158175915909315E-003  -1.9714858579086947E-002   3.9331672406854423E-002
   8.8716704969026700E-003  -4.4421595583731821E-003   2.0704698823469050E-002
   7.5861548973708767E-003  -5.6587406568482379E-003   2.5873355624032063E-002
   6.3006392978391321E-003  -9.3590244672216300E-003   3.1871854678223087E-002
   5.0151236983073978E-003  -1.5543010989493438E-002   3.8700195986041200E-002
   3.7296080987755942E-003  -2.4210700223663784E-002   4.6358379547488893E-002
   6.5842989802784024E-003  -4.1605333997961624E-003   2.9599021898095157E-002
   6.0562300444443329E-003  -6.1427835956848753E-003   3.4076470462795827E-002
   5.5281611086101523E-003  -1.0894535072389216E-002   3.9238970101263482E-002
   5.0000921727760828E-003  -1.8415787829906764E-002   4.5086520813499092E-002
   4.4720232369419577E-003  -2.8706541868240176E-002   5.1619122599501299E-002
   7.6169612101192885E-002  -2.2635019675236956E-002   3.1466156757840869E-002
   7.3318460239420569E-002  -2.1854844148464336E-002   3.0520170213764186E-002
   7.0467308377648363E-002  -2.1099464572377810E-002   2.9917721948928971E-002
   6.7616156515876102E-002  -2.0368880946977291E-002   2.9658811963335044E-002
   6.4765004654103814E-002  -1.9663093272262955E-002   2.9743440256982223E-002
   6.9420786036704873E-002  -2.0696715464826099E-002   3.5516904283859951E-002
   6.6888903241352077E-002  -2.0023106674947971E-002   3.4813539617363803E-002
   6.4357020445999336E-002  -1.9356781315684968E-002   3.4405174804465422E-002
   6.1825137650646567E-002  -1.8697739387037102E-002   3.4291809845164598E-002
   5.9293254855293798E-002  -1.8045980889004332E-002   3.4473444739461595E-002
   6.2954890753269738E-002  -1.8758411254415241E-002   3.9452328812949258E-002
   6.0693738598692842E-002  -1.8191369201431593E-002   3.9009098544104504E-002
   5.8432586444115892E-002  -1.7614098058992132E-002   3.8812329703213931E-002
   5.6171434289539031E-002  -1.7026597827096750E-002   3.8862022290277298E-002
   5.3910282134962108E-002  -1.6428868505745514E-002   3.9158176305294695E-002
   5.6771926250887624E-002  -1.6820107044004398E-002   4.3272430345108373E-002
   5.4732966311442845E-002  -1.6359631727915290E-002   4.3106846993986328E-002
   5.2694006371998156E-002  -1.5871414802299321E-002   4.3139186645174424E-002
   5.0655046432553405E-002  -1.5355456267156505E-002   4.3369449298673000E-002
   4.8616086493108661E-002  -1.4811756122486877E-002   4.3797634954481884E-002
   5.0871892529558371E-002  -1.4881802833593527E-002   4.6977208880337684E-002
   4.9006586379602174E-002  -1.4527894254398849E-002   4.7106784967008930E-002
   4.7141280229645977E-002  -1.4128731545606441E-002   4.7385745630346837E-002
   4.5275974079689779E-002  -1.3684314707216119E-002   4.7814090870351503E-002
   4.3410667929733582E-002  -1.3194643739228074E-002   4.8391820687022802E-002
   6.4765004654103814E-002  -1.9663093272262955E-002   2.9743440256982223E-002
   6.2774387891635919E-002  -1.8967030440933758E-002   2.9359622739665664E-002
   6.0783771129167982E-002  -1.8265621345689723E-002   2.9151223548715854E-002
   5.8793154366700066E-002  -1.7558865986530104E-002   2.9118242684132795E-002
   5.6802537604232095E-002  -1.6846764363455558E-002   2.9260680145916373E-002
   5.9293254855293798E-002  -1.8045980889004332E-002   3.4473444739461595E-002
   5.7471965161809149E-002  -1.7396084027441153E-002   3.4176766254035360E-002
   5.5650675468324459E-002  -1.6742627008202587E-002   3.4043323580209020E-002
   5.3829385774839776E-002  -1.6085609831288560E-002   3.4073116717982459E-002
   5.2008096081355121E-002  -1.5425032496699020E-002   3.4266145667355807E-002
   5.3910282134962108E-002  -1.6428868505745514E-002   3.9158176305294695E-002
   5.2246136995693859E-002  -1.5825137613948395E-002   3.8946850745519082E-002
   5.0581991856425632E-002  -1.5219632670715612E-002   3.8886578482576491E-002
   4.8917846717157397E-002  -1.4612353676046902E-002   3.8977359516466928E-002
   4.7253701577889162E-002  -1.4003300629942372E-002   3.9219193847190359E-002
   4.8616086493108661E-002  -1.4811756122486877E-002   4.3797634954481884E-002
   4.7096903393290070E-002  -1.4254191200455714E-002   4.3669876214117165E-002
   4.5577720293471465E-002  -1.3696638333228473E-002   4.3680988255818537E-002
   4.4058537193652880E-002  -1.3139097520805176E-002   4.3830971079586181E-002
   4.2539354093834275E-002  -1.2581568763185808E-002   4.4119824685420007E-002
   4.3410667929733582E-002  -1.3194643739228074E-002   4.8391820687022802E-002
   4.2024264354597773E-002  -1.2683244786962977E-002   4.8345842659829275E-002
   4.0637860779461965E-002  -1.2173643995741515E-002   4.8426552899934999E-002
   3.9251457204326171E-002  -1.1665841365563621E-002   4.8633951407340170E-002
   3.7865053629190348E-002  -1.1159836896429243E-002   4.8968038182044815E-002
   5.6802537604232095E-002  -1.6846764363455558E-002   2.9260680145916373E-002
   5.4258073939492502E-002  -1.6131690455284065E-002   2.8823223726992031E-002
   5.1713610274752936E-002  -1.5416018240834189E-002   2.8588665614351860E-002
   4.9169146610013328E-002  -1.4699747720105689E-002   2.8557005807995750E-002
   4.6624682945273721E-002  -1.3982878893099016E-002   2.8728244307923645E-002
   5.2008096081355121E-002  -1.5425032496699020E-002   3.4266145667355807E-002
   4.9664211018218676E-002  -1.4760479822168326E-002   3.3868910977404021E-002
   4.7320325955082232E-002  -1.4091536625431250E-002   3.3669935184374056E-002
   4.4976440891945718E-002  -1.3418202906487951E-002   3.3669218288266523E-002
   4.2632555828809343E-002  -1.2740478665338340E-002   3.3866760289081088E-002
   4.7253701577889162E-002  -1.4003300629942372E-002   3.9219193847190359E-002
   4.5105755706993864E-002  -1.3389269189052644E-002   3.8865973102139018E-002
   4.2957809836098503E-002  -1.2767055010028741E-002   3.8706371844647633E-002
   4.0809863965203211E-002  -1.2136658092870265E-002   3.8740390074716462E-002
   3.8661918094307843E-002  -1.1498078437577497E-002   3.8968027792345261E-002
   4.2539354093834275E-002  -1.2581568763185808E-002   4.4119824685420007E-002
   4.0582708005818077E-002  -1.2018058555936989E-002   4.3814410101197056E-002
   3.8626061917801914E-002  -1.1442573394626100E-002   4.3697975595172189E-002
   3.6669415829785688E-002  -1.0855113279252608E-002   4.3770521167345276E-002
   3.4712769741769553E-002  -1.0255678209816849E-002   4.4032046817716865E-002
   3.7865053629190348E-002  -1.1159836896429243E-002   4.8968038182044815E-002
   3.6095067914691331E-002  -1.0646847922821390E-002   4.8714221974578253E-002
   3.4325082200192300E-002  -1.0118091779223334E-002   4.8644746435947489E-002
   3.2555096485693262E-002  -9.5735684656347124E-003   4.8759611566153147E-002
   3.0785110771194252E-002  -9.0132779820559783E-003   4.9058817365195018E-002
   4.6624682945273721E-002  -1.3982878893099016E-002   2.8728244307923645E-002
   4.4376051832832941E-002  -1.3256511452494679E-002   2.8279984237420841E-002
   4.2127420720392245E-002  -1.2511745090974219E-002   2.7957967127600958E-002
   3.9878789607951423E-002  -1.1748579808536282E-002   2.7762192978464301E-002
   3.7630158495510713E-002  -1.0967015605181984E-002   2.7692661790010842E-002
   4.2632555828809343E-002  -1.2740478665338340E-002   3.3866760289081088E-002
   4.0516957914149082E-002  -1.2052985091543122E-002   3.3463553369638910E-002
   3.8401359999488807E-002  -1.1350343374663702E-002   3.3200169885074710E-002
   3.6285762084828595E-002  -1.0632553514699945E-002   3.3076609835388154E-002
   3.4170164170168271E-002  -9.8996155116518603E-003   3.3092873220579855E-002
   3.8661918094307843E-002  -1.1498078437577497E-002   3.8968027792345261E-002
   3.6692933851622894E-002  -1.0849458730591482E-002   3.8606623246131871E-002
   3.4723949608937897E-002  -1.0188941658353393E-002   3.8398622608991004E-002
   3.2754965366252900E-002  -9.5165272208635500E-003   3.8344025880922748E-002
   3.0785981123567938E-002  -8.8322154181215140E-003   3.8442833061926973E-002
   3.4712769741769553E-002  -1.0255678209816849E-002   4.4032046817716865E-002
   3.2903979645254558E-002  -9.6459323696399396E-003   4.3709193866899469E-002
   3.1095189548739514E-002  -9.0275399420433958E-003   4.3553325299349605E-002
   2.9286399452224519E-002  -8.4005009270272397E-003   4.3564441115066896E-002
   2.7477609355709476E-002  -7.7648153245912233E-003   4.3742541314051642E-002
   3.0785110771194252E-002  -9.0132779820559783E-003   4.9058817365195018E-002
   2.9150095295043921E-002  -8.4424060086881747E-003   4.8771265231941752E-002
   2.7515079818893631E-002  -7.8661382257330936E-003   4.8664277956150415E-002
   2.5880064342743335E-002  -7.2844746331908947E-003   4.8737855537821395E-002
   2.4245048866593011E-002  -6.6974152310609325E-003   4.8991997976954083E-002
   3.7630158495510713E-002  -1.0967015605181984E-002   2.7692661790010842E-002
   3.5233609771664010E-002  -1.0189863312959069E-002   2.7133152720389131E-002
   3.2837061047817251E-002  -9.4399337639146097E-003   2.6707395267829226E-002
   3.0440512323970520E-002  -8.7172269580490513E-003   2.6415389432331293E-002
   2.8043963600123789E-002  -8.0217428953615055E-003   2.6257135213895388E-002
   3.4170164170168271E-002  -9.8996155116518603E-003   3.3092873220579855E-002
   3.1911248204575998E-002  -9.1681702816382993E-003   3.2590378354726890E-002
   2.9652332238983642E-002  -8.4548587407780595E-003   3.2229397388320563E-002
   2.7393416273391355E-002  -7.7596808890714325E-003   3.2009930321360888E-002
   2.5134500307799040E-002  -7.0826367265182100E-003   3.1931977153848656E-002
   3.0785981123567938E-002  -8.8322154181215140E-003   3.8442833061926973E-002
   2.8672460198615010E-002  -8.1464772503175575E-003   3.8006441453867390E-002
   2.6558939273662152E-002  -7.4697837176418425E-003   3.7719326027639805E-002
   2.4445418348709273E-002  -6.8021348200941467E-003   3.7581486783244133E-002
   2.2331897423756381E-002  -6.1435305576746924E-003   3.7592923720680266E-002
   2.7477609355709476E-002  -7.7648153245912233E-003   4.3742541314051642E-002
   2.5517245753781084E-002  -7.1247842189968574E-003   4.3381342017811214E-002
   2.3556882151852615E-002  -6.4847086945054588E-003   4.3177181185787547E-002
   2.1596518549924174E-002  -5.8445887511169164E-003   4.3130058817980876E-002
   1.9636154947995758E-002  -5.2044243888313968E-003   4.3239974914391424E-002
   2.4245048866593011E-002  -6.6974152310609325E-003   4.8991997976954083E-002
   2.2445604870074132E-002  -6.1030911876761018E-003   4.8715080046557890E-002
   2.0646160873555169E-002  -5.4996336713690475E-003   4.8602962862763499E-002
   1.8846716877036249E-002  -4.8870426821395682E-003   4.8655646425571075E-002
   1.7047272880517272E-002  -4.2653182199877682E-003   4.8873130734980785E-002
   2.8043963600123789E-002  -8.0217428953615055E-003   2.6257135213895388E-002
   2.5702420144203875E-002  -7.3097148148906221E-003   2.5676343615659625E-002
   2.3360876688283821E-002  -6.5373759556736077E-003   2.5041290464457522E-002
   2.1019333232363810E-002  -5.7047263177097129E-003   2.4351975760289662E-002
   1.8677789776443854E-002  -4.8117659009997427E-003   2.3608399503155963E-002
   2.5134500307799040E-002  -7.0826367265182100E-003   3.1931977153848656E-002
   2.2777417345414358E-002  -6.4068357934278786E-003   3.1534747014882958E-002
   2.0420334383029717E-002  -5.7153876301106743E-003   3.1160699415953841E-002
   1.8063251420644980E-002  -5.0082922365659796E-003   3.0809834357061222E-002
   1.5706168458260394E-002  -4.2855496127940373E-003   3.0482151838205351E-002
   2.2331897423756381E-002  -6.1435305576746924E-003   3.7592923720680266E-002
   2.0036719047909601E-002  -5.5039567719652460E-003   3.7334591492465846E-002
   1.7741540672062801E-002  -4.8933993045477409E-003   3.7176885897290429E-002
   1.5446362296216026E-002  -4.3118581554220242E-003   3.7119806935154112E-002
   1.3151183920369222E-002  -3.7593333245882765E-003   3.7163354606057242E-002
   1.9636154947995758E-002  -5.2044243888313968E-003   4.3239974914391424E-002
   1.7480325251689438E-002  -4.6010777505027245E-003   4.3075877048408658E-002
   1.5324495555383144E-002  -4.0714109789848629E-003   4.3089849908467759E-002
   1.3168665859076823E-002  -3.6154240742781799E-003   4.3281893494568263E-002
   1.1012836162770528E-002  -3.2331170363826545E-003   4.3652007806710982E-002
   1.7047272880517272E-002  -4.2653182199877682E-003   4.8873130734980785E-002
   1.5108235956754035E-002  -3.6981987290399809E-003   4.8758603682711010E-002
   1.3169199032990714E-002  -3.2494226534219850E-003   4.8899591449485524E-002
   1.1230162109227407E-002  -2.9189899931344188E-003   4.9296094035304328E-002
   9.2911251854641552E-003  -2.7069007481768104E-003   4.9948111440167198E-002
   1.8677789776443854E-002  -4.8117659009997427E-003   2.3608399503155963E-002
   1.5654417077402449E-002  -4.0787270151122490E-003   2.4394881526796697E-002
   1.2631044378361128E-002  -3.7258419696156730E-003   2.5655479267166437E-002
   9.6076716793197375E-003  -3.7531107645102091E-003   2.7390192724265905E-002
   6.5842989802784024E-003  -4.1605333997961624E-003   2.9599021898095157E-002
   1.5706168458260394E-002  -4.2855496127940373E-003   3.0482151838205351E-002
   1.3138471170498378E-002  -3.7733129991974756E-003   3.1258423791203749E-002
   1.0570773882736334E-002  -3.6977356361787284E-003   3.2471930850030917E-002
   8.0030765949742830E-003  -4.0588175237383298E-003   3.4122673014687716E-002
   5.4353793072122736E-003  -4.8565586618757317E-003   3.6210650285173451E-002
   1.3151183920369222E-002  -3.7593333245882765E-003   3.7163354606057242E-002
   1.1002281432986316E-002  -3.4678989832828688E-003   3.7872911078226129E-002
   8.8533789456034032E-003  -3.6696293027421167E-003   3.8982822045324189E-002
   6.7044764582204729E-003  -4.3645242829662284E-003   4.0493087507351047E-002
   4.5555739708375842E-003  -5.5525839239552455E-003   4.2403707464307133E-002
   1.1012836162770528E-002  -3.2331170363826545E-003   4.3652007806710982E-002
   9.2458478648664161E-003  -3.1624849673682898E-003   4.4238343387864192E-002
   7.4788595669623027E-003  -3.6415229693053386E-003   4.5188152853045921E-002
   5.7118712690582161E-003  -4.6702310421943491E-003   4.6501436202256267E-002
   3.9448829711540775E-003  -6.2486091860348980E-003   4.8178193435495571E-002
   9.2911251854641552E-003  -2.7069007481768104E-003   4.9948111440167198E-002
   7.8691704661385808E-003  -2.8570709514534887E-003   5.0354720720117707E-002
   6.4472157468130620E-003  -3.6134166358686437E-003   5.1087923273196501E-002
   5.0252610274875431E-003  -4.9759378014221020E-003   5.2147719099403717E-002
   3.6033063081620242E-003  -6.9446344481142175E-003   5.3534108198739383E-002
   6.5842989802784024E-003  -4.1605333997961624E-003   2.9599021898095157E-002
   6.0562300444443329E-003  -6.1427835956848753E-003   3.4076470462795827E-002
   5.5281611086101523E-003  -1.0894535072389216E-002   3.9238970101263482E-002
   5.0000921727760828E-003  -1.8415787829906764E-002   4.5086520813499092E-002
   4.4720232369419577E-003  -2.8706541868240176E-002   5.1619122599501299E-002
   5.4353793072122736E-003  -4.8565586618757317E-003   3.6210650285173451E-002
   5.4885684437069315E-003  -6.9907460849686909E-003   3.8350552885053235E-002
   5.5417575802014785E-003  -1.1361166827395103E-002   4.0967920555822435E-002
   5.5949467166959907E-003  -1.7967820889154142E-002   4.4062753297482882E-002
   5.6481358531906278E-003  -2.6810708270246897E-002   4.7635051110032522E-002
   4.5555739708375842E-003  -5.5525839239552455E-003   4.2403707464307133E-002
   4.9824351767837893E-003  -7.8387085742523954E-003   4.2739332060847041E-002
   5.4092963827301055E-003  -1.1827798582401003E-002   4.3344835725400363E-002
   5.8361575886762829E-003  -1.7519853948401411E-002   4.4220218457966524E-002
   6.2630187946226268E-003  -2.4914874672253395E-002   4.5365480258546032E-002
   3.9448829711540775E-003  -6.2486091860348980E-003   4.8178193435495571E-002
   4.5378302436750381E-003  -8.6866710635360445E-003   4.7242807990177930E-002
   5.1307775161958322E-003  -1.2294430337407118E-002   4.6369715609995671E-002
   5.7237247887167789E-003  -1.7071887007648737E-002   4.5558916294950048E-002
   6.3166720612376423E-003  -2.3019041074260005E-002   4.4810410045040189E-002
   3.6033063081620242E-003  -6.9446344481142175E-003   5.3534108198739383E-002
   4.1547536443805044E-003  -9.5346335528199155E-003   5.1860980673044899E-002
   4.7062009805989569E-003  -1.2761062092413206E-002   5.0042560209609344E-002
   5.2576483168174787E-003  -1.6623920066895774E-002   4.8078846808433190E-002
   5.8090956530358895E-003  -2.1123207476266614E-002   4.5969840469516132E-002
   5.0871892529558371E-002  -1.4881802833593527E-002   4.6977208880337684E-002
   4.9006586379602174E-002  -1.4527894254398849E-002   4.7106784967008930E-002
   4.7141280229645977E-002  -1.4128731545606441E-002   4.7385745630346837E-002
   4.5275974079689779E-002  -1.3684314707216119E-002   4.7814090870351503E-002
   4.3410667929733582E-002  -1.3194643739228074E-002   4.8391820687022802E-002
   4.4965176575871485E-002  -1.3001242775435240E-002   5.1537888964468148E-002
   4.3269042852660047E-002  -1.2689577725199935E-002   5.1432319689791700E-002
   4.1572909129448721E-002  -1.2340442735877769E-002   5.1515710691938194E-002
   3.9876775406237394E-002  -1.1953837807468840E-002   5.1788061970907476E-002
   3.8180641683026026E-002  -1.1529762939973154E-002   5.2249373526699783E-002
   3.8762165376416441E-002  -1.1120682717276981E-002   5.6060217614894839E-002
   3.7274779780106189E-002  -1.0851261196000980E-002   5.5711718788359413E-002
   3.5787394183795881E-002  -1.0552153926149159E-002   5.5591755938803521E-002
   3.4300008587485574E-002  -1.0223360907721536E-002   5.5700329066226656E-002
   3.2812622991175294E-002  -9.8648821407181231E-003   5.6037438170628825E-002
   3.2262858931193329E-002  -9.2401226591187352E-003   6.0544194831617548E-002
   3.1023797161940321E-002  -9.0129446668020044E-003   5.9944982262712596E-002
   2.9784735392687330E-002  -8.7638651164205460E-003   5.9613881370943075E-002
   2.8545673623434326E-002  -8.4928840079742454E-003   5.9550892156308856E-002
   2.7306611854181331E-002  -8.2000013414630646E-003   5.9756014618810319E-002
   2.5467257240202074E-002  -7.3595626009604342E-003   6.4989820614636484E-002
   2.4516094998162596E-002  -7.1746281376030840E-003   6.4132110112850804E-002
   2.3564932756123147E-002  -6.9755763066919191E-003   6.3582086988356795E-002
   2.2613770514083670E-002  -6.7624071082269081E-003   6.3339751241154416E-002
   2.1662608272044206E-002  -6.5351205422081171E-003   6.3405102871243735E-002
   4.3410667929733582E-002  -1.3194643739228074E-002   4.8391820687022802E-002
   4.2024264354597773E-002  -1.2683244786962977E-002   4.8345842659829275E-002
   4.0637860779461965E-002  -1.2173643995741515E-002   4.8426552899934999E-002
   3.9251457204326171E-002  -1.1665841365563621E-002   4.8633951407340170E-002
   3.7865053629190348E-002  -1.1159836896429243E-002   4.8968038182044815E-002
   3.8180641683026026E-002  -1.1529762939973154E-002   5.2249373526699783E-002
   3.6932686379467020E-002  -1.1086482333115835E-002   5.2076734747936879E-002
   3.5684731075908048E-002  -1.0642260186622274E-002   5.2054304245027966E-002
   3.4436775772349035E-002  -1.0197096500492438E-002   5.2182082017973336E-002
   3.3188820468790056E-002  -9.7509912747262284E-003   5.2460068066773002E-002
   3.2812622991175294E-002  -9.8648821407181231E-003   5.6037438170628825E-002
   3.1726635967747940E-002  -9.4897198792688042E-003   5.5740878340976310E-002
   3.0640648944320586E-002  -9.1108763775030813E-003   5.5618046795732783E-002
   2.9554661920893247E-002  -8.7283516354213653E-003   5.5668943534898374E-002
   2.8468674897465886E-002  -8.3421456530233529E-003   5.5893568558472953E-002
   2.7306611854181331E-002  -8.2000013414630646E-003   5.9756014618810319E-002
   2.6406113119440463E-002  -7.8929574254216622E-003   5.9338273438948055E-002
   2.5505614384699608E-002  -7.5794925683838922E-003   5.9117780552049679E-002
   2.4605115649958733E-002  -7.2596067703502376E-003   5.9094535958115320E-002
   2.3704616915217885E-002  -6.9333000313203802E-003   5.9268539657144723E-002
   2.1662608272044206E-002  -6.5351205422081171E-003   6.3405102871243735E-002
   2.0971117834544639E-002  -6.2961949715746035E-003   6.2868920041851739E-002
   2.0279627397045093E-002  -6.0481087592646060E-003   6.2553505513978508E-002
   1.9588136959545543E-002  -5.7908619052792661E-003   6.2458859287623972E-002
   1.8896646522045993E-002  -5.5244544096175185E-003   6.2584981362788283E-002
   3.7865053629190348E-002  -1.1159836896429243E-002   4.8968038182044815E-002
   3.6095067914691331E-002  -1.0646847922821390E-002   4.8714221974578253E-002
   3.4325082200192300E-002  -1.0118091779223334E-002   4.8644746435947489E-002
   3.2555096485693262E-002  -9.5735684656347124E-003   4.8759611566153147E-002
   3.0785110771194252E-002  -9.0132779820559783E-003   4.9058817365195018E-002
   3.3188820468790056E-002  -9.7509912747262284E-003   5.2460068066773002E-002
   3.1610179958890608E-002  -9.2974407294805772E-003   5.2184202118802592E-002
   3.0031539448991167E-002  -8.8299410849119186E-003   5.2106685911195078E-002
   2.8452898939091701E-002  -8.3484923410204054E-003   5.2227519443950654E-002
   2.6874258429192263E-002  -7.8530944978059125E-003   5.2546702717069294E-002
   2.8468674897465886E-002  -8.3421456530233529E-003   5.5893568558472953E-002
   2.7095388663692897E-002  -7.9480335361396259E-003   5.5593834799331276E-002
   2.5722102429919898E-002  -7.5417903906003989E-003   5.5506459852079477E-002
   2.4348816196146914E-002  -7.1234162164058226E-003   5.5631443716717480E-002
   2.2975529962373904E-002  -6.6929110135558467E-003   5.5968786393245457E-002
   2.3704616915217885E-002  -6.9333000313203802E-003   5.9268539657144723E-002
   2.2550694029098220E-002  -6.5986263427986885E-003   5.8943120016164197E-002
   2.1396771142978541E-002  -6.2536396962888756E-003   5.8844068258600495E-002
   2.0242848256858851E-002  -5.8983400917912111E-003   5.8971384384453505E-002
   1.9088925370739196E-002  -5.5327275293057254E-003   5.9325068393723236E-002
   1.8896646522045993E-002  -5.5244544096175185E-003   6.2584981362788283E-002
   1.7976096055106500E-002  -5.2492191494578622E-003   6.2232057769301463E-002
   1.7055545588167041E-002  -4.9654890019774356E-003   6.2119511130758309E-002
   1.6134995121227572E-002  -4.6732639671768703E-003   6.2247341447158877E-002
   1.5214444654288103E-002  -4.3725440450556596E-003   6.2615548718503000E-002
   3.0785110771194252E-002  -9.0132779820559783E-003   4.9058817365195018E-002
   2.9150095295043921E-002  -8.4424060086881747E-003   4.8771265231941752E-002
   2.7515079818893631E-002  -7.8661382257330936E-003   4.8664277956150415E-002
   2.5880064342743335E-002  -7.2844746331908947E-003   4.8737855537821395E-002
   2.4245048866593011E-002  -6.6974152310609325E-003   4.8991997976954083E-002
   2.6874258429192263E-002  -7.8530944978059125E-003   5.2546702717069294E-002
   2.5423176752725277E-002  -7.3477705608319399E-003   5.2280292850112681E-002
   2.3972095076258269E-002  -6.8365435356617654E-003   5.2201185725060523E-002
   2.2521013399791293E-002  -6.3194134222954723E-003   5.2309381341912722E-002
   2.1069931723324276E-002  -5.7963802207331439E-003   5.2604879700669849E-002
   2.2975529962373904E-002  -6.6929110135558467E-003   5.5968786393245457E-002
   2.1715119970032698E-002  -6.2531351129755941E-003   5.5724026071194144E-002
   2.0454709977691474E-002  -5.8069488455905621E-003   5.5673306375489798E-002
   1.9194299985350230E-002  -5.3543522114004975E-003   5.5816627306132634E-002
   1.7933889993009045E-002  -4.8953452104054107E-003   5.6153988863122228E-002
   1.9088925370739196E-002  -5.5327275293057254E-003   5.9325068393723236E-002
   1.8025924946966219E-002  -5.1584996651193038E-003   5.9102464895186335E-002
   1.6962924523193194E-002  -4.7773541555191854E-003   5.9080639907438684E-002
   1.5899924099420183E-002  -4.3892910005051879E-003   5.9259593430480574E-002
   1.4836923675647193E-002  -3.9943102000776498E-003   5.9639325464311797E-002
   1.5214444654288103E-002  -4.3725440450556596E-003   6.2615548718503000E-002
   1.4355591683525779E-002  -4.0638642172628470E-003   6.2415609322089005E-002
   1.3496738712763474E-002  -3.7477594654479612E-003   6.2423186320906737E-002
   1.2637885742001181E-002  -3.4242297896101941E-003   6.2638279714956599E-002
   1.1779032771238873E-002  -3.0932751897498889E-003   6.3060889504238382E-002
   2.4245048866593011E-002  -6.6974152310609325E-003   4.8991997976954083E-002
   2.2445604870074132E-002  -6.1030911876761018E-003   4.8715080046557890E-002
   2.0646160873555169E-002  -5.4996336713690475E-003   4.8602962862763499E-002
   1.8846716877036249E-002  -4.8870426821395682E-003   4.8655646425571075E-002
   1.7047272880517272E-002  -4.2653182199877682E-003   4.8873130734980785E-002
   2.1069931723324276E-002  -5.7963802207331439E-003   5.2604879700669849E-002
   1.9445700493172013E-002  -5.2691162910395994E-003   5.2383295123485829E-002
   1.7821469263019765E-002  -4.7392939932794087E-003   5.2347335332433381E-002
   1.6197238032867503E-002  -4.2069133274528978E-003   5.2497000327512103E-002
   1.4573006802715283E-002  -3.6719742935603650E-003   5.2832290108722368E-002
   1.7933889993009045E-002  -4.8953452104054107E-003   5.6153988863122228E-002
   1.6505695568752754E-002  -4.4351413944027362E-003   5.5981162534294832E-002
   1.5077501144496470E-002  -3.9789543151897838E-003   5.6014785031128070E-002
   1.3649306720240170E-002  -3.5267839727663418E-003   5.6254856353621811E-002
   1.2221112295983896E-002  -3.0786303671327953E-003   5.6701376501776229E-002
   1.4836923675647193E-002  -3.9943102000776498E-003   5.9639325464311797E-002
   1.3625590096816239E-002  -3.6011664977660535E-003   5.9508682278984780E-002
   1.2414256517985276E-002  -3.2186146371000410E-003   5.9605311958847634E-002
   1.1202922939154297E-002  -2.8466546180798951E-003   5.9929214503900721E-002
   9.9915893603233601E-003  -2.4852864407054198E-003   6.0480389914143604E-002
   1.1779032771238873E-002  -3.0932751897498889E-003   6.3060889504238382E-002
   1.0805384077362520E-002  -2.7671916011293707E-003   6.2965854357555751E-002
   9.8317353834861954E-003  -2.4582749590105202E-003   6.3118916115592449E-002
   8.8580866896098565E-003  -2.1665252633928933E-003   6.3520074778348201E-002
   7.8844379957335176E-003  -1.8919425142777113E-003   6.4169330345823505E-002
   1.7047272880517272E-002  -4.2653182199877682E-003   4.8873130734980785E-002
   1.5108235956754035E-002  -3.6981987290399809E-003   4.8758603682711010E-002
   1.3169199032990714E-002  -3.2494226534219850E-003   4.8899591449485524E-002
   1.1230162109227407E-002  -2.9189899931344188E-003   4.9296094035304328E-002
   9.2911251854641552E-003  -2.7069007481768104E-003   4.9948111440167198E-002
   1.4573006802715283E-002  -3.6719742935603650E-003   5.2832290108722368E-002
   1.2888574065399200E-002  -3.1939178479184482E-003   5.2721890514976999E-002
   1.1204141328083145E-002  -2.8321849468442573E-003   5.2865184475081983E-002
   9.5197085907670828E-003  -2.5867755903377712E-003   5.3262171989037238E-002
   7.8352758534510347E-003  -2.4576897783995522E-003   5.3912853056842680E-002
   1.2221112295983896E-002  -3.0786303671327953E-003   5.6701376501776229E-002
   1.0789462479920978E-002  -2.6896369667969711E-003   5.6597124237318136E-002
   9.3578126638579756E-003  -2.4149472402665295E-003   5.6744744261515989E-002
   7.9261628477950326E-003  -2.2545611875416788E-003   5.7144236574369914E-002
   6.4945130317320549E-003  -2.2084788086222940E-003   5.7795601175879757E-002
   9.9915893603233601E-003  -2.4852864407054198E-003   6.0480389914143604E-002
   8.8109012003193300E-003  -2.1853560856754661E-003   6.0384304849734664E-002
   7.6302130403152965E-003  -1.9977095336884687E-003   6.0538270808787667E-002
   6.4495248803112639E-003  -1.9223467847453643E-003   6.0942287791302126E-002
   5.2688367203072330E-003  -1.9592678388451468E-003   6.1596355797278853E-002
   7.8844379957335176E-003  -1.8919425142777113E-003   6.4169330345823505E-002
   6.9528902265942605E-003  -1.6810752045540722E-003   6.4083432352226022E-002
   6.0213424574550312E-003  -1.5804718271109630E-003   6.4245764116896475E-002
   5.0897946883157810E-003  -1.5901323819490221E-003   6.4656325639834339E-002
   4.1582469191765448E-003  -1.7100568690677775E-003   6.5315116921040306E-002
   9.2911251854641552E-003  -2.7069007481768104E-003   4.9948111440167198E-002
   7.8691704661385808E-003  -2.8570709514534887E-003   5.0354720720117707E-002
   6.4472157468130620E-003  -3.6134166358686437E-003   5.1087923273196501E-002
   5.0252610274875431E-003  -4.9759378014221020E-003   5.2147719099403717E-002
   3.6033063081620242E-003  -6.9446344481142175E-003   5.3534108198739383E-002
   7.8352758534510347E-003  -2.4576897783995522E-003   5.3912853056842680E-002
   6.7139823038884772E-003  -2.6432017940959396E-003   5.3849092947801269E-002
   5.5926887543258780E-003  -3.3415859204948273E-003   5.4060061905157442E-002
   4.4713952047632996E-003  -4.5528421575952160E-003   5.4545759928910781E-002
   3.3501016552007212E-003  -6.2769705053977720E-003   5.5306187019062314E-002
   6.4945130317320549E-003  -2.2084788086222940E-003   5.7795601175879757E-002
   5.6220164452014804E-003  -2.4293326367386125E-003   5.7354775048283291E-002
   4.7495198586708920E-003  -3.0697552051206917E-003   5.7136813780353360E-002
   3.8770232721403383E-003  -4.1297465137683335E-003   5.7141717372089736E-002
   3.0045266856097291E-003  -5.6093065626816041E-003   5.7369485823492911E-002
   5.2688367203072330E-003  -1.9592678388451468E-003   6.1596355797278853E-002
   4.5932728900777067E-003  -2.2154634793810635E-003   6.0871767021563938E-002
   3.9177090598481353E-003  -2.7979244897463826E-003   6.0318178898783950E-002
   3.2421452296185656E-003  -3.7066508699413383E-003   5.9935591428939748E-002
   2.5665813993890375E-003  -4.9416426199656305E-003   5.9724004612030972E-002
   4.1582469191765448E-003  -1.7100568690677775E-003   6.5315116921040306E-002
   3.6277516385170711E-003  -2.0015943220238475E-003   6.4400068867642379E-002
   3.0972563578575835E-003  -2.5260937743727119E-003   6.3604157260449323E-002
   2.5667610771980959E-003  -3.2835552261145026E-003   6.2927382099460499E-002
   2.0362657965386222E-003  -4.2739786772491017E-003   6.2369743384676712E-002
   3.6033063081620242E-003  -6.9446344481142175E-003   5.3534108198739383E-002
   4.1547536443805044E-003  -9.5346335528199155E-003   5.1860980673044899E-002
   4.7062009805989569E-003  -1.2761062092413206E-002   5.0042560209609344E-002
   5.2576483168174787E-003  -1.6623920066895774E-002   4.8078846808433190E-002
   5.8090956530358895E-003  -2.1123207476266614E-002   4.5969840469516132E-002
   3.3501016552007212E-003  -6.2769705053977720E-003   5.5306187019062314E-002
   3.7737375570978532E-003  -8.5452540942854704E-003   5.2952236776979633E-002
   4.1973734589949296E-003  -1.1388976054641203E-002   5.0487956603994910E-002
   4.6210093608920685E-003  -1.4808136386464589E-002   4.7913346500108617E-002
   5.0446452627891381E-003  -1.8802735089756384E-002   4.5228406465320781E-002
   3.0045266856097291E-003  -5.6093065626816041E-003   5.7369485823492911E-002
   3.3353141600246036E-003  -7.5558746357515805E-003   5.4395703928442146E-002
   3.6661016344394712E-003  -1.0016890016868882E-002   5.1346555109328965E-002
   3.9968891088543353E-003  -1.2992352706033685E-002   4.8222039366153303E-002
   4.3276765832692410E-003  -1.6482262703245931E-002   4.5022156698914628E-002
   2.5665813993890375E-003  -4.9416426199656305E-003   5.9724004612030972E-002
   2.8394834531607609E-003  -6.5664951772177460E-003   5.6191382127433347E-002
   3.1123855069325104E-003  -8.6448039790969419E-003   5.2618355725611424E-002
   3.3852875607042416E-003  -1.1176569025602752E-002   4.9004925406566174E-002
   3.6581896144759554E-003  -1.4161790316735479E-002   4.5351091170297980E-002
   2.0362657965386222E-003  -4.2739786772491017E-003   6.2369743384676712E-002
   2.2862454365063789E-003  -5.5771157186835785E-003   5.8339271373951895E-002
   2.5362250764740801E-003  -7.2727179413245302E-003   5.4303358452842454E-002
   2.7862047164418438E-003  -9.3607853451715337E-003   5.0262004621349027E-002
   3.0361843564095659E-003  -1.1841317930225248E-002   4.6215209879470809E-002
   2.5467257240202074E-002  -7.3595626009604342E-003   6.4989820614636484E-002
   2.4516094998162596E-002  -7.1746281376030840E-003   6.4132110112850804E-002
   2.3564932756123147E-002  -6.9755763066919191E-003   6.3582086988356795E-002
   2.2613770514083670E-002  -6.7624071082269081E-003   6.3339751241154416E-002
   2.1662608272044206E-002  -6.5351205422081171E-003   6.3405102871243735E-002
   1.8667741676255109E-002  -5.5196719206317413E-003   6.4546287447266926E-002
   1.8006792607725794E-002  -5.3809710861075777E-003   6.3971922940049469E-002
   1.7345843539196465E-002  -5.2316822221510073E-003   6.3670297402560833E-002
   1.6684894470667164E-002  -5.0718053287621759E-003   6.3641410834800682E-002
   1.6023945402137856E-002  -4.9013404059409793E-003   6.3885263236769296E-002
   1.2156693612164850E-002  -3.6797812403031038E-003   6.4058285320124878E-002
   1.1751009309582700E-002  -3.5873140346120852E-003   6.3763737469354292E-002
   1.1345325007000549E-002  -3.4877881376102135E-003   6.3706980180749384E-002
   1.0939640704418399E-002  -3.3812035492974731E-003   6.3888013454310069E-002
   1.0533956401836245E-002  -3.2675602696738693E-003   6.4306837290036570E-002
   5.9341130479312817E-003  -1.8398905599744525E-003   6.3525814233210423E-002
   5.7487451037333305E-003  -1.7936569831165997E-003   6.3507553700764996E-002
   5.5633771595353515E-003  -1.7438940530693607E-003   6.3692135322922436E-002
   5.3780092153373846E-003  -1.6906017698328389E-003   6.4079559099682548E-002
   5.1926412711394152E-003  -1.6337801334067453E-003   6.4669825031045347E-002
  -1.6445553252530942E-011   1.2035422658485118E-010   6.2948874186523396E-002
  -9.8223304489941654E-012   6.8378913642419548E-011   6.3203371634282024E-002
  -3.1991007065634847E-012   3.1471519834624928E-011   6.3625762829080279E-002
   3.4241220969732922E-012   9.6319410780587589E-012   6.4216047770918300E-002
   1.0047348369957021E-011   2.8603786006442533E-012   6.4974226459795947E-002
   2.1662608272044206E-002  -6.5351205422081171E-003   6.3405102871243735E-002
   2.0971117834544639E-002  -6.2961949715746035E-003   6.2868920041851739E-002
   2.0279627397045093E-002  -6.0481087592646060E-003   6.2553505513978508E-002
   1.9588136959545543E-002  -5.7908619052792661E-003   6.2458859287623972E-002
   1.8896646522045993E-002  -5.5244544096175185E-003   6.2584981362788283E-002
   1.6023945402137856E-002  -4.9013404059409793E-003   6.3885263236769296E-002
   1.5541249343005645E-002  -4.7221462278211890E-003   6.3493795915251172E-002
   1.5058553283873451E-002  -4.5360815685362155E-003   6.3299149048949135E-002
   1.4575857224741253E-002  -4.3431464280861490E-003   6.3301322637863061E-002
   1.4093161165609054E-002  -4.1433408064711630E-003   6.3500316681992852E-002
   1.0533956401836245E-002  -3.2675602696738693E-003   6.4306837290036570E-002
   1.0236106874768655E-002  -3.1480974840678994E-003   6.4057795315881447E-002
   9.9382573477010631E-003  -3.0240543778075960E-003   6.3981625950639581E-002
   9.6404078206334710E-003  -2.8954309508933632E-003   6.4078329194310987E-002
   9.3425582935658773E-003  -2.7622272033248907E-003   6.4347905046895471E-002
   5.1926412711394152E-003  -1.6337801334067453E-003   6.4669825031045347E-002
   5.0556904298336702E-003  -1.5740487403145750E-003   6.4560918243742382E-002
   4.9187395885279279E-003  -1.5120271870791742E-003   6.4600936219049818E-002
   4.7817887472221864E-003  -1.4477154737004118E-003   6.4789878956967722E-002
   4.6448379059164406E-003  -1.3811136001785213E-003   6.5127746457496194E-002
   1.0047348369957021E-011   2.8603786006442533E-012   6.4974226459795947E-002
   8.2007040047571422E-012   3.4387492853227286E-012   6.5003164698834021E-002
   6.3540613742807395E-012   3.6494973709721990E-012   6.5157079854179872E-002
   4.5074170090808607E-012   3.4925326519719135E-012   6.5435971925833419E-002
   2.6607743786044580E-012   2.9677371671255059E-012   6.5839840913794634E-002
   1.8896646522045993E-002  -5.5244544096175185E-003   6.2584981362788283E-002
   1.7976096055106500E-002  -5.2492191494578622E-003   6.2232057769301463E-002
   1.7055545588167041E-002  -4.9654890019774356E-003   6.2119511130758309E-002
   1.6134995121227572E-002  -4.6732639671768703E-003   6.2247341447158877E-002
   1.5214444654288103E-002  -4.3725440450556596E-003   6.2615548718503000E-002
   1.4093161165609054E-002  -4.1433408064711630E-003   6.3500316681992852E-002
   1.3410427819049525E-002  -3.9369143615078372E-003   6.3205148764762298E-002
   1.2727694472489979E-002  -3.7241167510129458E-003   6.3145238133347825E-002
   1.2044961125930448E-002  -3.5049479749866622E-003   6.3320584787749642E-002
   1.1362227779370904E-002  -3.2794080334286324E-003   6.3731188727967680E-002
   9.3425582935658773E-003  -2.7622272033248907E-003   6.4347905046895471E-002
   8.8925223982589049E-003  -2.6246095735580899E-003   6.4108369084132033E-002
   8.4424865029519239E-003  -2.4827445000485254E-003   6.4098970738057287E-002
   7.9924506076449395E-003  -2.3366319827965130E-003   6.4319710008671455E-002
   7.5424147123379741E-003  -2.1862720218016329E-003   6.4770586895974633E-002
   4.6448379059164406E-003  -1.3811136001785213E-003   6.5127746457496194E-002
   4.4223797927346528E-003  -1.3123047856083425E-003   6.4941718727410835E-002
   4.1999216795528503E-003  -1.2413722490840426E-003   6.4980708944887125E-002
   3.9774635663710521E-003  -1.1683159906063344E-003   6.5244717109924827E-002
   3.7550054531892583E-003  -1.0931360101747306E-003   6.5733743222524024E-002
   2.6607743786044580E-012   2.9677371671255059E-012   6.5839840913794634E-002
   2.4767757289545500E-012   2.3416268923881489E-012   6.5705197694598649E-002
   2.2927736098576901E-012   1.8803569812320120E-012   6.5790452753836909E-002
   2.1087749602077821E-012   1.5838372280363444E-012   6.6095606091509246E-002
   1.9247728411109222E-012   1.4523937608146298E-012   6.6620657707615605E-002
   1.5214444654288103E-002  -4.3725440450556596E-003   6.2615548718503000E-002
   1.4355591683525779E-002  -4.0638642172628470E-003   6.2415609322089005E-002
   1.3496738712763474E-002  -3.7477594654479612E-003   6.2423186320906737E-002
   1.2637885742001181E-002  -3.4242297896101941E-003   6.2638279714956599E-002
   1.1779032771238873E-002  -3.0932751897498889E-003   6.3060889504238382E-002
   1.1362227779370904E-002  -3.2794080334286324E-003   6.3731188727967680E-002
   1.0712690415686565E-002  -3.0478981625985946E-003   6.3571949159801633E-002
   1.0063153052002213E-002  -2.8108195987554541E-003   6.3623824410559471E-002
   9.4136156883178647E-003  -2.5681723418998076E-003   6.3886814480241402E-002
   8.7640783246335230E-003  -2.3199563920310862E-003   6.4360919368847302E-002
   7.5424147123379741E-003  -2.1862720218016329E-003   6.4770586895974633E-002
   7.1057913794236489E-003  -2.0319321079339814E-003   6.4650190925046758E-002
   6.6691680465093429E-003  -1.8738797320631759E-003   6.4744508196735079E-002
   6.2325447135950325E-003  -1.7121148941893673E-003   6.5053538711039388E-002
   5.7959213806807117E-003  -1.5466375943122834E-003   6.5577282467959880E-002
   3.7550054531892583E-003  -1.0931360101747306E-003   6.5733743222524024E-002
   3.5348945747370577E-003  -1.0159660532694931E-003   6.5650334617824616E-002
   3.3147836962848514E-003  -9.3693986537089421E-004   6.5785237679433547E-002
   3.0946728178326485E-003  -8.5605744647906500E-004   6.6138452407350362E-002
   2.8745619393804513E-003  -7.7331879659359171E-004   6.6709978801575712E-002
   1.9247728411109222E-012   1.4523937608146298E-012   6.6620657707615605E-002
   1.6267612257259145E-012   1.3949952304415092E-012   6.6572380238135109E-002
   1.3287461408939549E-012   1.3214429550600926E-012   6.6746012858655002E-002
   1.0307310560619953E-012   1.2314732567020314E-012   6.7141555569174949E-002
   7.3271944067698769E-013   1.1253220577600587E-012   6.7759008369695173E-002
   1.1779032771238873E-002  -3.0932751897498889E-003   6.3060889504238382E-002
   1.0805384077362520E-002  -2.7671916011293707E-003   6.2965854357555751E-002
   9.8317353834861954E-003  -2.4582749590105202E-003   6.3118916115592449E-002
   8.8580866896098565E-003  -2.1665252633928933E-003   6.3520074778348201E-002
   7.8844379957335176E-003  -1.8919425142777113E-003   6.4169330345823505E-002
   8.7640783246335230E-003  -2.3199563920310862E-003   6.4360919368847302E-002
   8.0373553526670236E-003  -2.0753937006025569E-003   6.4296489463810225E-002
   7.3106323807005241E-003  -1.8437062190670428E-003   6.4477814097873787E-002
   6.5839094087340386E-003  -1.6248939474245438E-003   6.4904893271037517E-002
   5.8571864367675391E-003  -1.4189568856750601E-003   6.5577726983301443E-002
   5.7959213806807117E-003  -1.5466375943122834E-003   6.5577282467959880E-002
   5.3137817650051704E-003  -1.3835958000758541E-003   6.5547749541177258E-002
   4.8316421493296083E-003  -1.2291374791236764E-003   6.5761628787876031E-002
   4.3495025336540531E-003  -1.0832626314559723E-003   6.6218920208056531E-002
   3.8673629179785049E-003  -9.4597125707246432E-004   6.6919623801718287E-002
   2.8745619393804513E-003  -7.7331879659359171E-004   6.6709978801575712E-002
   2.6346633143769392E-003  -6.9179789954920690E-004   6.6719634589656296E-002
   2.3947646893734305E-003  -6.1456873918036559E-004   6.6970360185599334E-002
   2.1548660643699157E-003  -5.4163131548728982E-004   6.7462155589405257E-002
   1.9149674393664096E-003  -4.7298562846961878E-004   6.8195020801073591E-002
   7.3271944067698769E-013   1.1253220577600587E-012   6.7759008369695173E-002
   7.8235334877163609E-013   9.7744035087998782E-013   6.7812144609247671E-002
   8.3199072631323645E-013   7.6305628482487009E-013   6.8104008291043849E-002
   8.8162810385483681E-013   4.8136494790185225E-013   6.8634599415083541E-002
   9.3126201194948521E-013   1.3289369604763124E-013   6.9403917981367247E-002
   7.8844379957335176E-003  -1.8919425142777113E-003   6.4169330345823505E-002
   6.9528902265942605E-003  -1.6810752045540722E-003   6.4083432352226022E-002
   6.0213424574550312E-003  -1.5804718271109630E-003   6.4245764116896475E-002
   5.0897946883157810E-003  -1.5901323819490221E-003   6.4656325639834339E-002
   4.1582469191765448E-003  -1.7100568690677775E-003   6.5315116921040306E-002
   5.8571864367675391E-003  -1.4189568856750601E-003   6.5577726983301443E-002
   5.1700327218978728E-003  -1.2608064034663191E-003   6.5428940385148793E-002
   4.4828790070281996E-003  -1.1853538704454103E-003   6.5520712137267012E-002
   3.7957252921585194E-003  -1.1925992866122018E-003   6.5853042239657017E-002
   3.1085715772888600E-003  -1.2825426519669225E-003   6.6425930692318280E-002
   3.8673629179785049E-003  -9.4597125707246432E-004   6.6919623801718287E-002
   3.4169318493821252E-003  -8.4053760237851050E-004   6.6735514582102723E-002
   2.9665007807857524E-003  -7.9023591377941349E-004   6.6784292304762266E-002
   2.5160697121893848E-003  -7.9506619127560352E-004   6.7065956969696944E-002
   2.0656386435929999E-003  -8.5502843486640057E-004   6.7580508576906922E-002
   1.9149674393664096E-003  -4.7298562846961878E-004   6.8195020801073591E-002
   1.6935876090470696E-003  -4.2026880129078514E-004   6.8003154943088312E-002
   1.4722077787277157E-003  -3.9511795711374975E-004   6.8036504619381960E-002
   1.2508279484083648E-003  -3.9753309593900527E-004   6.8295069829954452E-002
   1.0294481180890217E-003  -4.2751421776576759E-004   6.8778850574805872E-002
   9.3126201194948521E-013   1.3289369604763124E-013   6.9403917981367247E-002
   8.9266094516204930E-013  -2.0300428005270987E-013   6.9231861468105227E-002
   8.5406681726851730E-013  -4.4786396813378815E-013   6.9277349081126094E-002
   8.1546054631065346E-013  -6.0224047970791617E-013   6.9540380820429376E-002
   7.7687162258754938E-013  -6.6502359175046877E-013   7.0020956686015379E-002
   4.1582469191765448E-003  -1.7100568690677775E-003   6.5315116921040306E-002
   3.6277516385170711E-003  -2.0015943220238475E-003   6.4400068867642379E-002
   3.0972563578575835E-003  -2.5260937743727119E-003   6.3604157260449323E-002
   2.5667610771980959E-003  -3.2835552261145026E-003   6.2927382099460499E-002
   2.0362657965386222E-003  -4.2739786772491017E-003   6.2369743384676712E-002
   3.1085715772888600E-003  -1.2825426519669225E-003   6.6425930692318280E-002
   2.7005845863182221E-003  -1.5011957416913857E-003   6.5317155141124517E-002
   2.2925975953475702E-003  -1.8945703309669881E-003   6.4334259723103748E-002
   1.8846106043769288E-003  -2.4626664197933759E-003   6.3477244438256447E-002
   1.4766236134062666E-003  -3.2054840081706670E-003   6.2746109286581753E-002
   2.0656386435929999E-003  -8.5502843486640057E-004   6.7580508576906922E-002
   1.7869036292797076E-003  -1.0007971613593125E-003   6.6336246027759144E-002
   1.5081686149663980E-003  -1.2630468875612783E-003   6.5224607298753137E-002
   1.2294336006530883E-003  -1.6417776134722527E-003   6.4245592389888834E-002
   9.5069858633979598E-004  -2.1369893390923989E-003   6.3399201301165914E-002
   1.0294481180890217E-003  -4.2751421776576759E-004   6.8778850574805872E-002
   8.8670876740154416E-004  -5.0039858102704504E-004   6.7457341527545955E-002
   7.4396941671406747E-004  -6.3152344415561695E-004   6.6275199987396810E-002
   6.0123006602659686E-004  -8.2088880715123873E-004   6.5232425954357326E-002
   4.5849071533911323E-004  -1.0684946700140474E-003   6.4329019428427947E-002
   7.7687162258754938E-013  -6.6502359175046877E-013   7.0020956686015379E-002
   6.8373778860930656E-013  -6.9483307996165422E-013   6.8680441640485812E-002
   5.9059701573715984E-013  -7.4992789755867761E-013   6.7486037789034781E-002
   4.9746144703544104E-013  -8.3013457219394127E-013   6.6437745131662257E-002
   4.0432240888677029E-013  -9.3558494285161942E-013   6.5535563668368213E-002
   2.0362657965386222E-003  -4.2739786772491017E-003   6.2369743384676712E-002
   2.2862454365063789E-003  -5.5771157186835785E-003   5.8339271373951895E-002
   2.5362250764740801E-003  -7.2727179413245302E-003   5.4303358452842454E-002
   2.7862047164418438E-003  -9.3607853451715337E-003   5.0262004621349027E-002
   3.0361843564095659E-003  -1.1841317930225248E-002   4.6215209879470809E-002
   1.4766236134062666E-003  -3.2054840081706670E-003   6.2746109286581753E-002
   1.7068988430886944E-003  -4.1828367892808860E-003   5.8391683898461888E-002
   1.9371740727711084E-003  -5.4545384563058630E-003   5.4003290600155462E-002
   2.1674493024534981E-003  -7.0205890092445780E-003   4.9580929391662754E-002
   2.3977245321359364E-003  -8.8809884480987034E-003   4.5124600272984150E-002
   9.5069858633979598E-004  -2.1369893390923989E-003   6.3399201301165914E-002
   1.1327424059350694E-003  -2.7885578598782490E-003   5.8818938830942052E-002
   1.3147862255303566E-003  -3.6363589712868766E-003   5.4176181450730096E-002
   1.4968300451256595E-003  -4.6803926733180699E-003   4.9470929160530426E-002
   1.6788738647209034E-003  -5.9206589659719366E-003   4.4703181960342508E-002
   4.5849071533911323E-004  -1.0684946700140474E-003   6.4329019428427947E-002
   5.6377612504552276E-004  -1.3942789304756953E-003   5.9621036171392076E-002
   6.6906153475192534E-004  -1.8181794862677167E-003   5.4822031004566923E-002
   7.7434694445831101E-004  -2.3401963373910050E-003   4.9932003927951454E-002
   8.7963235416470970E-004  -2.9603294838453920E-003   4.4950954941547022E-002
   4.0432240888677029E-013  -9.3558494285161942E-013   6.5535563668368213E-002
   4.2003900357912016E-013  -1.0729195309977513E-012   6.0797975919812841E-002
   4.3574865937756613E-013  -1.2490841694301480E-012   5.5940839261665876E-002
   4.5146178462296405E-013  -1.4646270307672182E-012   5.0964153693926734E-002
   4.6718184876226587E-013  -1.7186252421197423E-012   4.5867919216596498E-002
  -1.6445553252530942E-011   1.2035422658485118E-010   6.2948874186523396E-002
  -9.8223304489941654E-012   6.8378913642419548E-011   6.3203371634282024E-002
  -3.1991007065634847E-012   3.1471519834624928E-011   6.3625762829080279E-002
   3.4241220969732922E-012   9.6319410780587589E-012   6.4216047770918300E-002
   1.0047348369957021E-011   2.8603786006442533E-012   6.4974226459795947E-002
  -5.9341130807114631E-003   1.8398907509549756E-003   6.3525814142795761E-002
  -5.7487451236474078E-003   1.7936570946290864E-003   6.3507553636653086E-002
  -5.5633771665833370E-003   1.7438941079001569E-003   6.3692135284352372E-002
  -5.3780092095192696E-003   1.6906017907683951E-003   6.4079559085893689E-002
  -5.1926412524552108E-003   1.6337801432334820E-003   6.4669825041276996E-002
  -1.2156693644612261E-002   3.6797813815556690E-003   6.4058285167453127E-002
  -1.1751009330305063E-002   3.5873141208792175E-003   6.3763737361938300E-002
  -1.1345325015997861E-002   3.4877881843288910E-003   6.3706980117067755E-002
  -1.0939640701690668E-002   3.3812035719047347E-003   6.3888013432841451E-002
  -1.0533956387383475E-002   3.2675602836066964E-003   6.4306837309259457E-002
  -1.8667741708147858E-002   5.5196720121563625E-003   6.4546287260495105E-002
  -1.8006792629795279E-002   5.3809711471293278E-003   6.3971922810137319E-002
  -1.7345843551442669E-002   5.2316822607576044E-003   6.3670297327226080E-002
  -1.6684894473090069E-002   5.0718053530410482E-003   6.3641410811761459E-002
  -1.6023945394737484E-002   4.9013404239799108E-003   6.3885263263743330E-002
  -2.5467257271318336E-002   7.3595626427571115E-003   6.4989820421921973E-002
  -2.4516095022118073E-002   7.1746281733794659E-003   6.4132109981250407E-002
  -2.3564932772917768E-002   6.9755763371862761E-003   6.3582086914827557E-002
  -2.2613770523717474E-002   6.7624071341775178E-003   6.3339751222653687E-002
  -2.1662608274517197E-002   6.5351205643530696E-003   6.3405102904728450E-002
   1.0047348369957021E-011   2.8603786006442533E-012   6.4974226459795947E-002
   8.2007040047571422E-012   3.4387492853227286E-012   6.5003164698834021E-002
   6.3540613742807395E-012   3.6494973709721990E-012   6.5157079854179872E-002
   4.5074170090808607E-012   3.4925326519719135E-012   6.5435971925833419E-002
   2.6607743786044580E-012   2.9677371671255059E-012   6.5839840913794634E-002
  -5.1926412524552108E-003   1.6337801432334820E-003   6.4669825041276996E-002
  -5.0556904145583458E-003   1.5740487501891692E-003   6.4560918250833169E-002
  -4.9187395766614878E-003   1.5120271965285773E-003   6.4600936223568634E-002
  -4.7817887387646262E-003   1.4477154822516661E-003   6.4789878959483377E-002
  -4.6448379008677647E-003   1.3811136073585417E-003   6.5127746458577440E-002
  -1.0533956387383475E-002   3.2675602836066964E-003   6.4306837309259457E-002
  -1.0236106862871561E-002   3.1480974969394226E-003   6.4057795329085204E-002
  -9.9382573383596448E-003   3.0240543894074351E-003   6.3981625958961841E-002
  -9.6404078138477307E-003   2.8954309610106886E-003   6.4078329198889228E-002
  -9.3425582893358165E-003   2.7622272117492908E-003   6.4347905048867504E-002
  -1.6023945394737484E-002   4.9013404239799108E-003   6.3885263263743330E-002
  -1.5541249336738942E-002   4.7221462436897593E-003   6.3493795933590211E-002
  -1.5058553278740417E-002   4.5360815822864595E-003   6.3299149060359355E-002
  -1.4575857220741888E-002   4.3431464397697666E-003   6.3301322644050959E-002
  -1.4093161162743360E-002   4.1433408161401231E-003   6.3500316684664937E-002
  -2.1662608274517197E-002   6.5351205643530696E-003   6.3405102904728450E-002
  -2.0971117836160499E-002   6.2961949904400683E-003   6.2868920064347911E-002
  -2.0279627397803798E-002   6.0481087751653589E-003   6.2553505527761372E-002
  -1.9588136959447108E-002   5.7908619185288411E-003   6.2458859294968708E-002
  -1.8896646521090396E-002   5.5244544205308443E-003   6.2584981365970016E-002
   2.6607743786044580E-012   2.9677371671255059E-012   6.5839840913794634E-002
   2.4767757289545500E-012   2.3416268923881489E-012   6.5705197694598649E-002
   2.2927736098576901E-012   1.8803569812320120E-012   6.5790452753836909E-002
   2.1087749602077821E-012   1.5838372280363444E-012   6.6095606091509246E-002
   1.9247728411109222E-012   1.4523937608146298E-012   6.6620657707615605E-002
  -4.6448379008677647E-003   1.3811136073585417E-003   6.5127746458577440E-002
  -4.4223797880134676E-003   1.3123047913384811E-003   6.4941718728309783E-002
  -4.1999216751591583E-003   1.2413722536807892E-003   6.4980708945684584E-002
  -3.9774635623048603E-003   1.1683159943854313E-003   6.5244717110702025E-002
  -3.7550054494505589E-003   1.0931360134525669E-003   6.5733743223361896E-002
  -9.3425582893358165E-003   2.7622272117492908E-003   6.4347905048867504E-002
  -8.8925223942348131E-003   2.6246095803354741E-003   6.4108369085725758E-002
  -8.4424864991338167E-003   2.4827445054813463E-003   6.4098970739434685E-002
  -7.9924506040328115E-003   2.3366319871871398E-003   6.4319710009994729E-002
  -7.5424147089318168E-003   2.1862720254527401E-003   6.4770586897405447E-002
  -1.4093161162743360E-002   4.1433408161401231E-003   6.3500316684664937E-002
  -1.3410427816187273E-002   3.9369143693323422E-003   6.3205148766846436E-002
  -1.2727694469631170E-002   3.7241167572817854E-003   6.3145238135087170E-002
  -1.2044961123075100E-002   3.5049479799887356E-003   6.3320584789387138E-002
  -1.1362227776518989E-002   3.2794080374528578E-003   6.3731188729746327E-002
  -1.8896646521090396E-002   5.5244544205308443E-003   6.2584981365970016E-002
  -1.7976096053870821E-002   5.2492191583293490E-003   6.2232057771672178E-002
  -1.7055545586651261E-002   4.9654890090823078E-003   6.2119511132641969E-002
  -1.6134995119431686E-002   4.6732639727902966E-003   6.2247341448879445E-002
  -1.5214444652212118E-002   4.3725440494531975E-003   6.2615548720384662E-002
   1.9247728411109222E-012   1.4523937608146298E-012   6.6620657707615605E-002
   1.6267612257259145E-012   1.3949952304415092E-012   6.6572380238135109E-002
   1.3287461408939549E-012   1.3214429550600926E-012   6.6746012858655002E-002
   1.0307310560619953E-012   1.2314732567020314E-012   6.7141555569174949E-002
   7.3271944067698769E-013   1.1253220577600587E-012   6.7759008369695173E-002
  -3.7550054494505589E-003   1.0931360134525669E-003   6.5733743223361896E-002
  -3.5348945715577805E-003   1.0159660562086559E-003   6.5650334618465894E-002
  -3.3147836936649969E-003   9.3693986798108753E-004   6.5785237679951342E-002
  -3.0946728157722168E-003   8.5605744876927556E-004   6.6138452407818071E-002
  -2.8745619378794419E-003   7.7331879857356345E-004   6.6709978802066361E-002
  -7.5424147089318168E-003   2.1862720254527401E-003   6.4770586897405447E-002
  -7.1057913764671094E-003   2.0319321110223165E-003   6.4650190926126436E-002
  -6.6691680440024012E-003   1.8738797346405101E-003   6.4744508197609865E-002
  -6.2325447115376999E-003   1.7121148963070779E-003   6.5053538711855721E-002
  -5.7959213790729994E-003   1.5466375960219159E-003   6.5577282468864129E-002
  -1.1362227776518989E-002   3.2794080374528578E-003   6.3731188729746327E-002
  -1.0712690413101239E-002   3.0478981658361437E-003   6.3571949161116595E-002
  -1.0063153049683474E-002   2.8108196012999326E-003   6.3623824411630420E-002
  -9.4136156862657146E-003   2.5681723438447691E-003   6.3886814481287788E-002
  -8.7640783228479548E-003   2.3199563934701573E-003   6.4360919370088865E-002
  -1.5214444652212118E-002   4.3725440494531975E-003   6.2615548720384662E-002
  -1.4355591681460153E-002   4.0638642206497488E-003   6.2415609323436261E-002
  -1.3496738710708209E-002   3.7477594679595494E-003   6.2423186322012880E-002
  -1.2637885739956254E-002   3.4242297913826478E-003   6.2638279716114159E-002
  -1.1779032769204299E-002   3.0932751909186207E-003   6.3060889505740070E-002
   7.3271944067698769E-013   1.1253220577600587E-012   6.7759008369695173E-002
   7.8235334877163609E-013   9.7744035087998782E-013   6.7812144609247671E-002
   8.3199072631323645E-013   7.6305628482487009E-013   6.8104008291043849E-002
   8.8162810385483681E-013   4.8136494790185225E-013   6.8634599415083541E-002
   9.3126201194948521E-013   1.3289369604763124E-013   6.9403917981367247E-002
  -2.8745619378794419E-003   7.7331879857356345E-004   6.6709978802066361E-002
  -2.6346633127875482E-003   6.9179790118301110E-004   6.6719634590099552E-002
  -2.3947646876956597E-003   6.1456874038659515E-004   6.6970360185973715E-002
  -2.1548660626037712E-003   5.4163131618473886E-004   6.7462155589688710E-002
  -1.9149674375118775E-003   4.7298562857678306E-004   6.8195020801244510E-002
  -5.7959213790729994E-003   1.5466375960219159E-003   6.5577282468864129E-002
  -5.3137817633417319E-003   1.3835958013886929E-003   6.5547749542039263E-002
  -4.8316421476104704E-003   1.2291374800106891E-003   6.5761628788652521E-002
  -4.3495025318792055E-003   1.0832626318880573E-003   6.6218920208703513E-002
  -3.8673629161479414E-003   9.4597125702039486E-004   6.6919623802192352E-002
  -8.7640783228479548E-003   2.3199563934701573E-003   6.4360919370088865E-002
  -8.0373553508801925E-003   2.0753937015943191E-003   6.4296489465066942E-002
  -7.3106323789124475E-003   1.8437062196345610E-003   6.4477814099080100E-002
  -6.5839094069446982E-003   1.6248939475911259E-003   6.4904893272128311E-002
  -5.8571864349769420E-003   1.4189568854639789E-003   6.5577726984211576E-002
  -1.1779032769204299E-002   3.0932751909186207E-003   6.3060889505740070E-002
  -1.0805384075402949E-002   2.7671916018000009E-003   6.2965854359182283E-002
  -9.8317353816015883E-003   2.4582749592585995E-003   6.3118916117256507E-002
  -8.8580866878002259E-003   2.1665252632947080E-003   6.3520074779962882E-002
  -7.8844379939988704E-003   1.8919425139077850E-003   6.4169330347301434E-002
   9.3126201194948521E-013   1.3289369604763124E-013   6.9403917981367247E-002
   8.9266094516204930E-013  -2.0300428005270987E-013   6.9231861468105227E-002
   8.5406681726851730E-013  -4.4786396813378815E-013   6.9277349081126094E-002
   8.1546054631065346E-013  -6.0224047970791617E-013   6.9540380820429376E-002
   7.7687162258754938E-013  -6.6502359175046877E-013   7.0020956686015379E-002
  -1.9149674375118775E-003   4.7298562857678306E-004   6.8195020801244510E-002
  -1.6935876072735022E-003   4.2026880083839702E-004   6.8003154943402200E-002
  -1.4722077770351286E-003   3.9511795624619372E-004   6.8036504619831434E-002
  -1.2508279467967629E-003   3.9753309479868826E-004   6.8295069830531976E-002
  -1.0294481165583798E-003   4.2751421649689370E-004   6.8778850575503869E-002
  -3.8673629161479414E-003   9.4597125702039486E-004   6.6919623802192352E-002
  -3.4169318476438872E-003   8.4053760188038118E-004   6.6735514582824368E-002
  -2.9665007791398320E-003   7.9023591294025142E-004   6.6784292305716281E-002
  -2.5160697106357782E-003   7.9506619019950597E-004   6.7065956970868090E-002
  -2.0656386421317226E-003   8.5502843365881098E-004   6.7580508578280102E-002
  -5.8571864349769420E-003   1.4189568854639789E-003   6.5577726984211576E-002
  -5.1700327202184914E-003   1.2608064029220739E-003   6.5428940386371745E-002
  -4.4828790054600408E-003   1.1853538696344756E-003   6.5520712138780676E-002
  -3.7957252907015898E-003   1.1925992856003792E-003   6.5853042241438300E-002
  -3.1085715759431392E-003   1.2825426508207838E-003   6.6425930694344854E-002
  -7.8844379939988704E-003   1.8919425139077850E-003   6.4169330347301434E-002
  -6.9528902249973018E-003   1.6810752039638222E-003   6.4083432354044345E-002
  -6.0213424559957436E-003   1.5804718263286721E-003   6.4245764119024606E-002
  -5.0897946869941889E-003   1.5901323810011622E-003   6.4656325642242468E-002
  -4.1582469179926168E-003   1.7100568679826456E-003   6.5315116923697625E-002
   7.7687162258754938E-013  -6.6502359175046877E-013   7.0020956686015379E-002
   6.8373778860930656E-013  -6.9483307996165422E-013   6.8680441640485812E-002
   5.9059701573715984E-013  -7.4992789755867761E-013   6.7486037789034781E-002
   4.9746144703544104E-013  -8.3013457219394127E-013   6.6437745131662257E-002
   4.0432240888677029E-013  -9.3558494285161942E-013   6.5535563668368213E-002
  -1.0294481165583798E-003   4.2751421649689370E-004   6.8778850575503869E-002
  -8.8670876605276283E-004   5.0039857968120494E-004   6.7457341528156967E-002
  -7.4396941554713374E-004   6.3152344269196137E-004   6.6275199987929218E-002
  -6.0123006504150377E-004   8.2088880552934340E-004   6.5232425954820081E-002
  -4.5849071453587381E-004   1.0684946681933649E-003   6.4329019428830514E-002
  -2.0656386421317226E-003   8.5502843365881098E-004   6.7580508578280102E-002
  -1.7869036279869700E-003   1.0007971600570487E-003   6.6336246028967871E-002
  -1.5081686138422165E-003   1.2630468861338368E-003   6.5224607299814955E-002
  -1.2294335996974556E-003   1.6417776118888179E-003   6.4245592390821532E-002
  -9.5069858555269643E-004   2.1369893373222593E-003   6.3399201301987146E-002
  -3.1085715759431392E-003   1.2825426508207838E-003   6.6425930694344854E-002
  -2.7005845851188872E-003   1.5011957404329895E-003   6.5317155142919053E-002
  -2.2925975942946417E-003   1.8945703295756081E-003   6.4334259724692908E-002
  -1.8846106034703888E-003   2.4626664182481831E-003   6.3477244439666333E-002
  -1.4766236126461437E-003   3.2054840064511814E-003   6.2746109287839413E-002
  -4.1582469179926168E-003   1.7100568679826456E-003   6.5315116923697625E-002
  -3.6277516374485230E-003   2.0015943208089304E-003   6.4400068870009930E-002
  -3.0972563569044188E-003   2.5260937730174904E-003   6.3604157262562244E-002
  -2.5667610763603268E-003   3.2835552246077981E-003   6.2927382101354734E-002
  -2.0362657958162209E-003   4.2739786755798814E-003   6.2369743386387011E-002
   4.0432240888677029E-013  -9.3558494285161942E-013   6.5535563668368213E-002
   4.2003900357912016E-013  -1.0729195309977513E-012   6.0797975919812841E-002
   4.3574865937756613E-013  -1.2490841694301480E-012   5.5940839261665876E-002
   4.5146178462296405E-013  -1.4646270307672182E-012   5.0964153693926734E-002
   4.6718184876226587E-013  -1.7186252421197423E-012   4.5867919216596498E-002
  -4.5849071453587381E-004   1.0684946681933649E-003   6.4329019428830514E-002
  -5.6377612421194129E-004   1.3942789283975521E-003   5.9621036171705222E-002
  -6.6906153388801223E-004   1.8181794838558196E-003   5.4822031004788163E-002
  -7.7434694356409185E-004   2.3401963345682647E-003   4.9932003928079255E-002
  -8.7963235324013678E-004   2.9603294805338187E-003   4.4950954941578525E-002
  -9.5069858555269643E-004   2.1369893373222593E-003   6.3399201301987146E-002
  -1.1327424051209879E-003   2.7885578578681347E-003   5.8818938831585899E-002
  -1.3147862246892759E-003   3.6363589689608206E-003   5.4176181451191671E-002
  -1.4968300442575804E-003   4.6803926706004868E-003   4.9470929160805401E-002
  -1.6788738638258555E-003   5.9206589627867068E-003   4.4703181960426774E-002
  -1.4766236126461437E-003   3.2054840064511814E-003   6.2746109287839413E-002
  -1.7068988423070812E-003   4.1828367873385508E-003   5.8391683899454566E-002
  -1.9371740719680329E-003   5.4545384540655509E-003   5.4003290600876608E-002
  -2.1674493016289537E-003   7.0205890066328217E-003   4.9580929392105268E-002
  -2.3977245312899083E-003   8.8809884450392618E-003   4.5124600273141940E-002
  -2.0362657958162209E-003   4.2739786755798814E-003   6.2369743386387011E-002
  -2.2862454357702386E-003   5.5771157168090779E-003   5.8339271375311141E-002
  -2.5362250757242598E-003   7.2727179391703922E-003   5.4303358453841710E-002
  -2.7862047156782931E-003   9.3607853426654619E-003   5.0262004621979162E-002
  -3.0361843556322987E-003   1.1841317927292039E-002   4.6215209879723496E-002
  -2.5467257271318336E-002   7.3595626427571115E-003   6.4989820421921973E-002
  -2.4516095022118073E-002   7.1746281733794659E-003   6.4132109981250407E-002
  -2.3564932772917768E-002   6.9755763371862761E-003   6.3582086914827557E-002
  -2.2613770523717474E-002   6.7624071341775178E-003   6.3339751222653687E-002
  -2.1662608274517197E-002   6.5351205643530696E-003   6.3405102904728450E-002
  -3.2262858961335635E-002   9.2401226615541621E-003   6.0544194629564035E-002
  -3.1023797187579756E-002   9.0129446826358872E-003   5.9944982120124557E-002
  -2.9784735413823881E-002   8.7638651405012868E-003   5.9613881285547357E-002
  -2.8545673640068013E-002   8.4928840351503956E-003   5.9550892125832401E-002
  -2.7306611866312162E-002   8.2000013665831650E-003   5.9756014640979849E-002
  -3.8762165405411636E-002   1.1120682680351185E-002   5.6060217425866102E-002
  -3.7274779806486684E-002   1.0851261191892267E-002   5.5711718651257791E-002
  -3.5787394207561739E-002   1.0552153943816374E-002   5.5591755852125398E-002
  -3.4300008608636814E-002   1.0223360936123299E-002   5.5700329028468873E-002
  -3.2812623009711848E-002   9.8648821688132882E-003   5.6037438180288029E-002
  -4.4965176603546438E-002   1.3001242699148222E-002   5.1537888810827548E-002
  -4.3269042878838877E-002   1.2689577701148681E-002   5.1432319574649867E-002
  -4.1572909154131359E-002   1.2340442747131312E-002   5.1515710614561623E-002
  -3.9876775429423805E-002   1.1953837837096245E-002   5.1788061930562693E-002
  -3.8180641704716300E-002   1.1529762971043370E-002   5.2249373522652950E-002
  -5.0871892555739900E-002   1.4881802717945258E-002   4.6977208784448998E-002
  -4.9006586404636288E-002   1.4527894210405068E-002   4.7106784890301290E-002
  -4.7141280253532702E-002   1.4128731550446444E-002   4.7385745572856242E-002
  -4.5275974102429090E-002   1.3684314738069144E-002   4.7814090832114048E-002
  -4.3410667951325491E-002   1.3194643773273507E-002   4.8391820668074792E-002
  -2.1662608274517197E-002   6.5351205643530696E-003   6.3405102904728450E-002
  -2.0971117836160499E-002   6.2961949904400683E-003   6.2868920064347911E-002
  -2.0279627397803798E-002   6.0481087751653589E-003   6.2553505527761372E-002
  -1.9588136959447108E-002   5.7908619185288411E-003   6.2458859294968708E-002
  -1.8896646521090396E-002   5.5244544205308443E-003   6.2584981365970016E-002
  -2.7306611866312162E-002   8.2000013665831650E-003   5.9756014640979849E-002
  -2.6406113128770795E-002   7.8929574462058838E-003   5.9338273453502510E-002
  -2.5505614391229430E-002   7.5794925854247158E-003   5.9117780560600589E-002
  -2.4605115653688094E-002   7.2596067842398936E-003   5.9094535962273896E-002
  -2.3704616916146694E-002   6.9333000426509139E-003   5.9268539658522829E-002
  -3.2812623009711848E-002   9.8648821688132882E-003   5.6037438180288029E-002
  -3.1726635982204404E-002   9.4897199019717687E-003   5.5740878346671727E-002
  -3.0640648954696977E-002   9.1108763956841352E-003   5.5618046798412250E-002
  -2.9554661927189540E-002   8.7283516499506147E-003   5.5668943535509496E-002
  -2.8468674899682106E-002   8.3421456647711500E-003   5.5893568557963735E-002
  -3.8180641704716300E-002   1.1529762971043370E-002   5.2249373522652950E-002
  -3.6932686396461335E-002   1.1086482357737508E-002   5.2076734743855685E-002
  -3.5684731088206384E-002   1.0642260205943468E-002   5.2054304241196517E-002
  -3.4436775779951467E-002   1.0197096515661502E-002   5.2182082014675606E-002
  -3.3188820471696495E-002   9.7509912868912196E-003   5.2460068064292965E-002
  -4.3410667951325491E-002   1.3194643773273507E-002   4.8391820668074792E-002
  -4.2024264371541581E-002   1.2683244813503497E-002   4.8345842645054177E-002
  -4.0637860791757720E-002   1.2173644016202939E-002   4.8426552888953173E-002
  -3.9251457211973831E-002   1.1665841381372367E-002   4.8633951399771905E-002
  -3.7865053632189963E-002   1.1159836909011456E-002   4.8968038177510276E-002
  -1.8896646521090396E-002   5.5244544205308443E-003   6.2584981365970016E-002
  -1.7976096053870821E-002   5.2492191583293490E-003   6.2232057771672178E-002
  -1.7055545586651261E-002   4.9654890090823078E-003   6.2119511132641969E-002
  -1.6134995119431686E-002   4.6732639727902966E-003   6.2247341448879445E-002
  -1.5214444652212118E-002   4.3725440494531975E-003   6.2615548720384662E-002
  -2.3704616916146694E-002   6.9333000426509139E-003   5.9268539658522829E-002
  -2.2550694029483918E-002   6.5986263520034782E-003   5.8943120017541956E-002
  -2.1396771142821132E-002   6.2536397036422331E-003   5.8844068260179863E-002
  -2.0242848256158349E-002   5.8983400975675948E-003   5.8971384386436600E-002
  -1.9088925369495562E-002   5.5327275337790360E-003   5.9325068396312020E-002
  -2.8468674899682106E-002   8.3421456647711500E-003   5.5893568557963735E-002
  -2.7095388665224960E-002   7.9480335456776491E-003   5.5593834799631453E-002
  -2.5722102430767869E-002   7.5417903982020612E-003   5.5506459853269199E-002
  -2.4348816196310744E-002   7.1234162223446189E-003   5.5631443718876787E-002
  -2.2975529961853633E-002   6.6929110181050411E-003   5.5968786396454195E-002
  -3.3188820471696495E-002   9.7509912868912196E-003   5.2460068064292965E-002
  -3.1610179961093984E-002   9.2974407393517158E-003   5.2184202117941073E-002
  -3.0031539450491473E-002   8.8299410927619934E-003   5.2106685911910131E-002
  -2.8452898939889008E-002   8.3484923471215024E-003   5.2227519446200063E-002
  -2.6874258429286483E-002   7.8530945024310184E-003   5.2546702720811016E-002
  -3.7865053632189963E-002   1.1159836909011456E-002   4.8968038177510276E-002
  -3.6095067917090953E-002   1.0646847933025894E-002   4.8714221972470273E-002
  -3.4325082201991979E-002   1.0118091787321648E-002   4.8644746436102365E-002
  -3.2555096486892990E-002   9.5735684718988995E-003   4.8759611568406441E-002
  -3.0785110771793994E-002   9.0132779867569957E-003   4.9058817369382557E-002
  -1.5214444652212118E-002   4.3725440494531975E-003   6.2615548720384662E-002
  -1.4355591681460153E-002   4.0638642206497488E-003   6.2415609323436261E-002
  -1.3496738710708209E-002   3.7477594679595494E-003   6.2423186322012880E-002
  -1.2637885739956254E-002   3.4242297913826478E-003   6.2638279716114159E-002
  -1.1779032769204299E-002   3.0932751909186207E-003   6.3060889505740070E-002
  -1.9088925369495562E-002   5.5327275337790360E-003   5.9325068396312020E-002
  -1.8025924945489144E-002   5.1584996685013484E-003   5.9102464897442974E-002
  -1.6962924521482778E-002   4.7773541579587686E-003   5.9080639909557892E-002
  -1.5899924097476367E-002   4.3892910021513243E-003   5.9259593432657021E-002
  -1.4836923673469993E-002   3.9943102010788212E-003   5.9639325466740334E-002
  -2.2975529961853633E-002   6.6929110181050411E-003   5.5968786396454195E-002
  -2.1715119969133476E-002   6.2531351163530036E-003   5.5724026074286115E-002
  -2.0454709976413292E-002   5.8069488479578352E-003   5.5673306378561424E-002
  -1.9194299983693121E-002   5.3543522129197822E-003   5.5816627309280352E-002
  -1.7933889990972951E-002   4.8953452112388551E-003   5.6153988866442656E-002
  -2.6874258429286483E-002   7.8530945024310184E-003   5.2546702720811016E-002
  -2.5423176752393147E-002   7.3477705642045754E-003   5.2280292853965973E-002
  -2.3972095075499841E-002   6.8365435379570336E-003   5.2201185729023644E-002
  -2.2521013398606498E-002   6.3194134236885715E-003   5.2309381345984146E-002
  -2.1069931721713196E-002   5.7963802213989168E-003   5.2604879704847465E-002
  -3.0785110771793994E-002   9.0132779867569957E-003   4.9058817369382557E-002
  -2.9150095295268158E-002   8.4424060120562583E-003   4.8771265236482342E-002
  -2.7515079818742336E-002   7.8661382279562320E-003   4.8664277960944191E-002
  -2.5880064342216492E-002   7.2844746344571110E-003   4.8737855542768466E-002
  -2.4245048865690677E-002   6.6974152315590896E-003   4.8991997981954638E-002
  -1.1779032769204299E-002   3.0932751909186207E-003   6.3060889505740070E-002
  -1.0805384075402949E-002   2.7671916018000009E-003   6.2965854359182283E-002
  -9.8317353816015883E-003   2.4582749592585995E-003   6.3118916117256507E-002
  -8.8580866878002259E-003   2.1665252632947080E-003   6.3520074779962882E-002
  -7.8844379939988704E-003   1.8919425139077850E-003   6.4169330347301434E-002
  -1.4836923673469993E-002   3.9943102010788212E-003   5.9639325466740334E-002
  -1.3625590094778216E-002   3.6011664982512070E-003   5.9508682281369185E-002
  -1.2414256516086472E-002   3.2186146371780827E-003   5.9605311961146740E-002
  -1.1202922937394690E-002   2.8466546178596806E-003   5.9929214506073122E-002
  -9.9915893587029514E-003   2.4852864402961083E-003   6.0480389916147903E-002
  -1.7933889990972951E-002   4.8953452112388551E-003   5.6153988866442656E-002
  -1.6505695566874305E-002   4.4351413947023854E-003   5.5981162537435833E-002
  -1.5077501142775649E-002   3.9789543150977880E-003   5.6014785034094322E-002
  -1.3649306718676976E-002   3.5267839724249864E-003   5.6254856356417790E-002
  -1.2221112294578347E-002   3.0786303666842652E-003   5.6701376504406514E-002
  -2.1069931721713196E-002   5.7963802213989168E-003   5.2604879704847465E-002
  -1.9445700491691167E-002   5.2691162911533557E-003   5.2383295127382240E-002
  -1.7821469261669141E-002   4.7392939930172712E-003   5.2347335336098637E-002
  -1.6197238031647132E-002   4.2069133269904031E-003   5.2497000330996635E-002
  -1.4573006801625085E-002   3.6719742930726718E-003   5.2832290112076179E-002
  -2.4245048865690677E-002   6.6974152315590896E-003   4.8991997981954638E-002
  -2.2445604869228794E-002   6.1030911876048810E-003   4.8715080051208393E-002
  -2.0646160872766939E-002   5.4996336709368931E-003   4.8602962867160038E-002
  -1.8846716876305049E-002   4.8870426815552995E-003   4.8655646429809879E-002
  -1.7047272879843200E-002   4.2653182194607453E-003   4.8873130739157777E-002
  -7.8844379939988704E-003   1.8919425139077850E-003   6.4169330347301434E-002
  -6.9528902249973018E-003   1.6810752039638222E-003   6.4083432354044345E-002
  -6.0213424559957436E-003   1.5804718263286721E-003   6.4245764119024606E-002
  -5.0897946869941889E-003   1.5901323810011622E-003   6.4656325642242468E-002
  -4.1582469179926168E-003   1.7100568679826456E-003   6.5315116923697625E-002
  -9.9915893587029514E-003   2.4852864402961083E-003   6.0480389916147903E-002
  -8.8109011988567291E-003   2.1853560851307630E-003   6.0384304852002246E-002
  -7.6302130390104861E-003   1.9977095330078742E-003   6.0538270811308054E-002
  -6.4495248791642552E-003   1.9223467839277059E-003   6.0942287794066061E-002
  -5.2688367193180242E-003   1.9592678378899109E-003   6.1596355800275671E-002
  -1.2221112294578347E-002   3.0786303666842652E-003   5.6701376504406514E-002
  -1.0789462478673101E-002   2.6896369662976760E-003   5.6597124240105851E-002
  -9.3578126627677991E-003   2.4149472396876454E-003   5.6744744264471639E-002
  -7.9261628468625216E-003   2.2545611868543640E-003   5.7144236577503608E-002
  -6.4945130309572528E-003   2.2084788077971762E-003   5.7795601179201683E-002
  -1.4573006801625085E-002   3.6719742930726718E-003   5.2832290112076179E-002
  -1.2888574064446393E-002   3.1939178474645474E-003   5.2721890518355047E-002
  -1.1204141327267670E-002   2.8321849463673540E-003   5.2865184478514654E-002
  -9.5197085900889360E-003   2.5867755897808539E-003   5.3262171992554903E-002
  -7.8352758529102538E-003   2.4576897777046081E-003   5.3912853060475760E-002
  -1.7047272879843200E-002   4.2653182194607453E-003   4.8873130739157777E-002
  -1.5108235956176677E-002   3.6981987286315299E-003   4.8758603686750113E-002
  -1.3169199032510112E-002   3.2494226530466463E-003   4.8899591453437585E-002
  -1.1230162108843589E-002   2.9189899927072951E-003   4.9296094039220029E-002
  -9.2911251851770238E-003   2.7069007476117068E-003   4.9948111444097498E-002
  -4.1582469179926168E-003   1.7100568679826456E-003   6.5315116923697625E-002
  -3.6277516374485230E-003   2.0015943208089304E-003   6.4400068870009930E-002
  -3.0972563569044188E-003   2.5260937730174904E-003   6.3604157262562244E-002
  -2.5667610763603268E-003   3.2835552246077981E-003   6.2927382101354734E-002
  -2.0362657958162209E-003   4.2739786755798814E-003   6.2369743386387011E-002
  -5.2688367193180242E-003   1.9592678378899109E-003   6.1596355800275671E-002
  -4.5932728891686196E-003   2.2154634782866611E-003   6.0871767024243906E-002
  -3.9177090590192375E-003   2.7979244885106558E-003   6.0318178901182684E-002
  -3.2421452288698667E-003   3.7066508685614993E-003   5.9935591431092117E-002
  -2.5665813987204508E-003   4.9416426184391016E-003   5.9724004613971982E-002
  -6.4945130309572528E-003   2.2084788077971762E-003   5.7795601179201683E-002
  -5.6220164444720465E-003   2.4293326357645029E-003   5.7354775051270956E-002
  -4.7495198579868116E-003   3.0697552040039322E-003   5.7136813783041085E-002
  -3.8770232715015832E-003   4.1297465125152005E-003   5.7141717374512277E-002
  -3.0045266850163687E-003   5.6093065612986548E-003   5.7369485825684796E-002
  -7.8352758529102538E-003   2.4576897777046081E-003   5.3912853060475760E-002
  -6.7139823033586709E-003   2.6432017932420115E-003   5.3849092951090770E-002
  -5.5926887538071011E-003   3.3415859194972086E-003   5.4060061908137641E-002
  -4.4713952042555460E-003   4.5528421564690127E-003   5.4545759931615902E-002
  -3.3501016547039480E-003   6.2769705041582635E-003   5.5306187021525816E-002
  -9.2911251851770238E-003   2.7069007476117068E-003   4.9948111444097498E-002
  -7.8691704658286205E-003   2.8570709507199643E-003   5.0354720723703728E-002
  -6.4472157464801477E-003   3.6134166349904573E-003   5.1087923276472047E-002
  -5.0252610271317305E-003   4.9759378004227903E-003   5.2147719102402762E-002
  -3.6033063077832717E-003   6.9446344470175392E-003   5.3534108201495401E-002
  -2.0362657958162209E-003   4.2739786755798814E-003   6.2369743386387011E-002
  -2.2862454357702386E-003   5.5771157168090779E-003   5.8339271375311141E-002
  -2.5362250757242598E-003   7.2727179391703922E-003   5.4303358453841710E-002
  -2.7862047156782931E-003   9.3607853426654619E-003   5.0262004621979162E-002
  -3.0361843556322987E-003   1.1841317927292039E-002   4.6215209879723496E-002
  -2.5665813987204508E-003   4.9416426184391016E-003   5.9724004613971982E-002
  -2.8394834524848762E-003   6.5664951755141088E-003   5.6191382128936929E-002
  -3.1123855062493051E-003   8.6448039771556406E-003   5.2618355726674781E-002
  -3.3852875600137132E-003   1.1176569023364454E-002   4.9004925407184236E-002
  -3.6581896137781872E-003   1.4161790314139999E-002   4.5351091170467317E-002
  -3.0045266850163687E-003   5.6093065612986548E-003   5.7369485825684796E-002
  -3.3353141594254215E-003   7.5558746342187511E-003   5.4395703930125106E-002
  -3.6661016338345028E-003   1.0016890015140334E-002   5.1346555110503900E-002
  -3.9968891082435842E-003   1.2992352704063334E-002   4.8222039366821359E-002
  -4.3276765826525815E-003   1.6482262700987960E-002   4.5022156699075833E-002
  -3.3501016547039480E-003   6.2769705041582635E-003   5.5306187021525816E-002
  -3.7737375565919033E-003   8.5452540929236986E-003   5.2952236778876303E-002
  -4.1973734584798035E-003   1.1388976053125083E-002   5.0487956605330869E-002
  -4.6210093603676816E-003   1.4808136384762714E-002   4.7913346500889083E-002
  -5.0446452622556585E-003   1.8802735087835809E-002   4.5228406465552123E-002
  -3.6033063077832717E-003   6.9446344470175392E-003   5.3534108201495401E-002
  -4.1547536439842381E-003   9.5346335516284242E-003   5.1860980675189960E-002
  -4.7062009801852600E-003   1.2761062091109915E-002   5.0042560211154552E-002
  -5.2576483163863028E-003   1.6623920065461394E-002   4.8078846809389258E-002
  -5.8090956525872484E-003   2.1123207474683880E-002   4.5969840469893164E-002
  -5.0871892555739900E-002   1.4881802717945258E-002   4.6977208784448998E-002
  -4.9006586404636288E-002   1.4527894210405068E-002   4.7106784890301290E-002
  -4.7141280253532702E-002   1.4128731550446444E-002   4.7385745572856242E-002
  -4.5275974102429090E-002   1.3684314738069144E-002   4.7814090832114048E-002
  -4.3410667951325491E-002   1.3194643773273507E-002   4.8391820668074792E-002
  -5.6771926274342424E-002   1.6820106961403236E-002   4.3272430315336841E-002
  -5.4732966333890465E-002   1.6359631699286697E-002   4.3106846965398682E-002
  -5.2694006393438332E-002   1.5871414810235379E-002   4.3139186617454445E-002
  -5.0655046452986352E-002   1.5355456294249038E-002   4.3369449271504254E-002
  -4.8616086512534275E-002   1.4811756151328043E-002   4.3797634927548207E-002
  -6.2954890771704380E-002   1.8758411204861131E-002   3.9452328828906341E-002
  -6.0693738616612702E-002   1.8191369188168272E-002   3.9009098548661469E-002
  -5.8432586461520955E-002   1.7614098070024162E-002   3.8812329695701739E-002
  -5.6171434306429277E-002   1.7026597850428902E-002   3.8862022270027240E-002
  -5.3910282151337599E-002   1.6428868529382468E-002   3.9158176271638021E-002
  -6.9420786047825520E-002   2.0696715448319053E-002   3.5516904325157854E-002
  -6.6888903252803056E-002   2.0023106677049818E-002   3.4813539640089881E-002
  -6.4357020457780495E-002   1.9356781329813062E-002   3.4405174807598235E-002
  -6.1825137662757976E-002   1.8697739406608752E-002   3.4291809827683040E-002
  -5.9293254867735457E-002   1.8045980907436920E-002   3.4473444700344358E-002
  -7.6169612102706119E-002   2.2635019691777003E-002   3.1466156804091094E-002
  -7.3318460242461497E-002   2.1854844165931420E-002   3.0520170239683730E-002
  -7.0467308382216876E-002   2.1099464589601880E-002   2.9917721953143794E-002
  -6.7616156521972309E-002   2.0368880962788619E-002   2.9658811944471647E-002
  -6.4765004661727715E-002   1.9663093285491429E-002   2.9743440213667205E-002
  -4.3410667951325491E-002   1.3194643773273507E-002   4.8391820668074792E-002
  -4.2024264371541581E-002   1.2683244813503497E-002   4.8345842645054177E-002
  -4.0637860791757720E-002   1.2173644016202939E-002   4.8426552888953173E-002
  -3.9251457211973831E-002   1.1665841381372367E-002   4.8633951399771905E-002
  -3.7865053632189963E-002   1.1159836909011456E-002   4.8968038177510276E-002
  -4.8616086512534275E-002   1.4811756151328043E-002   4.3797634927548207E-002
  -4.7096903408564990E-002   1.4254191222928425E-002   4.3669876193422552E-002
  -4.5577720304595726E-002   1.3696638350506211E-002   4.3680988240748050E-002
  -4.4058537200626434E-002   1.3139097534061906E-002   4.3830971069524750E-002
  -4.2539354096657128E-002   1.2581568773595120E-002   4.4119824679752617E-002
  -5.3910282151337599E-002   1.6428868529382468E-002   3.9158176271638021E-002
  -5.2246137008651376E-002   1.5825137632353228E-002   3.8946850719915251E-002
  -5.0581991865965147E-002   1.5219632684809539E-002   3.8886578464175203E-002
  -4.8917846723278924E-002   1.4612353686751445E-002   3.8977359504417830E-002
  -4.7253701580592694E-002   1.4003300638178839E-002   3.9219193840643152E-002
  -5.9293254867735457E-002   1.8045980907436920E-002   3.4473444700344358E-002
  -5.7471965171800719E-002   1.7396084041778122E-002   3.4176766224532383E-002
  -5.5650675475866059E-002   1.6742627019112839E-002   3.4043323559234673E-002
  -5.3829385779931384E-002   1.6085609839440927E-002   3.4073116704451095E-002
  -5.2008096083996654E-002   1.5425032502762587E-002   3.4266145660181782E-002
  -6.4765004661727715E-002   1.9663093285491429E-002   2.9743440213667205E-002
  -6.2774387898013040E-002   1.8967030451202960E-002   2.9359622707273908E-002
  -6.0783771134298378E-002   1.8265621353416098E-002   2.9151223525926390E-002
  -5.8793154370583724E-002   1.7558865992130374E-002   2.9118242669624622E-002
  -5.6802537606869069E-002   1.6846764367346223E-002   2.9260680138368522E-002
  -3.7865053632189963E-002   1.1159836909011456E-002   4.8968038177510276E-002
  -3.6095067917090953E-002   1.0646847933025894E-002   4.8714221972470273E-002
  -3.4325082201991979E-002   1.0118091787321648E-002   4.8644746436102365E-002
  -3.2555096486892990E-002   9.5735684718988995E-003   4.8759611568406441E-002
  -3.0785110771793994E-002   9.0132779867569957E-003   4.9058817369382557E-002
  -4.2539354096657128E-002   1.2581568773595120E-002   4.4119824679752617E-002
  -4.0582708008216402E-002   1.2018058564248563E-002   4.3814410098185874E-002
  -3.8626061919775696E-002   1.1442573401164488E-002   4.3697975594630400E-002
  -3.6669415831334970E-002   1.0855113284343017E-002   4.3770521169086529E-002
  -3.4712769742894264E-002   1.0255678213783814E-002   4.4032046821554038E-002
  -4.7253701580592694E-002   1.4003300638178839E-002   3.9219193840643152E-002
  -4.5105755709470868E-002   1.3389269195470982E-002   3.8865973098530890E-002
  -4.2957809838349043E-002   1.2767055015006995E-002   3.8706371843769419E-002
  -4.0809863967227182E-002   1.2136658096786969E-002   3.8740390076358787E-002
  -3.8661918096105384E-002   1.1498078440810688E-002   3.8968027796298960E-002
  -5.2008096083996654E-002   1.5425032502762587E-002   3.4266145660181782E-002
  -4.9664211020854304E-002   1.4760479826693526E-002   3.3868910973505403E-002
  -4.7320325957711948E-002   1.4091536628849585E-002   3.3669935183519115E-002
  -4.4976440894569591E-002   1.3418202909230948E-002   3.3669218290223069E-002
  -4.2632555831427242E-002   1.2740478667837479E-002   3.3866760293617265E-002
  -5.6802537606869069E-002   1.6846764367346223E-002   2.9260680138368522E-002
  -5.4258073942366786E-002   1.6131690457916070E-002   2.8823223723109193E-002
  -5.1713610277864516E-002   1.5416018242692300E-002   2.8588665613879655E-002
  -4.9169146613362184E-002   1.4699747721675111E-002   2.8557005810679562E-002
  -4.6624682948859908E-002   1.3982878894864437E-002   2.8728244313509121E-002
  -3.0785110771793994E-002   9.0132779867569957E-003   4.9058817369382557E-002
  -2.9150095295268158E-002   8.4424060120562583E-003   4.8771265236482342E-002
  -2.7515079818742336E-002   7.8661382279562320E-003   4.8664277960944191E-002
  -2.5880064342216492E-002   7.2844746344571110E-003   4.8737855542768466E-002
  -2.4245048865690677E-002   6.6974152315590896E-003   4.8991997981954638E-002
  -3.4712769742894264E-002   1.0255678213783814E-002   4.4032046821554038E-002
  -3.2903979646098584E-002   9.6459323726910684E-003   4.3709193871086183E-002
  -3.1095189549302939E-002   9.0275399442687754E-003   4.3553325303795937E-002
  -2.9286399452507206E-002   8.4005009285168034E-003   4.3564441119683286E-002
  -2.7477609355711599E-002   7.7648153254351593E-003   4.3742541318747885E-002
  -3.8661918096105384E-002   1.1498078440810688E-002   3.8968027796298960E-002
  -3.6692933853224495E-002   1.0849458733326323E-002   3.8606623250332983E-002
  -3.4723949610343668E-002   1.0188941660581430E-002   3.8398622613359870E-002
  -3.2754965367462849E-002   9.5165272225764402E-003   3.8344025885379468E-002
  -3.0785981124581967E-002   8.8322154193111180E-003   3.8442833066392151E-002
  -4.2632555831427242E-002   1.2740478667837479E-002   3.3866760293617265E-002
  -4.0516957916645897E-002   1.2052985093961244E-002   3.3463553374222584E-002
  -3.8401360001864608E-002   1.1350343376894140E-002   3.3200169889636033E-002
  -3.6285762087083243E-002   1.0632553516636160E-002   3.3076609839857704E-002
  -3.4170164172301974E-002   9.8996155131871322E-003   3.3092873224887527E-002
  -4.6624682948859908E-002   1.3982878894864437E-002   2.8728244313509121E-002
  -4.4376051836362784E-002   1.3256511454596331E-002   2.8279984242755074E-002
  -4.2127420723865688E-002   1.2511745093206642E-002   2.7957967132624578E-002
  -3.9878789611368523E-002   1.1748579810695690E-002   2.7762192983117509E-002
  -3.7630158498871441E-002   1.0967015607063146E-002   2.7692661794233797E-002
  -2.4245048865690677E-002   6.6974152315590896E-003   4.8991997981954638E-002
  -2.2445604869228794E-002   6.1030911876048810E-003   4.8715080051208393E-002
  -2.0646160872766939E-002   5.4996336709368931E-003   4.8602962867160038E-002
  -1.8846716876305049E-002   4.8870426815552995E-003   4.8655646429809879E-002
  -1.7047272879843200E-002   4.2653182194607453E-003   4.8873130739157777E-002
  -2.7477609355711599E-002   7.7648153254351593E-003   4.3742541318747885E-002
  -2.5517245753733708E-002   7.1247842193220001E-003   4.3381342022246472E-002
  -2.3556882151755824E-002   6.4847086944752608E-003   4.3177181190079156E-002
  -2.1596518549777913E-002   5.8445887508955241E-003   4.3130058822245521E-002
  -1.9636154947800050E-002   5.2044243885823738E-003   4.3239974918746094E-002
  -3.0785981124581967E-002   8.8322154193111180E-003   3.8442833066392151E-002
  -2.8672460199452292E-002   8.1464772510391747E-003   3.8006441458115964E-002
  -2.6558939274322509E-002   7.4697837180138366E-003   3.7719326031809580E-002
  -2.4445418349192810E-002   6.8021348202356342E-003   3.7581486787472883E-002
  -2.2331897424063052E-002   6.1435305577043353E-003   3.7592923725106031E-002
  -3.4170164172301974E-002   9.8996155131871322E-003   3.3092873224887527E-002
  -3.1911248206384552E-002   9.1681702827564326E-003   3.2590378358816681E-002
  -2.9652332240467091E-002   8.4548587415525303E-003   3.2229397392351436E-002
  -2.7393416274549682E-002   7.7596808895756906E-003   3.2009930325491771E-002
  -2.5134500308632204E-002   7.0826367268264079E-003   3.1931977158238041E-002
  -3.7630158498871441E-002   1.0967015607063146E-002   2.7692661794233797E-002
  -3.5233609774530494E-002   1.0189863314473635E-002   2.7133152724348519E-002
  -3.2837061050189506E-002   9.4399337650908355E-003   2.6707395271704792E-002
  -3.0440512325848511E-002   8.7172269589158163E-003   2.6415389436302700E-002
  -2.8043963601507571E-002   8.0217428959480364E-003   2.6257135218141769E-002
  -1.7047272879843200E-002   4.2653182194607453E-003   4.8873130739157777E-002
  -1.5108235956176677E-002   3.6981987286315299E-003   4.8758603686750113E-002
  -1.3169199032510112E-002   3.2494226530466463E-003   4.8899591453437585E-002
  -1.1230162108843589E-002   2.9189899927072951E-003   4.9296094039220029E-002
  -9.2911251851770238E-003   2.7069007476117068E-003   4.9948111444097498E-002
  -1.9636154947800050E-002   5.2044243885823738E-003   4.3239974918746094E-002
  -1.7480325251538469E-002   4.6010777502841216E-003   4.3075877052536016E-002
  -1.5324495555276756E-002   4.0714109787483854E-003   4.3089849912421097E-002
  -1.3168665859015157E-002   3.6154240739753249E-003   4.3281893498401364E-002
  -1.1012836162753517E-002   3.2331170359647388E-003   4.3652007810476956E-002
  -2.2331897424063052E-002   6.1435305577043353E-003   3.7592923725106031E-002
  -2.0036719048206132E-002   5.5039567719367133E-003   3.7334591496611641E-002
  -1.7741540672349267E-002   4.8933993044497776E-003   3.7176885901212500E-002
  -1.5446362296492381E-002   4.3118581552435732E-003   3.7119806938908796E-002
  -1.3151183920635488E-002   3.7593333243179927E-003   3.7163354609700300E-002
  -2.5134500308632204E-002   7.0826367268264079E-003   3.1931977158238041E-002
  -2.2777417346179954E-002   6.4068357935895826E-003   3.1534747018977162E-002
  -2.0420334383727583E-002   5.7153876301513432E-003   3.1160699419811703E-002
  -1.8063251421275291E-002   5.0082922365118788E-003   3.0809834360741771E-002
  -1.5706168458822962E-002   4.2855496126711357E-003   3.0482151841767384E-002
  -2.8043963601507571E-002   8.0217428959480364E-003   2.6257135218141769E-002
  -2.5702420145459759E-002   7.3097148152418967E-003   2.5676343619632336E-002
  -2.3360876689411780E-002   6.5373759558526312E-003   2.5041290468218791E-002
  -2.1019333233363899E-002   5.7047263177799484E-003   2.4351975763900857E-002
  -1.8677789777315990E-002   4.8117659010241676E-003   2.3608399506678368E-002
  -9.2911251851770238E-003   2.7069007476117068E-003   4.9948111444097498E-002
  -7.8691704658286205E-003   2.8570709507199643E-003   5.0354720723703728E-002
  -6.4472157464801477E-003   3.6134166349904573E-003   5.1087923276472047E-002
  -5.0252610271317305E-003   4.9759378004227903E-003   5.2147719102402762E-002
  -3.6033063077832717E-003   6.9446344470175392E-003   5.3534108201495401E-002
  -1.1012836162753517E-002   3.2331170359647388E-003   4.3652007810476956E-002
  -9.2458478647919617E-003   3.1624849668172028E-003   4.4238343391291013E-002
  -7.4788595668304897E-003   3.6415229686318495E-003   4.5188152856169006E-002
  -5.7118712688689725E-003   4.6702310414098724E-003   4.6501436205110908E-002
  -3.9448829709074623E-003   6.2486091851496894E-003   4.8178193438116912E-002
  -1.3151183920635488E-002   3.7593333243179927E-003   3.7163354609700300E-002
  -1.1002281433159084E-002   3.4678989829142748E-003   3.7872911081522659E-002
  -8.8533789456826904E-003   3.6696293022736998E-003   3.8982822048310703E-002
  -6.7044764582062377E-003   4.3645242823962919E-003   4.0493087510064564E-002
  -4.5555739707298926E-003   5.5525839232817842E-003   4.2403707466784429E-002
  -1.5706168458822962E-002   4.2855496126711357E-003   3.0482151841767384E-002
  -1.3138471170929786E-002   3.7733129990113745E-003   3.1258423794398374E-002
  -1.0570773883036696E-002   3.6977356359153210E-003   3.2471930852897193E-002
  -8.0030765951435642E-003   4.0588175233829318E-003   3.4122673017263440E-002
  -5.4353793072503750E-003   4.8565586614140177E-003   3.6210650287497835E-002
  -1.8677789777315990E-002   4.8117659010241676E-003   2.3608399506678368E-002
  -1.5654417078104332E-002   4.0787270151085298E-003   2.4394881529918533E-002
  -1.2631044378892564E-002   3.7258419695571365E-003   2.5655479269928394E-002
  -9.6076716796808376E-003   3.7531107643695646E-003   2.7390192726707674E-002
  -6.5842989804691388E-003   4.1605333995460292E-003   2.9599021900256206E-002
  -3.6033063077832717E-003   6.9446344470175392E-003   5.3534108201495401E-002
  -4.1547536439842381E-003   9.5346335516284242E-003   5.1860980675189960E-002
  -4.7062009801852600E-003   1.2761062091109915E-002   5.0042560211154552E-002
  -5.2576483163863028E-003   1.6623920065461394E-002   4.8078846809389258E-002
  -5.8090956525872484E-003   2.1123207474683880E-002   4.5969840469893164E-002
  -3.9448829709074623E-003   6.2486091851496894E-003   4.8178193438116912E-002
  -4.5378302433984608E-003   8.6866710625574384E-003   4.7242807992175562E-002
  -5.1307775158895355E-003   1.2294430336338369E-002   4.6369715611384255E-002
  -5.7237247883804784E-003   1.7071887006491815E-002   4.5558916295743102E-002
  -6.3166720608715532E-003   2.3019041073018887E-002   4.4810410045251547E-002
  -4.5555739707298926E-003   5.5525839232817842E-003   4.2403707466784429E-002
  -4.9824351766304883E-003   7.8387085734865636E-003   4.2739332062708912E-002
  -5.4092963825311952E-003   1.1827798581566726E-002   4.3344835726663963E-002
  -5.8361575884319072E-003   1.7519853947522406E-002   4.4220218458650033E-002
  -6.2630187943324978E-003   2.4914874671353449E-002   4.5365480258665714E-002
  -5.4353793072503750E-003   4.8565586614140177E-003   3.6210650287497835E-002
  -5.4885684436803799E-003   6.9907460844158553E-003   3.8350552886790984E-002
  -5.5417575801103595E-003   1.1361166826795353E-002   4.0967920556994983E-002
  -5.5949467165403270E-003   1.7967820888552692E-002   4.4062753298109929E-002
  -5.6481358529703457E-003   2.6810708269688344E-002   4.7635051110135912E-002
  -6.5842989804691388E-003   4.1605333995460292E-003   2.9599021900256206E-002
  -6.0562300445480277E-003   6.1427835953449250E-003   3.4076470464420638E-002
  -5.5281611086269167E-003   1.0894535072023648E-002   3.9238970102376425E-002
  -5.0000921727057918E-003   1.8415787829583224E-002   4.5086520814122955E-002
  -4.4720232367847501E-003   2.8706541868023017E-002   5.1619122599661171E-002
  -7.6169612102706119E-002   2.2635019691777003E-002   3.1466156804091094E-002
  -7.3318460242461497E-002   2.1854844165931420E-002   3.0520170239683730E-002
  -7.0467308382216876E-002   2.1099464589601880E-002   2.9917721953143794E-002
  -6.7616156521972309E-002   2.0368880962788619E-002   2.9658811944471647E-002
  -6.4765004661727715E-002   1.9663093285491429E-002   2.9743440213667205E-002
  -8.2779359189759344E-002   2.4404871117066684E-002   2.2933092094662377E-002
  -7.9649630691955173E-002   2.3628075377874758E-002   2.2496561267640020E-002
  -7.6519902194151210E-002   2.2853141015725151E-002   2.2273645437868972E-002
  -7.3390173696347094E-002   2.2080068030617791E-002   2.2264344605349082E-002
  -7.0260445198543076E-002   2.1308856422552758E-002   2.2468658770080557E-002
  -8.8828017562398359E-002   2.6174722542356310E-002   1.4414874458124532E-002
  -8.5549635707651284E-002   2.5401306589818096E-002   1.4464864796013069E-002
  -8.2271253852904180E-002   2.4606817441848311E-002   1.4598546850536992E-002
  -7.8992871998157022E-002   2.3791255098447019E-002   1.4815920621695552E-002
  -7.5714490143409946E-002   2.2954619559614031E-002   1.5116986109488945E-002
  -9.4315587220623415E-002   2.7944573967646102E-002   5.9115038944770396E-003
  -9.1018475289549650E-002   2.7174537801761545E-002   6.4250808248032427E-003
  -8.7721363358475843E-002   2.6360493867971582E-002   6.8924261911478407E-003
  -8.4424251427402133E-002   2.5502442166276219E-002   7.3135399935110330E-003
  -8.1127139496328285E-002   2.4600382696675333E-002   7.6884222318925194E-003
  -9.9242068164434372E-002   2.9714425392935673E-002  -2.5770195962795395E-003
  -9.6056149437650395E-002   2.8947769013704883E-002  -1.6227906459900798E-003
  -9.2870230710866308E-002   2.8114170294094826E-002  -8.4471654029827370E-004
  -8.9684311984082277E-002   2.7213629234105370E-002  -2.4279727920439864E-004
  -8.6498393257298245E-002   2.6246145833736634E-002   1.8296713729110126E-004
  -6.4765004661727715E-002   1.9663093285491429E-002   2.9743440213667205E-002
  -6.2774387898013040E-002   1.8967030451202960E-002   2.9359622707273908E-002
  -6.0783771134298378E-002   1.8265621353416098E-002   2.9151223525926390E-002
  -5.8793154370583724E-002   1.7558865992130374E-002   2.9118242669624622E-002
  -5.6802537606869069E-002   1.6846764367346223E-002   2.9260680138368522E-002
  -7.0260445198543076E-002   2.1308856422552758E-002   2.2468658770080557E-002
  -6.8093333600764430E-002   2.0540730252428543E-002   2.2126794982324463E-002
  -6.5926222002985813E-002   1.9776913581144306E-002   2.1962502537650475E-002
  -6.3759110405207195E-002   1.9017406408699450E-002   2.1975781436058703E-002
  -6.1591998807428563E-002   1.8262208735094376E-002   2.2166631677549037E-002
  -7.5714490143409946E-002   2.2954619559614031E-002   1.5116986109488945E-002
  -7.3368730693530976E-002   2.2114430053654044E-002   1.4826731802708354E-002
  -7.1022971243651992E-002   2.1288205808872286E-002   1.4716201857046272E-002
  -6.8677211793773063E-002   2.0475946825268411E-002   1.4785396272502891E-002
  -6.6331452343894037E-002   1.9677653102842529E-002   1.5034315049077887E-002
  -8.1127139496328285E-002   2.4600382696675333E-002   7.6884222318925194E-003
  -7.8600579176312579E-002   2.3688129854879808E-002   7.4594331684257817E-003
  -7.6074018856296860E-002   2.2799498036600464E-002   7.4123214841138058E-003
  -7.3547458536281127E-002   2.1934487241837376E-002   7.5470871789568650E-003
  -7.1020898216265393E-002   2.1093097470590710E-002   7.8637302529549931E-003
  -8.6498393257298245E-002   2.6246145833736634E-002   1.8296713729110126E-004
  -8.3788879049109366E-002   2.5261829656105073E-002   2.4899079476503605E-005
  -8.1079364840920487E-002   2.4310790264328308E-002   5.0861418853007101E-005
  -7.8369850632731608E-002   2.3393027658406298E-002   2.6085415542131604E-004
  -7.5660336424542729E-002   2.2508541838338836E-002   6.5487728918045551E-004
  -5.6802537606869069E-002   1.6846764367346223E-002   2.9260680138368522E-002
  -5.4258073942366786E-002   1.6131690457916070E-002   2.8823223723109193E-002
  -5.1713610277864516E-002   1.5416018242692300E-002   2.8588665613879655E-002
  -4.9169146613362184E-002   1.4699747721675111E-002   2.8557005810679562E-002
  -4.6624682948859908E-002   1.3982878894864437E-002   2.8728244313509121E-002
  -6.1591998807428563E-002   1.8262208735094376E-002   2.2166631677549037E-002
  -5.8846957141777664E-002   1.7506273010474971E-002   2.1773670668171985E-002
  -5.6101915476126661E-002   1.6744551684987008E-002   2.1578967355062650E-002
  -5.3356873810475686E-002   1.5977044758630543E-002   2.1582521738221103E-002
  -5.0611832144824759E-002   1.5203752231405798E-002   2.1784333817647161E-002
  -6.6331452343894037E-002   1.9677653102842529E-002   1.5034315049077887E-002
  -6.3390473286856264E-002   1.8880855563033871E-002   1.4680662150507992E-002
  -6.0449494229818504E-002   1.8073085127281764E-002   1.4520626338443872E-002
  -5.7508515172780744E-002   1.7254341795585861E-002   1.4554207612885919E-002
  -5.4567536115742971E-002   1.6424625567947021E-002   1.4781405973833497E-002
  -7.1020898216265393E-002   2.1093097470590710E-002   7.8637302529549931E-003
  -6.7888622377602667E-002   2.0255438115593216E-002   7.5441981701170821E-003
  -6.4756346538939982E-002   1.9401618569576607E-002   7.4136425640235568E-003
  -6.1624070700277263E-002   1.8531638832542125E-002   7.4720634346736861E-003
  -5.8491794861614571E-002   1.7645498904488591E-002   7.7194607820680848E-003
  -7.5660336424542729E-002   2.2508541838338836E-002   6.5487728918045551E-004
  -7.2341404414016874E-002   2.1630020668151728E-002   3.6427872699984487E-004
  -6.9022472403491131E-002   2.0730152011871394E-002   2.5801603180150567E-004
  -6.5703540392965387E-002   1.9808935869496988E-002   3.3608920358523670E-004
  -6.2384608382439533E-002   1.8866372241029605E-002   5.9849824235080895E-004
  -4.6624682948859908E-002   1.3982878894864437E-002   2.8728244313509121E-002
  -4.4376051836362784E-002   1.3256511454596331E-002   2.8279984242755074E-002
  -4.2127420723865688E-002   1.2511745093206642E-002   2.7957967132624578E-002
  -3.9878789611368523E-002   1.1748579810695690E-002   2.7762192983117509E-002
  -3.7630158498871441E-002   1.0967015607063146E-002   2.7692661794233797E-002
  -5.0611832144824759E-002   1.5203752231405798E-002   2.1784333817647161E-002
  -4.8229406303670397E-002   1.4425909747356885E-002   2.1364214123022890E-002
  -4.5846980462516104E-002   1.3644752950528236E-002   2.1085440925089655E-002
  -4.3464554621361742E-002   1.2860281840920359E-002   2.0948014223847275E-002
  -4.1082128780207394E-002   1.2072496418532308E-002   2.0951934019295904E-002
  -5.4567536115742971E-002   1.6424625567947021E-002   1.4781405973833497E-002
  -5.2036212009863900E-002   1.5595308040117301E-002   1.4404511263681016E-002
  -4.9504887903984884E-002   1.4777760807849989E-002   1.4184066586286605E-002
  -4.6973563798105883E-002   1.3971983871144582E-002   1.4120071941651022E-002
  -4.4442239692226833E-002   1.3177977230001581E-002   1.4212527329773683E-002
  -5.8491794861614571E-002   1.7645498904488591E-002   7.7194607820680848E-003
  -5.5796468954943307E-002   1.6764706332878007E-002   7.4008756647288461E-003
  -5.3101143048272126E-002   1.5910768665171552E-002   7.2538441162158119E-003
  -5.0405817141600889E-002   1.5083685901369361E-002   7.2783661365283950E-003
  -4.7710491234929688E-002   1.4283458041470687E-002   7.4744417256671844E-003
  -6.2384608382439533E-002   1.8866372241029605E-002   5.9849824235080895E-004
  -5.9510177138908604E-002   1.7934104625638492E-002   3.5330732616706273E-004
  -5.6635745895377732E-002   1.7043776522493004E-002   2.9477351487661174E-004
  -5.3761314651846859E-002   1.6195387931593669E-002   4.2289680847990008E-004
  -5.0886883408315930E-002   1.5388938852940015E-002   7.3767720697626160E-004
  -3.7630158498871441E-002   1.0967015607063146E-002   2.7692661794233797E-002
  -3.5233609774530494E-002   1.0189863314473635E-002   2.7133152724348519E-002
  -3.2837061050189506E-002   9.4399337650908355E-003   2.6707395271704792E-002
  -3.0440512325848511E-002   8.7172269589158163E-003   2.6415389436302700E-002
  -2.8043963601507571E-002   8.0217428959480364E-003   2.6257135218141769E-002
  -4.1082128780207394E-002   1.2072496418532308E-002   2.0951934019295904E-002
  -3.8562953407644582E-002   1.1288998890878366E-002   2.0492715772434944E-002
  -3.6043778035081672E-002   1.0517391465471579E-002   2.0144999204776498E-002
  -3.3524602662518742E-002   9.7576741423119583E-003   1.9908784316320233E-002
  -3.1005427289955895E-002   9.0098469213996113E-003   1.9784071107066370E-002
  -4.4442239692226833E-002   1.3177977230001581E-002   1.4212527329773683E-002
  -4.1822687609481060E-002   1.2388134467283346E-002   1.3838267264977264E-002
  -3.9203135526735419E-002   1.1594849165852100E-002   1.3553258941343529E-002
  -3.6583583443989640E-002   1.0798121325708489E-002   1.3357502358873424E-002
  -3.3964031361243985E-002   9.9979509468517969E-003   1.3250997517566671E-002
  -4.7710491234929688E-002   1.4283458041470687E-002   7.4744417256671844E-003
  -4.5012812380040235E-002   1.3487270043688257E-002   7.1698072019748642E-003
  -4.2315133525150768E-002   1.2672306866232511E-002   6.9321744814067748E-003
  -3.9617454670261280E-002   1.1838568509103770E-002   6.7615435639623266E-003
  -3.6919775815371855E-002   1.0986054972303344E-002   6.6579144496426088E-003
  -5.0886883408315930E-002   1.5388938852940015E-002   7.3767720697626160E-004
  -4.8133327719321772E-002   1.4586405620092835E-002   4.8733558342822780E-004
  -4.5379772030327781E-002   1.3749764566613143E-002   2.8174582496481859E-004
  -4.2626216341333678E-002   1.2879015692500773E-002   1.2090793158674173E-004
  -3.9872660652339631E-002   1.1974158997755335E-002   4.8219032938723316E-006
  -2.8043963601507571E-002   8.0217428959480364E-003   2.6257135218141769E-002
  -2.5702420145459759E-002   7.3097148152418967E-003   2.5676343619632336E-002
  -2.3360876689411780E-002   6.5373759558526312E-003   2.5041290468218791E-002
  -2.1019333233363899E-002   5.7047263177799484E-003   2.4351975763900857E-002
  -1.8677789777315990E-002   4.8117659010241676E-003   2.3608399506678368E-002
  -3.1005427289955895E-002   9.0098469213996113E-003   1.9784071107066370E-002
  -2.8700046325743980E-002   8.2659068194463337E-003   1.9192024865279433E-002
  -2.6394665361532052E-002   7.5178508531640875E-003   1.8581915192724785E-002
  -2.4089284397320158E-002   6.7656790225527758E-003   1.7953742089402688E-002
  -2.1783903433108265E-002   6.0093913276122457E-003   1.7307505555312741E-002
  -3.3964031361243985E-002   9.9979509468517969E-003   1.3250997517566671E-002
  -3.1658614766731305E-002   9.2220988236511037E-003   1.2703891546856222E-002
  -2.9353198172218639E-002   8.4983257504756826E-003   1.2174920267515099E-002
  -2.7047781577705942E-002   7.8266317273257210E-003   1.1664083679542858E-002
  -2.4742364983193293E-002   7.2070167542004904E-003   1.1171381782940054E-002
  -3.6919775815371855E-002   1.0986054972303344E-002   6.6579144496426088E-003
  -3.4578125468421761E-002   1.0178290827855874E-002   6.2119436643629095E-003
  -3.2236475121471576E-002   9.4788006477867642E-003   5.8203056925891679E-003
  -2.9894824774521413E-002   8.8875844320988849E-003   5.4830005343214638E-003
  -2.7553174427571301E-002   8.4046421807891514E-003   5.2000281895593012E-003
  -3.9872660652339631E-002   1.1974158997755335E-002   4.8219032938723316E-006
  -3.7458578430815237E-002   1.1134482832060311E-002  -2.8381878220057333E-004
  -3.5044496209290843E-002   1.0459275545098512E-002  -4.8192853205214492E-004
  -3.2630413987766477E-002   9.9485371368715492E-003  -5.8950734626135592E-004
  -3.0216331766242055E-002   9.6022676073768132E-003  -6.0655522482788715E-004
  -1.8677789777315990E-002   4.8117659010241676E-003   2.3608399506678368E-002
  -1.5654417078104332E-002   4.0787270151085298E-003   2.4394881529918533E-002
  -1.2631044378892564E-002   3.7258419695571365E-003   2.5655479269928394E-002
  -9.6076716796808376E-003   3.7531107643695646E-003   2.7390192726707674E-002
  -6.5842989804691388E-003   4.1605333995460292E-003   2.9599021900256206E-002
  -2.1783903433108265E-002   6.0093913276122457E-003   1.7307505555312741E-002
  -1.8555845199134058E-002   5.3426801216973074E-003   1.8253920843624982E-002
  -1.5327786965159795E-002   4.8592377581615220E-003   1.9135591484692765E-002
  -1.2099728731185561E-002   4.5590642370052434E-003   1.9952517478516160E-002
  -8.8716704972113258E-003   4.4421595582286866E-003   2.0704698825094736E-002
  -2.4742364983193293E-002   7.2070167542004904E-003   1.1171381782940054E-002
  -2.1848481578470580E-002   6.6066332282857798E-003   1.2080845338339585E-002
  -1.8954598173747797E-002   5.9926335467658104E-003   1.2386703882480601E-002
  -1.6060714769025080E-002   5.3650177096405925E-003   1.2088957415363318E-002
  -1.3166831364302356E-002   4.7237857169111219E-003   1.1187605936987588E-002
  -2.7553174427571301E-002   8.4046421807891514E-003   5.2000281895593012E-003
  -2.5532326216114010E-002   7.8705863348744604E-003   5.8756550140621269E-003
  -2.3511478004656715E-002   7.1260293353699253E-003   5.4088164632920231E-003
  -2.1490629793199430E-002   6.1709711822765505E-003   3.7995125372495293E-003
  -1.9469781581742129E-002   5.0054118755931132E-003   1.0477432359346228E-003
  -3.0216331766242055E-002   9.6022676073768132E-003  -6.0655522482788715E-004
  -2.9607379112064236E-002   9.1345394414630299E-003  -3.6165012920735817E-004
  -2.8998426457886417E-002   8.2594251239748173E-003  -1.7980707728731116E-003
  -2.8389473803708570E-002   6.9769246549113706E-003  -4.9158171558249045E-003
  -2.7780521149530779E-002   5.2870380342762147E-003  -9.7148892780635210E-003
  -6.5842989804691388E-003   4.1605333995460292E-003   2.9599021900256206E-002
  -6.0562300445480277E-003   6.1427835953449250E-003   3.4076470464420638E-002
  -5.5281611086269167E-003   1.0894535072023648E-002   3.9238970102376425E-002
  -5.0000921727057918E-003   1.8415787829583224E-002   4.5086520814122955E-002
  -4.4720232367847501E-003   2.8706541868023017E-002   5.1619122599661171E-002
  -8.8716704972113258E-003   4.4421595582286866E-003   2.0704698825094736E-002
  -7.5861548975753035E-003   5.6587406566201981E-003   2.5873355625252559E-002
  -6.3006392979393089E-003   9.3590244669693179E-003   3.1871854679049239E-002
  -5.0151236983034253E-003   1.5543010989275872E-002   3.8700195986484415E-002
  -3.7296080986672919E-003   2.4210700223539661E-002   4.6358379547557949E-002
  -1.3166831364302356E-002   4.7237857169111219E-003   1.1187605936987588E-002
  -1.0979077921104183E-002   5.1746977178955822E-003   1.6761672404216083E-002
  -8.7913244779060790E-003   7.8235138619145439E-003   2.3310372304930632E-002
  -6.6035710347078329E-003   1.2670234148968298E-002   3.0833705639131362E-002
  -4.4158175915096909E-003   1.9714858579056305E-002   3.9331672406816898E-002
  -1.9469781581742129E-002   5.0054118755931132E-003   1.0477432359346228E-003
  -1.6234999115134468E-002   4.6906547791707998E-003   6.7414208013111265E-003
  -1.3000216648526864E-002   6.2880032568604360E-003   1.3554522980020967E-002
  -9.7654341819192331E-003   9.7974573086609465E-003   2.1487049772063810E-002
  -6.5306517153115931E-003   1.5219016934573060E-002   3.0539001177439545E-002
  -2.7780521149530779E-002   5.2870380342762147E-003  -9.7148892780635210E-003
  -2.3353918479666280E-002   4.2066118404466835E-003  -4.1873991834622815E-003
  -1.8927315809801892E-002   4.7524926518049959E-003   2.6043067043194368E-003
  -1.4500713139937477E-002   6.9246804683532615E-003   1.0660228385282078E-002
  -1.0074110470073006E-002   1.0723175290089593E-002   1.9980365859424420E-002
 </DataArray>
 </PointData>
 </Piece>
 </UnstructuredGrid>
 </VTKFile>
