 <VTKFile type="UnstructuredGrid"  version="0.1"   >
 <UnstructuredGrid>
 <Piece  NumberOfPoints="          1600 "  NumberOfCells="         1024 ">
 <Points>
 <DataArray  type="Float64" NumberOfComponents="3"  format="ascii" >
   0.0000000000000000        0.0000000000000000        0.0000000000000000     
   3.1250000000000000E-002   0.0000000000000000        0.0000000000000000     
   6.2500000000000000E-002   0.0000000000000000        0.0000000000000000     
   9.3750000000000000E-002   0.0000000000000000        0.0000000000000000     
  0.12500000000000000        0.0000000000000000        0.0000000000000000     
   0.0000000000000000        3.1250000000000000E-002   0.0000000000000000     
   3.1250000000000000E-002   3.1250000000000000E-002   0.0000000000000000     
   6.2500000000000000E-002   3.1250000000000000E-002   0.0000000000000000     
   9.3750000000000000E-002   3.1250000000000000E-002   0.0000000000000000     
  0.12500000000000000        3.1250000000000000E-002   0.0000000000000000     
   0.0000000000000000        6.2500000000000000E-002   0.0000000000000000     
   3.1250000000000000E-002   6.2500000000000000E-002   0.0000000000000000     
   6.2500000000000000E-002   6.2500000000000000E-002   0.0000000000000000     
   9.3750000000000000E-002   6.2500000000000000E-002   0.0000000000000000     
  0.12500000000000000        6.2500000000000000E-002   0.0000000000000000     
   0.0000000000000000        9.3750000000000000E-002   0.0000000000000000     
   3.1250000000000000E-002   9.3750000000000000E-002   0.0000000000000000     
   6.2500000000000000E-002   9.3750000000000000E-002   0.0000000000000000     
   9.3750000000000000E-002   9.3750000000000000E-002   0.0000000000000000     
  0.12500000000000000        9.3750000000000000E-002   0.0000000000000000     
   0.0000000000000000       0.12500000000000000        0.0000000000000000     
   3.1250000000000000E-002  0.12500000000000000        0.0000000000000000     
   6.2500000000000000E-002  0.12500000000000000        0.0000000000000000     
   9.3750000000000000E-002  0.12500000000000000        0.0000000000000000     
  0.12500000000000000       0.12500000000000000        0.0000000000000000     
  0.12500000000000000        0.0000000000000000        0.0000000000000000     
  0.15625000000000000        0.0000000000000000        0.0000000000000000     
  0.18750000000000000        0.0000000000000000        0.0000000000000000     
  0.21875000000000000        0.0000000000000000        0.0000000000000000     
  0.25000000000000000        0.0000000000000000        0.0000000000000000     
  0.12500000000000000        3.1250000000000000E-002   0.0000000000000000     
  0.15625000000000000        3.1250000000000000E-002   0.0000000000000000     
  0.18750000000000000        3.1250000000000000E-002   0.0000000000000000     
  0.21875000000000000        3.1250000000000000E-002   0.0000000000000000     
  0.25000000000000000        3.1250000000000000E-002   0.0000000000000000     
  0.12500000000000000        6.2500000000000000E-002   0.0000000000000000     
  0.15625000000000000        6.2500000000000000E-002   0.0000000000000000     
  0.18750000000000000        6.2500000000000000E-002   0.0000000000000000     
  0.21875000000000000        6.2500000000000000E-002   0.0000000000000000     
  0.25000000000000000        6.2500000000000000E-002   0.0000000000000000     
  0.12500000000000000        9.3750000000000000E-002   0.0000000000000000     
  0.15625000000000000        9.3750000000000000E-002   0.0000000000000000     
  0.18750000000000000        9.3750000000000000E-002   0.0000000000000000     
  0.21875000000000000        9.3750000000000000E-002   0.0000000000000000     
  0.25000000000000000        9.3750000000000000E-002   0.0000000000000000     
  0.12500000000000000       0.12500000000000000        0.0000000000000000     
  0.15625000000000000       0.12500000000000000        0.0000000000000000     
  0.18750000000000000       0.12500000000000000        0.0000000000000000     
  0.21875000000000000       0.12500000000000000        0.0000000000000000     
  0.25000000000000000       0.12500000000000000        0.0000000000000000     
  0.25000000000000000        0.0000000000000000        0.0000000000000000     
  0.28125000000000000        0.0000000000000000        0.0000000000000000     
  0.31250000000000000        0.0000000000000000        0.0000000000000000     
  0.34375000000000000        0.0000000000000000        0.0000000000000000     
  0.37500000000000000        0.0000000000000000        0.0000000000000000     
  0.25000000000000000        3.1250000000000000E-002   0.0000000000000000     
  0.28125000000000000        3.1250000000000000E-002   0.0000000000000000     
  0.31250000000000000        3.1250000000000000E-002   0.0000000000000000     
  0.34375000000000000        3.1250000000000000E-002   0.0000000000000000     
  0.37500000000000000        3.1250000000000000E-002   0.0000000000000000     
  0.25000000000000000        6.2500000000000000E-002   0.0000000000000000     
  0.28125000000000000        6.2500000000000000E-002   0.0000000000000000     
  0.31250000000000000        6.2500000000000000E-002   0.0000000000000000     
  0.34375000000000000        6.2500000000000000E-002   0.0000000000000000     
  0.37500000000000000        6.2500000000000000E-002   0.0000000000000000     
  0.25000000000000000        9.3750000000000000E-002   0.0000000000000000     
  0.28125000000000000        9.3750000000000000E-002   0.0000000000000000     
  0.31250000000000000        9.3750000000000000E-002   0.0000000000000000     
  0.34375000000000000        9.3750000000000000E-002   0.0000000000000000     
  0.37500000000000000        9.3750000000000000E-002   0.0000000000000000     
  0.25000000000000000       0.12500000000000000        0.0000000000000000     
  0.28125000000000000       0.12500000000000000        0.0000000000000000     
  0.31250000000000000       0.12500000000000000        0.0000000000000000     
  0.34375000000000000       0.12500000000000000        0.0000000000000000     
  0.37500000000000000       0.12500000000000000        0.0000000000000000     
  0.37500000000000000        0.0000000000000000        0.0000000000000000     
  0.40625000000000000        0.0000000000000000        0.0000000000000000     
  0.43750000000000000        0.0000000000000000        0.0000000000000000     
  0.46875000000000000        0.0000000000000000        0.0000000000000000     
  0.50000000000000000        0.0000000000000000        0.0000000000000000     
  0.37500000000000000        3.1250000000000000E-002   0.0000000000000000     
  0.40625000000000000        3.1250000000000000E-002   0.0000000000000000     
  0.43750000000000000        3.1250000000000000E-002   0.0000000000000000     
  0.46875000000000000        3.1250000000000000E-002   0.0000000000000000     
  0.50000000000000000        3.1250000000000000E-002   0.0000000000000000     
  0.37500000000000000        6.2500000000000000E-002   0.0000000000000000     
  0.40625000000000000        6.2500000000000000E-002   0.0000000000000000     
  0.43750000000000000        6.2500000000000000E-002   0.0000000000000000     
  0.46875000000000000        6.2500000000000000E-002   0.0000000000000000     
  0.50000000000000000        6.2500000000000000E-002   0.0000000000000000     
  0.37500000000000000        9.3750000000000000E-002   0.0000000000000000     
  0.40625000000000000        9.3750000000000000E-002   0.0000000000000000     
  0.43750000000000000        9.3750000000000000E-002   0.0000000000000000     
  0.46875000000000000        9.3750000000000000E-002   0.0000000000000000     
  0.50000000000000000        9.3750000000000000E-002   0.0000000000000000     
  0.37500000000000000       0.12500000000000000        0.0000000000000000     
  0.40625000000000000       0.12500000000000000        0.0000000000000000     
  0.43750000000000000       0.12500000000000000        0.0000000000000000     
  0.46875000000000000       0.12500000000000000        0.0000000000000000     
  0.50000000000000000       0.12500000000000000        0.0000000000000000     
  0.50000000000000000        0.0000000000000000        0.0000000000000000     
  0.53125000000000000        0.0000000000000000        0.0000000000000000     
  0.56250000000000000        0.0000000000000000        0.0000000000000000     
  0.59375000000000000        0.0000000000000000        0.0000000000000000     
  0.62500000000000000        0.0000000000000000        0.0000000000000000     
  0.50000000000000000        3.1250000000000000E-002   0.0000000000000000     
  0.53125000000000000        3.1250000000000000E-002   0.0000000000000000     
  0.56250000000000000        3.1250000000000000E-002   0.0000000000000000     
  0.59375000000000000        3.1250000000000000E-002   0.0000000000000000     
  0.62500000000000000        3.1250000000000000E-002   0.0000000000000000     
  0.50000000000000000        6.2500000000000000E-002   0.0000000000000000     
  0.53125000000000000        6.2500000000000000E-002   0.0000000000000000     
  0.56250000000000000        6.2500000000000000E-002   0.0000000000000000     
  0.59375000000000000        6.2500000000000000E-002   0.0000000000000000     
  0.62500000000000000        6.2500000000000000E-002   0.0000000000000000     
  0.50000000000000000        9.3750000000000000E-002   0.0000000000000000     
  0.53125000000000000        9.3750000000000000E-002   0.0000000000000000     
  0.56250000000000000        9.3750000000000000E-002   0.0000000000000000     
  0.59375000000000000        9.3750000000000000E-002   0.0000000000000000     
  0.62500000000000000        9.3750000000000000E-002   0.0000000000000000     
  0.50000000000000000       0.12500000000000000        0.0000000000000000     
  0.53125000000000000       0.12500000000000000        0.0000000000000000     
  0.56250000000000000       0.12500000000000000        0.0000000000000000     
  0.59375000000000000       0.12500000000000000        0.0000000000000000     
  0.62500000000000000       0.12500000000000000        0.0000000000000000     
  0.62500000000000000        0.0000000000000000        0.0000000000000000     
  0.65625000000000000        0.0000000000000000        0.0000000000000000     
  0.68750000000000000        0.0000000000000000        0.0000000000000000     
  0.71875000000000000        0.0000000000000000        0.0000000000000000     
  0.75000000000000000        0.0000000000000000        0.0000000000000000     
  0.62500000000000000        3.1250000000000000E-002   0.0000000000000000     
  0.65625000000000000        3.1250000000000000E-002   0.0000000000000000     
  0.68750000000000000        3.1250000000000000E-002   0.0000000000000000     
  0.71875000000000000        3.1250000000000000E-002   0.0000000000000000     
  0.75000000000000000        3.1250000000000000E-002   0.0000000000000000     
  0.62500000000000000        6.2500000000000000E-002   0.0000000000000000     
  0.65625000000000000        6.2500000000000000E-002   0.0000000000000000     
  0.68750000000000000        6.2500000000000000E-002   0.0000000000000000     
  0.71875000000000000        6.2500000000000000E-002   0.0000000000000000     
  0.75000000000000000        6.2500000000000000E-002   0.0000000000000000     
  0.62500000000000000        9.3750000000000000E-002   0.0000000000000000     
  0.65625000000000000        9.3750000000000000E-002   0.0000000000000000     
  0.68750000000000000        9.3750000000000000E-002   0.0000000000000000     
  0.71875000000000000        9.3750000000000000E-002   0.0000000000000000     
  0.75000000000000000        9.3750000000000000E-002   0.0000000000000000     
  0.62500000000000000       0.12500000000000000        0.0000000000000000     
  0.65625000000000000       0.12500000000000000        0.0000000000000000     
  0.68750000000000000       0.12500000000000000        0.0000000000000000     
  0.71875000000000000       0.12500000000000000        0.0000000000000000     
  0.75000000000000000       0.12500000000000000        0.0000000000000000     
  0.75000000000000000        0.0000000000000000        0.0000000000000000     
  0.78125000000000000        0.0000000000000000        0.0000000000000000     
  0.81250000000000000        0.0000000000000000        0.0000000000000000     
  0.84375000000000000        0.0000000000000000        0.0000000000000000     
  0.87500000000000000        0.0000000000000000        0.0000000000000000     
  0.75000000000000000        3.1250000000000000E-002   0.0000000000000000     
  0.78125000000000000        3.1250000000000000E-002   0.0000000000000000     
  0.81250000000000000        3.1250000000000000E-002   0.0000000000000000     
  0.84375000000000000        3.1250000000000000E-002   0.0000000000000000     
  0.87500000000000000        3.1250000000000000E-002   0.0000000000000000     
  0.75000000000000000        6.2500000000000000E-002   0.0000000000000000     
  0.78125000000000000        6.2500000000000000E-002   0.0000000000000000     
  0.81250000000000000        6.2500000000000000E-002   0.0000000000000000     
  0.84375000000000000        6.2500000000000000E-002   0.0000000000000000     
  0.87500000000000000        6.2500000000000000E-002   0.0000000000000000     
  0.75000000000000000        9.3750000000000000E-002   0.0000000000000000     
  0.78125000000000000        9.3750000000000000E-002   0.0000000000000000     
  0.81250000000000000        9.3750000000000000E-002   0.0000000000000000     
  0.84375000000000000        9.3750000000000000E-002   0.0000000000000000     
  0.87500000000000000        9.3750000000000000E-002   0.0000000000000000     
  0.75000000000000000       0.12500000000000000        0.0000000000000000     
  0.78125000000000000       0.12500000000000000        0.0000000000000000     
  0.81250000000000000       0.12500000000000000        0.0000000000000000     
  0.84375000000000000       0.12500000000000000        0.0000000000000000     
  0.87500000000000000       0.12500000000000000        0.0000000000000000     
  0.87500000000000000        0.0000000000000000        0.0000000000000000     
  0.90625000000000000        0.0000000000000000        0.0000000000000000     
  0.93750000000000000        0.0000000000000000        0.0000000000000000     
  0.96875000000000000        0.0000000000000000        0.0000000000000000     
   1.0000000000000000        0.0000000000000000        0.0000000000000000     
  0.87500000000000000        3.1250000000000000E-002   0.0000000000000000     
  0.90625000000000000        3.1250000000000000E-002   0.0000000000000000     
  0.93750000000000000        3.1250000000000000E-002   0.0000000000000000     
  0.96875000000000000        3.1250000000000000E-002   0.0000000000000000     
   1.0000000000000000        3.1250000000000000E-002   0.0000000000000000     
  0.87500000000000000        6.2500000000000000E-002   0.0000000000000000     
  0.90625000000000000        6.2500000000000000E-002   0.0000000000000000     
  0.93750000000000000        6.2500000000000000E-002   0.0000000000000000     
  0.96875000000000000        6.2500000000000000E-002   0.0000000000000000     
   1.0000000000000000        6.2500000000000000E-002   0.0000000000000000     
  0.87500000000000000        9.3750000000000000E-002   0.0000000000000000     
  0.90625000000000000        9.3750000000000000E-002   0.0000000000000000     
  0.93750000000000000        9.3750000000000000E-002   0.0000000000000000     
  0.96875000000000000        9.3750000000000000E-002   0.0000000000000000     
   1.0000000000000000        9.3750000000000000E-002   0.0000000000000000     
  0.87500000000000000       0.12500000000000000        0.0000000000000000     
  0.90625000000000000       0.12500000000000000        0.0000000000000000     
  0.93750000000000000       0.12500000000000000        0.0000000000000000     
  0.96875000000000000       0.12500000000000000        0.0000000000000000     
   1.0000000000000000       0.12500000000000000        0.0000000000000000     
   0.0000000000000000       0.12500000000000000        0.0000000000000000     
   3.1250000000000000E-002  0.12500000000000000        0.0000000000000000     
   6.2500000000000000E-002  0.12500000000000000        0.0000000000000000     
   9.3750000000000000E-002  0.12500000000000000        0.0000000000000000     
  0.12500000000000000       0.12500000000000000        0.0000000000000000     
   0.0000000000000000       0.15625000000000000        0.0000000000000000     
   3.1250000000000000E-002  0.15625000000000000        0.0000000000000000     
   6.2500000000000000E-002  0.15625000000000000        0.0000000000000000     
   9.3750000000000000E-002  0.15625000000000000        0.0000000000000000     
  0.12500000000000000       0.15625000000000000        0.0000000000000000     
   0.0000000000000000       0.18750000000000000        0.0000000000000000     
   3.1250000000000000E-002  0.18750000000000000        0.0000000000000000     
   6.2500000000000000E-002  0.18750000000000000        0.0000000000000000     
   9.3750000000000000E-002  0.18750000000000000        0.0000000000000000     
  0.12500000000000000       0.18750000000000000        0.0000000000000000     
   0.0000000000000000       0.21875000000000000        0.0000000000000000     
   3.1250000000000000E-002  0.21875000000000000        0.0000000000000000     
   6.2500000000000000E-002  0.21875000000000000        0.0000000000000000     
   9.3750000000000000E-002  0.21875000000000000        0.0000000000000000     
  0.12500000000000000       0.21875000000000000        0.0000000000000000     
   0.0000000000000000       0.25000000000000000        0.0000000000000000     
   3.1250000000000000E-002  0.25000000000000000        0.0000000000000000     
   6.2500000000000000E-002  0.25000000000000000        0.0000000000000000     
   9.3750000000000000E-002  0.25000000000000000        0.0000000000000000     
  0.12500000000000000       0.25000000000000000        0.0000000000000000     
  0.12500000000000000       0.12500000000000000        0.0000000000000000     
  0.15625000000000000       0.12500000000000000        0.0000000000000000     
  0.18750000000000000       0.12500000000000000        0.0000000000000000     
  0.21875000000000000       0.12500000000000000        0.0000000000000000     
  0.25000000000000000       0.12500000000000000        0.0000000000000000     
  0.12500000000000000       0.15625000000000000        0.0000000000000000     
  0.15625000000000000       0.15625000000000000        0.0000000000000000     
  0.18750000000000000       0.15625000000000000        0.0000000000000000     
  0.21875000000000000       0.15625000000000000        0.0000000000000000     
  0.25000000000000000       0.15625000000000000        0.0000000000000000     
  0.12500000000000000       0.18750000000000000        0.0000000000000000     
  0.15625000000000000       0.18750000000000000        0.0000000000000000     
  0.18750000000000000       0.18750000000000000        0.0000000000000000     
  0.21875000000000000       0.18750000000000000        0.0000000000000000     
  0.25000000000000000       0.18750000000000000        0.0000000000000000     
  0.12500000000000000       0.21875000000000000        0.0000000000000000     
  0.15625000000000000       0.21875000000000000        0.0000000000000000     
  0.18750000000000000       0.21875000000000000        0.0000000000000000     
  0.21875000000000000       0.21875000000000000        0.0000000000000000     
  0.25000000000000000       0.21875000000000000        0.0000000000000000     
  0.12500000000000000       0.25000000000000000        0.0000000000000000     
  0.15625000000000000       0.25000000000000000        0.0000000000000000     
  0.18750000000000000       0.25000000000000000        0.0000000000000000     
  0.21875000000000000       0.25000000000000000        0.0000000000000000     
  0.25000000000000000       0.25000000000000000        0.0000000000000000     
  0.25000000000000000       0.12500000000000000        0.0000000000000000     
  0.28125000000000000       0.12500000000000000        0.0000000000000000     
  0.31250000000000000       0.12500000000000000        0.0000000000000000     
  0.34375000000000000       0.12500000000000000        0.0000000000000000     
  0.37500000000000000       0.12500000000000000        0.0000000000000000     
  0.25000000000000000       0.15625000000000000        0.0000000000000000     
  0.28125000000000000       0.15625000000000000        0.0000000000000000     
  0.31250000000000000       0.15625000000000000        0.0000000000000000     
  0.34375000000000000       0.15625000000000000        0.0000000000000000     
  0.37500000000000000       0.15625000000000000        0.0000000000000000     
  0.25000000000000000       0.18750000000000000        0.0000000000000000     
  0.28125000000000000       0.18750000000000000        0.0000000000000000     
  0.31250000000000000       0.18750000000000000        0.0000000000000000     
  0.34375000000000000       0.18750000000000000        0.0000000000000000     
  0.37500000000000000       0.18750000000000000        0.0000000000000000     
  0.25000000000000000       0.21875000000000000        0.0000000000000000     
  0.28125000000000000       0.21875000000000000        0.0000000000000000     
  0.31250000000000000       0.21875000000000000        0.0000000000000000     
  0.34375000000000000       0.21875000000000000        0.0000000000000000     
  0.37500000000000000       0.21875000000000000        0.0000000000000000     
  0.25000000000000000       0.25000000000000000        0.0000000000000000     
  0.28125000000000000       0.25000000000000000        0.0000000000000000     
  0.31250000000000000       0.25000000000000000        0.0000000000000000     
  0.34375000000000000       0.25000000000000000        0.0000000000000000     
  0.37500000000000000       0.25000000000000000        0.0000000000000000     
  0.37500000000000000       0.12500000000000000        0.0000000000000000     
  0.40625000000000000       0.12500000000000000        0.0000000000000000     
  0.43750000000000000       0.12500000000000000        0.0000000000000000     
  0.46875000000000000       0.12500000000000000        0.0000000000000000     
  0.50000000000000000       0.12500000000000000        0.0000000000000000     
  0.37500000000000000       0.15625000000000000        0.0000000000000000     
  0.40625000000000000       0.15625000000000000        0.0000000000000000     
  0.43750000000000000       0.15625000000000000        0.0000000000000000     
  0.46875000000000000       0.15625000000000000        0.0000000000000000     
  0.50000000000000000       0.15625000000000000        0.0000000000000000     
  0.37500000000000000       0.18750000000000000        0.0000000000000000     
  0.40625000000000000       0.18750000000000000        0.0000000000000000     
  0.43750000000000000       0.18750000000000000        0.0000000000000000     
  0.46875000000000000       0.18750000000000000        0.0000000000000000     
  0.50000000000000000       0.18750000000000000        0.0000000000000000     
  0.37500000000000000       0.21875000000000000        0.0000000000000000     
  0.40625000000000000       0.21875000000000000        0.0000000000000000     
  0.43750000000000000       0.21875000000000000        0.0000000000000000     
  0.46875000000000000       0.21875000000000000        0.0000000000000000     
  0.50000000000000000       0.21875000000000000        0.0000000000000000     
  0.37500000000000000       0.25000000000000000        0.0000000000000000     
  0.40625000000000000       0.25000000000000000        0.0000000000000000     
  0.43750000000000000       0.25000000000000000        0.0000000000000000     
  0.46875000000000000       0.25000000000000000        0.0000000000000000     
  0.50000000000000000       0.25000000000000000        0.0000000000000000     
  0.50000000000000000       0.12500000000000000        0.0000000000000000     
  0.53125000000000000       0.12500000000000000        0.0000000000000000     
  0.56250000000000000       0.12500000000000000        0.0000000000000000     
  0.59375000000000000       0.12500000000000000        0.0000000000000000     
  0.62500000000000000       0.12500000000000000        0.0000000000000000     
  0.50000000000000000       0.15625000000000000        0.0000000000000000     
  0.53125000000000000       0.15625000000000000        0.0000000000000000     
  0.56250000000000000       0.15625000000000000        0.0000000000000000     
  0.59375000000000000       0.15625000000000000        0.0000000000000000     
  0.62500000000000000       0.15625000000000000        0.0000000000000000     
  0.50000000000000000       0.18750000000000000        0.0000000000000000     
  0.53125000000000000       0.18750000000000000        0.0000000000000000     
  0.56250000000000000       0.18750000000000000        0.0000000000000000     
  0.59375000000000000       0.18750000000000000        0.0000000000000000     
  0.62500000000000000       0.18750000000000000        0.0000000000000000     
  0.50000000000000000       0.21875000000000000        0.0000000000000000     
  0.53125000000000000       0.21875000000000000        0.0000000000000000     
  0.56250000000000000       0.21875000000000000        0.0000000000000000     
  0.59375000000000000       0.21875000000000000        0.0000000000000000     
  0.62500000000000000       0.21875000000000000        0.0000000000000000     
  0.50000000000000000       0.25000000000000000        0.0000000000000000     
  0.53125000000000000       0.25000000000000000        0.0000000000000000     
  0.56250000000000000       0.25000000000000000        0.0000000000000000     
  0.59375000000000000       0.25000000000000000        0.0000000000000000     
  0.62500000000000000       0.25000000000000000        0.0000000000000000     
  0.62500000000000000       0.12500000000000000        0.0000000000000000     
  0.65625000000000000       0.12500000000000000        0.0000000000000000     
  0.68750000000000000       0.12500000000000000        0.0000000000000000     
  0.71875000000000000       0.12500000000000000        0.0000000000000000     
  0.75000000000000000       0.12500000000000000        0.0000000000000000     
  0.62500000000000000       0.15625000000000000        0.0000000000000000     
  0.65625000000000000       0.15625000000000000        0.0000000000000000     
  0.68750000000000000       0.15625000000000000        0.0000000000000000     
  0.71875000000000000       0.15625000000000000        0.0000000000000000     
  0.75000000000000000       0.15625000000000000        0.0000000000000000     
  0.62500000000000000       0.18750000000000000        0.0000000000000000     
  0.65625000000000000       0.18750000000000000        0.0000000000000000     
  0.68750000000000000       0.18750000000000000        0.0000000000000000     
  0.71875000000000000       0.18750000000000000        0.0000000000000000     
  0.75000000000000000       0.18750000000000000        0.0000000000000000     
  0.62500000000000000       0.21875000000000000        0.0000000000000000     
  0.65625000000000000       0.21875000000000000        0.0000000000000000     
  0.68750000000000000       0.21875000000000000        0.0000000000000000     
  0.71875000000000000       0.21875000000000000        0.0000000000000000     
  0.75000000000000000       0.21875000000000000        0.0000000000000000     
  0.62500000000000000       0.25000000000000000        0.0000000000000000     
  0.65625000000000000       0.25000000000000000        0.0000000000000000     
  0.68750000000000000       0.25000000000000000        0.0000000000000000     
  0.71875000000000000       0.25000000000000000        0.0000000000000000     
  0.75000000000000000       0.25000000000000000        0.0000000000000000     
  0.75000000000000000       0.12500000000000000        0.0000000000000000     
  0.78125000000000000       0.12500000000000000        0.0000000000000000     
  0.81250000000000000       0.12500000000000000        0.0000000000000000     
  0.84375000000000000       0.12500000000000000        0.0000000000000000     
  0.87500000000000000       0.12500000000000000        0.0000000000000000     
  0.75000000000000000       0.15625000000000000        0.0000000000000000     
  0.78125000000000000       0.15625000000000000        0.0000000000000000     
  0.81250000000000000       0.15625000000000000        0.0000000000000000     
  0.84375000000000000       0.15625000000000000        0.0000000000000000     
  0.87500000000000000       0.15625000000000000        0.0000000000000000     
  0.75000000000000000       0.18750000000000000        0.0000000000000000     
  0.78125000000000000       0.18750000000000000        0.0000000000000000     
  0.81250000000000000       0.18750000000000000        0.0000000000000000     
  0.84375000000000000       0.18750000000000000        0.0000000000000000     
  0.87500000000000000       0.18750000000000000        0.0000000000000000     
  0.75000000000000000       0.21875000000000000        0.0000000000000000     
  0.78125000000000000       0.21875000000000000        0.0000000000000000     
  0.81250000000000000       0.21875000000000000        0.0000000000000000     
  0.84375000000000000       0.21875000000000000        0.0000000000000000     
  0.87500000000000000       0.21875000000000000        0.0000000000000000     
  0.75000000000000000       0.25000000000000000        0.0000000000000000     
  0.78125000000000000       0.25000000000000000        0.0000000000000000     
  0.81250000000000000       0.25000000000000000        0.0000000000000000     
  0.84375000000000000       0.25000000000000000        0.0000000000000000     
  0.87500000000000000       0.25000000000000000        0.0000000000000000     
  0.87500000000000000       0.12500000000000000        0.0000000000000000     
  0.90625000000000000       0.12500000000000000        0.0000000000000000     
  0.93750000000000000       0.12500000000000000        0.0000000000000000     
  0.96875000000000000       0.12500000000000000        0.0000000000000000     
   1.0000000000000000       0.12500000000000000        0.0000000000000000     
  0.87500000000000000       0.15625000000000000        0.0000000000000000     
  0.90625000000000000       0.15625000000000000        0.0000000000000000     
  0.93750000000000000       0.15625000000000000        0.0000000000000000     
  0.96875000000000000       0.15625000000000000        0.0000000000000000     
   1.0000000000000000       0.15625000000000000        0.0000000000000000     
  0.87500000000000000       0.18750000000000000        0.0000000000000000     
  0.90625000000000000       0.18750000000000000        0.0000000000000000     
  0.93750000000000000       0.18750000000000000        0.0000000000000000     
  0.96875000000000000       0.18750000000000000        0.0000000000000000     
   1.0000000000000000       0.18750000000000000        0.0000000000000000     
  0.87500000000000000       0.21875000000000000        0.0000000000000000     
  0.90625000000000000       0.21875000000000000        0.0000000000000000     
  0.93750000000000000       0.21875000000000000        0.0000000000000000     
  0.96875000000000000       0.21875000000000000        0.0000000000000000     
   1.0000000000000000       0.21875000000000000        0.0000000000000000     
  0.87500000000000000       0.25000000000000000        0.0000000000000000     
  0.90625000000000000       0.25000000000000000        0.0000000000000000     
  0.93750000000000000       0.25000000000000000        0.0000000000000000     
  0.96875000000000000       0.25000000000000000        0.0000000000000000     
   1.0000000000000000       0.25000000000000000        0.0000000000000000     
   0.0000000000000000       0.25000000000000000        0.0000000000000000     
   3.1250000000000000E-002  0.25000000000000000        0.0000000000000000     
   6.2500000000000000E-002  0.25000000000000000        0.0000000000000000     
   9.3750000000000000E-002  0.25000000000000000        0.0000000000000000     
  0.12500000000000000       0.25000000000000000        0.0000000000000000     
   0.0000000000000000       0.28125000000000000        0.0000000000000000     
   3.1250000000000000E-002  0.28125000000000000        0.0000000000000000     
   6.2500000000000000E-002  0.28125000000000000        0.0000000000000000     
   9.3750000000000000E-002  0.28125000000000000        0.0000000000000000     
  0.12500000000000000       0.28125000000000000        0.0000000000000000     
   0.0000000000000000       0.31250000000000000        0.0000000000000000     
   3.1250000000000000E-002  0.31250000000000000        0.0000000000000000     
   6.2500000000000000E-002  0.31250000000000000        0.0000000000000000     
   9.3750000000000000E-002  0.31250000000000000        0.0000000000000000     
  0.12500000000000000       0.31250000000000000        0.0000000000000000     
   0.0000000000000000       0.34375000000000000        0.0000000000000000     
   3.1250000000000000E-002  0.34375000000000000        0.0000000000000000     
   6.2500000000000000E-002  0.34375000000000000        0.0000000000000000     
   9.3750000000000000E-002  0.34375000000000000        0.0000000000000000     
  0.12500000000000000       0.34375000000000000        0.0000000000000000     
   0.0000000000000000       0.37500000000000000        0.0000000000000000     
   3.1250000000000000E-002  0.37500000000000000        0.0000000000000000     
   6.2500000000000000E-002  0.37500000000000000        0.0000000000000000     
   9.3750000000000000E-002  0.37500000000000000        0.0000000000000000     
  0.12500000000000000       0.37500000000000000        0.0000000000000000     
  0.12500000000000000       0.25000000000000000        0.0000000000000000     
  0.15625000000000000       0.25000000000000000        0.0000000000000000     
  0.18750000000000000       0.25000000000000000        0.0000000000000000     
  0.21875000000000000       0.25000000000000000        0.0000000000000000     
  0.25000000000000000       0.25000000000000000        0.0000000000000000     
  0.12500000000000000       0.28125000000000000        0.0000000000000000     
  0.15625000000000000       0.28125000000000000        0.0000000000000000     
  0.18750000000000000       0.28125000000000000        0.0000000000000000     
  0.21875000000000000       0.28125000000000000        0.0000000000000000     
  0.25000000000000000       0.28125000000000000        0.0000000000000000     
  0.12500000000000000       0.31250000000000000        0.0000000000000000     
  0.15625000000000000       0.31250000000000000        0.0000000000000000     
  0.18750000000000000       0.31250000000000000        0.0000000000000000     
  0.21875000000000000       0.31250000000000000        0.0000000000000000     
  0.25000000000000000       0.31250000000000000        0.0000000000000000     
  0.12500000000000000       0.34375000000000000        0.0000000000000000     
  0.15625000000000000       0.34375000000000000        0.0000000000000000     
  0.18750000000000000       0.34375000000000000        0.0000000000000000     
  0.21875000000000000       0.34375000000000000        0.0000000000000000     
  0.25000000000000000       0.34375000000000000        0.0000000000000000     
  0.12500000000000000       0.37500000000000000        0.0000000000000000     
  0.15625000000000000       0.37500000000000000        0.0000000000000000     
  0.18750000000000000       0.37500000000000000        0.0000000000000000     
  0.21875000000000000       0.37500000000000000        0.0000000000000000     
  0.25000000000000000       0.37500000000000000        0.0000000000000000     
  0.25000000000000000       0.25000000000000000        0.0000000000000000     
  0.28125000000000000       0.25000000000000000        0.0000000000000000     
  0.31250000000000000       0.25000000000000000        0.0000000000000000     
  0.34375000000000000       0.25000000000000000        0.0000000000000000     
  0.37500000000000000       0.25000000000000000        0.0000000000000000     
  0.25000000000000000       0.28125000000000000        0.0000000000000000     
  0.28125000000000000       0.28125000000000000        0.0000000000000000     
  0.31250000000000000       0.28125000000000000        0.0000000000000000     
  0.34375000000000000       0.28125000000000000        0.0000000000000000     
  0.37500000000000000       0.28125000000000000        0.0000000000000000     
  0.25000000000000000       0.31250000000000000        0.0000000000000000     
  0.28125000000000000       0.31250000000000000        0.0000000000000000     
  0.31250000000000000       0.31250000000000000        0.0000000000000000     
  0.34375000000000000       0.31250000000000000        0.0000000000000000     
  0.37500000000000000       0.31250000000000000        0.0000000000000000     
  0.25000000000000000       0.34375000000000000        0.0000000000000000     
  0.28125000000000000       0.34375000000000000        0.0000000000000000     
  0.31250000000000000       0.34375000000000000        0.0000000000000000     
  0.34375000000000000       0.34375000000000000        0.0000000000000000     
  0.37500000000000000       0.34375000000000000        0.0000000000000000     
  0.25000000000000000       0.37500000000000000        0.0000000000000000     
  0.28125000000000000       0.37500000000000000        0.0000000000000000     
  0.31250000000000000       0.37500000000000000        0.0000000000000000     
  0.34375000000000000       0.37500000000000000        0.0000000000000000     
  0.37500000000000000       0.37500000000000000        0.0000000000000000     
  0.37500000000000000       0.25000000000000000        0.0000000000000000     
  0.40625000000000000       0.25000000000000000        0.0000000000000000     
  0.43750000000000000       0.25000000000000000        0.0000000000000000     
  0.46875000000000000       0.25000000000000000        0.0000000000000000     
  0.50000000000000000       0.25000000000000000        0.0000000000000000     
  0.37500000000000000       0.28125000000000000        0.0000000000000000     
  0.40625000000000000       0.28125000000000000        0.0000000000000000     
  0.43750000000000000       0.28125000000000000        0.0000000000000000     
  0.46875000000000000       0.28125000000000000        0.0000000000000000     
  0.50000000000000000       0.28125000000000000        0.0000000000000000     
  0.37500000000000000       0.31250000000000000        0.0000000000000000     
  0.40625000000000000       0.31250000000000000        0.0000000000000000     
  0.43750000000000000       0.31250000000000000        0.0000000000000000     
  0.46875000000000000       0.31250000000000000        0.0000000000000000     
  0.50000000000000000       0.31250000000000000        0.0000000000000000     
  0.37500000000000000       0.34375000000000000        0.0000000000000000     
  0.40625000000000000       0.34375000000000000        0.0000000000000000     
  0.43750000000000000       0.34375000000000000        0.0000000000000000     
  0.46875000000000000       0.34375000000000000        0.0000000000000000     
  0.50000000000000000       0.34375000000000000        0.0000000000000000     
  0.37500000000000000       0.37500000000000000        0.0000000000000000     
  0.40625000000000000       0.37500000000000000        0.0000000000000000     
  0.43750000000000000       0.37500000000000000        0.0000000000000000     
  0.46875000000000000       0.37500000000000000        0.0000000000000000     
  0.50000000000000000       0.37500000000000000        0.0000000000000000     
  0.50000000000000000       0.25000000000000000        0.0000000000000000     
  0.53125000000000000       0.25000000000000000        0.0000000000000000     
  0.56250000000000000       0.25000000000000000        0.0000000000000000     
  0.59375000000000000       0.25000000000000000        0.0000000000000000     
  0.62500000000000000       0.25000000000000000        0.0000000000000000     
  0.50000000000000000       0.28125000000000000        0.0000000000000000     
  0.53125000000000000       0.28125000000000000        0.0000000000000000     
  0.56250000000000000       0.28125000000000000        0.0000000000000000     
  0.59375000000000000       0.28125000000000000        0.0000000000000000     
  0.62500000000000000       0.28125000000000000        0.0000000000000000     
  0.50000000000000000       0.31250000000000000        0.0000000000000000     
  0.53125000000000000       0.31250000000000000        0.0000000000000000     
  0.56250000000000000       0.31250000000000000        0.0000000000000000     
  0.59375000000000000       0.31250000000000000        0.0000000000000000     
  0.62500000000000000       0.31250000000000000        0.0000000000000000     
  0.50000000000000000       0.34375000000000000        0.0000000000000000     
  0.53125000000000000       0.34375000000000000        0.0000000000000000     
  0.56250000000000000       0.34375000000000000        0.0000000000000000     
  0.59375000000000000       0.34375000000000000        0.0000000000000000     
  0.62500000000000000       0.34375000000000000        0.0000000000000000     
  0.50000000000000000       0.37500000000000000        0.0000000000000000     
  0.53125000000000000       0.37500000000000000        0.0000000000000000     
  0.56250000000000000       0.37500000000000000        0.0000000000000000     
  0.59375000000000000       0.37500000000000000        0.0000000000000000     
  0.62500000000000000       0.37500000000000000        0.0000000000000000     
  0.62500000000000000       0.25000000000000000        0.0000000000000000     
  0.65625000000000000       0.25000000000000000        0.0000000000000000     
  0.68750000000000000       0.25000000000000000        0.0000000000000000     
  0.71875000000000000       0.25000000000000000        0.0000000000000000     
  0.75000000000000000       0.25000000000000000        0.0000000000000000     
  0.62500000000000000       0.28125000000000000        0.0000000000000000     
  0.65625000000000000       0.28125000000000000        0.0000000000000000     
  0.68750000000000000       0.28125000000000000        0.0000000000000000     
  0.71875000000000000       0.28125000000000000        0.0000000000000000     
  0.75000000000000000       0.28125000000000000        0.0000000000000000     
  0.62500000000000000       0.31250000000000000        0.0000000000000000     
  0.65625000000000000       0.31250000000000000        0.0000000000000000     
  0.68750000000000000       0.31250000000000000        0.0000000000000000     
  0.71875000000000000       0.31250000000000000        0.0000000000000000     
  0.75000000000000000       0.31250000000000000        0.0000000000000000     
  0.62500000000000000       0.34375000000000000        0.0000000000000000     
  0.65625000000000000       0.34375000000000000        0.0000000000000000     
  0.68750000000000000       0.34375000000000000        0.0000000000000000     
  0.71875000000000000       0.34375000000000000        0.0000000000000000     
  0.75000000000000000       0.34375000000000000        0.0000000000000000     
  0.62500000000000000       0.37500000000000000        0.0000000000000000     
  0.65625000000000000       0.37500000000000000        0.0000000000000000     
  0.68750000000000000       0.37500000000000000        0.0000000000000000     
  0.71875000000000000       0.37500000000000000        0.0000000000000000     
  0.75000000000000000       0.37500000000000000        0.0000000000000000     
  0.75000000000000000       0.25000000000000000        0.0000000000000000     
  0.78125000000000000       0.25000000000000000        0.0000000000000000     
  0.81250000000000000       0.25000000000000000        0.0000000000000000     
  0.84375000000000000       0.25000000000000000        0.0000000000000000     
  0.87500000000000000       0.25000000000000000        0.0000000000000000     
  0.75000000000000000       0.28125000000000000        0.0000000000000000     
  0.78125000000000000       0.28125000000000000        0.0000000000000000     
  0.81250000000000000       0.28125000000000000        0.0000000000000000     
  0.84375000000000000       0.28125000000000000        0.0000000000000000     
  0.87500000000000000       0.28125000000000000        0.0000000000000000     
  0.75000000000000000       0.31250000000000000        0.0000000000000000     
  0.78125000000000000       0.31250000000000000        0.0000000000000000     
  0.81250000000000000       0.31250000000000000        0.0000000000000000     
  0.84375000000000000       0.31250000000000000        0.0000000000000000     
  0.87500000000000000       0.31250000000000000        0.0000000000000000     
  0.75000000000000000       0.34375000000000000        0.0000000000000000     
  0.78125000000000000       0.34375000000000000        0.0000000000000000     
  0.81250000000000000       0.34375000000000000        0.0000000000000000     
  0.84375000000000000       0.34375000000000000        0.0000000000000000     
  0.87500000000000000       0.34375000000000000        0.0000000000000000     
  0.75000000000000000       0.37500000000000000        0.0000000000000000     
  0.78125000000000000       0.37500000000000000        0.0000000000000000     
  0.81250000000000000       0.37500000000000000        0.0000000000000000     
  0.84375000000000000       0.37500000000000000        0.0000000000000000     
  0.87500000000000000       0.37500000000000000        0.0000000000000000     
  0.87500000000000000       0.25000000000000000        0.0000000000000000     
  0.90625000000000000       0.25000000000000000        0.0000000000000000     
  0.93750000000000000       0.25000000000000000        0.0000000000000000     
  0.96875000000000000       0.25000000000000000        0.0000000000000000     
   1.0000000000000000       0.25000000000000000        0.0000000000000000     
  0.87500000000000000       0.28125000000000000        0.0000000000000000     
  0.90625000000000000       0.28125000000000000        0.0000000000000000     
  0.93750000000000000       0.28125000000000000        0.0000000000000000     
  0.96875000000000000       0.28125000000000000        0.0000000000000000     
   1.0000000000000000       0.28125000000000000        0.0000000000000000     
  0.87500000000000000       0.31250000000000000        0.0000000000000000     
  0.90625000000000000       0.31250000000000000        0.0000000000000000     
  0.93750000000000000       0.31250000000000000        0.0000000000000000     
  0.96875000000000000       0.31250000000000000        0.0000000000000000     
   1.0000000000000000       0.31250000000000000        0.0000000000000000     
  0.87500000000000000       0.34375000000000000        0.0000000000000000     
  0.90625000000000000       0.34375000000000000        0.0000000000000000     
  0.93750000000000000       0.34375000000000000        0.0000000000000000     
  0.96875000000000000       0.34375000000000000        0.0000000000000000     
   1.0000000000000000       0.34375000000000000        0.0000000000000000     
  0.87500000000000000       0.37500000000000000        0.0000000000000000     
  0.90625000000000000       0.37500000000000000        0.0000000000000000     
  0.93750000000000000       0.37500000000000000        0.0000000000000000     
  0.96875000000000000       0.37500000000000000        0.0000000000000000     
   1.0000000000000000       0.37500000000000000        0.0000000000000000     
   0.0000000000000000       0.37500000000000000        0.0000000000000000     
   3.1250000000000000E-002  0.37500000000000000        0.0000000000000000     
   6.2500000000000000E-002  0.37500000000000000        0.0000000000000000     
   9.3750000000000000E-002  0.37500000000000000        0.0000000000000000     
  0.12500000000000000       0.37500000000000000        0.0000000000000000     
   0.0000000000000000       0.40625000000000000        0.0000000000000000     
   3.1250000000000000E-002  0.40625000000000000        0.0000000000000000     
   6.2500000000000000E-002  0.40625000000000000        0.0000000000000000     
   9.3750000000000000E-002  0.40625000000000000        0.0000000000000000     
  0.12500000000000000       0.40625000000000000        0.0000000000000000     
   0.0000000000000000       0.43750000000000000        0.0000000000000000     
   3.1250000000000000E-002  0.43750000000000000        0.0000000000000000     
   6.2500000000000000E-002  0.43750000000000000        0.0000000000000000     
   9.3750000000000000E-002  0.43750000000000000        0.0000000000000000     
  0.12500000000000000       0.43750000000000000        0.0000000000000000     
   0.0000000000000000       0.46875000000000000        0.0000000000000000     
   3.1250000000000000E-002  0.46875000000000000        0.0000000000000000     
   6.2500000000000000E-002  0.46875000000000000        0.0000000000000000     
   9.3750000000000000E-002  0.46875000000000000        0.0000000000000000     
  0.12500000000000000       0.46875000000000000        0.0000000000000000     
   0.0000000000000000       0.50000000000000000        0.0000000000000000     
   3.1250000000000000E-002  0.50000000000000000        0.0000000000000000     
   6.2500000000000000E-002  0.50000000000000000        0.0000000000000000     
   9.3750000000000000E-002  0.50000000000000000        0.0000000000000000     
  0.12500000000000000       0.50000000000000000        0.0000000000000000     
  0.12500000000000000       0.37500000000000000        0.0000000000000000     
  0.15625000000000000       0.37500000000000000        0.0000000000000000     
  0.18750000000000000       0.37500000000000000        0.0000000000000000     
  0.21875000000000000       0.37500000000000000        0.0000000000000000     
  0.25000000000000000       0.37500000000000000        0.0000000000000000     
  0.12500000000000000       0.40625000000000000        0.0000000000000000     
  0.15625000000000000       0.40625000000000000        0.0000000000000000     
  0.18750000000000000       0.40625000000000000        0.0000000000000000     
  0.21875000000000000       0.40625000000000000        0.0000000000000000     
  0.25000000000000000       0.40625000000000000        0.0000000000000000     
  0.12500000000000000       0.43750000000000000        0.0000000000000000     
  0.15625000000000000       0.43750000000000000        0.0000000000000000     
  0.18750000000000000       0.43750000000000000        0.0000000000000000     
  0.21875000000000000       0.43750000000000000        0.0000000000000000     
  0.25000000000000000       0.43750000000000000        0.0000000000000000     
  0.12500000000000000       0.46875000000000000        0.0000000000000000     
  0.15625000000000000       0.46875000000000000        0.0000000000000000     
  0.18750000000000000       0.46875000000000000        0.0000000000000000     
  0.21875000000000000       0.46875000000000000        0.0000000000000000     
  0.25000000000000000       0.46875000000000000        0.0000000000000000     
  0.12500000000000000       0.50000000000000000        0.0000000000000000     
  0.15625000000000000       0.50000000000000000        0.0000000000000000     
  0.18750000000000000       0.50000000000000000        0.0000000000000000     
  0.21875000000000000       0.50000000000000000        0.0000000000000000     
  0.25000000000000000       0.50000000000000000        0.0000000000000000     
  0.25000000000000000       0.37500000000000000        0.0000000000000000     
  0.28125000000000000       0.37500000000000000        0.0000000000000000     
  0.31250000000000000       0.37500000000000000        0.0000000000000000     
  0.34375000000000000       0.37500000000000000        0.0000000000000000     
  0.37500000000000000       0.37500000000000000        0.0000000000000000     
  0.25000000000000000       0.40625000000000000        0.0000000000000000     
  0.28125000000000000       0.40625000000000000        0.0000000000000000     
  0.31250000000000000       0.40625000000000000        0.0000000000000000     
  0.34375000000000000       0.40625000000000000        0.0000000000000000     
  0.37500000000000000       0.40625000000000000        0.0000000000000000     
  0.25000000000000000       0.43750000000000000        0.0000000000000000     
  0.28125000000000000       0.43750000000000000        0.0000000000000000     
  0.31250000000000000       0.43750000000000000        0.0000000000000000     
  0.34375000000000000       0.43750000000000000        0.0000000000000000     
  0.37500000000000000       0.43750000000000000        0.0000000000000000     
  0.25000000000000000       0.46875000000000000        0.0000000000000000     
  0.28125000000000000       0.46875000000000000        0.0000000000000000     
  0.31250000000000000       0.46875000000000000        0.0000000000000000     
  0.34375000000000000       0.46875000000000000        0.0000000000000000     
  0.37500000000000000       0.46875000000000000        0.0000000000000000     
  0.25000000000000000       0.50000000000000000        0.0000000000000000     
  0.28125000000000000       0.50000000000000000        0.0000000000000000     
  0.31250000000000000       0.50000000000000000        0.0000000000000000     
  0.34375000000000000       0.50000000000000000        0.0000000000000000     
  0.37500000000000000       0.50000000000000000        0.0000000000000000     
  0.37500000000000000       0.37500000000000000        0.0000000000000000     
  0.40625000000000000       0.37500000000000000        0.0000000000000000     
  0.43750000000000000       0.37500000000000000        0.0000000000000000     
  0.46875000000000000       0.37500000000000000        0.0000000000000000     
  0.50000000000000000       0.37500000000000000        0.0000000000000000     
  0.37500000000000000       0.40625000000000000        0.0000000000000000     
  0.40625000000000000       0.40625000000000000        0.0000000000000000     
  0.43750000000000000       0.40625000000000000        0.0000000000000000     
  0.46875000000000000       0.40625000000000000        0.0000000000000000     
  0.50000000000000000       0.40625000000000000        0.0000000000000000     
  0.37500000000000000       0.43750000000000000        0.0000000000000000     
  0.40625000000000000       0.43750000000000000        0.0000000000000000     
  0.43750000000000000       0.43750000000000000        0.0000000000000000     
  0.46875000000000000       0.43750000000000000        0.0000000000000000     
  0.50000000000000000       0.43750000000000000        0.0000000000000000     
  0.37500000000000000       0.46875000000000000        0.0000000000000000     
  0.40625000000000000       0.46875000000000000        0.0000000000000000     
  0.43750000000000000       0.46875000000000000        0.0000000000000000     
  0.46875000000000000       0.46875000000000000        0.0000000000000000     
  0.50000000000000000       0.46875000000000000        0.0000000000000000     
  0.37500000000000000       0.50000000000000000        0.0000000000000000     
  0.40625000000000000       0.50000000000000000        0.0000000000000000     
  0.43750000000000000       0.50000000000000000        0.0000000000000000     
  0.46875000000000000       0.50000000000000000        0.0000000000000000     
  0.50000000000000000       0.50000000000000000        0.0000000000000000     
  0.50000000000000000       0.37500000000000000        0.0000000000000000     
  0.53125000000000000       0.37500000000000000        0.0000000000000000     
  0.56250000000000000       0.37500000000000000        0.0000000000000000     
  0.59375000000000000       0.37500000000000000        0.0000000000000000     
  0.62500000000000000       0.37500000000000000        0.0000000000000000     
  0.50000000000000000       0.40625000000000000        0.0000000000000000     
  0.53125000000000000       0.40625000000000000        0.0000000000000000     
  0.56250000000000000       0.40625000000000000        0.0000000000000000     
  0.59375000000000000       0.40625000000000000        0.0000000000000000     
  0.62500000000000000       0.40625000000000000        0.0000000000000000     
  0.50000000000000000       0.43750000000000000        0.0000000000000000     
  0.53125000000000000       0.43750000000000000        0.0000000000000000     
  0.56250000000000000       0.43750000000000000        0.0000000000000000     
  0.59375000000000000       0.43750000000000000        0.0000000000000000     
  0.62500000000000000       0.43750000000000000        0.0000000000000000     
  0.50000000000000000       0.46875000000000000        0.0000000000000000     
  0.53125000000000000       0.46875000000000000        0.0000000000000000     
  0.56250000000000000       0.46875000000000000        0.0000000000000000     
  0.59375000000000000       0.46875000000000000        0.0000000000000000     
  0.62500000000000000       0.46875000000000000        0.0000000000000000     
  0.50000000000000000       0.50000000000000000        0.0000000000000000     
  0.53125000000000000       0.50000000000000000        0.0000000000000000     
  0.56250000000000000       0.50000000000000000        0.0000000000000000     
  0.59375000000000000       0.50000000000000000        0.0000000000000000     
  0.62500000000000000       0.50000000000000000        0.0000000000000000     
  0.62500000000000000       0.37500000000000000        0.0000000000000000     
  0.65625000000000000       0.37500000000000000        0.0000000000000000     
  0.68750000000000000       0.37500000000000000        0.0000000000000000     
  0.71875000000000000       0.37500000000000000        0.0000000000000000     
  0.75000000000000000       0.37500000000000000        0.0000000000000000     
  0.62500000000000000       0.40625000000000000        0.0000000000000000     
  0.65625000000000000       0.40625000000000000        0.0000000000000000     
  0.68750000000000000       0.40625000000000000        0.0000000000000000     
  0.71875000000000000       0.40625000000000000        0.0000000000000000     
  0.75000000000000000       0.40625000000000000        0.0000000000000000     
  0.62500000000000000       0.43750000000000000        0.0000000000000000     
  0.65625000000000000       0.43750000000000000        0.0000000000000000     
  0.68750000000000000       0.43750000000000000        0.0000000000000000     
  0.71875000000000000       0.43750000000000000        0.0000000000000000     
  0.75000000000000000       0.43750000000000000        0.0000000000000000     
  0.62500000000000000       0.46875000000000000        0.0000000000000000     
  0.65625000000000000       0.46875000000000000        0.0000000000000000     
  0.68750000000000000       0.46875000000000000        0.0000000000000000     
  0.71875000000000000       0.46875000000000000        0.0000000000000000     
  0.75000000000000000       0.46875000000000000        0.0000000000000000     
  0.62500000000000000       0.50000000000000000        0.0000000000000000     
  0.65625000000000000       0.50000000000000000        0.0000000000000000     
  0.68750000000000000       0.50000000000000000        0.0000000000000000     
  0.71875000000000000       0.50000000000000000        0.0000000000000000     
  0.75000000000000000       0.50000000000000000        0.0000000000000000     
  0.75000000000000000       0.37500000000000000        0.0000000000000000     
  0.78125000000000000       0.37500000000000000        0.0000000000000000     
  0.81250000000000000       0.37500000000000000        0.0000000000000000     
  0.84375000000000000       0.37500000000000000        0.0000000000000000     
  0.87500000000000000       0.37500000000000000        0.0000000000000000     
  0.75000000000000000       0.40625000000000000        0.0000000000000000     
  0.78125000000000000       0.40625000000000000        0.0000000000000000     
  0.81250000000000000       0.40625000000000000        0.0000000000000000     
  0.84375000000000000       0.40625000000000000        0.0000000000000000     
  0.87500000000000000       0.40625000000000000        0.0000000000000000     
  0.75000000000000000       0.43750000000000000        0.0000000000000000     
  0.78125000000000000       0.43750000000000000        0.0000000000000000     
  0.81250000000000000       0.43750000000000000        0.0000000000000000     
  0.84375000000000000       0.43750000000000000        0.0000000000000000     
  0.87500000000000000       0.43750000000000000        0.0000000000000000     
  0.75000000000000000       0.46875000000000000        0.0000000000000000     
  0.78125000000000000       0.46875000000000000        0.0000000000000000     
  0.81250000000000000       0.46875000000000000        0.0000000000000000     
  0.84375000000000000       0.46875000000000000        0.0000000000000000     
  0.87500000000000000       0.46875000000000000        0.0000000000000000     
  0.75000000000000000       0.50000000000000000        0.0000000000000000     
  0.78125000000000000       0.50000000000000000        0.0000000000000000     
  0.81250000000000000       0.50000000000000000        0.0000000000000000     
  0.84375000000000000       0.50000000000000000        0.0000000000000000     
  0.87500000000000000       0.50000000000000000        0.0000000000000000     
  0.87500000000000000       0.37500000000000000        0.0000000000000000     
  0.90625000000000000       0.37500000000000000        0.0000000000000000     
  0.93750000000000000       0.37500000000000000        0.0000000000000000     
  0.96875000000000000       0.37500000000000000        0.0000000000000000     
   1.0000000000000000       0.37500000000000000        0.0000000000000000     
  0.87500000000000000       0.40625000000000000        0.0000000000000000     
  0.90625000000000000       0.40625000000000000        0.0000000000000000     
  0.93750000000000000       0.40625000000000000        0.0000000000000000     
  0.96875000000000000       0.40625000000000000        0.0000000000000000     
   1.0000000000000000       0.40625000000000000        0.0000000000000000     
  0.87500000000000000       0.43750000000000000        0.0000000000000000     
  0.90625000000000000       0.43750000000000000        0.0000000000000000     
  0.93750000000000000       0.43750000000000000        0.0000000000000000     
  0.96875000000000000       0.43750000000000000        0.0000000000000000     
   1.0000000000000000       0.43750000000000000        0.0000000000000000     
  0.87500000000000000       0.46875000000000000        0.0000000000000000     
  0.90625000000000000       0.46875000000000000        0.0000000000000000     
  0.93750000000000000       0.46875000000000000        0.0000000000000000     
  0.96875000000000000       0.46875000000000000        0.0000000000000000     
   1.0000000000000000       0.46875000000000000        0.0000000000000000     
  0.87500000000000000       0.50000000000000000        0.0000000000000000     
  0.90625000000000000       0.50000000000000000        0.0000000000000000     
  0.93750000000000000       0.50000000000000000        0.0000000000000000     
  0.96875000000000000       0.50000000000000000        0.0000000000000000     
   1.0000000000000000       0.50000000000000000        0.0000000000000000     
   0.0000000000000000       0.50000000000000000        0.0000000000000000     
   3.1250000000000000E-002  0.50000000000000000        0.0000000000000000     
   6.2500000000000000E-002  0.50000000000000000        0.0000000000000000     
   9.3750000000000000E-002  0.50000000000000000        0.0000000000000000     
  0.12500000000000000       0.50000000000000000        0.0000000000000000     
   0.0000000000000000       0.53125000000000000        0.0000000000000000     
   3.1250000000000000E-002  0.53125000000000000        0.0000000000000000     
   6.2500000000000000E-002  0.53125000000000000        0.0000000000000000     
   9.3750000000000000E-002  0.53125000000000000        0.0000000000000000     
  0.12500000000000000       0.53125000000000000        0.0000000000000000     
   0.0000000000000000       0.56250000000000000        0.0000000000000000     
   3.1250000000000000E-002  0.56250000000000000        0.0000000000000000     
   6.2500000000000000E-002  0.56250000000000000        0.0000000000000000     
   9.3750000000000000E-002  0.56250000000000000        0.0000000000000000     
  0.12500000000000000       0.56250000000000000        0.0000000000000000     
   0.0000000000000000       0.59375000000000000        0.0000000000000000     
   3.1250000000000000E-002  0.59375000000000000        0.0000000000000000     
   6.2500000000000000E-002  0.59375000000000000        0.0000000000000000     
   9.3750000000000000E-002  0.59375000000000000        0.0000000000000000     
  0.12500000000000000       0.59375000000000000        0.0000000000000000     
   0.0000000000000000       0.62500000000000000        0.0000000000000000     
   3.1250000000000000E-002  0.62500000000000000        0.0000000000000000     
   6.2500000000000000E-002  0.62500000000000000        0.0000000000000000     
   9.3750000000000000E-002  0.62500000000000000        0.0000000000000000     
  0.12500000000000000       0.62500000000000000        0.0000000000000000     
  0.12500000000000000       0.50000000000000000        0.0000000000000000     
  0.15625000000000000       0.50000000000000000        0.0000000000000000     
  0.18750000000000000       0.50000000000000000        0.0000000000000000     
  0.21875000000000000       0.50000000000000000        0.0000000000000000     
  0.25000000000000000       0.50000000000000000        0.0000000000000000     
  0.12500000000000000       0.53125000000000000        0.0000000000000000     
  0.15625000000000000       0.53125000000000000        0.0000000000000000     
  0.18750000000000000       0.53125000000000000        0.0000000000000000     
  0.21875000000000000       0.53125000000000000        0.0000000000000000     
  0.25000000000000000       0.53125000000000000        0.0000000000000000     
  0.12500000000000000       0.56250000000000000        0.0000000000000000     
  0.15625000000000000       0.56250000000000000        0.0000000000000000     
  0.18750000000000000       0.56250000000000000        0.0000000000000000     
  0.21875000000000000       0.56250000000000000        0.0000000000000000     
  0.25000000000000000       0.56250000000000000        0.0000000000000000     
  0.12500000000000000       0.59375000000000000        0.0000000000000000     
  0.15625000000000000       0.59375000000000000        0.0000000000000000     
  0.18750000000000000       0.59375000000000000        0.0000000000000000     
  0.21875000000000000       0.59375000000000000        0.0000000000000000     
  0.25000000000000000       0.59375000000000000        0.0000000000000000     
  0.12500000000000000       0.62500000000000000        0.0000000000000000     
  0.15625000000000000       0.62500000000000000        0.0000000000000000     
  0.18750000000000000       0.62500000000000000        0.0000000000000000     
  0.21875000000000000       0.62500000000000000        0.0000000000000000     
  0.25000000000000000       0.62500000000000000        0.0000000000000000     
  0.25000000000000000       0.50000000000000000        0.0000000000000000     
  0.28125000000000000       0.50000000000000000        0.0000000000000000     
  0.31250000000000000       0.50000000000000000        0.0000000000000000     
  0.34375000000000000       0.50000000000000000        0.0000000000000000     
  0.37500000000000000       0.50000000000000000        0.0000000000000000     
  0.25000000000000000       0.53125000000000000        0.0000000000000000     
  0.28125000000000000       0.53125000000000000        0.0000000000000000     
  0.31250000000000000       0.53125000000000000        0.0000000000000000     
  0.34375000000000000       0.53125000000000000        0.0000000000000000     
  0.37500000000000000       0.53125000000000000        0.0000000000000000     
  0.25000000000000000       0.56250000000000000        0.0000000000000000     
  0.28125000000000000       0.56250000000000000        0.0000000000000000     
  0.31250000000000000       0.56250000000000000        0.0000000000000000     
  0.34375000000000000       0.56250000000000000        0.0000000000000000     
  0.37500000000000000       0.56250000000000000        0.0000000000000000     
  0.25000000000000000       0.59375000000000000        0.0000000000000000     
  0.28125000000000000       0.59375000000000000        0.0000000000000000     
  0.31250000000000000       0.59375000000000000        0.0000000000000000     
  0.34375000000000000       0.59375000000000000        0.0000000000000000     
  0.37500000000000000       0.59375000000000000        0.0000000000000000     
  0.25000000000000000       0.62500000000000000        0.0000000000000000     
  0.28125000000000000       0.62500000000000000        0.0000000000000000     
  0.31250000000000000       0.62500000000000000        0.0000000000000000     
  0.34375000000000000       0.62500000000000000        0.0000000000000000     
  0.37500000000000000       0.62500000000000000        0.0000000000000000     
  0.37500000000000000       0.50000000000000000        0.0000000000000000     
  0.40625000000000000       0.50000000000000000        0.0000000000000000     
  0.43750000000000000       0.50000000000000000        0.0000000000000000     
  0.46875000000000000       0.50000000000000000        0.0000000000000000     
  0.50000000000000000       0.50000000000000000        0.0000000000000000     
  0.37500000000000000       0.53125000000000000        0.0000000000000000     
  0.40625000000000000       0.53125000000000000        0.0000000000000000     
  0.43750000000000000       0.53125000000000000        0.0000000000000000     
  0.46875000000000000       0.53125000000000000        0.0000000000000000     
  0.50000000000000000       0.53125000000000000        0.0000000000000000     
  0.37500000000000000       0.56250000000000000        0.0000000000000000     
  0.40625000000000000       0.56250000000000000        0.0000000000000000     
  0.43750000000000000       0.56250000000000000        0.0000000000000000     
  0.46875000000000000       0.56250000000000000        0.0000000000000000     
  0.50000000000000000       0.56250000000000000        0.0000000000000000     
  0.37500000000000000       0.59375000000000000        0.0000000000000000     
  0.40625000000000000       0.59375000000000000        0.0000000000000000     
  0.43750000000000000       0.59375000000000000        0.0000000000000000     
  0.46875000000000000       0.59375000000000000        0.0000000000000000     
  0.50000000000000000       0.59375000000000000        0.0000000000000000     
  0.37500000000000000       0.62500000000000000        0.0000000000000000     
  0.40625000000000000       0.62500000000000000        0.0000000000000000     
  0.43750000000000000       0.62500000000000000        0.0000000000000000     
  0.46875000000000000       0.62500000000000000        0.0000000000000000     
  0.50000000000000000       0.62500000000000000        0.0000000000000000     
  0.50000000000000000       0.50000000000000000        0.0000000000000000     
  0.53125000000000000       0.50000000000000000        0.0000000000000000     
  0.56250000000000000       0.50000000000000000        0.0000000000000000     
  0.59375000000000000       0.50000000000000000        0.0000000000000000     
  0.62500000000000000       0.50000000000000000        0.0000000000000000     
  0.50000000000000000       0.53125000000000000        0.0000000000000000     
  0.53125000000000000       0.53125000000000000        0.0000000000000000     
  0.56250000000000000       0.53125000000000000        0.0000000000000000     
  0.59375000000000000       0.53125000000000000        0.0000000000000000     
  0.62500000000000000       0.53125000000000000        0.0000000000000000     
  0.50000000000000000       0.56250000000000000        0.0000000000000000     
  0.53125000000000000       0.56250000000000000        0.0000000000000000     
  0.56250000000000000       0.56250000000000000        0.0000000000000000     
  0.59375000000000000       0.56250000000000000        0.0000000000000000     
  0.62500000000000000       0.56250000000000000        0.0000000000000000     
  0.50000000000000000       0.59375000000000000        0.0000000000000000     
  0.53125000000000000       0.59375000000000000        0.0000000000000000     
  0.56250000000000000       0.59375000000000000        0.0000000000000000     
  0.59375000000000000       0.59375000000000000        0.0000000000000000     
  0.62500000000000000       0.59375000000000000        0.0000000000000000     
  0.50000000000000000       0.62500000000000000        0.0000000000000000     
  0.53125000000000000       0.62500000000000000        0.0000000000000000     
  0.56250000000000000       0.62500000000000000        0.0000000000000000     
  0.59375000000000000       0.62500000000000000        0.0000000000000000     
  0.62500000000000000       0.62500000000000000        0.0000000000000000     
  0.62500000000000000       0.50000000000000000        0.0000000000000000     
  0.65625000000000000       0.50000000000000000        0.0000000000000000     
  0.68750000000000000       0.50000000000000000        0.0000000000000000     
  0.71875000000000000       0.50000000000000000        0.0000000000000000     
  0.75000000000000000       0.50000000000000000        0.0000000000000000     
  0.62500000000000000       0.53125000000000000        0.0000000000000000     
  0.65625000000000000       0.53125000000000000        0.0000000000000000     
  0.68750000000000000       0.53125000000000000        0.0000000000000000     
  0.71875000000000000       0.53125000000000000        0.0000000000000000     
  0.75000000000000000       0.53125000000000000        0.0000000000000000     
  0.62500000000000000       0.56250000000000000        0.0000000000000000     
  0.65625000000000000       0.56250000000000000        0.0000000000000000     
  0.68750000000000000       0.56250000000000000        0.0000000000000000     
  0.71875000000000000       0.56250000000000000        0.0000000000000000     
  0.75000000000000000       0.56250000000000000        0.0000000000000000     
  0.62500000000000000       0.59375000000000000        0.0000000000000000     
  0.65625000000000000       0.59375000000000000        0.0000000000000000     
  0.68750000000000000       0.59375000000000000        0.0000000000000000     
  0.71875000000000000       0.59375000000000000        0.0000000000000000     
  0.75000000000000000       0.59375000000000000        0.0000000000000000     
  0.62500000000000000       0.62500000000000000        0.0000000000000000     
  0.65625000000000000       0.62500000000000000        0.0000000000000000     
  0.68750000000000000       0.62500000000000000        0.0000000000000000     
  0.71875000000000000       0.62500000000000000        0.0000000000000000     
  0.75000000000000000       0.62500000000000000        0.0000000000000000     
  0.75000000000000000       0.50000000000000000        0.0000000000000000     
  0.78125000000000000       0.50000000000000000        0.0000000000000000     
  0.81250000000000000       0.50000000000000000        0.0000000000000000     
  0.84375000000000000       0.50000000000000000        0.0000000000000000     
  0.87500000000000000       0.50000000000000000        0.0000000000000000     
  0.75000000000000000       0.53125000000000000        0.0000000000000000     
  0.78125000000000000       0.53125000000000000        0.0000000000000000     
  0.81250000000000000       0.53125000000000000        0.0000000000000000     
  0.84375000000000000       0.53125000000000000        0.0000000000000000     
  0.87500000000000000       0.53125000000000000        0.0000000000000000     
  0.75000000000000000       0.56250000000000000        0.0000000000000000     
  0.78125000000000000       0.56250000000000000        0.0000000000000000     
  0.81250000000000000       0.56250000000000000        0.0000000000000000     
  0.84375000000000000       0.56250000000000000        0.0000000000000000     
  0.87500000000000000       0.56250000000000000        0.0000000000000000     
  0.75000000000000000       0.59375000000000000        0.0000000000000000     
  0.78125000000000000       0.59375000000000000        0.0000000000000000     
  0.81250000000000000       0.59375000000000000        0.0000000000000000     
  0.84375000000000000       0.59375000000000000        0.0000000000000000     
  0.87500000000000000       0.59375000000000000        0.0000000000000000     
  0.75000000000000000       0.62500000000000000        0.0000000000000000     
  0.78125000000000000       0.62500000000000000        0.0000000000000000     
  0.81250000000000000       0.62500000000000000        0.0000000000000000     
  0.84375000000000000       0.62500000000000000        0.0000000000000000     
  0.87500000000000000       0.62500000000000000        0.0000000000000000     
  0.87500000000000000       0.50000000000000000        0.0000000000000000     
  0.90625000000000000       0.50000000000000000        0.0000000000000000     
  0.93750000000000000       0.50000000000000000        0.0000000000000000     
  0.96875000000000000       0.50000000000000000        0.0000000000000000     
   1.0000000000000000       0.50000000000000000        0.0000000000000000     
  0.87500000000000000       0.53125000000000000        0.0000000000000000     
  0.90625000000000000       0.53125000000000000        0.0000000000000000     
  0.93750000000000000       0.53125000000000000        0.0000000000000000     
  0.96875000000000000       0.53125000000000000        0.0000000000000000     
   1.0000000000000000       0.53125000000000000        0.0000000000000000     
  0.87500000000000000       0.56250000000000000        0.0000000000000000     
  0.90625000000000000       0.56250000000000000        0.0000000000000000     
  0.93750000000000000       0.56250000000000000        0.0000000000000000     
  0.96875000000000000       0.56250000000000000        0.0000000000000000     
   1.0000000000000000       0.56250000000000000        0.0000000000000000     
  0.87500000000000000       0.59375000000000000        0.0000000000000000     
  0.90625000000000000       0.59375000000000000        0.0000000000000000     
  0.93750000000000000       0.59375000000000000        0.0000000000000000     
  0.96875000000000000       0.59375000000000000        0.0000000000000000     
   1.0000000000000000       0.59375000000000000        0.0000000000000000     
  0.87500000000000000       0.62500000000000000        0.0000000000000000     
  0.90625000000000000       0.62500000000000000        0.0000000000000000     
  0.93750000000000000       0.62500000000000000        0.0000000000000000     
  0.96875000000000000       0.62500000000000000        0.0000000000000000     
   1.0000000000000000       0.62500000000000000        0.0000000000000000     
   0.0000000000000000       0.62500000000000000        0.0000000000000000     
   3.1250000000000000E-002  0.62500000000000000        0.0000000000000000     
   6.2500000000000000E-002  0.62500000000000000        0.0000000000000000     
   9.3750000000000000E-002  0.62500000000000000        0.0000000000000000     
  0.12500000000000000       0.62500000000000000        0.0000000000000000     
   0.0000000000000000       0.65625000000000000        0.0000000000000000     
   3.1250000000000000E-002  0.65625000000000000        0.0000000000000000     
   6.2500000000000000E-002  0.65625000000000000        0.0000000000000000     
   9.3750000000000000E-002  0.65625000000000000        0.0000000000000000     
  0.12500000000000000       0.65625000000000000        0.0000000000000000     
   0.0000000000000000       0.68750000000000000        0.0000000000000000     
   3.1250000000000000E-002  0.68750000000000000        0.0000000000000000     
   6.2500000000000000E-002  0.68750000000000000        0.0000000000000000     
   9.3750000000000000E-002  0.68750000000000000        0.0000000000000000     
  0.12500000000000000       0.68750000000000000        0.0000000000000000     
   0.0000000000000000       0.71875000000000000        0.0000000000000000     
   3.1250000000000000E-002  0.71875000000000000        0.0000000000000000     
   6.2500000000000000E-002  0.71875000000000000        0.0000000000000000     
   9.3750000000000000E-002  0.71875000000000000        0.0000000000000000     
  0.12500000000000000       0.71875000000000000        0.0000000000000000     
   0.0000000000000000       0.75000000000000000        0.0000000000000000     
   3.1250000000000000E-002  0.75000000000000000        0.0000000000000000     
   6.2500000000000000E-002  0.75000000000000000        0.0000000000000000     
   9.3750000000000000E-002  0.75000000000000000        0.0000000000000000     
  0.12500000000000000       0.75000000000000000        0.0000000000000000     
  0.12500000000000000       0.62500000000000000        0.0000000000000000     
  0.15625000000000000       0.62500000000000000        0.0000000000000000     
  0.18750000000000000       0.62500000000000000        0.0000000000000000     
  0.21875000000000000       0.62500000000000000        0.0000000000000000     
  0.25000000000000000       0.62500000000000000        0.0000000000000000     
  0.12500000000000000       0.65625000000000000        0.0000000000000000     
  0.15625000000000000       0.65625000000000000        0.0000000000000000     
  0.18750000000000000       0.65625000000000000        0.0000000000000000     
  0.21875000000000000       0.65625000000000000        0.0000000000000000     
  0.25000000000000000       0.65625000000000000        0.0000000000000000     
  0.12500000000000000       0.68750000000000000        0.0000000000000000     
  0.15625000000000000       0.68750000000000000        0.0000000000000000     
  0.18750000000000000       0.68750000000000000        0.0000000000000000     
  0.21875000000000000       0.68750000000000000        0.0000000000000000     
  0.25000000000000000       0.68750000000000000        0.0000000000000000     
  0.12500000000000000       0.71875000000000000        0.0000000000000000     
  0.15625000000000000       0.71875000000000000        0.0000000000000000     
  0.18750000000000000       0.71875000000000000        0.0000000000000000     
  0.21875000000000000       0.71875000000000000        0.0000000000000000     
  0.25000000000000000       0.71875000000000000        0.0000000000000000     
  0.12500000000000000       0.75000000000000000        0.0000000000000000     
  0.15625000000000000       0.75000000000000000        0.0000000000000000     
  0.18750000000000000       0.75000000000000000        0.0000000000000000     
  0.21875000000000000       0.75000000000000000        0.0000000000000000     
  0.25000000000000000       0.75000000000000000        0.0000000000000000     
  0.25000000000000000       0.62500000000000000        0.0000000000000000     
  0.28125000000000000       0.62500000000000000        0.0000000000000000     
  0.31250000000000000       0.62500000000000000        0.0000000000000000     
  0.34375000000000000       0.62500000000000000        0.0000000000000000     
  0.37500000000000000       0.62500000000000000        0.0000000000000000     
  0.25000000000000000       0.65625000000000000        0.0000000000000000     
  0.28125000000000000       0.65625000000000000        0.0000000000000000     
  0.31250000000000000       0.65625000000000000        0.0000000000000000     
  0.34375000000000000       0.65625000000000000        0.0000000000000000     
  0.37500000000000000       0.65625000000000000        0.0000000000000000     
  0.25000000000000000       0.68750000000000000        0.0000000000000000     
  0.28125000000000000       0.68750000000000000        0.0000000000000000     
  0.31250000000000000       0.68750000000000000        0.0000000000000000     
  0.34375000000000000       0.68750000000000000        0.0000000000000000     
  0.37500000000000000       0.68750000000000000        0.0000000000000000     
  0.25000000000000000       0.71875000000000000        0.0000000000000000     
  0.28125000000000000       0.71875000000000000        0.0000000000000000     
  0.31250000000000000       0.71875000000000000        0.0000000000000000     
  0.34375000000000000       0.71875000000000000        0.0000000000000000     
  0.37500000000000000       0.71875000000000000        0.0000000000000000     
  0.25000000000000000       0.75000000000000000        0.0000000000000000     
  0.28125000000000000       0.75000000000000000        0.0000000000000000     
  0.31250000000000000       0.75000000000000000        0.0000000000000000     
  0.34375000000000000       0.75000000000000000        0.0000000000000000     
  0.37500000000000000       0.75000000000000000        0.0000000000000000     
  0.37500000000000000       0.62500000000000000        0.0000000000000000     
  0.40625000000000000       0.62500000000000000        0.0000000000000000     
  0.43750000000000000       0.62500000000000000        0.0000000000000000     
  0.46875000000000000       0.62500000000000000        0.0000000000000000     
  0.50000000000000000       0.62500000000000000        0.0000000000000000     
  0.37500000000000000       0.65625000000000000        0.0000000000000000     
  0.40625000000000000       0.65625000000000000        0.0000000000000000     
  0.43750000000000000       0.65625000000000000        0.0000000000000000     
  0.46875000000000000       0.65625000000000000        0.0000000000000000     
  0.50000000000000000       0.65625000000000000        0.0000000000000000     
  0.37500000000000000       0.68750000000000000        0.0000000000000000     
  0.40625000000000000       0.68750000000000000        0.0000000000000000     
  0.43750000000000000       0.68750000000000000        0.0000000000000000     
  0.46875000000000000       0.68750000000000000        0.0000000000000000     
  0.50000000000000000       0.68750000000000000        0.0000000000000000     
  0.37500000000000000       0.71875000000000000        0.0000000000000000     
  0.40625000000000000       0.71875000000000000        0.0000000000000000     
  0.43750000000000000       0.71875000000000000        0.0000000000000000     
  0.46875000000000000       0.71875000000000000        0.0000000000000000     
  0.50000000000000000       0.71875000000000000        0.0000000000000000     
  0.37500000000000000       0.75000000000000000        0.0000000000000000     
  0.40625000000000000       0.75000000000000000        0.0000000000000000     
  0.43750000000000000       0.75000000000000000        0.0000000000000000     
  0.46875000000000000       0.75000000000000000        0.0000000000000000     
  0.50000000000000000       0.75000000000000000        0.0000000000000000     
  0.50000000000000000       0.62500000000000000        0.0000000000000000     
  0.53125000000000000       0.62500000000000000        0.0000000000000000     
  0.56250000000000000       0.62500000000000000        0.0000000000000000     
  0.59375000000000000       0.62500000000000000        0.0000000000000000     
  0.62500000000000000       0.62500000000000000        0.0000000000000000     
  0.50000000000000000       0.65625000000000000        0.0000000000000000     
  0.53125000000000000       0.65625000000000000        0.0000000000000000     
  0.56250000000000000       0.65625000000000000        0.0000000000000000     
  0.59375000000000000       0.65625000000000000        0.0000000000000000     
  0.62500000000000000       0.65625000000000000        0.0000000000000000     
  0.50000000000000000       0.68750000000000000        0.0000000000000000     
  0.53125000000000000       0.68750000000000000        0.0000000000000000     
  0.56250000000000000       0.68750000000000000        0.0000000000000000     
  0.59375000000000000       0.68750000000000000        0.0000000000000000     
  0.62500000000000000       0.68750000000000000        0.0000000000000000     
  0.50000000000000000       0.71875000000000000        0.0000000000000000     
  0.53125000000000000       0.71875000000000000        0.0000000000000000     
  0.56250000000000000       0.71875000000000000        0.0000000000000000     
  0.59375000000000000       0.71875000000000000        0.0000000000000000     
  0.62500000000000000       0.71875000000000000        0.0000000000000000     
  0.50000000000000000       0.75000000000000000        0.0000000000000000     
  0.53125000000000000       0.75000000000000000        0.0000000000000000     
  0.56250000000000000       0.75000000000000000        0.0000000000000000     
  0.59375000000000000       0.75000000000000000        0.0000000000000000     
  0.62500000000000000       0.75000000000000000        0.0000000000000000     
  0.62500000000000000       0.62500000000000000        0.0000000000000000     
  0.65625000000000000       0.62500000000000000        0.0000000000000000     
  0.68750000000000000       0.62500000000000000        0.0000000000000000     
  0.71875000000000000       0.62500000000000000        0.0000000000000000     
  0.75000000000000000       0.62500000000000000        0.0000000000000000     
  0.62500000000000000       0.65625000000000000        0.0000000000000000     
  0.65625000000000000       0.65625000000000000        0.0000000000000000     
  0.68750000000000000       0.65625000000000000        0.0000000000000000     
  0.71875000000000000       0.65625000000000000        0.0000000000000000     
  0.75000000000000000       0.65625000000000000        0.0000000000000000     
  0.62500000000000000       0.68750000000000000        0.0000000000000000     
  0.65625000000000000       0.68750000000000000        0.0000000000000000     
  0.68750000000000000       0.68750000000000000        0.0000000000000000     
  0.71875000000000000       0.68750000000000000        0.0000000000000000     
  0.75000000000000000       0.68750000000000000        0.0000000000000000     
  0.62500000000000000       0.71875000000000000        0.0000000000000000     
  0.65625000000000000       0.71875000000000000        0.0000000000000000     
  0.68750000000000000       0.71875000000000000        0.0000000000000000     
  0.71875000000000000       0.71875000000000000        0.0000000000000000     
  0.75000000000000000       0.71875000000000000        0.0000000000000000     
  0.62500000000000000       0.75000000000000000        0.0000000000000000     
  0.65625000000000000       0.75000000000000000        0.0000000000000000     
  0.68750000000000000       0.75000000000000000        0.0000000000000000     
  0.71875000000000000       0.75000000000000000        0.0000000000000000     
  0.75000000000000000       0.75000000000000000        0.0000000000000000     
  0.75000000000000000       0.62500000000000000        0.0000000000000000     
  0.78125000000000000       0.62500000000000000        0.0000000000000000     
  0.81250000000000000       0.62500000000000000        0.0000000000000000     
  0.84375000000000000       0.62500000000000000        0.0000000000000000     
  0.87500000000000000       0.62500000000000000        0.0000000000000000     
  0.75000000000000000       0.65625000000000000        0.0000000000000000     
  0.78125000000000000       0.65625000000000000        0.0000000000000000     
  0.81250000000000000       0.65625000000000000        0.0000000000000000     
  0.84375000000000000       0.65625000000000000        0.0000000000000000     
  0.87500000000000000       0.65625000000000000        0.0000000000000000     
  0.75000000000000000       0.68750000000000000        0.0000000000000000     
  0.78125000000000000       0.68750000000000000        0.0000000000000000     
  0.81250000000000000       0.68750000000000000        0.0000000000000000     
  0.84375000000000000       0.68750000000000000        0.0000000000000000     
  0.87500000000000000       0.68750000000000000        0.0000000000000000     
  0.75000000000000000       0.71875000000000000        0.0000000000000000     
  0.78125000000000000       0.71875000000000000        0.0000000000000000     
  0.81250000000000000       0.71875000000000000        0.0000000000000000     
  0.84375000000000000       0.71875000000000000        0.0000000000000000     
  0.87500000000000000       0.71875000000000000        0.0000000000000000     
  0.75000000000000000       0.75000000000000000        0.0000000000000000     
  0.78125000000000000       0.75000000000000000        0.0000000000000000     
  0.81250000000000000       0.75000000000000000        0.0000000000000000     
  0.84375000000000000       0.75000000000000000        0.0000000000000000     
  0.87500000000000000       0.75000000000000000        0.0000000000000000     
  0.87500000000000000       0.62500000000000000        0.0000000000000000     
  0.90625000000000000       0.62500000000000000        0.0000000000000000     
  0.93750000000000000       0.62500000000000000        0.0000000000000000     
  0.96875000000000000       0.62500000000000000        0.0000000000000000     
   1.0000000000000000       0.62500000000000000        0.0000000000000000     
  0.87500000000000000       0.65625000000000000        0.0000000000000000     
  0.90625000000000000       0.65625000000000000        0.0000000000000000     
  0.93750000000000000       0.65625000000000000        0.0000000000000000     
  0.96875000000000000       0.65625000000000000        0.0000000000000000     
   1.0000000000000000       0.65625000000000000        0.0000000000000000     
  0.87500000000000000       0.68750000000000000        0.0000000000000000     
  0.90625000000000000       0.68750000000000000        0.0000000000000000     
  0.93750000000000000       0.68750000000000000        0.0000000000000000     
  0.96875000000000000       0.68750000000000000        0.0000000000000000     
   1.0000000000000000       0.68750000000000000        0.0000000000000000     
  0.87500000000000000       0.71875000000000000        0.0000000000000000     
  0.90625000000000000       0.71875000000000000        0.0000000000000000     
  0.93750000000000000       0.71875000000000000        0.0000000000000000     
  0.96875000000000000       0.71875000000000000        0.0000000000000000     
   1.0000000000000000       0.71875000000000000        0.0000000000000000     
  0.87500000000000000       0.75000000000000000        0.0000000000000000     
  0.90625000000000000       0.75000000000000000        0.0000000000000000     
  0.93750000000000000       0.75000000000000000        0.0000000000000000     
  0.96875000000000000       0.75000000000000000        0.0000000000000000     
   1.0000000000000000       0.75000000000000000        0.0000000000000000     
   0.0000000000000000       0.75000000000000000        0.0000000000000000     
   3.1250000000000000E-002  0.75000000000000000        0.0000000000000000     
   6.2500000000000000E-002  0.75000000000000000        0.0000000000000000     
   9.3750000000000000E-002  0.75000000000000000        0.0000000000000000     
  0.12500000000000000       0.75000000000000000        0.0000000000000000     
   0.0000000000000000       0.78125000000000000        0.0000000000000000     
   3.1250000000000000E-002  0.78125000000000000        0.0000000000000000     
   6.2500000000000000E-002  0.78125000000000000        0.0000000000000000     
   9.3750000000000000E-002  0.78125000000000000        0.0000000000000000     
  0.12500000000000000       0.78125000000000000        0.0000000000000000     
   0.0000000000000000       0.81250000000000000        0.0000000000000000     
   3.1250000000000000E-002  0.81250000000000000        0.0000000000000000     
   6.2500000000000000E-002  0.81250000000000000        0.0000000000000000     
   9.3750000000000000E-002  0.81250000000000000        0.0000000000000000     
  0.12500000000000000       0.81250000000000000        0.0000000000000000     
   0.0000000000000000       0.84375000000000000        0.0000000000000000     
   3.1250000000000000E-002  0.84375000000000000        0.0000000000000000     
   6.2500000000000000E-002  0.84375000000000000        0.0000000000000000     
   9.3750000000000000E-002  0.84375000000000000        0.0000000000000000     
  0.12500000000000000       0.84375000000000000        0.0000000000000000     
   0.0000000000000000       0.87500000000000000        0.0000000000000000     
   3.1250000000000000E-002  0.87500000000000000        0.0000000000000000     
   6.2500000000000000E-002  0.87500000000000000        0.0000000000000000     
   9.3750000000000000E-002  0.87500000000000000        0.0000000000000000     
  0.12500000000000000       0.87500000000000000        0.0000000000000000     
  0.12500000000000000       0.75000000000000000        0.0000000000000000     
  0.15625000000000000       0.75000000000000000        0.0000000000000000     
  0.18750000000000000       0.75000000000000000        0.0000000000000000     
  0.21875000000000000       0.75000000000000000        0.0000000000000000     
  0.25000000000000000       0.75000000000000000        0.0000000000000000     
  0.12500000000000000       0.78125000000000000        0.0000000000000000     
  0.15625000000000000       0.78125000000000000        0.0000000000000000     
  0.18750000000000000       0.78125000000000000        0.0000000000000000     
  0.21875000000000000       0.78125000000000000        0.0000000000000000     
  0.25000000000000000       0.78125000000000000        0.0000000000000000     
  0.12500000000000000       0.81250000000000000        0.0000000000000000     
  0.15625000000000000       0.81250000000000000        0.0000000000000000     
  0.18750000000000000       0.81250000000000000        0.0000000000000000     
  0.21875000000000000       0.81250000000000000        0.0000000000000000     
  0.25000000000000000       0.81250000000000000        0.0000000000000000     
  0.12500000000000000       0.84375000000000000        0.0000000000000000     
  0.15625000000000000       0.84375000000000000        0.0000000000000000     
  0.18750000000000000       0.84375000000000000        0.0000000000000000     
  0.21875000000000000       0.84375000000000000        0.0000000000000000     
  0.25000000000000000       0.84375000000000000        0.0000000000000000     
  0.12500000000000000       0.87500000000000000        0.0000000000000000     
  0.15625000000000000       0.87500000000000000        0.0000000000000000     
  0.18750000000000000       0.87500000000000000        0.0000000000000000     
  0.21875000000000000       0.87500000000000000        0.0000000000000000     
  0.25000000000000000       0.87500000000000000        0.0000000000000000     
  0.25000000000000000       0.75000000000000000        0.0000000000000000     
  0.28125000000000000       0.75000000000000000        0.0000000000000000     
  0.31250000000000000       0.75000000000000000        0.0000000000000000     
  0.34375000000000000       0.75000000000000000        0.0000000000000000     
  0.37500000000000000       0.75000000000000000        0.0000000000000000     
  0.25000000000000000       0.78125000000000000        0.0000000000000000     
  0.28125000000000000       0.78125000000000000        0.0000000000000000     
  0.31250000000000000       0.78125000000000000        0.0000000000000000     
  0.34375000000000000       0.78125000000000000        0.0000000000000000     
  0.37500000000000000       0.78125000000000000        0.0000000000000000     
  0.25000000000000000       0.81250000000000000        0.0000000000000000     
  0.28125000000000000       0.81250000000000000        0.0000000000000000     
  0.31250000000000000       0.81250000000000000        0.0000000000000000     
  0.34375000000000000       0.81250000000000000        0.0000000000000000     
  0.37500000000000000       0.81250000000000000        0.0000000000000000     
  0.25000000000000000       0.84375000000000000        0.0000000000000000     
  0.28125000000000000       0.84375000000000000        0.0000000000000000     
  0.31250000000000000       0.84375000000000000        0.0000000000000000     
  0.34375000000000000       0.84375000000000000        0.0000000000000000     
  0.37500000000000000       0.84375000000000000        0.0000000000000000     
  0.25000000000000000       0.87500000000000000        0.0000000000000000     
  0.28125000000000000       0.87500000000000000        0.0000000000000000     
  0.31250000000000000       0.87500000000000000        0.0000000000000000     
  0.34375000000000000       0.87500000000000000        0.0000000000000000     
  0.37500000000000000       0.87500000000000000        0.0000000000000000     
  0.37500000000000000       0.75000000000000000        0.0000000000000000     
  0.40625000000000000       0.75000000000000000        0.0000000000000000     
  0.43750000000000000       0.75000000000000000        0.0000000000000000     
  0.46875000000000000       0.75000000000000000        0.0000000000000000     
  0.50000000000000000       0.75000000000000000        0.0000000000000000     
  0.37500000000000000       0.78125000000000000        0.0000000000000000     
  0.40625000000000000       0.78125000000000000        0.0000000000000000     
  0.43750000000000000       0.78125000000000000        0.0000000000000000     
  0.46875000000000000       0.78125000000000000        0.0000000000000000     
  0.50000000000000000       0.78125000000000000        0.0000000000000000     
  0.37500000000000000       0.81250000000000000        0.0000000000000000     
  0.40625000000000000       0.81250000000000000        0.0000000000000000     
  0.43750000000000000       0.81250000000000000        0.0000000000000000     
  0.46875000000000000       0.81250000000000000        0.0000000000000000     
  0.50000000000000000       0.81250000000000000        0.0000000000000000     
  0.37500000000000000       0.84375000000000000        0.0000000000000000     
  0.40625000000000000       0.84375000000000000        0.0000000000000000     
  0.43750000000000000       0.84375000000000000        0.0000000000000000     
  0.46875000000000000       0.84375000000000000        0.0000000000000000     
  0.50000000000000000       0.84375000000000000        0.0000000000000000     
  0.37500000000000000       0.87500000000000000        0.0000000000000000     
  0.40625000000000000       0.87500000000000000        0.0000000000000000     
  0.43750000000000000       0.87500000000000000        0.0000000000000000     
  0.46875000000000000       0.87500000000000000        0.0000000000000000     
  0.50000000000000000       0.87500000000000000        0.0000000000000000     
  0.50000000000000000       0.75000000000000000        0.0000000000000000     
  0.53125000000000000       0.75000000000000000        0.0000000000000000     
  0.56250000000000000       0.75000000000000000        0.0000000000000000     
  0.59375000000000000       0.75000000000000000        0.0000000000000000     
  0.62500000000000000       0.75000000000000000        0.0000000000000000     
  0.50000000000000000       0.78125000000000000        0.0000000000000000     
  0.53125000000000000       0.78125000000000000        0.0000000000000000     
  0.56250000000000000       0.78125000000000000        0.0000000000000000     
  0.59375000000000000       0.78125000000000000        0.0000000000000000     
  0.62500000000000000       0.78125000000000000        0.0000000000000000     
  0.50000000000000000       0.81250000000000000        0.0000000000000000     
  0.53125000000000000       0.81250000000000000        0.0000000000000000     
  0.56250000000000000       0.81250000000000000        0.0000000000000000     
  0.59375000000000000       0.81250000000000000        0.0000000000000000     
  0.62500000000000000       0.81250000000000000        0.0000000000000000     
  0.50000000000000000       0.84375000000000000        0.0000000000000000     
  0.53125000000000000       0.84375000000000000        0.0000000000000000     
  0.56250000000000000       0.84375000000000000        0.0000000000000000     
  0.59375000000000000       0.84375000000000000        0.0000000000000000     
  0.62500000000000000       0.84375000000000000        0.0000000000000000     
  0.50000000000000000       0.87500000000000000        0.0000000000000000     
  0.53125000000000000       0.87500000000000000        0.0000000000000000     
  0.56250000000000000       0.87500000000000000        0.0000000000000000     
  0.59375000000000000       0.87500000000000000        0.0000000000000000     
  0.62500000000000000       0.87500000000000000        0.0000000000000000     
  0.62500000000000000       0.75000000000000000        0.0000000000000000     
  0.65625000000000000       0.75000000000000000        0.0000000000000000     
  0.68750000000000000       0.75000000000000000        0.0000000000000000     
  0.71875000000000000       0.75000000000000000        0.0000000000000000     
  0.75000000000000000       0.75000000000000000        0.0000000000000000     
  0.62500000000000000       0.78125000000000000        0.0000000000000000     
  0.65625000000000000       0.78125000000000000        0.0000000000000000     
  0.68750000000000000       0.78125000000000000        0.0000000000000000     
  0.71875000000000000       0.78125000000000000        0.0000000000000000     
  0.75000000000000000       0.78125000000000000        0.0000000000000000     
  0.62500000000000000       0.81250000000000000        0.0000000000000000     
  0.65625000000000000       0.81250000000000000        0.0000000000000000     
  0.68750000000000000       0.81250000000000000        0.0000000000000000     
  0.71875000000000000       0.81250000000000000        0.0000000000000000     
  0.75000000000000000       0.81250000000000000        0.0000000000000000     
  0.62500000000000000       0.84375000000000000        0.0000000000000000     
  0.65625000000000000       0.84375000000000000        0.0000000000000000     
  0.68750000000000000       0.84375000000000000        0.0000000000000000     
  0.71875000000000000       0.84375000000000000        0.0000000000000000     
  0.75000000000000000       0.84375000000000000        0.0000000000000000     
  0.62500000000000000       0.87500000000000000        0.0000000000000000     
  0.65625000000000000       0.87500000000000000        0.0000000000000000     
  0.68750000000000000       0.87500000000000000        0.0000000000000000     
  0.71875000000000000       0.87500000000000000        0.0000000000000000     
  0.75000000000000000       0.87500000000000000        0.0000000000000000     
  0.75000000000000000       0.75000000000000000        0.0000000000000000     
  0.78125000000000000       0.75000000000000000        0.0000000000000000     
  0.81250000000000000       0.75000000000000000        0.0000000000000000     
  0.84375000000000000       0.75000000000000000        0.0000000000000000     
  0.87500000000000000       0.75000000000000000        0.0000000000000000     
  0.75000000000000000       0.78125000000000000        0.0000000000000000     
  0.78125000000000000       0.78125000000000000        0.0000000000000000     
  0.81250000000000000       0.78125000000000000        0.0000000000000000     
  0.84375000000000000       0.78125000000000000        0.0000000000000000     
  0.87500000000000000       0.78125000000000000        0.0000000000000000     
  0.75000000000000000       0.81250000000000000        0.0000000000000000     
  0.78125000000000000       0.81250000000000000        0.0000000000000000     
  0.81250000000000000       0.81250000000000000        0.0000000000000000     
  0.84375000000000000       0.81250000000000000        0.0000000000000000     
  0.87500000000000000       0.81250000000000000        0.0000000000000000     
  0.75000000000000000       0.84375000000000000        0.0000000000000000     
  0.78125000000000000       0.84375000000000000        0.0000000000000000     
  0.81250000000000000       0.84375000000000000        0.0000000000000000     
  0.84375000000000000       0.84375000000000000        0.0000000000000000     
  0.87500000000000000       0.84375000000000000        0.0000000000000000     
  0.75000000000000000       0.87500000000000000        0.0000000000000000     
  0.78125000000000000       0.87500000000000000        0.0000000000000000     
  0.81250000000000000       0.87500000000000000        0.0000000000000000     
  0.84375000000000000       0.87500000000000000        0.0000000000000000     
  0.87500000000000000       0.87500000000000000        0.0000000000000000     
  0.87500000000000000       0.75000000000000000        0.0000000000000000     
  0.90625000000000000       0.75000000000000000        0.0000000000000000     
  0.93750000000000000       0.75000000000000000        0.0000000000000000     
  0.96875000000000000       0.75000000000000000        0.0000000000000000     
   1.0000000000000000       0.75000000000000000        0.0000000000000000     
  0.87500000000000000       0.78125000000000000        0.0000000000000000     
  0.90625000000000000       0.78125000000000000        0.0000000000000000     
  0.93750000000000000       0.78125000000000000        0.0000000000000000     
  0.96875000000000000       0.78125000000000000        0.0000000000000000     
   1.0000000000000000       0.78125000000000000        0.0000000000000000     
  0.87500000000000000       0.81250000000000000        0.0000000000000000     
  0.90625000000000000       0.81250000000000000        0.0000000000000000     
  0.93750000000000000       0.81250000000000000        0.0000000000000000     
  0.96875000000000000       0.81250000000000000        0.0000000000000000     
   1.0000000000000000       0.81250000000000000        0.0000000000000000     
  0.87500000000000000       0.84375000000000000        0.0000000000000000     
  0.90625000000000000       0.84375000000000000        0.0000000000000000     
  0.93750000000000000       0.84375000000000000        0.0000000000000000     
  0.96875000000000000       0.84375000000000000        0.0000000000000000     
   1.0000000000000000       0.84375000000000000        0.0000000000000000     
  0.87500000000000000       0.87500000000000000        0.0000000000000000     
  0.90625000000000000       0.87500000000000000        0.0000000000000000     
  0.93750000000000000       0.87500000000000000        0.0000000000000000     
  0.96875000000000000       0.87500000000000000        0.0000000000000000     
   1.0000000000000000       0.87500000000000000        0.0000000000000000     
   0.0000000000000000       0.87500000000000000        0.0000000000000000     
   3.1250000000000000E-002  0.87500000000000000        0.0000000000000000     
   6.2500000000000000E-002  0.87500000000000000        0.0000000000000000     
   9.3750000000000000E-002  0.87500000000000000        0.0000000000000000     
  0.12500000000000000       0.87500000000000000        0.0000000000000000     
   0.0000000000000000       0.90625000000000000        0.0000000000000000     
   3.1250000000000000E-002  0.90625000000000000        0.0000000000000000     
   6.2500000000000000E-002  0.90625000000000000        0.0000000000000000     
   9.3750000000000000E-002  0.90625000000000000        0.0000000000000000     
  0.12500000000000000       0.90625000000000000        0.0000000000000000     
   0.0000000000000000       0.93750000000000000        0.0000000000000000     
   3.1250000000000000E-002  0.93750000000000000        0.0000000000000000     
   6.2500000000000000E-002  0.93750000000000000        0.0000000000000000     
   9.3750000000000000E-002  0.93750000000000000        0.0000000000000000     
  0.12500000000000000       0.93750000000000000        0.0000000000000000     
   0.0000000000000000       0.96875000000000000        0.0000000000000000     
   3.1250000000000000E-002  0.96875000000000000        0.0000000000000000     
   6.2500000000000000E-002  0.96875000000000000        0.0000000000000000     
   9.3750000000000000E-002  0.96875000000000000        0.0000000000000000     
  0.12500000000000000       0.96875000000000000        0.0000000000000000     
   0.0000000000000000        1.0000000000000000        0.0000000000000000     
   3.1250000000000000E-002   1.0000000000000000        0.0000000000000000     
   6.2500000000000000E-002   1.0000000000000000        0.0000000000000000     
   9.3750000000000000E-002   1.0000000000000000        0.0000000000000000     
  0.12500000000000000        1.0000000000000000        0.0000000000000000     
  0.12500000000000000       0.87500000000000000        0.0000000000000000     
  0.15625000000000000       0.87500000000000000        0.0000000000000000     
  0.18750000000000000       0.87500000000000000        0.0000000000000000     
  0.21875000000000000       0.87500000000000000        0.0000000000000000     
  0.25000000000000000       0.87500000000000000        0.0000000000000000     
  0.12500000000000000       0.90625000000000000        0.0000000000000000     
  0.15625000000000000       0.90625000000000000        0.0000000000000000     
  0.18750000000000000       0.90625000000000000        0.0000000000000000     
  0.21875000000000000       0.90625000000000000        0.0000000000000000     
  0.25000000000000000       0.90625000000000000        0.0000000000000000     
  0.12500000000000000       0.93750000000000000        0.0000000000000000     
  0.15625000000000000       0.93750000000000000        0.0000000000000000     
  0.18750000000000000       0.93750000000000000        0.0000000000000000     
  0.21875000000000000       0.93750000000000000        0.0000000000000000     
  0.25000000000000000       0.93750000000000000        0.0000000000000000     
  0.12500000000000000       0.96875000000000000        0.0000000000000000     
  0.15625000000000000       0.96875000000000000        0.0000000000000000     
  0.18750000000000000       0.96875000000000000        0.0000000000000000     
  0.21875000000000000       0.96875000000000000        0.0000000000000000     
  0.25000000000000000       0.96875000000000000        0.0000000000000000     
  0.12500000000000000        1.0000000000000000        0.0000000000000000     
  0.15625000000000000        1.0000000000000000        0.0000000000000000     
  0.18750000000000000        1.0000000000000000        0.0000000000000000     
  0.21875000000000000        1.0000000000000000        0.0000000000000000     
  0.25000000000000000        1.0000000000000000        0.0000000000000000     
  0.25000000000000000       0.87500000000000000        0.0000000000000000     
  0.28125000000000000       0.87500000000000000        0.0000000000000000     
  0.31250000000000000       0.87500000000000000        0.0000000000000000     
  0.34375000000000000       0.87500000000000000        0.0000000000000000     
  0.37500000000000000       0.87500000000000000        0.0000000000000000     
  0.25000000000000000       0.90625000000000000        0.0000000000000000     
  0.28125000000000000       0.90625000000000000        0.0000000000000000     
  0.31250000000000000       0.90625000000000000        0.0000000000000000     
  0.34375000000000000       0.90625000000000000        0.0000000000000000     
  0.37500000000000000       0.90625000000000000        0.0000000000000000     
  0.25000000000000000       0.93750000000000000        0.0000000000000000     
  0.28125000000000000       0.93750000000000000        0.0000000000000000     
  0.31250000000000000       0.93750000000000000        0.0000000000000000     
  0.34375000000000000       0.93750000000000000        0.0000000000000000     
  0.37500000000000000       0.93750000000000000        0.0000000000000000     
  0.25000000000000000       0.96875000000000000        0.0000000000000000     
  0.28125000000000000       0.96875000000000000        0.0000000000000000     
  0.31250000000000000       0.96875000000000000        0.0000000000000000     
  0.34375000000000000       0.96875000000000000        0.0000000000000000     
  0.37500000000000000       0.96875000000000000        0.0000000000000000     
  0.25000000000000000        1.0000000000000000        0.0000000000000000     
  0.28125000000000000        1.0000000000000000        0.0000000000000000     
  0.31250000000000000        1.0000000000000000        0.0000000000000000     
  0.34375000000000000        1.0000000000000000        0.0000000000000000     
  0.37500000000000000        1.0000000000000000        0.0000000000000000     
  0.37500000000000000       0.87500000000000000        0.0000000000000000     
  0.40625000000000000       0.87500000000000000        0.0000000000000000     
  0.43750000000000000       0.87500000000000000        0.0000000000000000     
  0.46875000000000000       0.87500000000000000        0.0000000000000000     
  0.50000000000000000       0.87500000000000000        0.0000000000000000     
  0.37500000000000000       0.90625000000000000        0.0000000000000000     
  0.40625000000000000       0.90625000000000000        0.0000000000000000     
  0.43750000000000000       0.90625000000000000        0.0000000000000000     
  0.46875000000000000       0.90625000000000000        0.0000000000000000     
  0.50000000000000000       0.90625000000000000        0.0000000000000000     
  0.37500000000000000       0.93750000000000000        0.0000000000000000     
  0.40625000000000000       0.93750000000000000        0.0000000000000000     
  0.43750000000000000       0.93750000000000000        0.0000000000000000     
  0.46875000000000000       0.93750000000000000        0.0000000000000000     
  0.50000000000000000       0.93750000000000000        0.0000000000000000     
  0.37500000000000000       0.96875000000000000        0.0000000000000000     
  0.40625000000000000       0.96875000000000000        0.0000000000000000     
  0.43750000000000000       0.96875000000000000        0.0000000000000000     
  0.46875000000000000       0.96875000000000000        0.0000000000000000     
  0.50000000000000000       0.96875000000000000        0.0000000000000000     
  0.37500000000000000        1.0000000000000000        0.0000000000000000     
  0.40625000000000000        1.0000000000000000        0.0000000000000000     
  0.43750000000000000        1.0000000000000000        0.0000000000000000     
  0.46875000000000000        1.0000000000000000        0.0000000000000000     
  0.50000000000000000        1.0000000000000000        0.0000000000000000     
  0.50000000000000000       0.87500000000000000        0.0000000000000000     
  0.53125000000000000       0.87500000000000000        0.0000000000000000     
  0.56250000000000000       0.87500000000000000        0.0000000000000000     
  0.59375000000000000       0.87500000000000000        0.0000000000000000     
  0.62500000000000000       0.87500000000000000        0.0000000000000000     
  0.50000000000000000       0.90625000000000000        0.0000000000000000     
  0.53125000000000000       0.90625000000000000        0.0000000000000000     
  0.56250000000000000       0.90625000000000000        0.0000000000000000     
  0.59375000000000000       0.90625000000000000        0.0000000000000000     
  0.62500000000000000       0.90625000000000000        0.0000000000000000     
  0.50000000000000000       0.93750000000000000        0.0000000000000000     
  0.53125000000000000       0.93750000000000000        0.0000000000000000     
  0.56250000000000000       0.93750000000000000        0.0000000000000000     
  0.59375000000000000       0.93750000000000000        0.0000000000000000     
  0.62500000000000000       0.93750000000000000        0.0000000000000000     
  0.50000000000000000       0.96875000000000000        0.0000000000000000     
  0.53125000000000000       0.96875000000000000        0.0000000000000000     
  0.56250000000000000       0.96875000000000000        0.0000000000000000     
  0.59375000000000000       0.96875000000000000        0.0000000000000000     
  0.62500000000000000       0.96875000000000000        0.0000000000000000     
  0.50000000000000000        1.0000000000000000        0.0000000000000000     
  0.53125000000000000        1.0000000000000000        0.0000000000000000     
  0.56250000000000000        1.0000000000000000        0.0000000000000000     
  0.59375000000000000        1.0000000000000000        0.0000000000000000     
  0.62500000000000000        1.0000000000000000        0.0000000000000000     
  0.62500000000000000       0.87500000000000000        0.0000000000000000     
  0.65625000000000000       0.87500000000000000        0.0000000000000000     
  0.68750000000000000       0.87500000000000000        0.0000000000000000     
  0.71875000000000000       0.87500000000000000        0.0000000000000000     
  0.75000000000000000       0.87500000000000000        0.0000000000000000     
  0.62500000000000000       0.90625000000000000        0.0000000000000000     
  0.65625000000000000       0.90625000000000000        0.0000000000000000     
  0.68750000000000000       0.90625000000000000        0.0000000000000000     
  0.71875000000000000       0.90625000000000000        0.0000000000000000     
  0.75000000000000000       0.90625000000000000        0.0000000000000000     
  0.62500000000000000       0.93750000000000000        0.0000000000000000     
  0.65625000000000000       0.93750000000000000        0.0000000000000000     
  0.68750000000000000       0.93750000000000000        0.0000000000000000     
  0.71875000000000000       0.93750000000000000        0.0000000000000000     
  0.75000000000000000       0.93750000000000000        0.0000000000000000     
  0.62500000000000000       0.96875000000000000        0.0000000000000000     
  0.65625000000000000       0.96875000000000000        0.0000000000000000     
  0.68750000000000000       0.96875000000000000        0.0000000000000000     
  0.71875000000000000       0.96875000000000000        0.0000000000000000     
  0.75000000000000000       0.96875000000000000        0.0000000000000000     
  0.62500000000000000        1.0000000000000000        0.0000000000000000     
  0.65625000000000000        1.0000000000000000        0.0000000000000000     
  0.68750000000000000        1.0000000000000000        0.0000000000000000     
  0.71875000000000000        1.0000000000000000        0.0000000000000000     
  0.75000000000000000        1.0000000000000000        0.0000000000000000     
  0.75000000000000000       0.87500000000000000        0.0000000000000000     
  0.78125000000000000       0.87500000000000000        0.0000000000000000     
  0.81250000000000000       0.87500000000000000        0.0000000000000000     
  0.84375000000000000       0.87500000000000000        0.0000000000000000     
  0.87500000000000000       0.87500000000000000        0.0000000000000000     
  0.75000000000000000       0.90625000000000000        0.0000000000000000     
  0.78125000000000000       0.90625000000000000        0.0000000000000000     
  0.81250000000000000       0.90625000000000000        0.0000000000000000     
  0.84375000000000000       0.90625000000000000        0.0000000000000000     
  0.87500000000000000       0.90625000000000000        0.0000000000000000     
  0.75000000000000000       0.93750000000000000        0.0000000000000000     
  0.78125000000000000       0.93750000000000000        0.0000000000000000     
  0.81250000000000000       0.93750000000000000        0.0000000000000000     
  0.84375000000000000       0.93750000000000000        0.0000000000000000     
  0.87500000000000000       0.93750000000000000        0.0000000000000000     
  0.75000000000000000       0.96875000000000000        0.0000000000000000     
  0.78125000000000000       0.96875000000000000        0.0000000000000000     
  0.81250000000000000       0.96875000000000000        0.0000000000000000     
  0.84375000000000000       0.96875000000000000        0.0000000000000000     
  0.87500000000000000       0.96875000000000000        0.0000000000000000     
  0.75000000000000000        1.0000000000000000        0.0000000000000000     
  0.78125000000000000        1.0000000000000000        0.0000000000000000     
  0.81250000000000000        1.0000000000000000        0.0000000000000000     
  0.84375000000000000        1.0000000000000000        0.0000000000000000     
  0.87500000000000000        1.0000000000000000        0.0000000000000000     
  0.87500000000000000       0.87500000000000000        0.0000000000000000     
  0.90625000000000000       0.87500000000000000        0.0000000000000000     
  0.93750000000000000       0.87500000000000000        0.0000000000000000     
  0.96875000000000000       0.87500000000000000        0.0000000000000000     
   1.0000000000000000       0.87500000000000000        0.0000000000000000     
  0.87500000000000000       0.90625000000000000        0.0000000000000000     
  0.90625000000000000       0.90625000000000000        0.0000000000000000     
  0.93750000000000000       0.90625000000000000        0.0000000000000000     
  0.96875000000000000       0.90625000000000000        0.0000000000000000     
   1.0000000000000000       0.90625000000000000        0.0000000000000000     
  0.87500000000000000       0.93750000000000000        0.0000000000000000     
  0.90625000000000000       0.93750000000000000        0.0000000000000000     
  0.93750000000000000       0.93750000000000000        0.0000000000000000     
  0.96875000000000000       0.93750000000000000        0.0000000000000000     
   1.0000000000000000       0.93750000000000000        0.0000000000000000     
  0.87500000000000000       0.96875000000000000        0.0000000000000000     
  0.90625000000000000       0.96875000000000000        0.0000000000000000     
  0.93750000000000000       0.96875000000000000        0.0000000000000000     
  0.96875000000000000       0.96875000000000000        0.0000000000000000     
   1.0000000000000000       0.96875000000000000        0.0000000000000000     
  0.87500000000000000        1.0000000000000000        0.0000000000000000     
  0.90625000000000000        1.0000000000000000        0.0000000000000000     
  0.93750000000000000        1.0000000000000000        0.0000000000000000     
  0.96875000000000000        1.0000000000000000        0.0000000000000000     
   1.0000000000000000        1.0000000000000000        0.0000000000000000     
 </DataArray>
 </Points>
 <Cells>
 <DataArray  type="Int32"  Name="connectivity"  format="ascii">
           0           1           6           5
           1           2           7           6
           2           3           8           7
           3           4           9           8
           5           6          11          10
           6           7          12          11
           7           8          13          12
           8           9          14          13
          10          11          16          15
          11          12          17          16
          12          13          18          17
          13          14          19          18
          15          16          21          20
          16          17          22          21
          17          18          23          22
          18          19          24          23
          25          26          31          30
          26          27          32          31
          27          28          33          32
          28          29          34          33
          30          31          36          35
          31          32          37          36
          32          33          38          37
          33          34          39          38
          35          36          41          40
          36          37          42          41
          37          38          43          42
          38          39          44          43
          40          41          46          45
          41          42          47          46
          42          43          48          47
          43          44          49          48
          50          51          56          55
          51          52          57          56
          52          53          58          57
          53          54          59          58
          55          56          61          60
          56          57          62          61
          57          58          63          62
          58          59          64          63
          60          61          66          65
          61          62          67          66
          62          63          68          67
          63          64          69          68
          65          66          71          70
          66          67          72          71
          67          68          73          72
          68          69          74          73
          75          76          81          80
          76          77          82          81
          77          78          83          82
          78          79          84          83
          80          81          86          85
          81          82          87          86
          82          83          88          87
          83          84          89          88
          85          86          91          90
          86          87          92          91
          87          88          93          92
          88          89          94          93
          90          91          96          95
          91          92          97          96
          92          93          98          97
          93          94          99          98
         100         101         106         105
         101         102         107         106
         102         103         108         107
         103         104         109         108
         105         106         111         110
         106         107         112         111
         107         108         113         112
         108         109         114         113
         110         111         116         115
         111         112         117         116
         112         113         118         117
         113         114         119         118
         115         116         121         120
         116         117         122         121
         117         118         123         122
         118         119         124         123
         125         126         131         130
         126         127         132         131
         127         128         133         132
         128         129         134         133
         130         131         136         135
         131         132         137         136
         132         133         138         137
         133         134         139         138
         135         136         141         140
         136         137         142         141
         137         138         143         142
         138         139         144         143
         140         141         146         145
         141         142         147         146
         142         143         148         147
         143         144         149         148
         150         151         156         155
         151         152         157         156
         152         153         158         157
         153         154         159         158
         155         156         161         160
         156         157         162         161
         157         158         163         162
         158         159         164         163
         160         161         166         165
         161         162         167         166
         162         163         168         167
         163         164         169         168
         165         166         171         170
         166         167         172         171
         167         168         173         172
         168         169         174         173
         175         176         181         180
         176         177         182         181
         177         178         183         182
         178         179         184         183
         180         181         186         185
         181         182         187         186
         182         183         188         187
         183         184         189         188
         185         186         191         190
         186         187         192         191
         187         188         193         192
         188         189         194         193
         190         191         196         195
         191         192         197         196
         192         193         198         197
         193         194         199         198
         200         201         206         205
         201         202         207         206
         202         203         208         207
         203         204         209         208
         205         206         211         210
         206         207         212         211
         207         208         213         212
         208         209         214         213
         210         211         216         215
         211         212         217         216
         212         213         218         217
         213         214         219         218
         215         216         221         220
         216         217         222         221
         217         218         223         222
         218         219         224         223
         225         226         231         230
         226         227         232         231
         227         228         233         232
         228         229         234         233
         230         231         236         235
         231         232         237         236
         232         233         238         237
         233         234         239         238
         235         236         241         240
         236         237         242         241
         237         238         243         242
         238         239         244         243
         240         241         246         245
         241         242         247         246
         242         243         248         247
         243         244         249         248
         250         251         256         255
         251         252         257         256
         252         253         258         257
         253         254         259         258
         255         256         261         260
         256         257         262         261
         257         258         263         262
         258         259         264         263
         260         261         266         265
         261         262         267         266
         262         263         268         267
         263         264         269         268
         265         266         271         270
         266         267         272         271
         267         268         273         272
         268         269         274         273
         275         276         281         280
         276         277         282         281
         277         278         283         282
         278         279         284         283
         280         281         286         285
         281         282         287         286
         282         283         288         287
         283         284         289         288
         285         286         291         290
         286         287         292         291
         287         288         293         292
         288         289         294         293
         290         291         296         295
         291         292         297         296
         292         293         298         297
         293         294         299         298
         300         301         306         305
         301         302         307         306
         302         303         308         307
         303         304         309         308
         305         306         311         310
         306         307         312         311
         307         308         313         312
         308         309         314         313
         310         311         316         315
         311         312         317         316
         312         313         318         317
         313         314         319         318
         315         316         321         320
         316         317         322         321
         317         318         323         322
         318         319         324         323
         325         326         331         330
         326         327         332         331
         327         328         333         332
         328         329         334         333
         330         331         336         335
         331         332         337         336
         332         333         338         337
         333         334         339         338
         335         336         341         340
         336         337         342         341
         337         338         343         342
         338         339         344         343
         340         341         346         345
         341         342         347         346
         342         343         348         347
         343         344         349         348
         350         351         356         355
         351         352         357         356
         352         353         358         357
         353         354         359         358
         355         356         361         360
         356         357         362         361
         357         358         363         362
         358         359         364         363
         360         361         366         365
         361         362         367         366
         362         363         368         367
         363         364         369         368
         365         366         371         370
         366         367         372         371
         367         368         373         372
         368         369         374         373
         375         376         381         380
         376         377         382         381
         377         378         383         382
         378         379         384         383
         380         381         386         385
         381         382         387         386
         382         383         388         387
         383         384         389         388
         385         386         391         390
         386         387         392         391
         387         388         393         392
         388         389         394         393
         390         391         396         395
         391         392         397         396
         392         393         398         397
         393         394         399         398
         400         401         406         405
         401         402         407         406
         402         403         408         407
         403         404         409         408
         405         406         411         410
         406         407         412         411
         407         408         413         412
         408         409         414         413
         410         411         416         415
         411         412         417         416
         412         413         418         417
         413         414         419         418
         415         416         421         420
         416         417         422         421
         417         418         423         422
         418         419         424         423
         425         426         431         430
         426         427         432         431
         427         428         433         432
         428         429         434         433
         430         431         436         435
         431         432         437         436
         432         433         438         437
         433         434         439         438
         435         436         441         440
         436         437         442         441
         437         438         443         442
         438         439         444         443
         440         441         446         445
         441         442         447         446
         442         443         448         447
         443         444         449         448
         450         451         456         455
         451         452         457         456
         452         453         458         457
         453         454         459         458
         455         456         461         460
         456         457         462         461
         457         458         463         462
         458         459         464         463
         460         461         466         465
         461         462         467         466
         462         463         468         467
         463         464         469         468
         465         466         471         470
         466         467         472         471
         467         468         473         472
         468         469         474         473
         475         476         481         480
         476         477         482         481
         477         478         483         482
         478         479         484         483
         480         481         486         485
         481         482         487         486
         482         483         488         487
         483         484         489         488
         485         486         491         490
         486         487         492         491
         487         488         493         492
         488         489         494         493
         490         491         496         495
         491         492         497         496
         492         493         498         497
         493         494         499         498
         500         501         506         505
         501         502         507         506
         502         503         508         507
         503         504         509         508
         505         506         511         510
         506         507         512         511
         507         508         513         512
         508         509         514         513
         510         511         516         515
         511         512         517         516
         512         513         518         517
         513         514         519         518
         515         516         521         520
         516         517         522         521
         517         518         523         522
         518         519         524         523
         525         526         531         530
         526         527         532         531
         527         528         533         532
         528         529         534         533
         530         531         536         535
         531         532         537         536
         532         533         538         537
         533         534         539         538
         535         536         541         540
         536         537         542         541
         537         538         543         542
         538         539         544         543
         540         541         546         545
         541         542         547         546
         542         543         548         547
         543         544         549         548
         550         551         556         555
         551         552         557         556
         552         553         558         557
         553         554         559         558
         555         556         561         560
         556         557         562         561
         557         558         563         562
         558         559         564         563
         560         561         566         565
         561         562         567         566
         562         563         568         567
         563         564         569         568
         565         566         571         570
         566         567         572         571
         567         568         573         572
         568         569         574         573
         575         576         581         580
         576         577         582         581
         577         578         583         582
         578         579         584         583
         580         581         586         585
         581         582         587         586
         582         583         588         587
         583         584         589         588
         585         586         591         590
         586         587         592         591
         587         588         593         592
         588         589         594         593
         590         591         596         595
         591         592         597         596
         592         593         598         597
         593         594         599         598
         600         601         606         605
         601         602         607         606
         602         603         608         607
         603         604         609         608
         605         606         611         610
         606         607         612         611
         607         608         613         612
         608         609         614         613
         610         611         616         615
         611         612         617         616
         612         613         618         617
         613         614         619         618
         615         616         621         620
         616         617         622         621
         617         618         623         622
         618         619         624         623
         625         626         631         630
         626         627         632         631
         627         628         633         632
         628         629         634         633
         630         631         636         635
         631         632         637         636
         632         633         638         637
         633         634         639         638
         635         636         641         640
         636         637         642         641
         637         638         643         642
         638         639         644         643
         640         641         646         645
         641         642         647         646
         642         643         648         647
         643         644         649         648
         650         651         656         655
         651         652         657         656
         652         653         658         657
         653         654         659         658
         655         656         661         660
         656         657         662         661
         657         658         663         662
         658         659         664         663
         660         661         666         665
         661         662         667         666
         662         663         668         667
         663         664         669         668
         665         666         671         670
         666         667         672         671
         667         668         673         672
         668         669         674         673
         675         676         681         680
         676         677         682         681
         677         678         683         682
         678         679         684         683
         680         681         686         685
         681         682         687         686
         682         683         688         687
         683         684         689         688
         685         686         691         690
         686         687         692         691
         687         688         693         692
         688         689         694         693
         690         691         696         695
         691         692         697         696
         692         693         698         697
         693         694         699         698
         700         701         706         705
         701         702         707         706
         702         703         708         707
         703         704         709         708
         705         706         711         710
         706         707         712         711
         707         708         713         712
         708         709         714         713
         710         711         716         715
         711         712         717         716
         712         713         718         717
         713         714         719         718
         715         716         721         720
         716         717         722         721
         717         718         723         722
         718         719         724         723
         725         726         731         730
         726         727         732         731
         727         728         733         732
         728         729         734         733
         730         731         736         735
         731         732         737         736
         732         733         738         737
         733         734         739         738
         735         736         741         740
         736         737         742         741
         737         738         743         742
         738         739         744         743
         740         741         746         745
         741         742         747         746
         742         743         748         747
         743         744         749         748
         750         751         756         755
         751         752         757         756
         752         753         758         757
         753         754         759         758
         755         756         761         760
         756         757         762         761
         757         758         763         762
         758         759         764         763
         760         761         766         765
         761         762         767         766
         762         763         768         767
         763         764         769         768
         765         766         771         770
         766         767         772         771
         767         768         773         772
         768         769         774         773
         775         776         781         780
         776         777         782         781
         777         778         783         782
         778         779         784         783
         780         781         786         785
         781         782         787         786
         782         783         788         787
         783         784         789         788
         785         786         791         790
         786         787         792         791
         787         788         793         792
         788         789         794         793
         790         791         796         795
         791         792         797         796
         792         793         798         797
         793         794         799         798
         800         801         806         805
         801         802         807         806
         802         803         808         807
         803         804         809         808
         805         806         811         810
         806         807         812         811
         807         808         813         812
         808         809         814         813
         810         811         816         815
         811         812         817         816
         812         813         818         817
         813         814         819         818
         815         816         821         820
         816         817         822         821
         817         818         823         822
         818         819         824         823
         825         826         831         830
         826         827         832         831
         827         828         833         832
         828         829         834         833
         830         831         836         835
         831         832         837         836
         832         833         838         837
         833         834         839         838
         835         836         841         840
         836         837         842         841
         837         838         843         842
         838         839         844         843
         840         841         846         845
         841         842         847         846
         842         843         848         847
         843         844         849         848
         850         851         856         855
         851         852         857         856
         852         853         858         857
         853         854         859         858
         855         856         861         860
         856         857         862         861
         857         858         863         862
         858         859         864         863
         860         861         866         865
         861         862         867         866
         862         863         868         867
         863         864         869         868
         865         866         871         870
         866         867         872         871
         867         868         873         872
         868         869         874         873
         875         876         881         880
         876         877         882         881
         877         878         883         882
         878         879         884         883
         880         881         886         885
         881         882         887         886
         882         883         888         887
         883         884         889         888
         885         886         891         890
         886         887         892         891
         887         888         893         892
         888         889         894         893
         890         891         896         895
         891         892         897         896
         892         893         898         897
         893         894         899         898
         900         901         906         905
         901         902         907         906
         902         903         908         907
         903         904         909         908
         905         906         911         910
         906         907         912         911
         907         908         913         912
         908         909         914         913
         910         911         916         915
         911         912         917         916
         912         913         918         917
         913         914         919         918
         915         916         921         920
         916         917         922         921
         917         918         923         922
         918         919         924         923
         925         926         931         930
         926         927         932         931
         927         928         933         932
         928         929         934         933
         930         931         936         935
         931         932         937         936
         932         933         938         937
         933         934         939         938
         935         936         941         940
         936         937         942         941
         937         938         943         942
         938         939         944         943
         940         941         946         945
         941         942         947         946
         942         943         948         947
         943         944         949         948
         950         951         956         955
         951         952         957         956
         952         953         958         957
         953         954         959         958
         955         956         961         960
         956         957         962         961
         957         958         963         962
         958         959         964         963
         960         961         966         965
         961         962         967         966
         962         963         968         967
         963         964         969         968
         965         966         971         970
         966         967         972         971
         967         968         973         972
         968         969         974         973
         975         976         981         980
         976         977         982         981
         977         978         983         982
         978         979         984         983
         980         981         986         985
         981         982         987         986
         982         983         988         987
         983         984         989         988
         985         986         991         990
         986         987         992         991
         987         988         993         992
         988         989         994         993
         990         991         996         995
         991         992         997         996
         992         993         998         997
         993         994         999         998
        1000        1001        1006        1005
        1001        1002        1007        1006
        1002        1003        1008        1007
        1003        1004        1009        1008
        1005        1006        1011        1010
        1006        1007        1012        1011
        1007        1008        1013        1012
        1008        1009        1014        1013
        1010        1011        1016        1015
        1011        1012        1017        1016
        1012        1013        1018        1017
        1013        1014        1019        1018
        1015        1016        1021        1020
        1016        1017        1022        1021
        1017        1018        1023        1022
        1018        1019        1024        1023
        1025        1026        1031        1030
        1026        1027        1032        1031
        1027        1028        1033        1032
        1028        1029        1034        1033
        1030        1031        1036        1035
        1031        1032        1037        1036
        1032        1033        1038        1037
        1033        1034        1039        1038
        1035        1036        1041        1040
        1036        1037        1042        1041
        1037        1038        1043        1042
        1038        1039        1044        1043
        1040        1041        1046        1045
        1041        1042        1047        1046
        1042        1043        1048        1047
        1043        1044        1049        1048
        1050        1051        1056        1055
        1051        1052        1057        1056
        1052        1053        1058        1057
        1053        1054        1059        1058
        1055        1056        1061        1060
        1056        1057        1062        1061
        1057        1058        1063        1062
        1058        1059        1064        1063
        1060        1061        1066        1065
        1061        1062        1067        1066
        1062        1063        1068        1067
        1063        1064        1069        1068
        1065        1066        1071        1070
        1066        1067        1072        1071
        1067        1068        1073        1072
        1068        1069        1074        1073
        1075        1076        1081        1080
        1076        1077        1082        1081
        1077        1078        1083        1082
        1078        1079        1084        1083
        1080        1081        1086        1085
        1081        1082        1087        1086
        1082        1083        1088        1087
        1083        1084        1089        1088
        1085        1086        1091        1090
        1086        1087        1092        1091
        1087        1088        1093        1092
        1088        1089        1094        1093
        1090        1091        1096        1095
        1091        1092        1097        1096
        1092        1093        1098        1097
        1093        1094        1099        1098
        1100        1101        1106        1105
        1101        1102        1107        1106
        1102        1103        1108        1107
        1103        1104        1109        1108
        1105        1106        1111        1110
        1106        1107        1112        1111
        1107        1108        1113        1112
        1108        1109        1114        1113
        1110        1111        1116        1115
        1111        1112        1117        1116
        1112        1113        1118        1117
        1113        1114        1119        1118
        1115        1116        1121        1120
        1116        1117        1122        1121
        1117        1118        1123        1122
        1118        1119        1124        1123
        1125        1126        1131        1130
        1126        1127        1132        1131
        1127        1128        1133        1132
        1128        1129        1134        1133
        1130        1131        1136        1135
        1131        1132        1137        1136
        1132        1133        1138        1137
        1133        1134        1139        1138
        1135        1136        1141        1140
        1136        1137        1142        1141
        1137        1138        1143        1142
        1138        1139        1144        1143
        1140        1141        1146        1145
        1141        1142        1147        1146
        1142        1143        1148        1147
        1143        1144        1149        1148
        1150        1151        1156        1155
        1151        1152        1157        1156
        1152        1153        1158        1157
        1153        1154        1159        1158
        1155        1156        1161        1160
        1156        1157        1162        1161
        1157        1158        1163        1162
        1158        1159        1164        1163
        1160        1161        1166        1165
        1161        1162        1167        1166
        1162        1163        1168        1167
        1163        1164        1169        1168
        1165        1166        1171        1170
        1166        1167        1172        1171
        1167        1168        1173        1172
        1168        1169        1174        1173
        1175        1176        1181        1180
        1176        1177        1182        1181
        1177        1178        1183        1182
        1178        1179        1184        1183
        1180        1181        1186        1185
        1181        1182        1187        1186
        1182        1183        1188        1187
        1183        1184        1189        1188
        1185        1186        1191        1190
        1186        1187        1192        1191
        1187        1188        1193        1192
        1188        1189        1194        1193
        1190        1191        1196        1195
        1191        1192        1197        1196
        1192        1193        1198        1197
        1193        1194        1199        1198
        1200        1201        1206        1205
        1201        1202        1207        1206
        1202        1203        1208        1207
        1203        1204        1209        1208
        1205        1206        1211        1210
        1206        1207        1212        1211
        1207        1208        1213        1212
        1208        1209        1214        1213
        1210        1211        1216        1215
        1211        1212        1217        1216
        1212        1213        1218        1217
        1213        1214        1219        1218
        1215        1216        1221        1220
        1216        1217        1222        1221
        1217        1218        1223        1222
        1218        1219        1224        1223
        1225        1226        1231        1230
        1226        1227        1232        1231
        1227        1228        1233        1232
        1228        1229        1234        1233
        1230        1231        1236        1235
        1231        1232        1237        1236
        1232        1233        1238        1237
        1233        1234        1239        1238
        1235        1236        1241        1240
        1236        1237        1242        1241
        1237        1238        1243        1242
        1238        1239        1244        1243
        1240        1241        1246        1245
        1241        1242        1247        1246
        1242        1243        1248        1247
        1243        1244        1249        1248
        1250        1251        1256        1255
        1251        1252        1257        1256
        1252        1253        1258        1257
        1253        1254        1259        1258
        1255        1256        1261        1260
        1256        1257        1262        1261
        1257        1258        1263        1262
        1258        1259        1264        1263
        1260        1261        1266        1265
        1261        1262        1267        1266
        1262        1263        1268        1267
        1263        1264        1269        1268
        1265        1266        1271        1270
        1266        1267        1272        1271
        1267        1268        1273        1272
        1268        1269        1274        1273
        1275        1276        1281        1280
        1276        1277        1282        1281
        1277        1278        1283        1282
        1278        1279        1284        1283
        1280        1281        1286        1285
        1281        1282        1287        1286
        1282        1283        1288        1287
        1283        1284        1289        1288
        1285        1286        1291        1290
        1286        1287        1292        1291
        1287        1288        1293        1292
        1288        1289        1294        1293
        1290        1291        1296        1295
        1291        1292        1297        1296
        1292        1293        1298        1297
        1293        1294        1299        1298
        1300        1301        1306        1305
        1301        1302        1307        1306
        1302        1303        1308        1307
        1303        1304        1309        1308
        1305        1306        1311        1310
        1306        1307        1312        1311
        1307        1308        1313        1312
        1308        1309        1314        1313
        1310        1311        1316        1315
        1311        1312        1317        1316
        1312        1313        1318        1317
        1313        1314        1319        1318
        1315        1316        1321        1320
        1316        1317        1322        1321
        1317        1318        1323        1322
        1318        1319        1324        1323
        1325        1326        1331        1330
        1326        1327        1332        1331
        1327        1328        1333        1332
        1328        1329        1334        1333
        1330        1331        1336        1335
        1331        1332        1337        1336
        1332        1333        1338        1337
        1333        1334        1339        1338
        1335        1336        1341        1340
        1336        1337        1342        1341
        1337        1338        1343        1342
        1338        1339        1344        1343
        1340        1341        1346        1345
        1341        1342        1347        1346
        1342        1343        1348        1347
        1343        1344        1349        1348
        1350        1351        1356        1355
        1351        1352        1357        1356
        1352        1353        1358        1357
        1353        1354        1359        1358
        1355        1356        1361        1360
        1356        1357        1362        1361
        1357        1358        1363        1362
        1358        1359        1364        1363
        1360        1361        1366        1365
        1361        1362        1367        1366
        1362        1363        1368        1367
        1363        1364        1369        1368
        1365        1366        1371        1370
        1366        1367        1372        1371
        1367        1368        1373        1372
        1368        1369        1374        1373
        1375        1376        1381        1380
        1376        1377        1382        1381
        1377        1378        1383        1382
        1378        1379        1384        1383
        1380        1381        1386        1385
        1381        1382        1387        1386
        1382        1383        1388        1387
        1383        1384        1389        1388
        1385        1386        1391        1390
        1386        1387        1392        1391
        1387        1388        1393        1392
        1388        1389        1394        1393
        1390        1391        1396        1395
        1391        1392        1397        1396
        1392        1393        1398        1397
        1393        1394        1399        1398
        1400        1401        1406        1405
        1401        1402        1407        1406
        1402        1403        1408        1407
        1403        1404        1409        1408
        1405        1406        1411        1410
        1406        1407        1412        1411
        1407        1408        1413        1412
        1408        1409        1414        1413
        1410        1411        1416        1415
        1411        1412        1417        1416
        1412        1413        1418        1417
        1413        1414        1419        1418
        1415        1416        1421        1420
        1416        1417        1422        1421
        1417        1418        1423        1422
        1418        1419        1424        1423
        1425        1426        1431        1430
        1426        1427        1432        1431
        1427        1428        1433        1432
        1428        1429        1434        1433
        1430        1431        1436        1435
        1431        1432        1437        1436
        1432        1433        1438        1437
        1433        1434        1439        1438
        1435        1436        1441        1440
        1436        1437        1442        1441
        1437        1438        1443        1442
        1438        1439        1444        1443
        1440        1441        1446        1445
        1441        1442        1447        1446
        1442        1443        1448        1447
        1443        1444        1449        1448
        1450        1451        1456        1455
        1451        1452        1457        1456
        1452        1453        1458        1457
        1453        1454        1459        1458
        1455        1456        1461        1460
        1456        1457        1462        1461
        1457        1458        1463        1462
        1458        1459        1464        1463
        1460        1461        1466        1465
        1461        1462        1467        1466
        1462        1463        1468        1467
        1463        1464        1469        1468
        1465        1466        1471        1470
        1466        1467        1472        1471
        1467        1468        1473        1472
        1468        1469        1474        1473
        1475        1476        1481        1480
        1476        1477        1482        1481
        1477        1478        1483        1482
        1478        1479        1484        1483
        1480        1481        1486        1485
        1481        1482        1487        1486
        1482        1483        1488        1487
        1483        1484        1489        1488
        1485        1486        1491        1490
        1486        1487        1492        1491
        1487        1488        1493        1492
        1488        1489        1494        1493
        1490        1491        1496        1495
        1491        1492        1497        1496
        1492        1493        1498        1497
        1493        1494        1499        1498
        1500        1501        1506        1505
        1501        1502        1507        1506
        1502        1503        1508        1507
        1503        1504        1509        1508
        1505        1506        1511        1510
        1506        1507        1512        1511
        1507        1508        1513        1512
        1508        1509        1514        1513
        1510        1511        1516        1515
        1511        1512        1517        1516
        1512        1513        1518        1517
        1513        1514        1519        1518
        1515        1516        1521        1520
        1516        1517        1522        1521
        1517        1518        1523        1522
        1518        1519        1524        1523
        1525        1526        1531        1530
        1526        1527        1532        1531
        1527        1528        1533        1532
        1528        1529        1534        1533
        1530        1531        1536        1535
        1531        1532        1537        1536
        1532        1533        1538        1537
        1533        1534        1539        1538
        1535        1536        1541        1540
        1536        1537        1542        1541
        1537        1538        1543        1542
        1538        1539        1544        1543
        1540        1541        1546        1545
        1541        1542        1547        1546
        1542        1543        1548        1547
        1543        1544        1549        1548
        1550        1551        1556        1555
        1551        1552        1557        1556
        1552        1553        1558        1557
        1553        1554        1559        1558
        1555        1556        1561        1560
        1556        1557        1562        1561
        1557        1558        1563        1562
        1558        1559        1564        1563
        1560        1561        1566        1565
        1561        1562        1567        1566
        1562        1563        1568        1567
        1563        1564        1569        1568
        1565        1566        1571        1570
        1566        1567        1572        1571
        1567        1568        1573        1572
        1568        1569        1574        1573
        1575        1576        1581        1580
        1576        1577        1582        1581
        1577        1578        1583        1582
        1578        1579        1584        1583
        1580        1581        1586        1585
        1581        1582        1587        1586
        1582        1583        1588        1587
        1583        1584        1589        1588
        1585        1586        1591        1590
        1586        1587        1592        1591
        1587        1588        1593        1592
        1588        1589        1594        1593
        1590        1591        1596        1595
        1591        1592        1597        1596
        1592        1593        1598        1597
        1593        1594        1599        1598
 </DataArray>
 <DataArray  type="Int32"  Name="offsets"  format="ascii"> 
           4
           8
          12
          16
          20
          24
          28
          32
          36
          40
          44
          48
          52
          56
          60
          64
          68
          72
          76
          80
          84
          88
          92
          96
         100
         104
         108
         112
         116
         120
         124
         128
         132
         136
         140
         144
         148
         152
         156
         160
         164
         168
         172
         176
         180
         184
         188
         192
         196
         200
         204
         208
         212
         216
         220
         224
         228
         232
         236
         240
         244
         248
         252
         256
         260
         264
         268
         272
         276
         280
         284
         288
         292
         296
         300
         304
         308
         312
         316
         320
         324
         328
         332
         336
         340
         344
         348
         352
         356
         360
         364
         368
         372
         376
         380
         384
         388
         392
         396
         400
         404
         408
         412
         416
         420
         424
         428
         432
         436
         440
         444
         448
         452
         456
         460
         464
         468
         472
         476
         480
         484
         488
         492
         496
         500
         504
         508
         512
         516
         520
         524
         528
         532
         536
         540
         544
         548
         552
         556
         560
         564
         568
         572
         576
         580
         584
         588
         592
         596
         600
         604
         608
         612
         616
         620
         624
         628
         632
         636
         640
         644
         648
         652
         656
         660
         664
         668
         672
         676
         680
         684
         688
         692
         696
         700
         704
         708
         712
         716
         720
         724
         728
         732
         736
         740
         744
         748
         752
         756
         760
         764
         768
         772
         776
         780
         784
         788
         792
         796
         800
         804
         808
         812
         816
         820
         824
         828
         832
         836
         840
         844
         848
         852
         856
         860
         864
         868
         872
         876
         880
         884
         888
         892
         896
         900
         904
         908
         912
         916
         920
         924
         928
         932
         936
         940
         944
         948
         952
         956
         960
         964
         968
         972
         976
         980
         984
         988
         992
         996
        1000
        1004
        1008
        1012
        1016
        1020
        1024
        1028
        1032
        1036
        1040
        1044
        1048
        1052
        1056
        1060
        1064
        1068
        1072
        1076
        1080
        1084
        1088
        1092
        1096
        1100
        1104
        1108
        1112
        1116
        1120
        1124
        1128
        1132
        1136
        1140
        1144
        1148
        1152
        1156
        1160
        1164
        1168
        1172
        1176
        1180
        1184
        1188
        1192
        1196
        1200
        1204
        1208
        1212
        1216
        1220
        1224
        1228
        1232
        1236
        1240
        1244
        1248
        1252
        1256
        1260
        1264
        1268
        1272
        1276
        1280
        1284
        1288
        1292
        1296
        1300
        1304
        1308
        1312
        1316
        1320
        1324
        1328
        1332
        1336
        1340
        1344
        1348
        1352
        1356
        1360
        1364
        1368
        1372
        1376
        1380
        1384
        1388
        1392
        1396
        1400
        1404
        1408
        1412
        1416
        1420
        1424
        1428
        1432
        1436
        1440
        1444
        1448
        1452
        1456
        1460
        1464
        1468
        1472
        1476
        1480
        1484
        1488
        1492
        1496
        1500
        1504
        1508
        1512
        1516
        1520
        1524
        1528
        1532
        1536
        1540
        1544
        1548
        1552
        1556
        1560
        1564
        1568
        1572
        1576
        1580
        1584
        1588
        1592
        1596
        1600
        1604
        1608
        1612
        1616
        1620
        1624
        1628
        1632
        1636
        1640
        1644
        1648
        1652
        1656
        1660
        1664
        1668
        1672
        1676
        1680
        1684
        1688
        1692
        1696
        1700
        1704
        1708
        1712
        1716
        1720
        1724
        1728
        1732
        1736
        1740
        1744
        1748
        1752
        1756
        1760
        1764
        1768
        1772
        1776
        1780
        1784
        1788
        1792
        1796
        1800
        1804
        1808
        1812
        1816
        1820
        1824
        1828
        1832
        1836
        1840
        1844
        1848
        1852
        1856
        1860
        1864
        1868
        1872
        1876
        1880
        1884
        1888
        1892
        1896
        1900
        1904
        1908
        1912
        1916
        1920
        1924
        1928
        1932
        1936
        1940
        1944
        1948
        1952
        1956
        1960
        1964
        1968
        1972
        1976
        1980
        1984
        1988
        1992
        1996
        2000
        2004
        2008
        2012
        2016
        2020
        2024
        2028
        2032
        2036
        2040
        2044
        2048
        2052
        2056
        2060
        2064
        2068
        2072
        2076
        2080
        2084
        2088
        2092
        2096
        2100
        2104
        2108
        2112
        2116
        2120
        2124
        2128
        2132
        2136
        2140
        2144
        2148
        2152
        2156
        2160
        2164
        2168
        2172
        2176
        2180
        2184
        2188
        2192
        2196
        2200
        2204
        2208
        2212
        2216
        2220
        2224
        2228
        2232
        2236
        2240
        2244
        2248
        2252
        2256
        2260
        2264
        2268
        2272
        2276
        2280
        2284
        2288
        2292
        2296
        2300
        2304
        2308
        2312
        2316
        2320
        2324
        2328
        2332
        2336
        2340
        2344
        2348
        2352
        2356
        2360
        2364
        2368
        2372
        2376
        2380
        2384
        2388
        2392
        2396
        2400
        2404
        2408
        2412
        2416
        2420
        2424
        2428
        2432
        2436
        2440
        2444
        2448
        2452
        2456
        2460
        2464
        2468
        2472
        2476
        2480
        2484
        2488
        2492
        2496
        2500
        2504
        2508
        2512
        2516
        2520
        2524
        2528
        2532
        2536
        2540
        2544
        2548
        2552
        2556
        2560
        2564
        2568
        2572
        2576
        2580
        2584
        2588
        2592
        2596
        2600
        2604
        2608
        2612
        2616
        2620
        2624
        2628
        2632
        2636
        2640
        2644
        2648
        2652
        2656
        2660
        2664
        2668
        2672
        2676
        2680
        2684
        2688
        2692
        2696
        2700
        2704
        2708
        2712
        2716
        2720
        2724
        2728
        2732
        2736
        2740
        2744
        2748
        2752
        2756
        2760
        2764
        2768
        2772
        2776
        2780
        2784
        2788
        2792
        2796
        2800
        2804
        2808
        2812
        2816
        2820
        2824
        2828
        2832
        2836
        2840
        2844
        2848
        2852
        2856
        2860
        2864
        2868
        2872
        2876
        2880
        2884
        2888
        2892
        2896
        2900
        2904
        2908
        2912
        2916
        2920
        2924
        2928
        2932
        2936
        2940
        2944
        2948
        2952
        2956
        2960
        2964
        2968
        2972
        2976
        2980
        2984
        2988
        2992
        2996
        3000
        3004
        3008
        3012
        3016
        3020
        3024
        3028
        3032
        3036
        3040
        3044
        3048
        3052
        3056
        3060
        3064
        3068
        3072
        3076
        3080
        3084
        3088
        3092
        3096
        3100
        3104
        3108
        3112
        3116
        3120
        3124
        3128
        3132
        3136
        3140
        3144
        3148
        3152
        3156
        3160
        3164
        3168
        3172
        3176
        3180
        3184
        3188
        3192
        3196
        3200
        3204
        3208
        3212
        3216
        3220
        3224
        3228
        3232
        3236
        3240
        3244
        3248
        3252
        3256
        3260
        3264
        3268
        3272
        3276
        3280
        3284
        3288
        3292
        3296
        3300
        3304
        3308
        3312
        3316
        3320
        3324
        3328
        3332
        3336
        3340
        3344
        3348
        3352
        3356
        3360
        3364
        3368
        3372
        3376
        3380
        3384
        3388
        3392
        3396
        3400
        3404
        3408
        3412
        3416
        3420
        3424
        3428
        3432
        3436
        3440
        3444
        3448
        3452
        3456
        3460
        3464
        3468
        3472
        3476
        3480
        3484
        3488
        3492
        3496
        3500
        3504
        3508
        3512
        3516
        3520
        3524
        3528
        3532
        3536
        3540
        3544
        3548
        3552
        3556
        3560
        3564
        3568
        3572
        3576
        3580
        3584
        3588
        3592
        3596
        3600
        3604
        3608
        3612
        3616
        3620
        3624
        3628
        3632
        3636
        3640
        3644
        3648
        3652
        3656
        3660
        3664
        3668
        3672
        3676
        3680
        3684
        3688
        3692
        3696
        3700
        3704
        3708
        3712
        3716
        3720
        3724
        3728
        3732
        3736
        3740
        3744
        3748
        3752
        3756
        3760
        3764
        3768
        3772
        3776
        3780
        3784
        3788
        3792
        3796
        3800
        3804
        3808
        3812
        3816
        3820
        3824
        3828
        3832
        3836
        3840
        3844
        3848
        3852
        3856
        3860
        3864
        3868
        3872
        3876
        3880
        3884
        3888
        3892
        3896
        3900
        3904
        3908
        3912
        3916
        3920
        3924
        3928
        3932
        3936
        3940
        3944
        3948
        3952
        3956
        3960
        3964
        3968
        3972
        3976
        3980
        3984
        3988
        3992
        3996
        4000
        4004
        4008
        4012
        4016
        4020
        4024
        4028
        4032
        4036
        4040
        4044
        4048
        4052
        4056
        4060
        4064
        4068
        4072
        4076
        4080
        4084
        4088
        4092
        4096
 </DataArray>
 <DataArray  type="UInt8"  Name="types"  format="ascii">
 9
 9
 9
 9
 9
 9
 9
 9
 9
 9
 9
 9
 9
 9
 9
 9
 9
 9
 9
 9
 9
 9
 9
 9
 9
 9
 9
 9
 9
 9
 9
 9
 9
 9
 9
 9
 9
 9
 9
 9
 9
 9
 9
 9
 9
 9
 9
 9
 9
 9
 9
 9
 9
 9
 9
 9
 9
 9
 9
 9
 9
 9
 9
 9
 9
 9
 9
 9
 9
 9
 9
 9
 9
 9
 9
 9
 9
 9
 9
 9
 9
 9
 9
 9
 9
 9
 9
 9
 9
 9
 9
 9
 9
 9
 9
 9
 9
 9
 9
 9
 9
 9
 9
 9
 9
 9
 9
 9
 9
 9
 9
 9
 9
 9
 9
 9
 9
 9
 9
 9
 9
 9
 9
 9
 9
 9
 9
 9
 9
 9
 9
 9
 9
 9
 9
 9
 9
 9
 9
 9
 9
 9
 9
 9
 9
 9
 9
 9
 9
 9
 9
 9
 9
 9
 9
 9
 9
 9
 9
 9
 9
 9
 9
 9
 9
 9
 9
 9
 9
 9
 9
 9
 9
 9
 9
 9
 9
 9
 9
 9
 9
 9
 9
 9
 9
 9
 9
 9
 9
 9
 9
 9
 9
 9
 9
 9
 9
 9
 9
 9
 9
 9
 9
 9
 9
 9
 9
 9
 9
 9
 9
 9
 9
 9
 9
 9
 9
 9
 9
 9
 9
 9
 9
 9
 9
 9
 9
 9
 9
 9
 9
 9
 9
 9
 9
 9
 9
 9
 9
 9
 9
 9
 9
 9
 9
 9
 9
 9
 9
 9
 9
 9
 9
 9
 9
 9
 9
 9
 9
 9
 9
 9
 9
 9
 9
 9
 9
 9
 9
 9
 9
 9
 9
 9
 9
 9
 9
 9
 9
 9
 9
 9
 9
 9
 9
 9
 9
 9
 9
 9
 9
 9
 9
 9
 9
 9
 9
 9
 9
 9
 9
 9
 9
 9
 9
 9
 9
 9
 9
 9
 9
 9
 9
 9
 9
 9
 9
 9
 9
 9
 9
 9
 9
 9
 9
 9
 9
 9
 9
 9
 9
 9
 9
 9
 9
 9
 9
 9
 9
 9
 9
 9
 9
 9
 9
 9
 9
 9
 9
 9
 9
 9
 9
 9
 9
 9
 9
 9
 9
 9
 9
 9
 9
 9
 9
 9
 9
 9
 9
 9
 9
 9
 9
 9
 9
 9
 9
 9
 9
 9
 9
 9
 9
 9
 9
 9
 9
 9
 9
 9
 9
 9
 9
 9
 9
 9
 9
 9
 9
 9
 9
 9
 9
 9
 9
 9
 9
 9
 9
 9
 9
 9
 9
 9
 9
 9
 9
 9
 9
 9
 9
 9
 9
 9
 9
 9
 9
 9
 9
 9
 9
 9
 9
 9
 9
 9
 9
 9
 9
 9
 9
 9
 9
 9
 9
 9
 9
 9
 9
 9
 9
 9
 9
 9
 9
 9
 9
 9
 9
 9
 9
 9
 9
 9
 9
 9
 9
 9
 9
 9
 9
 9
 9
 9
 9
 9
 9
 9
 9
 9
 9
 9
 9
 9
 9
 9
 9
 9
 9
 9
 9
 9
 9
 9
 9
 9
 9
 9
 9
 9
 9
 9
 9
 9
 9
 9
 9
 9
 9
 9
 9
 9
 9
 9
 9
 9
 9
 9
 9
 9
 9
 9
 9
 9
 9
 9
 9
 9
 9
 9
 9
 9
 9
 9
 9
 9
 9
 9
 9
 9
 9
 9
 9
 9
 9
 9
 9
 9
 9
 9
 9
 9
 9
 9
 9
 9
 9
 9
 9
 9
 9
 9
 9
 9
 9
 9
 9
 9
 9
 9
 9
 9
 9
 9
 9
 9
 9
 9
 9
 9
 9
 9
 9
 9
 9
 9
 9
 9
 9
 9
 9
 9
 9
 9
 9
 9
 9
 9
 9
 9
 9
 9
 9
 9
 9
 9
 9
 9
 9
 9
 9
 9
 9
 9
 9
 9
 9
 9
 9
 9
 9
 9
 9
 9
 9
 9
 9
 9
 9
 9
 9
 9
 9
 9
 9
 9
 9
 9
 9
 9
 9
 9
 9
 9
 9
 9
 9
 9
 9
 9
 9
 9
 9
 9
 9
 9
 9
 9
 9
 9
 9
 9
 9
 9
 9
 9
 9
 9
 9
 9
 9
 9
 9
 9
 9
 9
 9
 9
 9
 9
 9
 9
 9
 9
 9
 9
 9
 9
 9
 9
 9
 9
 9
 9
 9
 9
 9
 9
 9
 9
 9
 9
 9
 9
 9
 9
 9
 9
 9
 9
 9
 9
 9
 9
 9
 9
 9
 9
 9
 9
 9
 9
 9
 9
 9
 9
 9
 9
 9
 9
 9
 9
 9
 9
 9
 9
 9
 9
 9
 9
 9
 9
 9
 9
 9
 9
 9
 9
 9
 9
 9
 9
 9
 9
 9
 9
 9
 9
 9
 9
 9
 9
 9
 9
 9
 9
 9
 9
 9
 9
 9
 9
 9
 9
 9
 9
 9
 9
 9
 9
 9
 9
 9
 9
 9
 9
 9
 9
 9
 9
 9
 9
 9
 9
 9
 9
 9
 9
 9
 9
 9
 9
 9
 9
 9
 9
 9
 9
 9
 9
 9
 9
 9
 9
 9
 9
 9
 9
 9
 9
 9
 9
 9
 9
 9
 9
 9
 9
 9
 9
 9
 9
 9
 9
 9
 9
 9
 9
 9
 9
 9
 9
 9
 9
 9
 9
 9
 9
 9
 9
 9
 9
 9
 9
 9
 9
 9
 9
 9
 9
 9
 9
 9
 9
 9
 9
 9
 9
 9
 9
 9
 9
 9
 9
 9
 9
 9
 9
 9
 9
 9
 9
 9
 9
 9
 9
 9
 9
 9
 9
 9
 9
 9
 9
 9
 9
 9
 9
 9
 9
 9
 9
 9
 9
 9
 9
 9
 9
 9
 9
 9
 9
 9
 9
 9
 9
 9
 9
 9
 9
 9
 9
 9
 9
 9
 9
 9
 9
 9
 9
 9
 9
 9
 9
 9
 9
 9
 9
 9
 9
 9
 9
 9
 9
 9
 9
 9
 9
 9
 9
 9
 9
 9
 9
 9
 9
 9
 9
 9
 9
 9
 9
 9
 9
 9
 9
 9
 9
 9
 9
 9
 9
 9
 9
 9
 9
 9
 9
 9
 9
 9
 9
 9
 9
 9
 9
 9
 9
 9
 9
 9
 9
 9
 9
 9
 9
 9
 9
 9
 9
 9
 9
 9
 9
 9
 9
 9
 9
 9
 9
 9
 9
 9
 9
 9
 9
 9
 9
 9
 9
 9
 9
 9
 9
 </DataArray>
 </Cells> 
 <PointData>
 <DataArray  type="Float64" Name="disp" NumberOfComponents="3" format="ascii">
   0.0000000000000000        0.0000000000000000        0.0000000000000000     
   6.0961257204023064E-003   3.7908791009707505E-003   0.0000000000000000     
   1.1666120293416588E-002   7.3244439839789130E-003   0.0000000000000000     
   1.6709983719042844E-002   1.0600694649024488E-002   0.0000000000000000     
   2.1227715997281078E-002   1.3619631096107475E-002   0.0000000000000000     
   0.0000000000000000        0.0000000000000000        0.0000000000000000     
   4.8911714202001036E-003   3.0224289362923819E-003   0.0000000000000000     
   9.5735977827176195E-003   6.0609569325281217E-003   0.0000000000000000     
   1.4047279087552548E-002   9.1155839887072203E-003   0.0000000000000000     
   1.8312215334704889E-002   1.2186310104829675E-002   0.0000000000000000     
   0.0000000000000000        0.0000000000000000        0.0000000000000000     
   3.9535086154889494E-003   2.4253003729296520E-003   0.0000000000000000     
   7.9105065634693557E-003   5.0632065571824640E-003   0.0000000000000000     
   1.1870993843941224E-002   7.9137185527584364E-003   0.0000000000000000     
   1.5834970456904549E-002   1.0976836359657570E-002   0.0000000000000000     
   0.0000000000000000        0.0000000000000000        0.0000000000000000     
   3.2831373062688421E-003   1.9994934108825604E-003   0.0000000000000000     
   6.6768466356718001E-003   4.3311928579419408E-003   0.0000000000000000     
   1.0181127988208874E-002   6.9950983411781404E-003   0.0000000000000000     
   1.3795981363880059E-002   9.9912098605911583E-003   0.0000000000000000     
   0.0000000000000000        0.0000000000000000        0.0000000000000000     
   2.8800574925397834E-003   1.7450080501511074E-003   0.0000000000000000     
   5.8726179993249476E-003   3.8649158348065512E-003   0.0000000000000000     
   8.9776815203554926E-003   6.3597233539663305E-003   0.0000000000000000     
   1.2195248055631418E-002   9.2294306076304462E-003   0.0000000000000000     
   2.1227715997281078E-002   1.3619631096107475E-002   0.0000000000000000     
   2.5432458540611515E-002   1.6612281716050031E-002   0.0000000000000000     
   2.9537352761514396E-002   1.9809674899674320E-002   0.0000000000000000     
   3.3542398659989717E-002   2.3211810646980340E-002   0.0000000000000000     
   3.7447596236037467E-002   2.6818688957968087E-002   0.0000000000000000     
   1.8312215334704889E-002   1.2186310104829675E-002   0.0000000000000000     
   2.2406682329441100E-002   1.5341703826373844E-002   0.0000000000000000     
   2.6368955877027651E-002   1.8650333698818092E-002   0.0000000000000000     
   3.0199035977464535E-002   2.2112199722162412E-002   0.0000000000000000     
   3.3896922630751752E-002   2.5727301896406811E-002   0.0000000000000000     
   1.5834970456904549E-002   1.0976836359657570E-002   0.0000000000000000     
   1.9730612563461172E-002   1.4211474734630795E-002   0.0000000000000000     
   2.3486096324712935E-002   1.7576548434429039E-002   0.0000000000000000     
   2.7101421740659826E-002   2.1072057459052308E-002   0.0000000000000000     
   3.0576588811301854E-002   2.4698001808500600E-002   0.0000000000000000     
   1.3795981363880059E-002   9.9912098605911583E-003   0.0000000000000000     
   1.7404249242671723E-002   1.3221594440820878E-002   0.0000000000000000     
   2.0888774104570233E-002   1.6588319106507165E-002   0.0000000000000000     
   2.4249555949575580E-002   2.0091383857650028E-002   0.0000000000000000     
   2.7486594777687782E-002   2.3730788694249466E-002   0.0000000000000000     
   1.2195248055631418E-002   9.2294306076304462E-003   0.0000000000000000     
   1.5427592367072763E-002   1.2372062944944095E-002   0.0000000000000000     
   1.8576989216599563E-002   1.5685645715052470E-002   0.0000000000000000     
   2.1643438604211817E-002   1.9170178917955579E-002   0.0000000000000000     
   2.4626940529909529E-002   2.2825662553653408E-002   0.0000000000000000     
   3.7447596236037467E-002   2.6818688957968087E-002   0.0000000000000000     
   4.1256392883223858E-002   3.0624737951426638E-002   0.0000000000000000     
   4.4972235995115052E-002   3.4624385746145070E-002   0.0000000000000000     
   4.8595125571711070E-002   3.8817632342123376E-002   0.0000000000000000     
   5.2125061613011905E-002   4.3204477739361556E-002   0.0000000000000000     
   3.3896922630751752E-002   2.5727301896406811E-002   0.0000000000000000     
   3.7485463202723453E-002   2.9523994080529740E-002   0.0000000000000000     
   4.0987505059213808E-002   3.3530630133509660E-002   0.0000000000000000     
   4.4403048200222804E-002   3.7747210055346592E-002   0.0000000000000000     
   4.7732092625750427E-002   4.2173733846040506E-002   0.0000000000000000     
   3.0576588811301854E-002   2.4698001808500600E-002   0.0000000000000000     
   3.3941037619911935E-002   2.8498710021733140E-002   0.0000000000000000     
   3.7224208249762997E-002   3.2518510637709157E-002   0.0000000000000000     
   4.0426100700855012E-002   3.6757403656428649E-002   0.0000000000000000     
   4.3546714973188003E-002   4.1215389077891622E-002   0.0000000000000000     
   2.7486594777687782E-002   2.3730788694249466E-002   0.0000000000000000     
   3.0623116134789297E-002   2.7548885775036846E-002   0.0000000000000000     
   3.3682345566762605E-002   3.1588027258743545E-002   0.0000000000000000     
   3.6664283073607709E-002   3.5848213145369567E-002   0.0000000000000000     
   3.9568928655324617E-002   4.0329443434914895E-002   0.0000000000000000     
   2.4626940529909529E-002   2.2825662553653408E-002   0.0000000000000000     
   2.7531698747355525E-002   2.6674521340440866E-002   0.0000000000000000     
   3.0361917010212652E-002   3.0739179996612836E-002   0.0000000000000000     
   3.3117595318480894E-002   3.5019638522169327E-002   0.0000000000000000     
   3.5798733672160264E-002   3.9515896917110327E-002   0.0000000000000000     
   5.2125061613011905E-002   4.3204477739361556E-002   0.0000000000000000     
   5.5562220570312071E-002   4.7791241155251768E-002   0.0000000000000000     
   5.8906778894906073E-002   5.2584241807186162E-002   0.0000000000000000     
   6.2158736586793911E-002   5.7583479695164731E-002   0.0000000000000000     
   6.5318093645975600E-002   6.2788954819187490E-002   0.0000000000000000     
   4.7732092625750427E-002   4.2173733846040506E-002   0.0000000000000000     
   5.0971458704696729E-002   4.6804488266006639E-002   0.0000000000000000     
   5.4117966805961711E-002   5.1633760075660194E-002   0.0000000000000000     
   5.7171616929545359E-002   5.6661549275001194E-002   0.0000000000000000     
   6.0132409075447688E-002   6.1887855864029603E-002   0.0000000000000000     
   4.3546714973188003E-002   4.1215389077891622E-002   0.0000000000000000     
   4.6581678617724796E-002   4.5880237764965373E-002   0.0000000000000000     
   4.9526619185428208E-002   5.0739720580517275E-002   0.0000000000000000     
   5.2381536676298232E-002   5.5793837524547259E-002   0.0000000000000000     
   5.5146431090334874E-002   6.1042588597055400E-002   0.0000000000000000     
   3.9568928655324617E-002   4.0329443434914895E-002   0.0000000000000000     
   4.2392880309396266E-002   4.5018489652128006E-002   0.0000000000000000     
   4.5132736033305573E-002   4.9902123321757370E-002   0.0000000000000000     
   4.7788495827052545E-002   5.4980344443802974E-002   0.0000000000000000     
   5.0360159690637202E-002   6.0253153018264852E-002   0.0000000000000000     
   3.5798733672160264E-002   3.9515896917110327E-002   0.0000000000000000     
   3.8405063779711111E-002   4.4219243927494510E-002   0.0000000000000000     
   4.0936317349593791E-002   4.9120968299380507E-002   0.0000000000000000     
   4.3392494381808297E-002   5.4221070032768319E-002   0.0000000000000000     
   4.5773594876354629E-002   5.9519549127657972E-002   0.0000000000000000     
   6.5318093645975600E-002   6.2788954819187490E-002   0.0000000000000000     
   6.8382257975893923E-002   6.8185422853925301E-002   0.0000000000000000     
   7.1348637479991692E-002   7.3757639474049064E-002   0.0000000000000000     
   7.4217232158268892E-002   7.9505604679558778E-002   0.0000000000000000     
   7.6988042010725538E-002   8.5429318470454430E-002   0.0000000000000000     
   6.0132409075447688E-002   6.1887855864029603E-002   0.0000000000000000     
   6.3002076344180313E-002   6.7303271478211968E-002   0.0000000000000000     
   6.5782351836254860E-002   7.2898387753014771E-002   0.0000000000000000     
   6.8473235551671341E-002   7.8673204688438012E-002   0.0000000000000000     
   7.1074727490429729E-002   8.4627722284481718E-002   0.0000000000000000     
   5.5146431090334874E-002   6.1042588597055400E-002   0.0000000000000000     
   5.7825163871198682E-002   6.6479528147603772E-002   0.0000000000000000     
   6.0421596462550159E-002   7.2098210525754478E-002   0.0000000000000000     
   6.2935728864389293E-002   7.7898635731507612E-002   0.0000000000000000     
   6.5367561076716138E-002   8.3880803764863093E-002   0.0000000000000000     
   5.0360159690637202E-002   6.0253153018264852E-002   0.0000000000000000     
   5.2851520556949028E-002   6.5714192862100701E-002   0.0000000000000000     
   5.5266371358877575E-002   7.1357107792268268E-002   0.0000000000000000     
   5.7604712096422796E-002   7.7181897808767552E-002   0.0000000000000000     
   5.9866542769584731E-002   8.3188562911598568E-002   0.0000000000000000     
   4.5773594876354629E-002   5.9519549127657972E-002   0.0000000000000000     
   4.8081146401431372E-002   6.5007265621702781E-002   0.0000000000000000     
   5.0316676525237101E-002   7.0675079552556072E-002   0.0000000000000000     
   5.2480185247771829E-002   7.6522990920217845E-002   0.0000000000000000     
   5.4571672569035543E-002   8.2550999724688115E-002   0.0000000000000000     
   7.6988042010725538E-002   8.5429318470454430E-002   0.0000000000000000     
   7.9660741696327392E-002   9.1517816930087800E-002   0.0000000000000000     
   8.2235005874040285E-002   9.7760136141810644E-002   0.0000000000000000     
   8.4710834543864189E-002  0.10415627610562299        0.0000000000000000     
   8.7088227705799104E-002  0.11070623682152481        0.0000000000000000     
   7.1074727490429729E-002   8.4627722284481718E-002   0.0000000000000000     
   7.3585000042454315E-002   9.0749385247896816E-002   0.0000000000000000     
   7.6002225597669337E-002   9.7025638285434215E-002   0.0000000000000000     
   7.8326404156074808E-002  0.10345648139709394        0.0000000000000000     
   8.0557535717670742E-002  0.11004191458287600        0.0000000000000000     
   6.5367561076716138E-002   8.3880803764863093E-002   0.0000000000000000     
   6.7714451623139993E-002   9.0031431884078722E-002   0.0000000000000000     
   6.9973759027270266E-002   9.6337237347412299E-002   0.0000000000000000     
   7.2145483289106915E-002  0.10279822015486385        0.0000000000000000     
   7.4229624408649983E-002  0.10941438030643334        0.0000000000000000     
   5.9866542769584731E-002   8.3188562911598568E-002   0.0000000000000000     
   6.2049096438384452E-002   8.9363956838633615E-002   0.0000000000000000     
   6.4149606162843043E-002   9.5694933327745008E-002   0.0000000000000000     
   6.6168071942960496E-002  0.10218149237893273        0.0000000000000000     
   6.8104493778736827E-002  0.10882363399219684        0.0000000000000000     
   5.4571672569035543E-002   8.2550999724688115E-002   0.0000000000000000     
   5.6588934488187678E-002   8.8746960111561413E-002   0.0000000000000000     
   5.8529767004387681E-002   9.5098726226432242E-002   0.0000000000000000     
   6.0394170117635544E-002  0.10160629806930059        0.0000000000000000     
   6.2182143827931260E-002  0.10826967564016650        0.0000000000000000     
   8.7088227705799104E-002  0.11070623682152481        0.0000000000000000     
   8.9376558568529024E-002  0.11741059814848681        0.0000000000000000     
   9.1585200340737943E-002  0.12426993994547969        0.0000000000000000     
   9.3714153022425861E-002  0.13128426221250347        0.0000000000000000     
   9.5763416613592778E-002  0.13845356494955810        0.0000000000000000     
   8.0557535717670742E-002  0.11004191458287600        0.0000000000000000     
   8.2700060755853191E-002  0.11677626924405565        0.0000000000000000     
   8.4758419744018210E-002  0.12365387678190820        0.0000000000000000     
   8.6732612682165838E-002  0.13067473719643363        0.0000000000000000     
   8.8622639570296036E-002  0.13783885048763195        0.0000000000000000     
   7.4229624408649983E-002  0.10941438030643334        0.0000000000000000     
   7.6227892183842599E-002  0.11617654534336432        0.0000000000000000     
   7.8141996412627895E-002  0.12307554280690031        0.0000000000000000     
   7.9971937095005899E-002  0.13011137269704132        0.0000000000000000     
   8.1717714230976582E-002  0.13728403501378733        0.0000000000000000     
   6.8104493778736827E-002  0.10882363399219684        0.0000000000000000     
   6.9960052852497248E-002  0.11561142644641278        0.0000000000000000     
   7.1735930346566987E-002  0.12253493802045601        0.0000000000000000     
   7.3432126260946029E-002  0.12959416871432652        0.0000000000000000     
   7.5048640595634375E-002  0.13678911852802436        0.0000000000000000     
   6.2182143827931260E-002  0.10826967564016650        0.0000000000000000     
   6.3896542761817138E-002  0.11508091255320105        0.0000000000000000     
   6.5540221545835470E-002  0.12203206242257529        0.0000000000000000     
   6.7113180179986243E-002  0.12912312524828928        0.0000000000000000     
   6.8615418664269470E-002  0.13635410103034296        0.0000000000000000     
   9.5763416613592778E-002  0.13845356494955810        0.0000000000000000     
   9.7710240571650814E-002  0.14572911335917843        0.0000000000000000     
   9.9531874354012104E-002  0.15306217264389924        0.0000000000000000     
  0.10122831796067663       0.16045274280372054        0.0000000000000000     
  0.10279957139164443       0.16790082383864230        0.0000000000000000     
   8.8622639570296036E-002  0.13783885048763195        0.0000000000000000     
   9.0420686651166135E-002  0.14512025049558436        0.0000000000000000     
   9.2118940167533400E-002  0.15249297106037218        0.0000000000000000     
   9.3717400119397873E-002  0.15995701218199540        0.0000000000000000     
   9.5216066506759539E-002  0.16751237386045398        0.0000000000000000     
   8.1717714230976582E-002  0.13728403501378733        0.0000000000000000     
   8.3380395431333090E-002  0.14457971096378053        0.0000000000000000     
   8.4961048306868597E-002  0.15198458175366300        0.0000000000000000     
   8.6459672857583089E-002  0.15949864738343475        0.0000000000000000     
   8.7876269083476552E-002  0.16712190785309583        0.0000000000000000     
   7.5048640595634375E-002  0.13678911852802436        0.0000000000000000     
   7.6589366912151707E-002  0.14410749476376697        0.0000000000000000     
   7.8058198772017681E-002  0.15153700472377174        0.0000000000000000     
   7.9455136175232283E-002  0.15907764840803873        0.0000000000000000     
   8.0780179121795512E-002  0.16672942581656791        0.0000000000000000     
   6.8615418664269470E-002  0.13635410103034296        0.0000000000000000     
   7.0047601093621972E-002  0.14370360189554357        0.0000000000000000     
   7.1410391562980638E-002  0.15115023997069832        0.0000000000000000     
   7.2703790072345439E-002  0.15869401525580726        0.0000000000000000     
   7.3927796621716391E-002  0.16633492775087025        0.0000000000000000     
   0.0000000000000000        0.0000000000000000        0.0000000000000000     
   2.8800574925397834E-003   1.7450080501511074E-003   0.0000000000000000     
   5.8726179993249476E-003   3.8649158348065512E-003   0.0000000000000000     
   8.9776815203554926E-003   6.3597233539663305E-003   0.0000000000000000     
   1.2195248055631418E-002   9.2294306076304462E-003   0.0000000000000000     
   0.0000000000000000        0.0000000000000000        0.0000000000000000     
   2.6103818943412609E-003   1.5891317331773425E-003   0.0000000000000000     
   5.2897917676438186E-003   3.5570048027904594E-003   0.0000000000000000     
   8.0382296199076747E-003   5.9036192088393509E-003   0.0000000000000000     
   1.0855695451132828E-002   8.6289749513240172E-003   0.0000000000000000     
   0.0000000000000000        0.0000000000000000        0.0000000000000000     
   2.3402232317127629E-003   1.4591519024033147E-003   0.0000000000000000     
   4.7203390538434311E-003   3.3000890769078295E-003   0.0000000000000000     
   7.1403474663920058E-003   5.5228115235135449E-003   0.0000000000000000     
   9.6002484693584848E-003   8.1273192422204599E-003   0.0000000000000000     
   0.0000000000000000        0.0000000000000000        0.0000000000000000     
   2.0695815046542897E-003   1.3550685578290244E-003   0.0000000000000000     
   4.1642598579237858E-003   3.0941686571586617E-003   0.0000000000000000     
   6.2840350598084866E-003   5.2173002979889133E-003   0.0000000000000000     
   8.4289071103083937E-003   7.7244634803197770E-003   0.0000000000000000     
   0.0000000000000000        0.0000000000000000        0.0000000000000000     
   1.7984567131658418E-003   1.2768816994544714E-003   0.0000000000000000     
   3.6215541798848808E-003   2.9392435435429565E-003   0.0000000000000000     
   5.4692924001571172E-003   4.9870855322654535E-003   0.0000000000000000     
   7.3416713739825517E-003   7.4204076656219651E-003   0.0000000000000000     
   1.2195248055631418E-002   9.2294306076304462E-003   0.0000000000000000     
   1.5427592367072763E-002   1.2372062944944095E-002   0.0000000000000000     
   1.8576989216599563E-002   1.5685645715052470E-002   0.0000000000000000     
   2.1643438604211817E-002   1.9170178917955579E-002   0.0000000000000000     
   2.4626940529909529E-002   2.2825662553653408E-002   0.0000000000000000     
   1.0855695451132828E-002   8.6289749513240172E-003   0.0000000000000000     
   1.3688961265921963E-002   1.1650963859378825E-002   0.0000000000000000     
   1.6484799068877763E-002   1.4887477762138147E-002   0.0000000000000000     
   1.9243208860000225E-002   1.8338516659601980E-002   0.0000000000000000     
   2.1964190639289352E-002   2.2004080551770323E-002   0.0000000000000000     
   9.6002484693584848E-003   8.1273192422204599E-003   0.0000000000000000     
   1.2076675268477001E-002   1.1046380796503450E-002   0.0000000000000000     
   1.4546261069481675E-002   1.4212764749837388E-002   0.0000000000000000     
   1.7009005872372515E-002   1.7626471102222270E-002   0.0000000000000000     
   1.9464909677149516E-002   2.1287499853658111E-002   0.0000000000000000     
   8.4289071103083937E-003   7.7244634803197770E-003   0.0000000000000000     
   1.0590734374737879E-002   1.0558313756317968E-002   0.0000000000000000     
   1.2761375218411308E-002   1.3661506678150194E-002   0.0000000000000000     
   1.4940829641328686E-002   1.7034042245816464E-002   0.0000000000000000     
   1.7129097643490011E-002   2.0675920459316773E-002   0.0000000000000000     
   7.3416713739825517E-003   7.4204076656219651E-003   0.0000000000000000     
   9.2311385847045936E-003   1.0186762738822375E-002   0.0000000000000000     
   1.1130141515666657E-002   1.3233703547076569E-002   0.0000000000000000     
   1.3038680166868740E-002   1.6561230090384543E-002   0.0000000000000000     
   1.4956754538310843E-002   2.0169342368746304E-002   0.0000000000000000     
   2.4626940529909529E-002   2.2825662553653408E-002   0.0000000000000000     
   2.7531698747355525E-002   2.6674521340440866E-002   0.0000000000000000     
   3.0361917010212652E-002   3.0739179996612836E-002   0.0000000000000000     
   3.3117595318480894E-002   3.5019638522169327E-002   0.0000000000000000     
   3.5798733672160264E-002   3.9515896917110327E-002   0.0000000000000000     
   2.1964190639289352E-002   2.2004080551770323E-002   0.0000000000000000     
   2.4631021534693605E-002   2.5881737797329288E-002   0.0000000000000000     
   2.7226978674161444E-002   2.9969056754964980E-002   0.0000000000000000     
   2.9752062057692857E-002   3.4266037424677404E-002   0.0000000000000000     
   3.2206271685287863E-002   3.8772679806466558E-002   0.0000000000000000     
   1.9464909677149516E-002   2.1287499853658111E-002   0.0000000000000000     
   2.1885320573886501E-002   2.5176656225086223E-002   0.0000000000000000     
   2.4241586652657292E-002   2.9274745437447944E-002   0.0000000000000000     
   2.6533707913461886E-002   3.3581767490743271E-002   0.0000000000000000     
   2.8761684356300294E-002   3.8097722384972207E-002   0.0000000000000000     
   1.7129097643490011E-002   2.0675920459316773E-002   0.0000000000000000     
   1.9294595864934209E-002   2.4559276623711671E-002   0.0000000000000000     
   2.1405740945700202E-002   2.8656246044061719E-002   0.0000000000000000     
   2.3462532885787982E-002   3.2966828720366922E-002   0.0000000000000000     
   2.5464971685197572E-002   3.7491024652627269E-002   0.0000000000000000     
   1.4956754538310843E-002   2.0169342368746304E-002   0.0000000000000000     
   1.6858847407836733E-002   2.4029598993205635E-002   0.0000000000000000     
   1.8719441553290170E-002   2.8113558574806317E-002   0.0000000000000000     
   2.0538536974671156E-002   3.2421221113548358E-002   0.0000000000000000     
   2.2316133671979689E-002   3.6952586609431751E-002   0.0000000000000000     
   3.5798733672160264E-002   3.9515896917110327E-002   0.0000000000000000     
   3.8405063779711111E-002   4.4219243927494510E-002   0.0000000000000000     
   4.0936317349593791E-002   4.9120968299380507E-002   0.0000000000000000     
   4.3392494381808297E-002   5.4221070032768319E-002   0.0000000000000000     
   4.5773594876354629E-002   5.9519549127657972E-002   0.0000000000000000     
   3.2206271685287863E-002   3.8772679806466558E-002   0.0000000000000000     
   3.4592362382273117E-002   4.3485695125786226E-002   0.0000000000000000     
   3.6913088973975293E-002   4.8401794608090208E-002   0.0000000000000000     
   3.9168451460394396E-002   5.3520978253378503E-002   0.0000000000000000     
   4.1358449841530427E-002   5.8843246061651096E-002   0.0000000000000000     
   2.8761684356300294E-002   3.8097722384972207E-002   0.0000000000000000     
   3.0928909470685991E-002   4.2821037781724525E-002   0.0000000000000000     
   3.3038776746132488E-002   4.7750141342590022E-002   0.0000000000000000     
   3.5091286182639771E-002   5.2885033067568706E-002   0.0000000000000000     
   3.7086437780207843E-002   5.8225712956660555E-002   0.0000000000000000     
   2.5464971685197572E-002   3.7491024652627269E-002   0.0000000000000000     
   2.7414705044949764E-002   4.2225271895309405E-002   0.0000000000000000     
   2.9313380666065373E-002   4.7166008502879962E-002   0.0000000000000000     
   3.1160998548544414E-002   5.2313234475338928E-002   0.0000000000000000     
   3.2957558692386868E-002   5.7666949812686330E-002   0.0000000000000000     
   2.2316133671979689E-002   3.6952586609431751E-002   0.0000000000000000     
   2.4049749105064411E-002   4.1698397466540846E-002   0.0000000000000000     
   2.5736900733773958E-002   4.6649396088960002E-002   0.0000000000000000     
   2.7377588558108321E-002   5.1805582476689205E-002   0.0000000000000000     
   2.8971812578067510E-002   5.7166956629728441E-002   0.0000000000000000     
   4.5773594876354629E-002   5.9519549127657972E-002   0.0000000000000000     
   4.8081146401431372E-002   6.5007265621702781E-002   0.0000000000000000     
   5.0316676525237101E-002   7.0675079552556072E-002   0.0000000000000000     
   5.2480185247771829E-002   7.6522990920217845E-002   0.0000000000000000     
   5.4571672569035543E-002   8.2550999724688115E-002   0.0000000000000000     
   4.1358449841530427E-002   5.8843246061651096E-002   0.0000000000000000     
   4.3481954281409774E-002   6.4356173073023853E-002   0.0000000000000000     
   4.5537834944058816E-002   7.0047334327612620E-002   0.0000000000000000     
   4.7526091829477569E-002   7.5916729825417376E-002   0.0000000000000000     
   4.9446724937666012E-002   8.1964359566438119E-002   0.0000000000000000     
   3.7086437780207843E-002   5.8225712956660555E-002   0.0000000000000000     
   3.9021857073648310E-002   6.3758341862677786E-002   0.0000000000000000     
   4.0895169597772750E-002   6.9469080638432559E-002   0.0000000000000000     
   4.2706375352581198E-002   7.5357929283924957E-002   0.0000000000000000     
   4.4455474338073626E-002   8.1424887799154896E-002   0.0000000000000000     
   3.2957558692386868E-002   5.7666949812686330E-002   0.0000000000000000     
   3.4700854778146960E-002   6.3213771990664552E-002   0.0000000000000000     
   3.6388680486378916E-002   6.8940318485015986E-002   0.0000000000000000     
   3.8021035817082709E-002   7.4846589295740618E-002   0.0000000000000000     
   3.9597920770258366E-002   8.0932584422838461E-002   0.0000000000000000     
   2.8971812578067510E-002   5.7166956629728441E-002   0.0000000000000000     
   3.0518947394905759E-002   6.2722463456984179E-002   0.0000000000000000     
   3.2018367609877300E-002   6.8461047867362804E-002   0.0000000000000000     
   3.3470073222982122E-002   7.4382709860864357E-002   0.0000000000000000     
   3.4874064234220237E-002   8.0487449437488798E-002   0.0000000000000000     
   5.4571672569035543E-002   8.2550999724688115E-002   0.0000000000000000     
   5.6588934488187678E-002   8.8746960111561413E-002   0.0000000000000000     
   5.8529767004387681E-002   9.5098726226432242E-002   0.0000000000000000     
   6.0394170117635544E-002  0.10160629806930059        0.0000000000000000     
   6.2182143827931260E-002  0.10826967564016650        0.0000000000000000     
   4.9446724937666012E-002   8.1964359566438119E-002   0.0000000000000000     
   5.1298151537722748E-002   8.8179125996090291E-002   0.0000000000000000     
   5.3078788898746301E-002   9.4549931559789246E-002   0.0000000000000000     
   5.4788637020736726E-002  0.10107677625753503        0.0000000000000000     
   5.6427695903693974E-002  0.10775966008932758        0.0000000000000000     
   4.4455474338073626E-002   8.1424887799154896E-002   0.0000000000000000     
   4.6140933352162690E-002   8.7659138785448371E-002   0.0000000000000000     
   4.7761219192761058E-002   9.4049864844131248E-002   0.0000000000000000     
   4.9316331859868702E-002  0.10059706597520356        0.0000000000000000     
   5.0806271353485630E-002  0.10730074217866531        0.0000000000000000     
   3.9597920770258366E-002   8.0932584422838461E-002   0.0000000000000000     
   4.1117279931507544E-002   8.7186998479635625E-002   0.0000000000000000     
   4.2577057886431915E-002   9.3598526079458219E-002   0.0000000000000000     
   4.3977254635031486E-002  0.10016716722230623        0.0000000000000000     
   4.5317870177306235E-002  0.10689292190817970        0.0000000000000000     
   3.4874064234220237E-002   8.0487449437488798E-002   0.0000000000000000     
   3.6227191275757284E-002   8.6762705078652080E-002   0.0000000000000000     
   3.7526304979758889E-002   9.3195915265770174E-002   0.0000000000000000     
   3.8771405346225064E-002   9.9787079998843065E-002   0.0000000000000000     
   3.9962492375155791E-002  0.10653619927787075        0.0000000000000000     
   6.2182143827931260E-002  0.10826967564016650        0.0000000000000000     
   6.3896542761817138E-002  0.11508091255320105        0.0000000000000000     
   6.5540221545835470E-002  0.12203206242257529        0.0000000000000000     
   6.7113180179986243E-002  0.12912312524828928        0.0000000000000000     
   6.8615418664269470E-002  0.13635410103034296        0.0000000000000000     
   5.6427695903693974E-002  0.10775966008932758        0.0000000000000000     
   5.8001005592670692E-002  0.11459272040742684        0.0000000000000000     
   5.9513606132719485E-002  0.12157009456409276        0.0000000000000000     
   6.0965497523840340E-002  0.12869178255932531        0.0000000000000000     
   6.2356679766033263E-002  0.13595778439312448        0.0000000000000000     
   5.0806271353485630E-002  0.10730074217866531        0.0000000000000000     
   5.2237085025926298E-002  0.11415456675278796        0.0000000000000000     
   5.3614820229505117E-002  0.12115221299584297        0.0000000000000000     
   5.4939476964222092E-002  0.12829368090783042        0.0000000000000000     
   5.6211055230077224E-002  0.13557897048875023        0.0000000000000000     
   4.5317870177306235E-002  0.10689292190817970        0.0000000000000000     
   4.6604781061583958E-002  0.11376645158928436        0.0000000000000000     
   4.7843863836192373E-002  0.12077841771782601        0.0000000000000000     
   4.9035118501131507E-002  0.12792882029380462        0.0000000000000000     
   5.0178545056401347E-002  0.13521765931722024        0.0000000000000000     
   3.9962492375155791E-002  0.10653619927787075        0.0000000000000000     
   4.1104093699643664E-002  0.11342837491691604        0.0000000000000000     
   4.2200736952781259E-002  0.12044870873004175        0.0000000000000000     
   4.3252422134568584E-002  0.12759720071724792        0.0000000000000000     
   4.4259149245005631E-002  0.13487385087853448        0.0000000000000000     
   6.8615418664269470E-002  0.13635410103034296        0.0000000000000000     
   7.0047601093621972E-002  0.14370360189554357        0.0000000000000000     
   7.1410391562980638E-002  0.15115023997069832        0.0000000000000000     
   7.2703790072345439E-002  0.15869401525580726        0.0000000000000000     
   7.3927796621716391E-002  0.16633492775087025        0.0000000000000000     
   6.2356679766033263E-002  0.13595778439312448        0.0000000000000000     
   6.3682733901465186E-002  0.14333738677207331        0.0000000000000000     
   6.4939240972303025E-002  0.15079987640275475        0.0000000000000000     
   6.6126200978546795E-002  0.15834525328516885        0.0000000000000000     
   6.7243613920196482E-002  0.16597351741931565        0.0000000000000000     
   5.6211055230077224E-002  0.13557897048875023        0.0000000000000000     
   5.7422401261402627E-002  0.14297820380631893        0.0000000000000000     
   5.8566361292530400E-002  0.15046150292825294        0.0000000000000000     
   5.9642935323460551E-002  0.15802886785455231        0.0000000000000000     
   6.0652123354193080E-002  0.16568029858521699        0.0000000000000000     
   5.0178545056401347E-002  0.13521765931722024        0.0000000000000000     
   5.1266603173434289E-002  0.14262605299828043        0.0000000000000000     
   5.2291752523662756E-002  0.15013511954719289        0.0000000000000000     
   5.3253993107086728E-002  0.15774485896395746        0.0000000000000000     
   5.4153324923706211E-002  0.16545527124857426        0.0000000000000000     
   4.4259149245005631E-002  0.13487385087853448        0.0000000000000000     
   4.5215339637560199E-002  0.14228093434795791        0.0000000000000000     
   4.6115414665700093E-002  0.14982072625957452        0.0000000000000000     
   4.6959374329425305E-002  0.15749322661338436        0.0000000000000000     
   4.7747218628735849E-002  0.16529843540938743        0.0000000000000000     
   0.0000000000000000        0.0000000000000000        0.0000000000000000     
   1.7984567131658418E-003   1.2768816994544714E-003   0.0000000000000000     
   3.6215541798848808E-003   2.9392435435429565E-003   0.0000000000000000     
   5.4692924001571172E-003   4.9870855322654535E-003   0.0000000000000000     
   7.3416713739825517E-003   7.4204076656219651E-003   0.0000000000000000     
   0.0000000000000000        0.0000000000000000        0.0000000000000000     
   1.5351330986872816E-003   1.2175122566979225E-003   0.0000000000000000     
   3.0995812599772725E-003   2.8208377866847682E-003   0.0000000000000000     
   4.6933444838699731E-003   4.8099765899605375E-003   0.0000000000000000     
   6.3164227703653830E-003   7.1849286665252284E-003   0.0000000000000000     
   0.0000000000000000        0.0000000000000000        0.0000000000000000     
   1.2878949026584724E-003   1.1698811589776449E-003   0.0000000000000000     
   2.6057003384515154E-003   2.7244754372081547E-003   0.0000000000000000     
   3.9534163073791286E-003   4.6637828346915294E-003   0.0000000000000000     
   5.3310428094413146E-003   6.9878033514277696E-003   0.0000000000000000     
   0.0000000000000000        0.0000000000000000        0.0000000000000000     
   1.0567421250794137E-003   1.1339884062936381E-003   0.0000000000000000     
   2.1399114153076090E-003   2.6501564951131153E-003   0.0000000000000000     
   3.2495078706845856E-003   4.5485042664584309E-003   0.0000000000000000     
   4.3855314912103448E-003   6.8290317203295869E-003   0.0000000000000000     
   0.0000000000000000        0.0000000000000000        0.0000000000000000     
   8.4167476595010634E-004   1.1098339986459023E-003   0.0000000000000000     
   1.7022144905455539E-003   2.5978809603996499E-003   0.0000000000000000     
   2.5816191737863432E-003   4.4641408852612429E-003   0.0000000000000000     
   3.4798888156724736E-003   6.7086137732306813E-003   0.0000000000000000     
   7.3416713739825517E-003   7.4204076656219651E-003   0.0000000000000000     
   9.2311385847045936E-003   1.0186762738822375E-002   0.0000000000000000     
   1.1130141515666657E-002   1.3233703547076569E-002   0.0000000000000000     
   1.3038680166868740E-002   1.6561230090384543E-002   0.0000000000000000     
   1.4956754538310843E-002   2.0169342368746304E-002   0.0000000000000000     
   6.3164227703653830E-003   7.1849286665252284E-003   0.0000000000000000     
   7.9561674411249717E-003   9.8959857977660038E-003   0.0000000000000000     
   9.5999298178102103E-003   1.2893439765070021E-002   0.0000000000000000     
   1.1247709900421099E-002   1.6177290568437280E-002   0.0000000000000000     
   1.2899507688957635E-002   1.9747538207867791E-002   0.0000000000000000     
   5.3310428094413146E-003   6.9878033514277696E-003   0.0000000000000000     
   6.7241004867468358E-003   9.6502409868981821E-003   0.0000000000000000     
   8.1181099814044578E-003   1.2604799740584073E-002   0.0000000000000000     
   9.5130712934141833E-003   1.5851479612485446E-002   0.0000000000000000     
   1.0908984422776007E-002   1.9390280602602301E-002   0.0000000000000000     
   4.3855314912103448E-003   6.8290317203295869E-003   0.0000000000000000     
   5.5349377215701823E-003   9.4495283062189083E-003   0.0000000000000000     
   6.6846820064493983E-003   1.2367783473618728E-002   0.0000000000000000     
   7.8347643458479936E-003   1.5583797222529040E-002   0.0000000000000000     
   8.9851847397659640E-003   1.9097569552949847E-002   0.0000000000000000     
   3.4798888156724736E-003   6.7086137732306813E-003   0.0000000000000000     
   4.3886791455950138E-003   9.2938477557281858E-003   0.0000000000000000     
   5.2996458929450317E-003   1.2182390964173976E-002   0.0000000000000000     
   6.2127890577225280E-003   1.5374243398568053E-002   0.0000000000000000     
   7.1281086399275027E-003   1.8869405058910417E-002   0.0000000000000000     
   1.4956754538310843E-002   2.0169342368746304E-002   0.0000000000000000     
   1.6858847407836733E-002   2.4029598993205635E-002   0.0000000000000000     
   1.8719441553290170E-002   2.8113558574806317E-002   0.0000000000000000     
   2.0538536974671156E-002   3.2421221113548358E-002   0.0000000000000000     
   2.2316133671979689E-002   3.6952586609431751E-002   0.0000000000000000     
   1.2899507688957635E-002   1.9747538207867791E-002   0.0000000000000000     
   1.4538928363967991E-002   2.3578524610628725E-002   0.0000000000000000     
   1.6149577106000339E-002   2.7644591703987264E-002   0.0000000000000000     
   1.7731453915054676E-002   3.1945739487943416E-002   0.0000000000000000     
   1.9284558791131001E-002   3.6481967962497183E-002   0.0000000000000000     
   1.0908984422776007E-002   1.9390280602602301E-002   0.0000000000000000     
   1.2295691894701906E-002   2.3196954753041545E-002   0.0000000000000000     
   1.3663036234403845E-002   2.7247254105910092E-002   0.0000000000000000     
   1.5011017441881824E-002   3.1541178661207932E-002   0.0000000000000000     
   1.6339635517135850E-002   3.6078728418935078E-002   0.0000000000000000     
   8.9851847397659640E-003   1.9097569552949847E-002   0.0000000000000000     
   1.0129138000038477E-002   2.2884889420444116E-002   0.0000000000000000     
   1.1259818938500692E-002   2.6921545780574801E-002   0.0000000000000000     
   1.2377227555152611E-002   3.1207538633341914E-002   0.0000000000000000     
   1.3481363849994227E-002   3.5742867978745450E-002   0.0000000000000000     
   7.1281086399275027E-003   1.8869405058910417E-002   0.0000000000000000     
   8.0392666799777024E-003   2.2642328612836420E-002   0.0000000000000000     
   8.9399252182908746E-003   2.6667466727981395E-002   0.0000000000000000     
   9.8300842548670209E-003   3.0944819404345354E-002   0.0000000000000000     
   1.0709743789706141E-002   3.5474386641928285E-002   0.0000000000000000     
   2.2316133671979689E-002   3.6952586609431751E-002   0.0000000000000000     
   2.4049749105064411E-002   4.1698397466540846E-002   0.0000000000000000     
   2.5736900733773958E-002   4.6649396088960002E-002   0.0000000000000000     
   2.7377588558108321E-002   5.1805582476689205E-002   0.0000000000000000     
   2.8971812578067510E-002   5.7166956629728441E-002   0.0000000000000000     
   1.9284558791131001E-002   3.6481967962497183E-002   0.0000000000000000     
   2.0802186453638637E-002   4.1237606838299697E-002   0.0000000000000000     
   2.2277631621986902E-002   4.6196985826002152E-002   0.0000000000000000     
   2.3710894296175792E-002   5.1360104925604513E-002   0.0000000000000000     
   2.5101974476205310E-002   5.6726964137106803E-002   0.0000000000000000     
   1.6339635517135850E-002   3.6078728418935078E-002   0.0000000000000000     
   1.7640161893281128E-002   4.0840092353466813E-002   0.0000000000000000     
   1.8903868003432880E-002   4.5805459439178429E-002   0.0000000000000000     
   2.0130753847591106E-002   5.0974829676069942E-002   0.0000000000000000     
   2.1320819425755803E-002   5.6348203064141331E-002   0.0000000000000000     
   1.3481363849994227E-002   3.5742867978745450E-002   0.0000000000000000     
   1.4563675423991880E-002   4.0505854012042160E-002   0.0000000000000000     
   1.5615609878111888E-002   4.5474816928488836E-002   0.0000000000000000     
   1.6637167212354260E-002   5.0649756728085450E-002   0.0000000000000000     
   1.7628347426718993E-002   5.6030673410832017E-002   0.0000000000000000     
   1.0709743789706141E-002   3.5474386641928285E-002   0.0000000000000000     
   1.1572727045770888E-002   4.0234891814025772E-002   0.0000000000000000     
   1.2412857246023930E-002   4.5205058293933363E-002   0.0000000000000000     
   1.3230134390465258E-002   5.0384886081651065E-002   0.0000000000000000     
   1.4024558479094878E-002   5.5774375177178870E-002   0.0000000000000000     
   2.8971812578067510E-002   5.7166956629728441E-002   0.0000000000000000     
   3.0518947394905759E-002   6.2722463456984179E-002   0.0000000000000000     
   3.2018367609877300E-002   6.8461047867362804E-002   0.0000000000000000     
   3.3470073222982122E-002   7.4382709860864357E-002   0.0000000000000000     
   3.4874064234220237E-002   8.0487449437488798E-002   0.0000000000000000     
   2.5101974476205310E-002   5.6726964137106803E-002   0.0000000000000000     
   2.6451962719408976E-002   6.2288945975137462E-002   0.0000000000000000     
   2.7761949583120307E-002   6.8037432954324947E-002   0.0000000000000000     
   2.9031935067339292E-002   7.3972425074669251E-002   0.0000000000000000     
   3.0261919172065953E-002   8.0093922336170381E-002   0.0000000000000000     
   2.1320819425755803E-002   5.6348203064141331E-002   0.0000000000000000     
   2.2475728547140902E-002   6.1917749258625226E-002   0.0000000000000000     
   2.3597145020960338E-002   6.7675637914754255E-002   0.0000000000000000     
   2.4685068847214109E-002   7.3621869032528417E-002   0.0000000000000000     
   2.5739500025902202E-002   7.9756442611947712E-002   0.0000000000000000     
   1.7628347426718993E-002   5.6030673410832017E-002   0.0000000000000000     
   1.8590244878101552E-002   6.1608873307447472E-002   0.0000000000000000     
   1.9523953923397407E-002   6.7375662748650755E-002   0.0000000000000000     
   2.0429474562606548E-002   7.3331041734441854E-002   0.0000000000000000     
   2.1306806795728987E-002   7.9475010264820789E-002   0.0000000000000000     
   1.4024558479094878E-002   5.5774375177178870E-002   0.0000000000000000     
   1.4795511712290915E-002   6.1362318121604191E-002   0.0000000000000000     
   1.5542376290431498E-002   6.7137507456014406E-002   0.0000000000000000     
   1.6265152213516629E-002   7.3099943180409549E-002   0.0000000000000000     
   1.6963839481546308E-002   7.9249625294789586E-002   0.0000000000000000     
   3.4874064234220237E-002   8.0487449437488798E-002   0.0000000000000000     
   3.6227191275757284E-002   8.6762705078652080E-002   0.0000000000000000     
   3.7526304979758889E-002   9.3195915265770174E-002   0.0000000000000000     
   3.8771405346225064E-002   9.9787079998843065E-002   0.0000000000000000     
   3.9962492375155791E-002  0.10653619927787075        0.0000000000000000     
   3.0261919172065953E-002   8.0093922336170381E-002   0.0000000000000000     
   3.1447928141484532E-002   8.6388052954201516E-002   0.0000000000000000     
   3.2585988219779295E-002   9.2840945144135781E-002   0.0000000000000000     
   3.3676099406950231E-002   9.9452598905973175E-002   0.0000000000000000     
   3.4718261702997355E-002  0.10622301423971375        0.0000000000000000     
   2.5739500025902202E-002   7.9756442611947712E-002   0.0000000000000000     
   2.6756751285261889E-002   8.6064836477987613E-002   0.0000000000000000     
   2.7733135353530409E-002   9.2532528455623639E-002   0.0000000000000000     
   2.8668652230707779E-002   9.9159518544855788E-002   0.0000000000000000     
   2.9563301916793992E-002  0.10594580674568402        0.0000000000000000     
   2.1306806795728987E-002   7.9475010264820789E-002   0.0000000000000000     
   2.2153660707089344E-002   8.5793055650010455E-002   0.0000000000000000     
   2.2967746381012250E-002   9.2270665200233817E-002   0.0000000000000000     
   2.3749063817497702E-002   9.8907838915490834E-002   0.0000000000000000     
   2.4497613016545700E-002  0.10570457679578155        0.0000000000000000     
   1.6963839481546308E-002   7.9249625294789586E-002   0.0000000000000000     
   1.7638656406966907E-002   8.5572710470269986E-002   0.0000000000000000     
   1.8289821302224805E-002   9.2055355377966261E-002   0.0000000000000000     
   1.8917334167320003E-002   9.8697560017878355E-002   0.0000000000000000     
   1.9521195002252491E-002  0.10549932439000631        0.0000000000000000     
   3.9962492375155791E-002  0.10653619927787075        0.0000000000000000     
   4.1104093699643664E-002  0.11342837491691604        0.0000000000000000     
   4.2200736952781259E-002  0.12044870873004175        0.0000000000000000     
   4.3252422134568584E-002  0.12759720071724792        0.0000000000000000     
   4.4259149245005631E-002  0.13487385087853448        0.0000000000000000     
   3.4718261702997355E-002  0.10622301423971375        0.0000000000000000     
   3.5715043910932387E-002  0.11313201516268481        0.0000000000000000     
   3.6669014833767041E-002  0.12015942569221373        0.0000000000000000     
   3.7580174471501332E-002  0.12730524582830052        0.0000000000000000     
   3.8448522824135266E-002  0.13456947557094512        0.0000000000000000     
   2.9563301916793992E-002  0.10594580674568402        0.0000000000000000     
   3.0417652666277058E-002  0.11286905075359249        0.0000000000000000     
   3.1232272733644987E-002  0.11990690826406539        0.0000000000000000     
   3.2007162118897786E-002  0.12705937927710259        0.0000000000000000     
   3.2742320822035445E-002  0.13432646379270421        0.0000000000000000     
   2.4497613016545700E-002  0.10570457679578155        0.0000000000000000     
   2.5211919965677686E-002  0.11263948168963907        0.0000000000000000     
   2.5890510652415093E-002  0.11969115644559664        0.0000000000000000     
   2.6533385076757919E-002  0.12685960106365424        0.0000000000000000     
   2.7140543238706159E-002  0.13414481554381186        0.0000000000000000     
   1.9521195002252491E-002  0.10549932439000631        0.0000000000000000     
   2.0097845809134280E-002  0.11244330797082457        0.0000000000000000     
   2.0643728590077362E-002  0.11951217023680757        0.0000000000000000     
   2.1158843345081745E-002  0.12670591118795538        0.0000000000000000     
   2.1643190074147420E-002  0.13402453082426796        0.0000000000000000     
   4.4259149245005631E-002  0.13487385087853448        0.0000000000000000     
   4.5215339637560199E-002  0.14228093434795791        0.0000000000000000     
   4.6115414665700093E-002  0.14982072625957452        0.0000000000000000     
   4.6959374329425305E-002  0.15749322661338436        0.0000000000000000     
   4.7747218628735849E-002  0.16529843540938743        0.0000000000000000     
   3.8448522824135266E-002  0.13456947557094512        0.0000000000000000     
   3.9271403691730711E-002  0.14197454995872760        0.0000000000000000     
   4.0046160874349562E-002  0.14954290403022802        0.0000000000000000     
   4.0772794371991813E-002  0.15727453778544639        0.0000000000000000     
   4.1451304184657450E-002  0.16516945122438262        0.0000000000000000     
   3.2742320822035445E-002  0.13432646379270421        0.0000000000000000     
   3.3437588373896203E-002  0.14173860193396592        0.0000000000000000     
   3.4092804305318289E-002  0.14932623382398347        0.0000000000000000     
   3.4707968616301717E-002  0.15708935946275676        0.0000000000000000     
   3.5283081306846473E-002  0.16502797885028589        0.0000000000000000     
   2.7140543238706159E-002  0.13414481554381186        0.0000000000000000     
   2.7713893684056676E-002  0.14157309027367290        0.0000000000000000     
   2.8255344958606304E-002  0.14917071564084081        0.0000000000000000     
   2.8764897062355049E-002  0.15693769164531560        0.0000000000000000     
   2.9242549995302909E-002  0.16487401828709725        0.0000000000000000     
   2.1643190074147420E-002  0.13402453082426796        0.0000000000000000     
   2.2100319622212122E-002  0.14147801497784848        0.0000000000000000     
   2.2533782834213579E-002  0.14907634948080012        0.0000000000000000     
   2.2943579710151794E-002  0.15681953433312282        0.0000000000000000     
   2.3329710250026767E-002  0.16470756953481663        0.0000000000000000     
   0.0000000000000000        0.0000000000000000        0.0000000000000000     
   8.4167476595010634E-004   1.1098339986459023E-003   0.0000000000000000     
   1.7022144905455539E-003   2.5978809603996499E-003   0.0000000000000000     
   2.5816191737863432E-003   4.4641408852612429E-003   0.0000000000000000     
   3.4798888156724736E-003   6.7086137732306813E-003   0.0000000000000000     
   0.0000000000000000        0.0000000000000000        0.0000000000000000     
   6.3380160563812236E-004   1.0938344179188663E-003   0.0000000000000000     
   1.2780878906807724E-003   2.5617838582752679E-003   0.0000000000000000     
   1.9328588551279498E-003   4.4038483210692052E-003   0.0000000000000000     
   2.5981144989796548E-003   6.6200278063006778E-003   0.0000000000000000     
   0.0000000000000000        0.0000000000000000        0.0000000000000000     
   4.2423142451103463E-004   1.0824061459969582E-003   0.0000000000000000     
   8.5300994222868619E-004   2.5360002139474787E-003   0.0000000000000000     
   1.2863355531529551E-003   4.3607822038515620E-003   0.0000000000000000     
   1.7242082572838408E-003   6.5567521157092051E-003   0.0000000000000000     
   0.0000000000000000        0.0000000000000000        0.0000000000000000     
   2.1296422256884289E-004   1.0755491828801785E-003   0.0000000000000000     
   4.2698064518929585E-004   2.5205300274162819E-003   0.0000000000000000     
   6.4204926786135875E-004   4.3349425336083108E-003   0.0000000000000000     
   8.5817009058503167E-004   6.5187867014562632E-003   0.0000000000000000     
   0.0000000000000000        0.0000000000000000        0.0000000000000000     
  -1.8845271480480430E-013   1.0732635285685269E-003   0.0000000000000000     
  -4.3739903192452356E-013   2.5153732986816779E-003   0.0000000000000000     
  -7.4683889714904916E-013   4.3263293103394523E-003   0.0000000000000000     
  -1.1167724731087070E-012   6.5061315635418513E-003   0.0000000000000000     
   3.4798888156724736E-003   6.7086137732306813E-003   0.0000000000000000     
   4.3886791455950138E-003   9.2938477557281858E-003   0.0000000000000000     
   5.2996458929450317E-003   1.2182390964173976E-002   0.0000000000000000     
   6.2127890577225280E-003   1.5374243398568053E-002   0.0000000000000000     
   7.1281086399275027E-003   1.8869405058910417E-002   0.0000000000000000     
   2.5981144989796548E-003   6.6200278063006778E-003   0.0000000000000000     
   3.2707818378693667E-003   9.1773288310425683E-003   0.0000000000000000     
   3.9477878874305677E-003   1.2042757912367761E-002   0.0000000000000000     
   4.6291326476632566E-003   1.5216315050276253E-002   0.0000000000000000     
   5.3148161185674328E-003   1.8698000244768049E-002   0.0000000000000000     
   1.7242082572838408E-003   6.5567521157092051E-003   0.0000000000000000     
   2.1667028774412819E-003   9.0941010277786252E-003   0.0000000000000000     
   2.6138942364452161E-003   1.1943020018318021E-002   0.0000000000000000     
   3.0657823342956432E-003   1.5103509087327402E-002   0.0000000000000000     
   3.5223671709925632E-003   1.8575568234806765E-002   0.0000000000000000     
   8.5817009058503167E-004   6.5187867014562632E-003   0.0000000000000000     
   1.0764422643107564E-003   9.0441643459363442E-003   0.0000000000000000     
   1.2979649399889753E-003   1.1883177282024758E-002   0.0000000000000000     
   1.5227381176196875E-003   1.5035825509721497E-002   0.0000000000000000     
   1.7507617972028937E-003   1.8502109029026572E-002   0.0000000000000000     
  -1.1167724731087070E-012   6.5061315635418513E-003   0.0000000000000000     
  -1.5222078697356423E-012   9.0275187855157341E-003   0.0000000000000000     
  -1.9381538474833038E-012   1.1863229703487964E-002   0.0000000000000000     
  -2.3646097558303880E-012   1.5013264317458539E-002   0.0000000000000000     
  -2.8015763537184157E-012   1.8477622627427460E-002   0.0000000000000000     
   7.1281086399275027E-003   1.8869405058910417E-002   0.0000000000000000     
   8.0392666799777024E-003   2.2642328612836420E-002   0.0000000000000000     
   8.9399252182908746E-003   2.6667466727981395E-002   0.0000000000000000     
   9.8300842548670209E-003   3.0944819404345354E-002   0.0000000000000000     
   1.0709743789706141E-002   3.5474386641928285E-002   0.0000000000000000     
   5.3148161185674328E-003   1.8698000244768049E-002   0.0000000000000000     
   5.9981649876991302E-003   2.2460496135932793E-002   0.0000000000000000     
   6.6725059426143802E-003   2.6476485363860127E-002   0.0000000000000000     
   7.3378389833131863E-003   3.0745967928550059E-002   0.0000000000000000     
   7.9941641097955422E-003   3.5268943830002591E-002   0.0000000000000000     
   3.5223671709925632E-003   1.8575568234806765E-002   0.0000000000000000     
   3.9779199763823030E-003   2.2330615795447567E-002   0.0000000000000000     
   4.4267119803111880E-003   2.6340070103941259E-002   0.0000000000000000     
   4.8687431827792171E-003   3.0603931160287836E-002   0.0000000000000000     
   5.3040135837863923E-003   3.5122198964487310E-002   0.0000000000000000     
   1.7507617972028937E-003   1.8502109029026572E-002   0.0000000000000000     
   1.9785316460272200E-003   2.2252687591380743E-002   0.0000000000000000     
   2.2025433313812934E-003   2.6258220948224786E-002   0.0000000000000000     
   2.4227968532651149E-003   3.0518709099558700E-002   0.0000000000000000     
   2.6392922116786834E-003   3.5034152045382481E-002   0.0000000000000000     
  -2.8015763537184157E-012   1.8477622627427460E-002   0.0000000000000000     
  -3.3661180938969470E-012   2.2226711523732321E-002   0.0000000000000000     
  -4.1752986972790757E-012   2.6230937896710708E-002   0.0000000000000000     
  -5.2291195258937807E-012   3.0490301746362625E-002   0.0000000000000000     
  -6.5275796920505336E-012   3.5004803072688079E-002   0.0000000000000000     
   1.0709743789706141E-002   3.5474386641928285E-002   0.0000000000000000     
   1.1572727045770888E-002   4.0234891814025772E-002   0.0000000000000000     
   1.2412857246023930E-002   4.5205058293933363E-002   0.0000000000000000     
   1.3230134390465258E-002   5.0384886081651065E-002   0.0000000000000000     
   1.4024558479094878E-002   5.5774375177178870E-002   0.0000000000000000     
   7.9941641097955422E-003   3.5268943830002591E-002   0.0000000000000000     
   8.6382971054163663E-003   4.0025483203557956E-002   0.0000000000000000     
   9.2670537535305651E-003   4.4995656184556428E-002   0.0000000000000000     
   9.8804340541381406E-003   5.0179462772997993E-002   0.0000000000000000     
   1.0478438007239091E-002   5.5576902968882666E-002   0.0000000000000000     
   5.3040135837863923E-003   3.5122198964487310E-002   0.0000000000000000     
   5.7313659497265062E-003   3.9875905624779058E-002   0.0000000000000000     
   6.1496430469933569E-003   4.4846083249402438E-002   0.0000000000000000     
   6.5588448755869427E-003   5.0032731838357478E-002   0.0000000000000000     
   6.9589714355072652E-003   5.5435851391644149E-002   0.0000000000000000     
   2.6392922116786834E-003   3.5034152045382481E-002   0.0000000000000000     
   2.8519335787013100E-003   3.9786159077689072E-002   0.0000000000000000     
   3.0606251264123055E-003   4.4756339488471415E-002   0.0000000000000000     
   3.2653668548116689E-003   4.9944693277729504E-002   0.0000000000000000     
   3.4661587638994016E-003   5.5351220445463353E-002   0.0000000000000000     
  -6.5275796920505336E-012   3.5004803072688079E-002   0.0000000000000000     
  -7.6592222147953137E-012   3.9756243562287998E-002   0.0000000000000000     
  -8.2125900047538836E-012   4.4726424901763331E-002   0.0000000000000000     
  -8.1876829806110801E-012   4.9915347091114087E-002   0.0000000000000000     
  -7.5845009526315232E-012   5.5323010130340265E-002   0.0000000000000000     
   1.4024558479094878E-002   5.5774375177178870E-002   0.0000000000000000     
   1.4795511712290915E-002   6.1362318121604191E-002   0.0000000000000000     
   1.5542376290431498E-002   6.7137507456014406E-002   0.0000000000000000     
   1.6265152213516629E-002   7.3099943180409549E-002   0.0000000000000000     
   1.6963839481546308E-002   7.9249625294789586E-002   0.0000000000000000     
   1.0478438007239091E-002   5.5576902968882666E-002   0.0000000000000000     
   1.1058773794191830E-002   6.1173847668876687E-002   0.0000000000000000     
   1.1619149596354766E-002   6.6956167769646385E-002   0.0000000000000000     
   1.2159565413727900E-002   7.2923863271191700E-002   0.0000000000000000     
   1.2680021246311233E-002   7.9076934173512692E-002   0.0000000000000000     
   6.9589714355072652E-003   5.5435851391644149E-002   0.0000000000000000     
   7.3472758682871300E-003   6.1039225917046309E-002   0.0000000000000000     
   7.7210113154593451E-003   6.6826639422347775E-002   0.0000000000000000     
   8.0801777770239096E-003   7.2798091907548587E-002   0.0000000000000000     
   8.4247752529808245E-003   7.8953583372648711E-002   0.0000000000000000     
   3.4661587638994016E-003   5.5351220445463353E-002   0.0000000000000000     
   3.6610179345768195E-003   6.0958452866113032E-002   0.0000000000000000     
   3.8479614477452398E-003   6.6748922414118630E-002   0.0000000000000000     
   4.0269893034046607E-003   7.2722629089480142E-002   0.0000000000000000     
   4.1981015015550857E-003   7.8879572892197589E-002   0.0000000000000000     
  -7.5845009526315232E-012   5.5323010130340265E-002   0.0000000000000000     
  -6.9391044559691251E-012   6.0931528516076867E-002   0.0000000000000000     
  -6.7875526163149735E-012   6.6723016744958924E-002   0.0000000000000000     
  -7.1298470328672731E-012   7.2697474816986421E-002   0.0000000000000000     
  -7.9659852932761899E-012   7.8854902732159365E-002   0.0000000000000000     
   1.6963839481546308E-002   7.9249625294789586E-002   0.0000000000000000     
   1.7638656406966907E-002   8.5572710470269986E-002   0.0000000000000000     
   1.8289821302224805E-002   9.2055355377966261E-002   0.0000000000000000     
   1.8917334167320003E-002   9.8697560017878355E-002   0.0000000000000000     
   1.9521195002252491E-002  0.10549932439000631        0.0000000000000000     
   1.2680021246311233E-002   7.9076934173512692E-002   0.0000000000000000     
   1.3183019510138548E-002   8.5402411534096306E-002   0.0000000000000000     
   1.3671062621243641E-002   9.1887326410429501E-002   0.0000000000000000     
   1.4144150579626502E-002   9.8531678802512276E-002   0.0000000000000000     
   1.4602283385287134E-002  0.10533546871034463        0.0000000000000000     
   8.4247752529808245E-003   7.8953583372648711E-002   0.0000000000000000     
   8.7580311418482409E-003   8.5280769436819420E-002   0.0000000000000000     
   9.0831728421443114E-003   9.1767305719232029E-002   0.0000000000000000     
   9.4002003538690340E-003   9.8413192219886522E-002   0.0000000000000000     
   9.7091136770224122E-003  0.10521842893878289        0.0000000000000000     
   4.1981015015550857E-003   7.8879572892197589E-002   0.0000000000000000     
   4.3636913020959813E-003   8.5207784178439355E-002   0.0000000000000000     
   4.5261519649268198E-003   9.1695293304373843E-002   0.0000000000000000     
   4.6854834900476013E-003   9.8342100270001065E-002   0.0000000000000000     
   4.8416858774583248E-003  0.10514820507532097        0.0000000000000000     
  -7.9659852932761899E-012   7.8854902732159365E-002   0.0000000000000000     
  -9.1182287415003671E-012   8.5183455758956098E-002   0.0000000000000000     
  -1.0408833788378563E-011   9.1671289165854930E-002   0.0000000000000000     
  -1.1837800989564391E-011   9.8318402952855904E-002   0.0000000000000000     
  -1.3405130304400270E-011  0.10512479711995897        0.0000000000000000     
   1.9521195002252491E-002  0.10549932439000631        0.0000000000000000     
   2.0097845809134280E-002  0.11244330797082457        0.0000000000000000     
   2.0643728590077362E-002  0.11951217023680757        0.0000000000000000     
   2.1158843345081745E-002  0.12670591118795538        0.0000000000000000     
   2.1643190074147420E-002  0.13402453082426796        0.0000000000000000     
   1.4602283385287134E-002  0.10533546871034463        0.0000000000000000     
   1.5040546781790648E-002  0.11228626643011060        0.0000000000000000     
   1.5454026512702144E-002  0.11937164225799417        0.0000000000000000     
   1.5842722578021631E-002  0.12659159619399532        0.0000000000000000     
   1.6206634977749095E-002  0.13394612823811403        0.0000000000000000     
   9.7091136770224122E-003  0.10521842893878289        0.0000000000000000     
   1.0005139468790607E-002  0.11217409390045890        0.0000000000000000     
   1.0283504386359782E-002  0.11927126512945235        0.0000000000000000     
   1.0544208429729933E-002  0.12650994262576323        0.0000000000000000     
   1.0787251598901067E-002  0.13389012638939154        0.0000000000000000     
   4.8416858774583248E-003  0.10514820507532097        0.0000000000000000     
   4.9916238701341572E-003  0.11210679038186941        0.0000000000000000     
   5.1321622110502693E-003  0.11921103885118214        0.0000000000000000     
   5.2633009002066612E-003  0.12646095048325917        0.0000000000000000     
   5.3850399376033321E-003  0.13385652527810044        0.0000000000000000     
  -1.3405130304400270E-011  0.10512479711995897        0.0000000000000000     
  -1.4178698579808691E-011  0.11208435587434218        0.0000000000000000     
  -1.3226385373217575E-011  0.11919096342318357        0.0000000000000000     
  -1.0548187567545678E-011  0.12644461976648311        0.0000000000000000     
  -6.1441095267067425E-012  0.13384532490424084        0.0000000000000000     
   2.1643190074147420E-002  0.13402453082426796        0.0000000000000000     
   2.2100319622212122E-002  0.14147801497784848        0.0000000000000000     
   2.2533782834213579E-002  0.14907634948080012        0.0000000000000000     
   2.2943579710151794E-002  0.15681953433312282        0.0000000000000000     
   2.3329710250026767E-002  0.16470756953481663        0.0000000000000000     
   1.6206634977749095E-002  0.13394612823811403        0.0000000000000000     
   1.6550164334582129E-002  0.14142564000275876        0.0000000000000000     
   1.6877711271218305E-002  0.14902053310033783        0.0000000000000000     
   1.7189275787657627E-002  0.15673080753085125        0.0000000000000000     
   1.7484857883900098E-002  0.16455646329429907        0.0000000000000000     
   1.0787251598901067E-002  0.13389012638939154        0.0000000000000000     
   1.1016725967386277E-002  0.14138822930466979        0.0000000000000000     
   1.1236723608698663E-002  0.14898066425593054        0.0000000000000000     
   1.1447244522838223E-002  0.15666743124317370        0.0000000000000000     
   1.1648288709804958E-002  0.16444853026639938        0.0000000000000000     
   5.3850399376033321E-003  0.13385652527810044        0.0000000000000000     
   5.5000045206245653E-003  0.14136578288358165        0.0000000000000000     
   5.6108198466546461E-003  0.14895674294757819        0.0000000000000000     
   5.7174859156935752E-003  0.15662940547009022        0.0000000000000000     
   5.8200027277413519E-003  0.16438377045111763        0.0000000000000000     
  -6.1441095267067425E-012  0.13384532490424084        0.0000000000000000     
  -5.7030072938418774E-012  0.14135830073949424        0.0000000000000000     
  -1.4913742658363704E-011  0.14894876917528085        0.0000000000000000     
  -3.3776315538957061E-011  0.15661673021160072        0.0000000000000000     
  -6.2290725529046131E-011  0.16436218384845377        0.0000000000000000     
   0.0000000000000000        0.0000000000000000        0.0000000000000000     
  -1.8845271480480430E-013   1.0732635285685269E-003   0.0000000000000000     
  -4.3739903192452356E-013   2.5153732986816779E-003   0.0000000000000000     
  -7.4683889714904916E-013   4.3263293103394523E-003   0.0000000000000000     
  -1.1167724731087070E-012   6.5061315635418513E-003   0.0000000000000000     
   0.0000000000000000        0.0000000000000000        0.0000000000000000     
  -2.1296422293776978E-004   1.0755491830524793E-003   0.0000000000000000     
  -4.2698064604630519E-004   2.5205300277293457E-003   0.0000000000000000     
  -6.4204926932560664E-004   4.3349425340305989E-003   0.0000000000000000     
  -8.5817009277567354E-004   6.5187867019562392E-003   0.0000000000000000     
   0.0000000000000000        0.0000000000000000        0.0000000000000000     
  -4.2423142485602591E-004   1.0824061463225118E-003   0.0000000000000000     
  -8.5300994303233002E-004   2.5360002145449648E-003   0.0000000000000000     
  -1.2863355545289122E-003   4.3607822046673609E-003   0.0000000000000000     
  -1.7242082593457728E-003   6.5567521166896977E-003   0.0000000000000000     
   0.0000000000000000        0.0000000000000000        0.0000000000000000     
  -6.3380160594322108E-004   1.0938344183786240E-003   0.0000000000000000     
  -1.2780878913954731E-003   2.5617838591285367E-003   0.0000000000000000     
  -1.9328588563567561E-003   4.4038483222497392E-003   0.0000000000000000     
  -2.5981145008270707E-003   6.6200278077422287E-003   0.0000000000000000     
   0.0000000000000000        0.0000000000000000        0.0000000000000000     
  -8.4167476619935542E-004   1.1098339992208163E-003   0.0000000000000000     
  -1.7022144911357348E-003   2.5978809614800600E-003   0.0000000000000000     
  -2.5816191748091388E-003   4.4641408867777312E-003   0.0000000000000000     
  -3.4798888172195663E-003   6.7086137751138294E-003   0.0000000000000000     
  -1.1167724731087070E-012   6.5061315635418513E-003   0.0000000000000000     
  -1.5222078697356423E-012   9.0275187855157341E-003   0.0000000000000000     
  -1.9381538474833038E-012   1.1863229703487964E-002   0.0000000000000000     
  -2.3646097558303880E-012   1.5013264317458539E-002   0.0000000000000000     
  -2.8015763537184157E-012   1.8477622627427460E-002   0.0000000000000000     
  -8.5817009277567354E-004   6.5187867019562392E-003   0.0000000000000000     
  -1.0764422672980619E-003   9.0441643465107076E-003   0.0000000000000000     
  -1.2979649437943276E-003   1.1883177282698450E-002   0.0000000000000000     
  -1.5227381222644692E-003   1.5035825510519457E-002   0.0000000000000000     
  -1.7507618027084893E-003   1.8502109029973738E-002   0.0000000000000000     
  -1.7242082593457728E-003   6.5567521166896977E-003   0.0000000000000000     
  -2.1667028802572551E-003   9.0941010289151795E-003   0.0000000000000000     
  -2.6138942400377018E-003   1.1943020019647008E-002   0.0000000000000000     
  -3.0657823386871135E-003   1.5103509088885182E-002   0.0000000000000000     
  -3.5223671762054901E-003   1.8575568236629703E-002   0.0000000000000000     
  -2.5981145008270707E-003   6.6200278077422287E-003   0.0000000000000000     
  -3.2707818403997866E-003   9.1773288327291497E-003   0.0000000000000000     
  -3.9477878906682773E-003   1.2042757914333643E-002   0.0000000000000000     
  -4.6291326516325407E-003   1.5216315052555714E-002   0.0000000000000000     
  -5.3148161232925775E-003   1.8698000247395354E-002   0.0000000000000000     
  -3.4798888172195663E-003   6.7086137751138294E-003   0.0000000000000000     
  -4.3886791477256576E-003   9.2938477579526148E-003   0.0000000000000000     
  -5.2996458956860526E-003   1.2182390966758355E-002   0.0000000000000000     
  -6.2127890611007501E-003   1.5374243401531047E-002   0.0000000000000000     
  -7.1281086439697510E-003   1.8869405062270687E-002   0.0000000000000000     
  -2.8015763537184157E-012   1.8477622627427460E-002   0.0000000000000000     
  -3.3661180938969470E-012   2.2226711523732321E-002   0.0000000000000000     
  -4.1752986972790757E-012   2.6230937896710708E-002   0.0000000000000000     
  -5.2291195258937807E-012   3.0490301746362625E-002   0.0000000000000000     
  -6.5275796920505336E-012   3.5004803072688079E-002   0.0000000000000000     
  -1.7507618027084893E-003   1.8502109029973738E-002   0.0000000000000000     
  -1.9785316526435169E-003   2.2252687592452289E-002   0.0000000000000000     
  -2.2025433395866847E-003   2.6258220949346111E-002   0.0000000000000000     
  -2.4227968635379920E-003   3.0518709100655197E-002   0.0000000000000000     
  -2.6392922244974385E-003   3.5034152046379573E-002   0.0000000000000000     
  -3.5223671762054901E-003   1.8575568236629703E-002   0.0000000000000000     
  -3.9779199826507862E-003   2.2330615797490641E-002   0.0000000000000000     
  -4.4267119880809598E-003   2.6340070106078067E-002   0.0000000000000000     
  -4.8687431924960079E-003   3.0603931162391986E-002   0.0000000000000000     
  -5.3040135958959339E-003   3.5122198966432393E-002   0.0000000000000000     
  -5.3148161232925775E-003   1.8698000247395354E-002   0.0000000000000000     
  -5.9981649933879251E-003   2.2460496138847378E-002   0.0000000000000000     
  -6.6725059496581226E-003   2.6476485366906589E-002   0.0000000000000000     
  -7.3378389921031680E-003   3.0745967931572988E-002   0.0000000000000000     
  -7.9941641207230615E-003   3.5268943832846580E-002   0.0000000000000000     
  -7.1281086439697510E-003   1.8869405062270687E-002   0.0000000000000000     
  -8.0392666848549330E-003   2.2642328616522493E-002   0.0000000000000000     
  -8.9399252243181748E-003   2.6667466731831662E-002   0.0000000000000000     
  -9.8300842623594720E-003   3.0944819408198199E-002   0.0000000000000000     
  -1.0709743798978828E-002   3.5474386645622101E-002   0.0000000000000000     
  -6.5275796920505336E-012   3.5004803072688079E-002   0.0000000000000000     
  -7.6592222147953137E-012   3.9756243562287998E-002   0.0000000000000000     
  -8.2125900047538836E-012   4.4726424901763331E-002   0.0000000000000000     
  -8.1876829806110801E-012   4.9915347091114087E-002   0.0000000000000000     
  -7.5845009526315232E-012   5.5323010130340265E-002   0.0000000000000000     
  -2.6392922244974385E-003   3.5034152046379573E-002   0.0000000000000000     
  -2.8519335937384625E-003   3.9786159078569854E-002   0.0000000000000000     
  -3.0606251425345015E-003   4.4756339489276729E-002   0.0000000000000000     
  -3.2653668708855555E-003   4.9944693278500200E-002   0.0000000000000000     
  -3.4661587787916262E-003   5.5351220446240253E-002   0.0000000000000000     
  -5.3040135958959339E-003   3.5122198966432393E-002   0.0000000000000000     
  -5.7313659639197812E-003   3.9875905626528658E-002   0.0000000000000000     
  -6.1496430622066016E-003   4.4846083251010138E-002   0.0000000000000000     
  -6.5588448907563943E-003   5.0032731839876811E-002   0.0000000000000000     
  -6.9589714495691566E-003   5.5435851393128718E-002   0.0000000000000000     
  -7.9941641207230615E-003   3.5268943832846580E-002   0.0000000000000000     
  -8.6382971182031813E-003   4.0025483206164406E-002   0.0000000000000000     
  -9.2670537672288906E-003   4.4995656186963523E-002   0.0000000000000000     
  -9.8804340678001947E-003   5.0179462775243933E-002   0.0000000000000000     
  -1.0478438019917095E-002   5.5576902971005634E-002   0.0000000000000000     
  -1.0709743798978828E-002   3.5474386645622101E-002   0.0000000000000000     
  -1.1572727056588657E-002   4.0234891817477095E-002   0.0000000000000000     
  -1.2412857257601367E-002   4.5205058297136919E-002   0.0000000000000000     
  -1.3230134402016961E-002   5.0384886084601559E-002   0.0000000000000000     
  -1.4024558489835437E-002   5.5774375179871029E-002   0.0000000000000000     
  -7.5845009526315232E-012   5.5323010130340265E-002   0.0000000000000000     
  -6.9391044559691251E-012   6.0931528516076867E-002   0.0000000000000000     
  -6.7875526163149735E-012   6.6723016744958924E-002   0.0000000000000000     
  -7.1298470328672731E-012   7.2697474816986421E-002   0.0000000000000000     
  -7.9659852932761899E-012   7.8854902732159365E-002   0.0000000000000000     
  -3.4661587787916262E-003   5.5351220446240253E-002   0.0000000000000000     
  -3.6610179481982169E-003   6.0958452866879502E-002   0.0000000000000000     
  -3.8479614610508308E-003   6.6748922414800516E-002   0.0000000000000000     
  -4.0269893173494739E-003   7.2722629090003293E-002   0.0000000000000000     
  -4.1981015170941393E-003   7.8879572892487856E-002   0.0000000000000000     
  -6.9589714495691566E-003   5.5435851393128718E-002   0.0000000000000000     
  -7.3472758811380916E-003   6.1039225918462607E-002   0.0000000000000000     
  -7.7210113279563989E-003   6.6826639423575251E-002   0.0000000000000000     
  -8.0801777900240748E-003   7.2798091908466686E-002   0.0000000000000000     
  -8.4247752673411256E-003   7.8953583373136890E-002   0.0000000000000000     
  -1.0478438019917095E-002   5.5576902971005634E-002   0.0000000000000000     
  -1.1058773805758731E-002   6.1173847670826197E-002   0.0000000000000000     
  -1.1619149607504254E-002   6.6956167771283201E-002   0.0000000000000000     
  -1.2159565425153658E-002   7.2923863272376585E-002   0.0000000000000000     
  -1.2680021258706946E-002   7.9076934174106453E-002   0.0000000000000000     
  -1.4024558489835437E-002   5.5774375179871029E-002   0.0000000000000000     
  -1.4795511722060135E-002   6.1362318123970278E-002   0.0000000000000000     
  -1.5542376299694398E-002   6.7137507457924295E-002   0.0000000000000000     
  -1.6265152222738215E-002   7.3099943181733032E-002   0.0000000000000000     
  -1.6963839491191599E-002   7.9249625295396531E-002   0.0000000000000000     
  -7.9659852932761899E-012   7.8854902732159365E-002   0.0000000000000000     
  -9.1182287415003671E-012   8.5183455758956098E-002   0.0000000000000000     
  -1.0408833788378563E-011   9.1671289165854930E-002   0.0000000000000000     
  -1.1837800989564391E-011   9.8318402952855904E-002   0.0000000000000000     
  -1.3405130304400270E-011  0.10512479711995897        0.0000000000000000     
  -4.1981015170941393E-003   7.8879572892487856E-002   0.0000000000000000     
  -4.3636913198595298E-003   8.5207784178348178E-002   0.0000000000000000     
  -4.5261519852203384E-003   9.1695293303678219E-002   0.0000000000000000     
  -4.6854835131765697E-003   9.8342100268478005E-002   0.0000000000000000     
  -4.8416859037282199E-003  0.10514820507274754        0.0000000000000000     
  -8.4247752673411256E-003   7.8953583373136890E-002   0.0000000000000000     
  -8.7580311581930571E-003   8.5280769436594087E-002   0.0000000000000000     
  -9.0831728608653812E-003   9.1767305717846595E-002   0.0000000000000000     
  -9.4002003753581014E-003   9.8413192216894360E-002   0.0000000000000000     
  -9.7091137016712160E-003  0.10521842893373741        0.0000000000000000     
  -1.2680021258706946E-002   7.9076934174106453E-002   0.0000000000000000     
  -1.3183019524118817E-002   8.5402411533693878E-002   0.0000000000000000     
  -1.3671062637343967E-002   9.1887326408360018E-002   0.0000000000000000     
  -1.4144150598382402E-002   9.8531678798104913E-002   0.0000000000000000     
  -1.4602283407234117E-002  0.10533546870292854        0.0000000000000000     
  -1.6963839491191599E-002   7.9249625295396531E-002   0.0000000000000000     
  -1.7638656417636803E-002   8.5572710469647484E-002   0.0000000000000000     
  -1.8289821314656091E-002   9.2055355375218528E-002   0.0000000000000000     
  -1.8917334182249466E-002   9.8697560012109692E-002   0.0000000000000000     
  -1.9521195020416927E-002  0.10549932438032097        0.0000000000000000     
  -1.3405130304400270E-011  0.10512479711995897        0.0000000000000000     
  -1.4178698579808691E-011  0.11208435587434218        0.0000000000000000     
  -1.3226385373217575E-011  0.11919096342318357        0.0000000000000000     
  -1.0548187567545678E-011  0.12644461976648311        0.0000000000000000     
  -6.1441095267067425E-012  0.13384532490424084        0.0000000000000000     
  -4.8416859037282199E-003  0.10514820507274754        0.0000000000000000     
  -4.9916238980051552E-003  0.11210679037798024        0.0000000000000000     
  -5.1321622371372378E-003  0.11921103884566961        0.0000000000000000     
  -5.2633009211244695E-003  0.12646095047581554        0.0000000000000000     
  -5.3850399499668477E-003  0.13385652526841813        0.0000000000000000     
  -9.7091137016712160E-003  0.10521842893373741        0.0000000000000000     
  -1.0005139495202400E-002  0.11217409389288670        0.0000000000000000     
  -1.0283504411349342E-002  0.11927126511885322        0.0000000000000000     
  -1.0544208450112032E-002  0.12650994261163695        0.0000000000000000     
  -1.0787251611490477E-002  0.13389012637123796        0.0000000000000000     
  -1.4602283407234117E-002  0.10533546870292854        0.0000000000000000     
  -1.5040546805770440E-002  0.11228626641906150        0.0000000000000000     
  -1.5454026535862694E-002  0.11937164224273449        0.0000000000000000     
  -1.5842722597510881E-002  0.12659159617394736        0.0000000000000000     
  -1.6206634990714994E-002  0.13394612821270030        0.0000000000000000     
  -1.9521195020416927E-002  0.10549932438032097        0.0000000000000000     
  -2.0097845829709270E-002  0.11244330795650473        0.0000000000000000     
  -2.0643728610677297E-002  0.11951217021731335        0.0000000000000000     
  -2.1158843363321009E-002  0.12670591116274679        0.0000000000000000     
  -2.1643190087640405E-002  0.13402453079280513        0.0000000000000000     
  -6.1441095267067425E-012  0.13384532490424084        0.0000000000000000     
  -5.7030072938418774E-012  0.14135830073949424        0.0000000000000000     
  -1.4913742658363704E-011  0.14894876917528085        0.0000000000000000     
  -3.3776315538957061E-011  0.15661673021160072        0.0000000000000000     
  -6.2290725529046131E-011  0.16436218384845377        0.0000000000000000     
  -5.3850399499668477E-003  0.13385652526841813        0.0000000000000000     
  -5.5000045322796875E-003  0.14136578287291104        0.0000000000000000     
  -5.6108198766782963E-003  0.14895674293872802        0.0000000000000000     
  -5.7174859831626819E-003  0.15662940546586904        0.0000000000000000     
  -5.8200028517328400E-003  0.16438377045433411        0.0000000000000000     
  -1.0787251611490477E-002  0.13389012637123796        0.0000000000000000     
  -1.1016725979788724E-002  0.14138822928433556        0.0000000000000000     
  -1.1236723639310820E-002  0.14898066423760925        0.0000000000000000     
  -1.1447244590056764E-002  0.15666743123105903        0.0000000000000000     
  -1.1648288832026558E-002  0.16444853026468484        0.0000000000000000     
  -1.6206634990714994E-002  0.13394612821270030        0.0000000000000000     
  -1.6550164348230114E-002  0.14142563997376778        0.0000000000000000     
  -1.6877711302811300E-002  0.14902053307192456        0.0000000000000000     
  -1.7189275854458556E-002  0.15673080750717067        0.0000000000000000     
  -1.7484858003171882E-002  0.16455646327950602        0.0000000000000000     
  -2.1643190087640405E-002  0.13402453079280513        0.0000000000000000     
  -2.2100319637603862E-002  0.14147801494120771        0.0000000000000000     
  -2.2533782867179743E-002  0.14907634944167400        0.0000000000000000     
  -2.2943579776368066E-002  0.15681953429420395        0.0000000000000000     
  -2.3329710365168812E-002  0.16470756949879761        0.0000000000000000     
   0.0000000000000000        0.0000000000000000        0.0000000000000000     
  -8.4167476619935542E-004   1.1098339992208163E-003   0.0000000000000000     
  -1.7022144911357348E-003   2.5978809614800600E-003   0.0000000000000000     
  -2.5816191748091388E-003   4.4641408867777312E-003   0.0000000000000000     
  -3.4798888172195663E-003   6.7086137751138294E-003   0.0000000000000000     
   0.0000000000000000        0.0000000000000000        0.0000000000000000     
  -1.0567421252615768E-003   1.1339884069663142E-003   0.0000000000000000     
  -2.1399114157492683E-003   2.6501564963893956E-003   0.0000000000000000     
  -3.2495078714630749E-003   4.5485042682692446E-003   0.0000000000000000     
  -4.3855314924029958E-003   6.8290317226058590E-003   0.0000000000000000     
   0.0000000000000000        0.0000000000000000        0.0000000000000000     
  -1.2878949027670336E-003   1.1698811597323432E-003   0.0000000000000000     
  -2.6057003387322270E-003   2.7244754386464036E-003   0.0000000000000000     
  -3.9534163078955818E-003   4.6637828367421807E-003   0.0000000000000000     
  -5.3310428102570969E-003   6.9878033540196763E-003   0.0000000000000000     
   0.0000000000000000        0.0000000000000000        0.0000000000000000     
  -1.5351330987157254E-003   1.2175122575189029E-003   0.0000000000000000     
  -3.0995812600846120E-003   2.8208377882510838E-003   0.0000000000000000     
  -4.6933444841066587E-003   4.8099765921965432E-003   0.0000000000000000     
  -6.3164227707818684E-003   7.1849286693552797E-003   0.0000000000000000     
   0.0000000000000000        0.0000000000000000        0.0000000000000000     
  -1.7984567131076529E-003   1.2768817003259939E-003   0.0000000000000000     
  -3.6215541798064214E-003   2.9392435452034373E-003   0.0000000000000000     
  -5.4692924000963082E-003   4.9870855346323293E-003   0.0000000000000000     
  -7.3416713739773093E-003   7.4204076686126708E-003   0.0000000000000000     
  -3.4798888172195663E-003   6.7086137751138294E-003   0.0000000000000000     
  -4.3886791477256576E-003   9.2938477579526148E-003   0.0000000000000000     
  -5.2996458956860526E-003   1.2182390966758355E-002   0.0000000000000000     
  -6.2127890611007501E-003   1.5374243401531047E-002   0.0000000000000000     
  -7.1281086439697510E-003   1.8869405062270687E-002   0.0000000000000000     
  -4.3855314924029958E-003   6.8290317226058590E-003   0.0000000000000000     
  -5.5349377232283481E-003   9.4495283089266278E-003   0.0000000000000000     
  -6.6846820085984474E-003   1.2367783476758935E-002   0.0000000000000000     
  -7.8347643485132956E-003   1.5583797226102779E-002   0.0000000000000000     
  -8.9851847429728883E-003   1.9097569556958165E-002   0.0000000000000000     
  -5.3310428102570969E-003   6.9878033540196763E-003   0.0000000000000000     
  -6.7241004879013411E-003   9.6502409899922263E-003   0.0000000000000000     
  -8.1181099829128866E-003   1.2604799744173167E-002   0.0000000000000000     
  -9.5130712952917248E-003   1.5851479616562501E-002   0.0000000000000000     
  -1.0908984425037864E-002   1.9390280607160224E-002   0.0000000000000000     
  -6.3164227707818684E-003   7.1849286693552797E-003   0.0000000000000000     
  -7.9561674417446375E-003   9.8959858011494119E-003   0.0000000000000000     
  -9.5999298186293588E-003   1.2893439769001057E-002   0.0000000000000000     
  -1.1247709901436044E-002   1.6177290572910213E-002   0.0000000000000000     
  -1.2899507690164682E-002   1.9747538212876888E-002   0.0000000000000000     
  -7.3416713739773093E-003   7.4204076686126708E-003   0.0000000000000000     
  -9.2311385847582313E-003   1.0186762742398187E-002   0.0000000000000000     
  -1.1130141515747876E-002   1.3233703551242603E-002   0.0000000000000000     
  -1.3038680166946244E-002   1.6561230095145919E-002   0.0000000000000000     
  -1.4956754538353335E-002   2.0169342374108133E-002   0.0000000000000000     
  -7.1281086439697510E-003   1.8869405062270687E-002   0.0000000000000000     
  -8.0392666848549330E-003   2.2642328616522493E-002   0.0000000000000000     
  -8.9399252243181748E-003   2.6667466731831662E-002   0.0000000000000000     
  -9.8300842623594720E-003   3.0944819408198199E-002   0.0000000000000000     
  -1.0709743798978828E-002   3.5474386645622101E-002   0.0000000000000000     
  -8.9851847429728883E-003   1.9097569556958165E-002   0.0000000000000000     
  -1.0129138003921427E-002   2.2884889424806796E-002   0.0000000000000000     
  -1.1259818943303102E-002   2.6921545785130410E-002   0.0000000000000000     
  -1.2377227561117912E-002   3.1207538637928987E-002   0.0000000000000000     
  -1.3481363857365864E-002   3.5742867983202531E-002   0.0000000000000000     
  -1.0908984425037864E-002   1.9390280607160224E-002   0.0000000000000000     
  -1.2295691897457018E-002   2.3196954757991120E-002   0.0000000000000000     
  -1.3663036237854890E-002   2.7247254111079956E-002   0.0000000000000000     
  -1.5011017446231487E-002   3.1541178666426722E-002   0.0000000000000000     
  -1.6339635522586809E-002   3.6078728424031425E-002   0.0000000000000000     
  -1.2899507690164682E-002   1.9747538212876888E-002   0.0000000000000000     
  -1.4538928365461706E-002   2.3578524616075451E-002   0.0000000000000000     
  -1.6149577107973542E-002   2.7644591709680290E-002   0.0000000000000000     
  -1.7731453917700191E-002   3.1945739493691415E-002   0.0000000000000000     
  -1.9284558794641651E-002   3.6481967968108812E-002   0.0000000000000000     
  -1.4956754538353335E-002   2.0169342374108133E-002   0.0000000000000000     
  -1.6858847407935494E-002   2.4029598999059792E-002   0.0000000000000000     
  -1.8719441553659056E-002   2.8113558580931425E-002   0.0000000000000000     
  -2.0538536975524029E-002   3.2421221119723051E-002   0.0000000000000000     
  -2.2316133673530407E-002   3.6952586615434650E-002   0.0000000000000000     
  -1.0709743798978828E-002   3.5474386645622101E-002   0.0000000000000000     
  -1.1572727056588657E-002   4.0234891817477095E-002   0.0000000000000000     
  -1.2412857257601367E-002   4.5205058297136919E-002   0.0000000000000000     
  -1.3230134402016961E-002   5.0384886084601559E-002   0.0000000000000000     
  -1.4024558489835437E-002   5.5774375179871029E-002   0.0000000000000000     
  -1.3481363857365864E-002   3.5742867983202531E-002   0.0000000000000000     
  -1.4563675432571125E-002   4.0505854016266538E-002   0.0000000000000000     
  -1.5615609887257865E-002   4.5474816932436504E-002   0.0000000000000000     
  -1.6637167221426084E-002   5.0649756731712431E-002   0.0000000000000000     
  -1.7628347435075780E-002   5.6030673414094290E-002   0.0000000000000000     
  -1.6339635522586809E-002   3.6078728424031425E-002   0.0000000000000000     
  -1.7640161899645498E-002   4.0840092358332532E-002   0.0000000000000000     
  -1.8903868010132219E-002   4.5805459443768473E-002   0.0000000000000000     
  -2.0130753854046963E-002   5.0974829680339243E-002   0.0000000000000000     
  -2.1320819431389727E-002   5.6348203068044854E-002   0.0000000000000000     
  -1.9284558794641651E-002   3.6481967968108812E-002   0.0000000000000000     
  -2.0802186457811785E-002   4.1237606843675077E-002   0.0000000000000000     
  -2.2277631626224429E-002   4.6196985831132818E-002   0.0000000000000000     
  -2.3710894299879593E-002   5.1360104930482028E-002   0.0000000000000000     
  -2.5101974478777267E-002   5.6726964141722708E-002   0.0000000000000000     
  -2.2316133673530407E-002   3.6952586615434650E-002   0.0000000000000000     
  -2.4049749107069973E-002   4.1698397472294174E-002   0.0000000000000000     
  -2.5736900735534491E-002   4.6649396094529533E-002   0.0000000000000000     
  -2.7377588558923971E-002   5.1805582482140768E-002   0.0000000000000000     
  -2.8971812577238402E-002   5.7166956635127837E-002   0.0000000000000000     
  -1.4024558489835437E-002   5.5774375179871029E-002   0.0000000000000000     
  -1.4795511722060135E-002   6.1362318123970278E-002   0.0000000000000000     
  -1.5542376299694398E-002   6.7137507457924295E-002   0.0000000000000000     
  -1.6265152222738215E-002   7.3099943181733032E-002   0.0000000000000000     
  -1.6963839491191599E-002   7.9249625295396531E-002   0.0000000000000000     
  -1.7628347435075780E-002   5.6030673414094290E-002   0.0000000000000000     
  -1.8590244885564031E-002   6.1608873310256669E-002   0.0000000000000000     
  -1.9523953930247882E-002   6.7375662750874088E-002   0.0000000000000000     
  -2.0429474569127352E-002   7.3331041735946526E-002   0.0000000000000000     
  -2.1306806802202437E-002   7.9475010265474030E-002   0.0000000000000000     
  -2.1320819431389727E-002   5.6348203068044854E-002   0.0000000000000000     
  -2.2475728551792126E-002   6.1917749262047177E-002   0.0000000000000000     
  -2.3597145024885774E-002   6.7675637917508108E-002   0.0000000000000000     
  -2.4685068850670677E-002   7.3621869034427620E-002   0.0000000000000000     
  -2.5739500029146826E-002   7.9756442612805761E-002   0.0000000000000000     
  -2.5101974478777267E-002   5.6726964141722708E-002   0.0000000000000000     
  -2.6451962720744439E-002   6.2288945979341821E-002   0.0000000000000000     
  -2.7761949583608073E-002   6.8037432957826369E-002   0.0000000000000000     
  -2.9031935067368182E-002   7.3972425077176329E-002   0.0000000000000000     
  -3.0261919172024761E-002   8.0093922337391724E-002   0.0000000000000000     
  -2.8971812577238402E-002   5.7166956635127837E-002   0.0000000000000000     
  -3.0518947392420958E-002   6.2722463462140596E-002   0.0000000000000000     
  -3.2018367606414778E-002   6.8461047871828856E-002   0.0000000000000000     
  -3.3470073219219867E-002   7.4382709864192639E-002   0.0000000000000000     
  -3.4874064230836235E-002   8.0487449439231917E-002   0.0000000000000000     
  -1.6963839491191599E-002   7.9249625295396531E-002   0.0000000000000000     
  -1.7638656417636803E-002   8.5572710469647484E-002   0.0000000000000000     
  -1.8289821314656091E-002   9.2055355375218528E-002   0.0000000000000000     
  -1.8917334182249466E-002   9.8697560012109692E-002   0.0000000000000000     
  -1.9521195020416927E-002  0.10549932438032097        0.0000000000000000     
  -2.1306806802202437E-002   7.9475010265474030E-002   0.0000000000000000     
  -2.2153660714101572E-002   8.5793055649203587E-002   0.0000000000000000     
  -2.2967746389453196E-002   9.2270665196882262E-002   0.0000000000000000     
  -2.3749063828257311E-002   9.8907838908510015E-002   0.0000000000000000     
  -2.4497613030513912E-002  0.10570457678408690        0.0000000000000000     
  -2.5739500029146826E-002   7.9756442612805761E-002   0.0000000000000000     
  -2.6756751288867685E-002   8.6064836477110870E-002   0.0000000000000000     
  -2.7733135358386729E-002   9.2532528451811355E-002   0.0000000000000000     
  -2.8668652237703946E-002   9.9159518536907257E-002   0.0000000000000000     
  -2.9563301926819347E-002  0.10594580673239855        0.0000000000000000     
  -3.0261919172024761E-002   8.0093922337391724E-002   0.0000000000000000     
  -3.1447928141935144E-002   8.6388052953369293E-002   0.0000000000000000     
  -3.2585988221456683E-002   9.2840945140005848E-002   0.0000000000000000     
  -3.3676099410589383E-002   9.9452598897301389E-002   0.0000000000000000     
  -3.4718261709333231E-002  0.10622301422525589        0.0000000000000000     
  -3.4874064230836235E-002   8.0487449439231917E-002   0.0000000000000000     
  -3.6227191273303948E-002   8.6762705077978897E-002   0.0000000000000000     
  -3.7526304978663064E-002   9.3195915261465714E-002   0.0000000000000000     
  -3.8771405346913618E-002   9.9787079989692426E-002   0.0000000000000000     
  -3.9962492378055568E-002  0.10653619926265898        0.0000000000000000     
  -1.9521195020416927E-002  0.10549932438032097        0.0000000000000000     
  -2.0097845829709270E-002  0.11244330795650473        0.0000000000000000     
  -2.0643728610677297E-002  0.11951217021731335        0.0000000000000000     
  -2.1158843363321009E-002  0.12670591116274679        0.0000000000000000     
  -2.1643190087640405E-002  0.13402453079280513        0.0000000000000000     
  -2.4497613030513912E-002  0.10570457678408690        0.0000000000000000     
  -2.5211919982329509E-002  0.11263948167241444        0.0000000000000000     
  -2.5890510669810622E-002  0.11969115642229432        0.0000000000000000     
  -2.6533385092957242E-002  0.12685960103372654        0.0000000000000000     
  -2.7140543251769372E-002  0.13414481550671098        0.0000000000000000     
  -2.9563301926819347E-002  0.10594580673239855        0.0000000000000000     
  -3.0417652678941792E-002  0.11286905073398888        0.0000000000000000     
  -3.1232272747280135E-002  0.11990690823738197        0.0000000000000000     
  -3.2007162131834389E-002  0.12705937924257782        0.0000000000000000     
  -3.2742320832604553E-002  0.13432646374957644        0.0000000000000000     
  -3.4718261709333231E-002  0.10622301422525589        0.0000000000000000     
  -3.5715043919546101E-002  0.11313201514122799        0.0000000000000000     
  -3.6669014843085837E-002  0.12015942566257624        0.0000000000000000     
  -3.7580174479952461E-002  0.12730524578930072        0.0000000000000000     
  -3.8448522830145965E-002  0.13456947552140136        0.0000000000000000     
  -3.9962492378055568E-002  0.10653619926265898        0.0000000000000000     
  -4.1104093704142447E-002  0.11342837489413177        0.0000000000000000     
  -4.2200736957227737E-002  0.12044870869787719        0.0000000000000000     
  -4.3252422137311453E-002  0.12759720067389521        0.0000000000000000     
  -4.4259149244393593E-002  0.13487385082218584        0.0000000000000000     
  -2.1643190087640405E-002  0.13402453079280513        0.0000000000000000     
  -2.2100319637603862E-002  0.14147801494120771        0.0000000000000000     
  -2.2533782867179743E-002  0.14907634944167400        0.0000000000000000     
  -2.2943579776368066E-002  0.15681953429420395        0.0000000000000000     
  -2.3329710365168812E-002  0.16470756949879761        0.0000000000000000     
  -2.7140543251769372E-002  0.13414481550671098        0.0000000000000000     
  -2.7713893699918005E-002  0.14157309022971873        0.0000000000000000     
  -2.8255344991074152E-002  0.14917071559122067        0.0000000000000000     
  -2.8764897125237797E-002  0.15693769159121673        0.0000000000000000     
  -2.9242550102408952E-002  0.16487401822970704        0.0000000000000000     
  -3.2742320832604553E-002  0.13432646374957644        0.0000000000000000     
  -3.3437588387180604E-002  0.14173860188236420        0.0000000000000000     
  -3.4092804333152503E-002  0.14932623376492768        0.0000000000000000     
  -3.4707968670520270E-002  0.15708935939726681        0.0000000000000000     
  -3.5283081399283898E-002  0.16502797877938163        0.0000000000000000     
  -3.8448522830145965E-002  0.13456947552140136        0.0000000000000000     
  -3.9271403699391645E-002  0.14197454989914415        0.0000000000000000     
  -4.0046160893414819E-002  0.14954290396279510        0.0000000000000000     
  -4.0772794412215492E-002  0.15727453771235417        0.0000000000000000     
  -4.1451304255793651E-002  0.16516945114782139        0.0000000000000000     
  -4.4259149244393593E-002  0.13487385082218584        0.0000000000000000     
  -4.5215339636551138E-002  0.14228093428005856        0.0000000000000000     
  -4.6115414671861095E-002  0.14982072618482292        0.0000000000000000     
  -4.6959374350323442E-002  0.15749322653647882        0.0000000000000000     
  -4.7747218671938221E-002  0.16529843533502636        0.0000000000000000     
   0.0000000000000000        0.0000000000000000        0.0000000000000000     
  -1.7984567131076529E-003   1.2768817003259939E-003   0.0000000000000000     
  -3.6215541798064214E-003   2.9392435452034373E-003   0.0000000000000000     
  -5.4692924000963082E-003   4.9870855346323293E-003   0.0000000000000000     
  -7.3416713739773093E-003   7.4204076686126708E-003   0.0000000000000000     
   0.0000000000000000        0.0000000000000000        0.0000000000000000     
  -2.0695815045107986E-003   1.3550685587271421E-003   0.0000000000000000     
  -4.1642598576618730E-003   3.0941686588694568E-003   0.0000000000000000     
  -6.2840350594532248E-003   5.2173003004269457E-003   0.0000000000000000     
  -8.4289071098848506E-003   7.7244634833996068E-003   0.0000000000000000     
   0.0000000000000000        0.0000000000000000        0.0000000000000000     
  -2.3402232314931474E-003   1.4591519032958727E-003   0.0000000000000000     
  -4.7203390534151833E-003   3.3000890786151382E-003   0.0000000000000000     
  -7.1403474657661089E-003   5.5228115259577954E-003   0.0000000000000000     
  -9.6002484685459247E-003   8.1273192453238455E-003   0.0000000000000000     
   0.0000000000000000        0.0000000000000000        0.0000000000000000     
  -2.6103818940546985E-003   1.5891317340321861E-003   0.0000000000000000     
  -5.2897917670663526E-003   3.5570048044404794E-003   0.0000000000000000     
  -8.0382296190349631E-003   5.9036192112248802E-003   0.0000000000000000     
  -1.0855695449960527E-002   8.6289749543853860E-003   0.0000000000000000     
   0.0000000000000000        0.0000000000000000        0.0000000000000000     
  -2.8800574921954516E-003   1.7450080509360823E-003   0.0000000000000000     
  -5.8726179986153797E-003   3.8649158363454816E-003   0.0000000000000000     
  -8.9776815192597823E-003   6.3597233562281965E-003   0.0000000000000000     
  -1.2195248054128660E-002   9.2294306105842293E-003   0.0000000000000000     
  -7.3416713739773093E-003   7.4204076686126708E-003   0.0000000000000000     
  -9.2311385847582313E-003   1.0186762742398187E-002   0.0000000000000000     
  -1.1130141515747876E-002   1.3233703551242603E-002   0.0000000000000000     
  -1.3038680166946244E-002   1.6561230095145919E-002   0.0000000000000000     
  -1.4956754538353335E-002   2.0169342374108133E-002   0.0000000000000000     
  -8.4289071098848506E-003   7.7244634833996068E-003   0.0000000000000000     
  -1.0590734374229688E-002   1.0558313760005095E-002   0.0000000000000000     
  -1.2761375217760669E-002   1.3661506682461065E-002   0.0000000000000000     
  -1.4940829640477798E-002   1.7034042250767510E-002   0.0000000000000000     
  -1.7129097642381068E-002   2.0675920464924443E-002   0.0000000000000000     
  -9.6002484685459247E-003   8.1273192453238455E-003   0.0000000000000000     
  -1.2076675267446569E-002   1.1046380800236682E-002   0.0000000000000000     
  -1.4546261068159982E-002   1.4212764754219702E-002   0.0000000000000000     
  -1.7009005870686166E-002   1.7626471107272904E-002   0.0000000000000000     
  -1.9464909675025118E-002   2.1287499859396285E-002   0.0000000000000000     
  -1.0855695449960527E-002   8.6289749543853860E-003   0.0000000000000000     
  -1.3688961264408869E-002   1.1650963863092946E-002   0.0000000000000000     
  -1.6484799066945815E-002   1.4887477766518517E-002   0.0000000000000000     
  -1.9243208857571355E-002   1.8338516664662085E-002   0.0000000000000000     
  -2.1964190636285495E-002   2.2004080557523654E-002   0.0000000000000000     
  -1.2195248054128660E-002   9.2294306105842293E-003   0.0000000000000000     
  -1.5427592365116594E-002   1.2372062948573894E-002   0.0000000000000000     
  -1.8576989214118156E-002   1.5685645719357506E-002   0.0000000000000000     
  -2.1643438601133356E-002   1.9170178922935058E-002   0.0000000000000000     
  -2.4626940526162190E-002   2.2825662559306563E-002   0.0000000000000000     
  -1.4956754538353335E-002   2.0169342374108133E-002   0.0000000000000000     
  -1.6858847407935494E-002   2.4029598999059792E-002   0.0000000000000000     
  -1.8719441553659056E-002   2.8113558580931425E-002   0.0000000000000000     
  -2.0538536975524029E-002   3.2421221119723051E-002   0.0000000000000000     
  -2.2316133673530407E-002   3.6952586615434650E-002   0.0000000000000000     
  -1.7129097642381068E-002   2.0675920464924443E-002   0.0000000000000000     
  -1.9294595863651641E-002   2.4559276629859000E-002   0.0000000000000000     
  -2.1405740944470668E-002   2.8656246050498328E-002   0.0000000000000000     
  -2.3462532884838152E-002   3.2966828726842430E-002   0.0000000000000000     
  -2.5464971684754097E-002   3.7491024658891300E-002   0.0000000000000000     
  -1.9464909675025118E-002   2.1287499859396285E-002   0.0000000000000000     
  -2.1885320571383420E-002   2.5176656231387939E-002   0.0000000000000000     
  -2.4241586649967617E-002   2.9274745444045961E-002   0.0000000000000000     
  -2.6533707910777731E-002   3.3581767497370345E-002   0.0000000000000000     
  -2.8761684353813745E-002   3.8097722391361083E-002   0.0000000000000000     
  -2.1964190636285495E-002   2.2004080557523654E-002   0.0000000000000000     
  -2.4631021531130823E-002   2.5881737803646606E-002   0.0000000000000000     
  -2.7226978670149900E-002   2.9969056761574322E-002   0.0000000000000000     
  -2.9752062053342750E-002   3.4266037431306788E-002   0.0000000000000000     
  -3.2206271680709359E-002   3.8772679812844026E-002   0.0000000000000000     
  -2.4626940526162190E-002   2.2825662559306563E-002   0.0000000000000000     
  -2.7531698742893847E-002   2.6674521346635012E-002   0.0000000000000000     
  -3.0361917005017520E-002   3.0739180003083417E-002   0.0000000000000000     
  -3.3117595312533221E-002   3.5019638528651774E-002   0.0000000000000000     
  -3.5798733665440938E-002   3.9515896923340087E-002   0.0000000000000000     
  -2.2316133673530407E-002   3.6952586615434650E-002   0.0000000000000000     
  -2.4049749107069973E-002   4.1698397472294174E-002   0.0000000000000000     
  -2.5736900735534491E-002   4.6649396094529533E-002   0.0000000000000000     
  -2.7377588558923971E-002   5.1805582482140768E-002   0.0000000000000000     
  -2.8971812577238402E-002   5.7166956635127837E-002   0.0000000000000000     
  -2.5464971684754097E-002   3.7491024658891300E-002   0.0000000000000000     
  -2.7414705044730925E-002   4.2225271901312367E-002   0.0000000000000000     
  -2.9313380665281077E-002   4.7166008508773054E-002   0.0000000000000000     
  -3.1160998546404545E-002   5.2313234481273355E-002   0.0000000000000000     
  -3.2957558688101338E-002   5.7666949818813276E-002   0.0000000000000000     
  -2.8761684353813745E-002   3.8097722391361083E-002   0.0000000000000000     
  -3.0928909468105507E-002   4.2821037787852220E-002   0.0000000000000000     
  -3.3038776742682845E-002   4.7750141348677742E-002   0.0000000000000000     
  -3.5091286177545769E-002   5.2885033073837670E-002   0.0000000000000000     
  -3.7086437772694270E-002   5.8225712963331976E-002   0.0000000000000000     
  -3.2206271680709359E-002   3.8772679812844026E-002   0.0000000000000000     
  -3.4592362377193729E-002   4.3485695131913714E-002   0.0000000000000000     
  -3.6913088967739809E-002   4.8401794614243612E-002   0.0000000000000000     
  -3.9168451452347638E-002   5.3520978259833693E-002   0.0000000000000000     
  -4.1358449831017184E-002   5.8843246068683963E-002   0.0000000000000000     
  -3.5798733665440938E-002   3.9515896923340087E-002   0.0000000000000000     
  -3.8405063771995554E-002   4.4219243933496882E-002   0.0000000000000000     
  -4.0936317340451951E-002   4.9120968305470657E-002   0.0000000000000000     
  -4.3392494370810143E-002   5.4221070039261451E-002   0.0000000000000000     
  -4.5773594863070102E-002   5.9519549134869232E-002   0.0000000000000000     
  -2.8971812577238402E-002   5.7166956635127837E-002   0.0000000000000000     
  -3.0518947392420958E-002   6.2722463462140596E-002   0.0000000000000000     
  -3.2018367606414778E-002   6.8461047871828856E-002   0.0000000000000000     
  -3.3470073219219867E-002   7.4382709864192639E-002   0.0000000000000000     
  -3.4874064230836235E-002   8.0487449439231917E-002   0.0000000000000000     
  -3.2957558688101338E-002   5.7666949818813276E-002   0.0000000000000000     
  -3.4700854771791551E-002   6.3213771996758025E-002   0.0000000000000000     
  -3.6388680478895298E-002   6.8940318490472829E-002   0.0000000000000000     
  -3.8021035809412559E-002   7.4846589299957689E-002   0.0000000000000000     
  -3.9597920763343362E-002   8.0932584425212603E-002   0.0000000000000000     
  -3.7086437772694270E-002   5.8225712963331976E-002   0.0000000000000000     
  -3.9021857063826111E-002   6.3758341869508614E-002   0.0000000000000000     
  -4.0895169586639045E-002   6.9469080644715506E-002   0.0000000000000000     
  -4.2706375341133078E-002   7.5357929288952630E-002   0.0000000000000000     
  -4.4455474327308210E-002   8.1424887802220000E-002   0.0000000000000000     
  -4.1358449831017184E-002   5.8843246068683963E-002   0.0000000000000000     
  -4.3481954268524609E-002   6.4356173080392390E-002   0.0000000000000000     
  -4.5537834929646019E-002   7.0047334334556885E-002   0.0000000000000000     
  -4.7526091814381409E-002   7.5916729831177462E-002   0.0000000000000000     
  -4.9446724922730813E-002   8.1964359570254122E-002   0.0000000000000000     
  -4.5773594863070102E-002   5.9519549134869232E-002   0.0000000000000000     
  -4.8081146385887057E-002   6.5007265629409311E-002   0.0000000000000000     
  -5.0316676507916228E-002   7.0675079559996953E-002   0.0000000000000000     
  -5.2480185229157574E-002   7.6522990926632159E-002   0.0000000000000000     
  -5.4571672549611143E-002   8.2550999729314956E-002   0.0000000000000000     
  -3.4874064230836235E-002   8.0487449439231917E-002   0.0000000000000000     
  -3.6227191273303948E-002   8.6762705077978897E-002   0.0000000000000000     
  -3.7526304978663064E-002   9.3195915261465714E-002   0.0000000000000000     
  -3.8771405346913618E-002   9.9787079989692426E-002   0.0000000000000000     
  -3.9962492378055568E-002  0.10653619926265898        0.0000000000000000     
  -3.9597920763343362E-002   8.0932584425212603E-002   0.0000000000000000     
  -4.1117279925877472E-002   8.7186998479265587E-002   0.0000000000000000     
  -4.2577057882204693E-002   9.3598526075144725E-002   0.0000000000000000     
  -4.3977254632325033E-002  0.10016716721284999        0.0000000000000000     
  -4.5317870176238464E-002  0.10689292189238139        0.0000000000000000     
  -4.4455474327308210E-002   8.1424887802220000E-002   0.0000000000000000     
  -4.6140933342559101E-002   8.7659138785555410E-002   0.0000000000000000     
  -4.7761219184280355E-002   9.4049864839996694E-002   0.0000000000000000     
  -4.9316331852472015E-002  0.10059706596554380        0.0000000000000000     
  -5.0806271347134037E-002  0.10730074216219676        0.0000000000000000     
  -4.9446724922730813E-002   8.1964359570254122E-002   0.0000000000000000     
  -5.1298151523348823E-002   8.8179125996848351E-002   0.0000000000000000     
  -5.3078788884890073E-002   9.4549931556021566E-002   0.0000000000000000     
  -5.4788637007354549E-002  0.10107677624777384        0.0000000000000000     
  -5.6427695890742265E-002  0.10775966007210508        0.0000000000000000     
  -5.4571672549611143E-002   8.2550999729314956E-002   0.0000000000000000     
  -5.6588934468246657E-002   8.8746960113144355E-002   0.0000000000000000     
  -5.8529766984033824E-002   9.5098726223219382E-002   0.0000000000000000     
  -6.0394170096972663E-002  0.10160629805954008        0.0000000000000000     
  -6.2182143807063169E-002  0.10826967562210639        0.0000000000000000     
  -3.9962492378055568E-002  0.10653619926265898        0.0000000000000000     
  -4.1104093704142447E-002  0.11342837489413177        0.0000000000000000     
  -4.2200736957227737E-002  0.12044870869787719        0.0000000000000000     
  -4.3252422137311453E-002  0.12759720067389521        0.0000000000000000     
  -4.4259149244393593E-002  0.13487385082218584        0.0000000000000000     
  -4.5317870176238464E-002  0.10689292189238139        0.0000000000000000     
  -4.6604781061299887E-002  0.11376645156529720        0.0000000000000000     
  -4.7843863834864143E-002  0.12077841768315575        0.0000000000000000     
  -4.9035118496931263E-002  0.12792882024595700        0.0000000000000000     
  -5.0178545047501223E-002  0.13521765925370097        0.0000000000000000     
  -5.0806271347134037E-002  0.10730074216219676        0.0000000000000000     
  -5.2237085019587480E-002  0.11415456672732126        0.0000000000000000     
  -5.3614820221153416E-002  0.12115221295828293        0.0000000000000000     
  -5.4939476951831795E-002  0.12829368085508180        0.0000000000000000     
  -5.6211055211622653E-002  0.13557897041771791        0.0000000000000000     
  -5.6427695890742265E-002  0.10775966007210508        0.0000000000000000     
  -5.8001005579005248E-002  0.11459272038020389        0.0000000000000000     
  -5.9513606116095505E-002  0.12157009452325875        0.0000000000000000     
  -6.0965497502013050E-002  0.12869178250126964        0.0000000000000000     
  -6.2356679736757875E-002  0.13595778431423661        0.0000000000000000     
  -6.2182143807063169E-002  0.10826967562210639        0.0000000000000000     
  -6.3896542739553155E-002  0.11508091252394514        0.0000000000000000     
  -6.5540221519690453E-002  0.12203206237808317        0.0000000000000000     
  -6.7113180147475013E-002  0.12912312518452052        0.0000000000000000     
  -6.8615418622906904E-002  0.13635410094325709        0.0000000000000000     
  -4.4259149244393593E-002  0.13487385082218584        0.0000000000000000     
  -4.5215339636551138E-002  0.14228093428005856        0.0000000000000000     
  -4.6115414671861095E-002  0.14982072618482292        0.0000000000000000     
  -4.6959374350323442E-002  0.15749322653647882        0.0000000000000000     
  -4.7747218671938221E-002  0.16529843533502636        0.0000000000000000     
  -5.0178545047501223E-002  0.13521765925370097        0.0000000000000000     
  -5.1266603161993399E-002  0.14262605292165900        0.0000000000000000     
  -5.2291752515827156E-002  0.15013511946510233        0.0000000000000000     
  -5.3253993109002480E-002  0.15774485888403092        0.0000000000000000     
  -5.4153324941519400E-002  0.16545527117844486        0.0000000000000000     
  -5.6211055211622653E-002  0.13557897041771791        0.0000000000000000     
  -5.7422401239052748E-002  0.14297820372049691        0.0000000000000000     
  -5.8566361272648824E-002  0.15046150283772447        0.0000000000000000     
  -5.9642935312410925E-002  0.15802886776940059        0.0000000000000000     
  -6.0652123358339000E-002  0.16568029851552524        0.0000000000000000     
  -6.2356679736757875E-002  0.13595778431423661        0.0000000000000000     
  -6.3682733867729172E-002  0.14333738667657228        0.0000000000000000     
  -6.4939240942326143E-002  0.15079987630268932        0.0000000000000000     
  -6.6126200960548762E-002  0.15834525319258774        0.0000000000000000     
  -6.7243613922397014E-002  0.16597351734626756        0.0000000000000000     
  -6.8615418622906904E-002  0.13635410094325709        0.0000000000000000     
  -7.0047601048022712E-002  0.14370360178988517        0.0000000000000000     
  -7.1410391524859063E-002  0.15115023985999698        0.0000000000000000     
  -7.2703790053415984E-002  0.15869401515359249        0.0000000000000000     
  -7.3927796633693449E-002  0.16633492767067176        0.0000000000000000     
   0.0000000000000000        0.0000000000000000        0.0000000000000000     
  -2.8800574921954516E-003   1.7450080509360823E-003   0.0000000000000000     
  -5.8726179986153797E-003   3.8649158363454816E-003   0.0000000000000000     
  -8.9776815192597823E-003   6.3597233562281965E-003   0.0000000000000000     
  -1.2195248054128660E-002   9.2294306105842293E-003   0.0000000000000000     
   0.0000000000000000        0.0000000000000000        0.0000000000000000     
  -3.2831373059055220E-003   1.9994934115821848E-003   0.0000000000000000     
  -6.6768466349034980E-003   4.3311928593427109E-003   0.0000000000000000     
  -1.0181127986993927E-002   6.9950983432815767E-003   0.0000000000000000     
  -1.3795981362176810E-002   9.9912098633987857E-003   0.0000000000000000     
   0.0000000000000000        0.0000000000000000        0.0000000000000000     
  -3.9535086151750234E-003   2.4253003735451180E-003   0.0000000000000000     
  -7.9105065627719396E-003   5.0632065584447338E-003   0.0000000000000000     
  -1.1870993842790754E-002   7.9137185546988478E-003   0.0000000000000000     
  -1.5834970455231460E-002   1.0976836362307460E-002   0.0000000000000000     
   0.0000000000000000        0.0000000000000000        0.0000000000000000     
  -4.8911714200039558E-003   3.0224289368248809E-003   0.0000000000000000     
  -9.5735977822207097E-003   6.0609569336515512E-003   0.0000000000000000     
  -1.4047279086650256E-002   9.1155839904800105E-003   0.0000000000000000     
  -1.8312215333292609E-002   1.2186310107310260E-002   0.0000000000000000     
   0.0000000000000000        0.0000000000000000        0.0000000000000000     
  -6.0961257203923187E-003   3.7908791014214741E-003   0.0000000000000000     
  -1.1666120293249800E-002   7.3244439849631622E-003   0.0000000000000000     
  -1.6709983718572449E-002   1.0600694650625063E-002   0.0000000000000000     
  -2.1227715996360259E-002   1.3619631098407180E-002   0.0000000000000000     
  -1.2195248054128660E-002   9.2294306105842293E-003   0.0000000000000000     
  -1.5427592365116594E-002   1.2372062948573894E-002   0.0000000000000000     
  -1.8576989214118156E-002   1.5685645719357506E-002   0.0000000000000000     
  -2.1643438601133356E-002   1.9170178922935058E-002   0.0000000000000000     
  -2.4626940526162190E-002   2.2825662559306563E-002   0.0000000000000000     
  -1.3795981362176810E-002   9.9912098633987857E-003   0.0000000000000000     
  -1.7404249240422998E-002   1.3221594444323090E-002   0.0000000000000000     
  -2.0888774101703336E-002   1.6588319110683248E-002   0.0000000000000000     
  -2.4249555946017836E-002   2.0091383862479259E-002   0.0000000000000000     
  -2.7486594773366482E-002   2.3730788699711132E-002   0.0000000000000000     
  -1.5834970455231460E-002   1.0976836362307460E-002   0.0000000000000000     
  -1.9730612561181336E-002   1.4211474737984111E-002   0.0000000000000000     
  -2.3486096321727663E-002   1.7576548438442332E-002   0.0000000000000000     
  -2.7101421736870433E-002   2.1072057463682126E-002   0.0000000000000000     
  -3.0576588806609659E-002   2.4698001813703487E-002   0.0000000000000000     
  -1.8312215333292609E-002   1.2186310107310260E-002   0.0000000000000000     
  -2.2406682327391615E-002   1.5341703829556954E-002   0.0000000000000000     
  -2.6368955874191136E-002   1.8650333702634747E-002   0.0000000000000000     
  -3.0199035973691172E-002   2.2112199726543647E-002   0.0000000000000000     
  -3.3896922625891723E-002   2.5727301901283642E-002   0.0000000000000000     
  -2.1227715996360259E-002   1.3619631098407180E-002   0.0000000000000000     
  -2.5432458539053831E-002   1.6612281719041624E-002   0.0000000000000000     
  -2.9537352759093756E-002   1.9809674903260507E-002   0.0000000000000000     
  -3.3542398656480031E-002   2.3211810651063827E-002   0.0000000000000000     
  -3.7447596231212674E-002   2.6818688962451587E-002   0.0000000000000000     
  -2.4626940526162190E-002   2.2825662559306563E-002   0.0000000000000000     
  -2.7531698742893847E-002   2.6674521346635012E-002   0.0000000000000000     
  -3.0361917005017520E-002   3.0739180003083417E-002   0.0000000000000000     
  -3.3117595312533221E-002   3.5019638528651774E-002   0.0000000000000000     
  -3.5798733665440938E-002   3.9515896923340087E-002   0.0000000000000000     
  -2.7486594773366482E-002   2.3730788699711132E-002   0.0000000000000000     
  -3.0623116129603049E-002   2.7548885780996849E-002   0.0000000000000000     
  -3.3682345560581306E-002   3.1588027264954431E-002   0.0000000000000000     
  -3.6664283066301241E-002   3.5848213151583860E-002   0.0000000000000000     
  -3.9568928646762876E-002   4.0329443440885154E-002   0.0000000000000000     
  -3.0576588806609659E-002   2.4698001813703487E-002   0.0000000000000000     
  -3.3941037614188992E-002   2.8498710027375824E-002   0.0000000000000000     
  -3.7224208242852087E-002   3.2518510643568539E-002   0.0000000000000000     
  -4.0426100692598950E-002   3.6757403662281612E-002   0.0000000000000000     
  -4.3546714963429579E-002   4.1215389083515068E-002   0.0000000000000000     
  -3.3896922625891723E-002   2.5727301901283642E-002   0.0000000000000000     
  -3.7485463196651664E-002   2.9523994085771939E-002   0.0000000000000000     
  -4.0987505051829860E-002   3.3530630138925738E-002   0.0000000000000000     
  -4.4403048191426313E-002   3.7747210060745030E-002   0.0000000000000000     
  -4.7732092615441035E-002   4.2173733851229835E-002   0.0000000000000000     
  -3.7447596231212674E-002   2.6818688962451587E-002   0.0000000000000000     
  -4.1256392876991066E-002   3.0624737956185189E-002   0.0000000000000000     
  -4.4972235987514632E-002   3.4624385751026034E-002   0.0000000000000000     
  -4.8595125562783358E-002   3.8817632346974114E-002   0.0000000000000000     
  -5.2125061602797257E-002   4.3204477744029440E-002   0.0000000000000000     
  -3.5798733665440938E-002   3.9515896923340087E-002   0.0000000000000000     
  -3.8405063771995554E-002   4.4219243933496882E-002   0.0000000000000000     
  -4.0936317340451951E-002   4.9120968305470657E-002   0.0000000000000000     
  -4.3392494370810143E-002   5.4221070039261451E-002   0.0000000000000000     
  -4.5773594863070102E-002   5.9519549134869232E-002   0.0000000000000000     
  -3.9568928646762876E-002   4.0329443440885154E-002   0.0000000000000000     
  -4.2392880299398604E-002   4.5018489657894935E-002   0.0000000000000000     
  -4.5132736021640855E-002   4.9902123327649824E-002   0.0000000000000000     
  -4.7788495813489609E-002   5.4980344450149835E-002   0.0000000000000000     
  -5.0360159674944879E-002   6.0253153025394961E-002   0.0000000000000000     
  -4.3546714963429579E-002   4.1215389083515068E-002   0.0000000000000000     
  -4.6581678606290450E-002   4.5880237770401129E-002   0.0000000000000000     
  -4.9526619172128028E-002   5.0739720586072019E-002   0.0000000000000000     
  -5.2381536660942342E-002   5.5793837530527753E-002   0.0000000000000000     
  -5.5146431072733378E-002   6.1042588603768322E-002   0.0000000000000000     
  -4.7732092615441035E-002   4.2173733851229835E-002   0.0000000000000000     
  -5.0971458692671077E-002   4.6804488271015458E-002   0.0000000000000000     
  -5.4117966791913524E-002   5.1633760080737251E-002   0.0000000000000000     
  -5.7171616913168355E-002   5.6661549280395199E-002   0.0000000000000000     
  -6.0132409056435597E-002   6.1887855869989315E-002   0.0000000000000000     
  -5.2125061602797257E-002   4.3204477744029440E-002   0.0000000000000000     
  -5.5562220558540508E-002   4.7791241159737929E-002   0.0000000000000000     
  -5.8906778880997296E-002   5.2584241811645512E-002   0.0000000000000000     
  -6.2158736570167655E-002   5.7583479699752180E-002   0.0000000000000000     
  -6.5318093626051538E-002   6.2788954824057941E-002   0.0000000000000000     
  -4.5773594863070102E-002   5.9519549134869232E-002   0.0000000000000000     
  -4.8081146385887057E-002   6.5007265629409311E-002   0.0000000000000000     
  -5.0316676507916228E-002   7.0675079559996953E-002   0.0000000000000000     
  -5.2480185229157574E-002   7.6522990926632159E-002   0.0000000000000000     
  -5.4571672549611143E-002   8.2550999729314956E-002   0.0000000000000000     
  -5.0360159674944879E-002   6.0253153025394961E-002   0.0000000000000000     
  -5.2851520539042532E-002   6.5714192869818847E-002   0.0000000000000000     
  -5.5266371338818433E-002   7.1357107799855102E-002   0.0000000000000000     
  -5.7604712074272590E-002   7.7181897815503733E-002   0.0000000000000000     
  -5.9866542745404989E-002   8.3188562916764769E-002   0.0000000000000000     
  -5.5146431072733378E-002   6.1042588603768322E-002   0.0000000000000000     
  -5.7825163851120090E-002   6.6479528154880424E-002   0.0000000000000000     
  -6.0421596439721448E-002   7.2098210532950693E-002   0.0000000000000000     
  -6.2935728838537444E-002   7.7898635737979172E-002   0.0000000000000000     
  -6.5367561047568107E-002   8.3880803769965817E-002   0.0000000000000000     
  -6.0132409056435597E-002   6.1887855869989315E-002   0.0000000000000000     
  -6.3002076322119724E-002   6.7303271484594002E-002   0.0000000000000000     
  -6.5782351810625250E-002   7.2898387759283700E-002   0.0000000000000000     
  -6.8473235521952169E-002   7.8673204694058391E-002   0.0000000000000000     
  -7.1074727456100495E-002   8.4627722288918114E-002   0.0000000000000000     
  -6.5318093626051538E-002   6.2788954824057941E-002   0.0000000000000000     
  -6.8382257952041448E-002   6.8185422858959649E-002   0.0000000000000000     
  -7.1348637451529862E-002   7.3757639478854164E-002   0.0000000000000000     
  -7.4217232124516766E-002   7.9505604683741488E-002   0.0000000000000000     
  -7.6988041971002175E-002   8.5429318473621618E-002   0.0000000000000000     
  -5.4571672549611143E-002   8.2550999729314956E-002   0.0000000000000000     
  -5.6588934468246657E-002   8.8746960113144355E-002   0.0000000000000000     
  -5.8529766984033824E-002   9.5098726223219382E-002   0.0000000000000000     
  -6.0394170096972663E-002  0.10160629805954008        0.0000000000000000     
  -6.2182143807063169E-002  0.10826967562210639        0.0000000000000000     
  -5.9866542745404989E-002   8.3188562916764769E-002   0.0000000000000000     
  -6.2049096412292962E-002   8.9363956840821698E-002   0.0000000000000000     
  -6.4149606135013790E-002   9.5694933324858011E-002   0.0000000000000000     
  -6.6168071913567522E-002  0.10218149236887376        0.0000000000000000     
  -6.8104493747954103E-002  0.10882363397286887        0.0000000000000000     
  -6.5367561047568107E-002   8.3880803769965817E-002   0.0000000000000000     
  -6.7714451590528121E-002   9.0031431886258576E-002   0.0000000000000000     
  -6.9973758991132173E-002   9.6337237344205351E-002   0.0000000000000000     
  -7.2145483249380277E-002  0.10279822014380610        0.0000000000000000     
  -7.4229624365272459E-002  0.10941438028506087        0.0000000000000000     
  -7.1074727456100495E-002   8.4627722288918114E-002   0.0000000000000000     
  -7.3585000002952122E-002   9.0749385249455000E-002   0.0000000000000000     
  -7.6002225552388961E-002   9.7025638281261345E-002   0.0000000000000000     
  -7.8326404104410982E-002  0.10345648138433713        0.0000000000000000     
  -8.0557535659018187E-002  0.11004191455868234        0.0000000000000000     
  -7.6988041971002175E-002   8.5429318473621618E-002   0.0000000000000000     
  -7.9660741649564978E-002   9.1517816930410986E-002   0.0000000000000000     
  -8.2235005818784124E-002   9.7760136136026077E-002   0.0000000000000000     
  -8.4710834478659569E-002  0.10415627609046683        0.0000000000000000     
  -8.7088227629191356E-002  0.11070623679373329        0.0000000000000000     
  -6.2182143807063169E-002  0.10826967562210639        0.0000000000000000     
  -6.3896542739553155E-002  0.11508091252394514        0.0000000000000000     
  -6.5540221519690453E-002  0.12203206237808317        0.0000000000000000     
  -6.7113180147475013E-002  0.12912312518452052        0.0000000000000000     
  -6.8615418622906904E-002  0.13635410094325709        0.0000000000000000     
  -6.8104493747954103E-002  0.10882363397286887        0.0000000000000000     
  -6.9960052819181481E-002  0.11561142641465921        0.0000000000000000     
  -7.1735930308257548E-002  0.12253493797206053        0.0000000000000000     
  -7.3432126215182289E-002  0.12959416864507281        0.0000000000000000     
  -7.5048640539955705E-002  0.13678911843369604        0.0000000000000000     
  -7.4229624365272459E-002  0.10941438028506087        0.0000000000000000     
  -7.6227892135840469E-002  0.11617654530846028        0.0000000000000000     
  -7.8141996358116111E-002  0.12307554275449496        0.0000000000000000     
  -7.9971937032099372E-002  0.13011137262316494        0.0000000000000000     
  -8.1717714157790264E-002  0.13728403491447014        0.0000000000000000     
  -8.0557535659018187E-002  0.11004191455868234        0.0000000000000000     
  -8.2700060689530092E-002  0.11677626920534835        0.0000000000000000     
  -8.4758419669266130E-002  0.12365387672538654        0.0000000000000000     
  -8.6732612598226275E-002  0.13067473711879690        0.0000000000000000     
  -8.8622639476410595E-002  0.13783885038557944        0.0000000000000000     
  -8.7088227629191356E-002  0.11070623679373329        0.0000000000000000     
  -8.9376558480250390E-002  0.11741059810532342        0.0000000000000000     
  -9.1585200241707618E-002  0.12426993988473524        0.0000000000000000     
  -9.3714152913563054E-002  0.13128426213196870        0.0000000000000000     
  -9.5763416495816683E-002  0.13845356484702387        0.0000000000000000     
  -6.8615418622906904E-002  0.13635410094325709        0.0000000000000000     
  -7.0047601048022712E-002  0.14370360178988517        0.0000000000000000     
  -7.1410391524859063E-002  0.15115023985999698        0.0000000000000000     
  -7.2703790053415984E-002  0.15869401515359249        0.0000000000000000     
  -7.3927796633693449E-002  0.16633492767067176        0.0000000000000000     
  -7.5048640539955705E-002  0.13678911843369604        0.0000000000000000     
  -7.6589366853103594E-002  0.14410749464916875        0.0000000000000000     
  -7.8058198725151712E-002  0.15153700460272945        0.0000000000000000     
  -7.9455136156100087E-002  0.15907764829437809        0.0000000000000000     
  -8.0780179145948691E-002  0.16672942572411467        0.0000000000000000     
  -8.1717714157790264E-002  0.13728403491447014        0.0000000000000000     
  -8.3380395356142098E-002  0.14457971084315624        0.0000000000000000     
  -8.4961048248108198E-002  0.15198458162396877        0.0000000000000000     
  -8.6459672833688536E-002  0.15949864725690771        0.0000000000000000     
  -8.7876269112883112E-002  0.16712190774197308        0.0000000000000000     
  -8.8622639476410595E-002  0.13783885038557944        0.0000000000000000     
  -9.0420686557138252E-002  0.14512025037184761        0.0000000000000000     
  -9.2118940093728507E-002  0.15249297092371492        0.0000000000000000     
  -9.3717400086181318E-002  0.15995701204118146        0.0000000000000000     
  -9.5216066534496727E-002  0.16751237372424702        0.0000000000000000     
  -9.5763416495816683E-002  0.13845356484702387        0.0000000000000000     
  -9.7710240456092015E-002  0.14572911323524290        0.0000000000000000     
  -9.9531874262012598E-002  0.15306217250196802        0.0000000000000000     
 -0.10122831791357845       0.16045274264719919        0.0000000000000000     
 -0.10279957141078952       0.16790082367093648        0.0000000000000000     
 </DataArray>
 <DataArray  type="Float64" Name="stress" NumberOfComponents="3" format="ascii">
   13417194818.313112        4025158445.4939337        2894426739.6568947     
   11766491830.380527        1890054495.6686773        1715905435.6000466     
   10313190081.693388        412954676.66156912        810586794.53726590     
   9057289572.2516918       -406141011.52739620        178470816.46855181     
   7998790302.0554371       -567232568.89821339       -180442498.60609540     
   10540048771.603827        3162014631.4811482        2226003253.8983650     
   9667436481.0253601        1589275365.3881536        1446771628.6577592     
   8943546133.7812843        512275910.40979433        863092180.60342336     
   8368377729.8715982       -68983733.453929424        474964909.73535973     
   7941931269.2963037       -154503566.20301676        282389816.05356455     
   8337787673.1285505        2501336301.9385653        1712490437.3671916     
   8021407549.0247831        1424404160.3140066        1275755979.0465977     
   7805070072.3443556        680947510.10057306        956923212.10447955     
   7688775243.0872631        270966351.29826307        755992136.54083538     
   7672523061.2535095        194460683.90707970        672962752.35566652     
   6810411522.8872805        2043123456.8661842        1353888290.0633726     
   6828405034.3787994        1395440880.4462371        1202858486.7665629     
   6897761897.3825989        918969475.73390293        1092079889.0404320     
   7018482111.8986835        613709242.72918320        1021552496.8849804     
   7190565677.9270535        479660181.43207836        991276310.30020797     
   5957920320.8800201        1787376096.2640061        1150196811.9869092     
   6088428937.0874023        1502385525.7848442        1228079151.8176551     
   6221621608.8960161        1226341807.3097856        1268562211.4112830     
   6357498336.3058615        959244940.83883023        1271645990.7677948     
   6496059119.3169365        701094926.37197828        1237330489.8871887     
   7998790302.0554371       -567232568.89821339       -180442498.60609540     
   7917558214.7316036       -198976929.77460575       -77987100.540725559     
   7794639421.1069613        30323021.679638386       -8419262.8486942537     
   7630033921.1815090        120667285.46452284        28261014.470008302     
   7423741714.9552498        72055861.580045223        32053731.415371694     
   7941931269.2963037       -154503566.20301676        282389816.05356455     
   7739602758.2209997        17106125.303831100        281419427.75559473     
   7513757230.8921461        110325762.63217402        265565338.70293102     
   7264394687.3097401        125155345.78201294        234827548.89556569     
   6991515127.4737835        61594874.753347397        189206058.33350617     
   7672523061.2535095        194460683.90707970        672962752.35566652     
   7400537725.3371344        184856307.47029066        589764549.41615808     
   7123205063.2144613        157427510.34585094        509686505.34058928     
   6840525074.8854980        112174292.53376555        432728620.12896389     
   6552497760.3502340        49096654.034024239        358890893.78127962     
   7190565677.9270535        479660181.43207836        991276310.30020797     
   6900363116.0799980        304273616.72476912        847048264.44095945     
   6622982918.0739050        171628264.82066536        723944237.06428957     
   6358425083.9087734        81724125.719767094        621964228.17020071     
   6106689613.5846024        34561199.422076941        541108237.75869203     
   6496059119.3169365        701094926.37197828        1237330489.8871887     
   6239078930.4495983        375358053.06726718        1053270572.8300003     
   6013090795.4704762        152928026.05661845        908338533.87402916     
   5818094714.3795757        33804845.340030670        802534373.01927435     
   5654090687.1768923        17988510.917504549        735858090.26573884     
   7423741714.9552498        72055861.580045223        32053731.415371694     
   7217465135.3769007       -20630111.125270367        13784613.964543434     
   7023812029.0343800       -71237839.711160660        737867.97925312188     
   6842782395.9276896       -79767324.177617073       -7086506.5405085273     
   6674376236.0568275       -46218564.524645805       -9688509.5947309472     
   6991515127.4737835        61594874.753347397        189206058.33350617     
   6807322074.2547750        1209809.7706732750        180174636.47665572     
   6631197325.6811275       -32280906.394136429        175454115.49468660     
   6463140881.7528400       -38877273.741086721        175044495.38761041     
   6303152742.4699087       -18579292.270167828        178945776.15542263     
   6552497760.3502340        49096654.034024239        358890893.78127962     
   6387784031.8030109        20231236.267733335        353782804.16285217     
   6226583439.3106737        3076272.0177302361        352074144.82866859     
   6068895982.8732252       -2368238.7159745693        353764915.77872241     
   5914721662.4906645        3897704.0666091442        358855117.01301885     
   6106689613.5846024        34561199.422076941        541108237.75869203     
   5958851008.0216007        36434168.365894556        534609117.02314055     
   5809970369.9230137        34833695.524433613        530597955.98118269     
   5660047699.2888441        29759780.897700548        529074754.63282156     
   5509082996.1190920        21212424.485692739        530039512.97805536     
   5654090687.1768923        17988510.917504549        735858090.26573884     
   5520523002.9105473        49818606.065164804        722653575.05751574     
   5381358117.5181494        62991364.125976801        711025548.95224154     
   5236596030.9996977        57506785.099950314        700974011.94991243     
   5086236743.3551931        33364868.987075090        692498964.05053329     
   6674376236.0568275       -46218564.524645805       -9688509.5947309472     
   6509976086.3851490       -1575014.1108243465       -1012224.7567262859     
   6339475312.5113249        22733122.295838118        6332268.4110981813     
   6162873914.4353561        26705844.695353746        12344969.908715231     
   5980171892.1572437        10343153.087725639        17025879.736148886     
   6303152742.4699087       -18579292.270167828        178945776.15542263     
   6131945314.9454279        5020339.8086986542        177040348.44274196     
   5957065695.1363049        16379330.938755989        176086633.66770419     
   5778513883.0425320        15497681.119990110        176084631.83030143     
   5596289878.6641264        2375390.3524320126        177034342.93053809     
   5914721662.4906645        3897704.0666091442        358855117.01301885     
   5743231255.9929075        8410707.4743893147        349201147.32006121     
   5570497089.1280079        8777842.9916880131        342782395.17258638     
   5396519161.8959646        4999110.6185131073        339598860.57057601     
   5221297474.2967796       -2925489.6451325417        339650543.51404828     
   5509082996.1190920        21212424.485692739        530039512.97805536     
   5343833909.5275812        8596088.8862311840        515470171.87524772     
   5179769494.4864302       -71341.545368194580        506419552.92574626     
   5016889750.9956360       -4789866.8090939522        502887656.12955409     
   4855194679.0552053       -5559486.9049580097        504874481.48667043     
   5086236743.3551931        33364868.987075090        692498964.05053329     
   4933753275.5494518        5576484.0442366600        675847422.10828900     
   4784882911.2115755       -10168222.672395945        666998106.92718589     
   4639625650.3415585       -13869251.162830114        665951018.50722682     
   4497981492.9394035       -5526601.4270563126        672706156.84840679     
   5980171892.1572437        10343153.087725639        17025879.736148886     
   5785034473.9058008       -14292022.498811483        1865439.7670275341     
   5593003043.4695482       -28573905.368062496       -6616516.3836218603     
   5404077600.8484735       -32502495.520052671       -8419988.7157954555     
   5218258146.0425711       -26077792.954789877       -3544977.2294894066     
   5596289878.6641264        2375390.3524320126        177034342.93053809     
   5420491620.8288860       -11511431.820014954        167423181.89166036     
   5246590441.8489523       -19074657.808104038        163529425.02812997     
   5074586341.7243271       -20314287.611827850        165353072.33994657     
   4904479320.4550152       -15230321.231178045        172894123.82712200     
   5221297474.2967796       -2925489.6451325417        339650543.51404828     
   5062092435.0402374       -6887740.9547381401        334178267.61889046     
   4903575565.6791286       -8556092.6128995419        333462316.25596118     
   4745746866.2134542       -7930544.6196100712        337502689.42525464     
   4588606336.6432171       -5011096.9748690128        346299387.12677181     
   4855194679.0552053       -5559486.9049580097        504874481.48667043     
   4709836916.5398579       -420949.90298414230        502130696.94871968     
   4563958414.9600782        2981790.2175297737        503182157.29986697     
   4417559174.3158607        4648733.4565961361        508028862.54011697     
   4270639194.6072025        4579879.8141932487        516670812.66946524     
   4497981492.9394035       -5526601.4270563126        672706156.84840679     
   4363725065.3277512        7888941.3352446556        671280469.88114297     
   4227738989.6917939        15538990.683188915        672688948.15985596     
   4090023266.0315256        17423546.616766930        676931591.68454385     
   3950577894.3469496        13542609.135980606        684008400.45520198     
   5218258146.0425711       -26077792.954789877       -3544977.2294894066     
   5032891103.4601498       -13980684.406699181       -9547890.8118349016     
   4848068632.8311720       -68336.013808727264       -11599415.327466181     
   4663790734.1556358        15659252.223897934       -9699550.7763851620     
   4480057407.4335508        33202080.306429386       -3848297.1585963331     
   4904479320.4550152       -15230321.231178045        172894123.82712200     
   4727823395.2740736       -8582625.5865111351        166754188.71326503     
   4551596809.1087475       -503799.88979291916        164621280.89616984     
   4375799561.9590216        9006155.8589267731        166495400.37582517     
   4200431653.8249078        19947241.659667492        172376547.15223649     
   4588606336.6432171       -5011096.9748690128        346299387.12677181     
   4420820495.2353487       -3765124.3220615387        339887992.05391878     
   4253348759.9052272       -1472131.4100670815        337539262.50787145     
   4086191130.6528635        1867881.7611057758        339253198.48863029     
   3919347607.4782639        6254915.1914885044        345029799.99618649     
   4270639194.6072025        4579879.8141932487        516670812.66946524     
   4111882403.3439407        471819.38655519485        509853519.21013457     
   3953324485.2205901       -2973330.5747022629        507154529.50765258     
   3794965440.2371554       -5755570.0695869923        508573843.56201988     
   3636805268.3936386       -7874899.0980699062        514111461.37322778     
   3950577894.3469496        13542609.135980606        684008400.45520198     
   3801009119.5998611        4128205.5393722057        676650770.18190610     
   3651523985.0548487       -5007397.3836596012        673467081.89550173     
   3502122490.7119012       -13864199.633132458        674457335.59599757     
   3352804636.5710282       -22442201.209030628        679621531.28338432     
   4480057407.4335508        33202080.306429386       -3848297.1585963331     
   4331597845.6174555        48347053.587207317        2355049.0847815773     
   4174035480.4587593        33149349.059319258        3598377.3222524584     
   4007370311.9574537       -12391033.277274370       -118312.44617600288     
   3831602340.1135445       -88274093.422537088       -8795020.2205243036     
   4200431653.8249078        19947241.659667492        172376547.15223649     
   4041144458.7014198        27652644.692823172        171063069.91228700     
   3876113706.9772272        16212859.056959629        168097485.88353506     
   3705339398.6523232       -14372115.247962236        163479795.06600344     
   3528821533.7266998       -64102278.221928120        157209997.45966873     
   3919347607.4782639        6254915.1914885044        345029799.99618649     
   3758683953.9534512        9356100.4488673210        340118620.47176212     
   3595635990.5698137        4509586.1768338680        336863245.37566459     
   3430203717.3273554       -8284627.6246018410        335263674.70789808     
   3262387134.2260756       -29026540.955449820        335319908.46846277     
   3636805268.3936386       -7874899.0980699062        514111461.37322778     
   3484216331.3735371       -6542579.1446831226        509521700.76321054     
   3332602331.2365074       -1960469.5810618401        509895655.79864460     
   3181963267.9825468        5871429.5927866697        515233326.47952616     
   3032299141.6116571        16953118.376881838        525534712.80584711     
   3352804636.5710282       -22442201.209030628        679621531.28338432     
   3217741590.9616985       -20043394.087797284        679272310.78664720     
   3087012728.9773202       -3197308.2167189121        687194717.15247285     
   2960618050.6179099        28096056.404258966        703388750.38087189     
   2838557555.8834548        73836699.775071740        727854410.47182965     
   3831602340.1135445       -88274093.422537088       -8795020.2205243036     
   3568502529.4689851       -164056337.77855778       -81143205.149492875     
   3331846423.7688537       -151692898.98646712       -131919232.33076531     
   3121634023.0131397       -51183777.046343923       -161123101.76435632     
   2937865327.2018542        137471028.04190707       -168754813.45022941     
   3528821533.7266998       -64102278.221928120        157209997.45966873     
   3324638113.7069025       -106034865.46993566        119732467.35601518     
   3136811816.6092768       -93443709.644016147        98191620.652618647     
   2965342642.4338255       -26328810.744188309        92587457.349493280     
   2810230591.1805444        95309831.229553103        102919977.44664545     
   3262387134.2260756       -29026540.955449820        335319908.46846277     
   3101018749.5526700       -41939877.678931952        320945354.16414827     
   2945920905.7791834       -33951411.402687430        316872008.91267824     
   2797093602.9056373       -5061142.1266815662        323099872.71405011     
   2654536840.9319768        44730930.149008632        339628945.56825912     
   3032299141.6116571        16953118.376881838        525534712.80584711     
   2897644437.0062857        28228625.594399810        522495455.27492046     
   2759173691.2785864        26783995.737487078        524121932.44941187     
   2616886904.4285522        12619228.806109428        530414144.32930773     
   2470784076.4561787       -14265675.199698329        541372090.91463137     
   2838557555.8834548        73836699.775071740        727854410.47182965     
   2714515176.0677571        104470644.35009801        724382770.68832541     
   2576570173.1074696        88762511.776497245        719941391.26280332     
   2424722547.0026035        26712302.054277539        714530272.19528508     
   2258972297.7531362       -81679984.816578388        708149413.48573351     
   5957920320.8800201        1787376096.2640061        1150196811.9869092     
   6088428937.0874023        1502385525.7848442        1228079151.8176551     
   6221621608.8960161        1226341807.3097856        1268562211.4112830     
   6357498336.3058615        959244940.83883023        1271645990.7677948     
   6496059119.3169365        701094926.37197828        1237330489.8871887     
   5434798216.8487635        1630439465.0546288        1033669709.5085207     
   5489970908.1172543        1372569370.5972955        1114032200.1095777     
   5547322758.5372810        1121963139.9784117        1167584688.0666435     
   5606853768.1088419        878620773.19797814        1194327173.3797185     
   5668563936.8319368        642542270.25599456        1194259656.0488029     
   4895529360.5355110        1468658808.1606534        936560688.99892759     
   4905621205.7026129        1246985713.3763988        1018814284.5123172     
   4917387313.5715551        1030893494.2649410        1084847154.9748421     
   4930827684.1423349        820382150.82627988        1134659300.3865020     
   4945942317.4149551        615451683.06041539        1168250720.7472975     
   4340113751.9402637        1302034125.5820789        858869750.45813012     
   4335379829.8434811        1125634554.1221547        942425405.02587342     
   4331815273.9988413        953132870.16937351        1020349612.1358789     
   4329420084.4063444        784529073.72373629        1092642371.7881448     
   4328194261.0659904        619823164.78524148        1159303683.9826732     
   3768551391.0630183        1130565417.3189056        800596893.88612771     
   3779246780.5398545        1008515892.8345624        884865561.65024662     
   3790606639.8191376        888681267.69170952        974092059.54975295     
   3802630968.9008670        771061541.89034641        1068276387.5846474     
   3815319767.7850437        655656715.43047345        1167418545.7549291     
   6496059119.3169365        701094926.37197828        1237330489.8871887     
   6239078930.4495983        375358053.06726718        1053270572.8300003     
   6013090795.4704762        152928026.05661845        908338533.87402916     
   5818094714.3795757        33804845.340030670        802534373.01927435     
   5654090687.1768923        17988510.917504549        735858090.26573884     
   5668563936.8319368        642542270.25599456        1194259656.0488029     
   5518838477.2354183        382996680.66760731        1073570109.1267813     
   5393283486.0804262        204019319.21764803        980981410.37732971     
   5291898963.3669662        105610185.90612221        916493559.80044556     
   5214684909.0950317        87769280.733022928        880106557.39612961     
   4945942317.4149551        615451683.06041539        1168250720.7472975     
   4871965787.2931147        412645637.24950838        1102973027.6059740     
   4815338140.1661158        267669201.42140150        1054769152.7085683     
   4776059376.0339527        180522375.57609010        1023639096.0550823     
   4754129494.8966322        151205159.71357965        1009582857.6455179     
   4328194261.0659904        619823164.78524148        1159303683.9826732     
   4298460860.6226902        464304922.81297481        1141479328.2675741     
   4279254757.7275386        343877672.66787350        1129701760.8677464     
   4270575952.3805370        258541414.34993935        1123970981.7831876     
   4272424444.5816860        208296147.85917187        1124286991.0139008     
   3815319767.7850437        655656715.43047345        1167418545.7549291     
   3798323697.2241426        537974537.35800290        1189089011.1115847     
   3785033338.7647009        432644732.95706785        1205779234.8548622     
   3775448692.4067202        339667302.22766650        1217489216.9847608     
   3769569758.1501999        259042245.16980267        1224218957.5012808     
   5654090687.1768923        17988510.917504549        735858090.26573884     
   5520523002.9105473        49818606.065164804        722653575.05751574     
   5381358117.5181494        62991364.125976801        711025548.95224154     
   5236596030.9996977        57506785.099950314        700974011.94991243     
   5086236743.3551931        33364868.987075090        692498964.05053329     
   5214684909.0950317        87769280.733022928        880106557.39612961     
   5077902593.6868868        85420267.365610600        856097734.05254185     
   4938946976.9668045        75826916.291741610        835927115.00040233     
   4797818058.9347887        58989227.511426210        819594700.23971760     
   4654515839.5908337        34907201.024650574        807100489.77048397     
   4754129494.8966322        151205159.71357965        1009582857.6455179     
   4620594591.7424097        116615650.84981227        978764275.94969916     
   4488310287.0903683        86194803.659981966        954045613.73383522     
   4357276580.9405069        59942618.144087553        935426870.99792981     
   4227493473.2928257        37859094.302129507        922908047.74197721     
   4272424444.5816860        208296147.85917187        1124286991.0139008     
   4148598997.0771122        143404756.51776838        1090653200.7489901     
   4029448047.8888350        94095026.230690956        1065381045.1525382     
   3914971597.0168552        60366956.997938871        1048470524.2245464     
   3805169644.4611750        42220548.819516659        1039921637.9650139     
   3769569758.1501999        259042245.16980267        1224218957.5012808     
   3661915809.6909962        165787584.36947739        1191764508.4504158     
   3562360259.3622093        99527584.003873467        1169933409.2565122     
   3470903107.1638360        60262244.072982311        1158725659.9195702     
   3387544353.0958776        47991564.576809525        1158141260.4395919     
   5086236743.3551931        33364868.987075090        692498964.05053329     
   4933753275.5494518        5576484.0442366600        675847422.10828900     
   4784882911.2115755       -10168222.672395945        666998106.92718589     
   4639625650.3415585       -13869251.162830114        665951018.50722682     
   4497981492.9394035       -5526601.4270563126        672706156.84840679     
   4654515839.5908337        34907201.024650574        807100489.77048397     
   4522924425.4485531        14599427.695387125        794939258.80561090     
   4393678408.1766777        2109643.9341444969        789320316.60220289     
   4266777787.7752075       -2562150.2590775490        790243663.16025484     
   4142222564.2441449        584045.11571455002        797709298.47977114     
   4227493473.2928257        37859094.302129507        922908047.74197721     
   4113194289.9577794        23951985.729578972        913758136.72411454     
   3999972796.8956823        13637178.066861153        909890576.46803319     
   3887828994.1065364        6914671.3139779568        911305366.97373688     
   3776762881.5903387        3784465.4709274769        918002508.24122155     
   3805169644.4611750        42220548.819516659        1039921637.9650139     
   3704562869.0771346        33634158.146807194        1032304055.8637934     
   3603766077.3685865        24414379.725743055        1028708886.5246768     
   3502779269.3355355        14561213.556334257        1029136129.9476670     
   3401602444.9779787        4074659.6385700703        1033585786.1327592     
   3387544353.0958776        47991564.576809525        1158141260.4395919     
   3297030162.8066177        43645944.947074890        1150577016.2246537     
   3205058249.5953932        34441248.910797834        1145775246.7721384     
   3111628613.4622111        20377476.467993140        1143735952.0820482     
   3016741254.4070692        1454627.6186513901        1144459132.1543834     
   4497981492.9394035       -5526601.4270563126        672706156.84840679     
   4363725065.3277512        7888941.3352446556        671280469.88114297     
   4227738989.6917939        15538990.683188915        672688948.15985596     
   4090023266.0315256        17423546.616766930        676931591.68454385     
   3950577894.3469496        13542609.135980606        684008400.45520198     
   4142222564.2441449        584045.11571455002        797709298.47977114     
   4013757863.5473146        5160550.4001960754        791925761.78896224     
   3884664130.6346302        7640281.6318321228        789803012.28153729     
   3754941365.5061026        8023238.8106465340        791341049.95749497     
   3624589568.1617174        6309421.9366221428        796539874.81683981     
   3776762881.5903387        3784465.4709274769        918002508.24122155     
   3656451684.7723513        230466.36677646637        909145173.60340118     
   3536612071.5469723       -1751587.4286773205        904775248.08637762     
   3417244041.9142089       -2161695.9154179096        904892731.69014287     
   3298347595.8740501       -999859.09346556664        909497624.41470480     
   3401602444.9779787        4074659.6385700703        1033585786.1327592     
   3291806529.0028634       -6901310.7649977207        1022938705.3244652     
   3183582812.4288192       -12636616.498327971        1017605655.5743763     
   3076931295.2558465       -13131257.561425090        1017586636.8824893     
   2971851977.4839435       -8385233.9542841911        1022881649.2488054     
   3016741254.4070692        1454627.6186513901        1144459132.1543834     
   2919822396.2388544       -16234780.995124578        1133306356.9521530     
   2825576353.2801676       -25014805.577138543        1128294234.7455354     
   2734003125.5310173       -24885446.127368212        1129422765.5345333     
   2645102712.9913960       -15846702.645838380        1136691949.3191433     
   3950577894.3469496        13542609.135980606        684008400.45520198     
   3801009119.5998611        4128205.5393722057        676650770.18190610     
   3651523985.0548487       -5007397.3836596012        673467081.89550173     
   3502122490.7119012       -13864199.633132458        674457335.59599757     
   3352804636.5710282       -22442201.209030628        679621531.28338432     
   3624589568.1617174        6309421.9366221428        796539874.81683981     
   3487350396.3917789        1896645.8490066528        789256931.93580389     
   3350323061.0887208       -1810008.6823334694        786130135.31745017     
   3213507562.2525454       -4810541.6573965549        787159484.96177721     
   3076903899.8832588       -7104953.0761744976        792344980.86878872     
   3298347595.8740501       -999859.09346556664        909497624.41470480     
   3173387182.1549287       -426261.14999663830        902438931.23488426     
   3048766801.1675038        1280779.2324662209        899518588.59352946     
   2924486452.9117785        4121262.0539129972        900736596.49064112     
   2800546137.3877468        8095187.3143590689        906092954.92622209     
   2971851977.4839435       -8385233.9542841911        1022881649.2488054     
   2859119476.8893166       -2840515.4576297998        1016196768.0791459     
   2746855205.2912016        4264966.3607333899        1013632441.7237403     
   2635059162.6895957        12931211.500801921        1015188670.1825863     
   2523731349.0845027        23158219.962572813        1020865453.4556873     
   2645102712.9913960       -15846702.645838380        1136691949.3191433     
   2544547280.5949407       -5346117.0738805532        1130530442.4685926     
   2444588273.4598093        7142552.7024846077        1128471694.7080803     
   2345225691.5860000        21619306.683261395        1130515706.0376127     
   2246459534.9735188        38084144.868464589        1136662476.4571834     
   3352804636.5710282       -22442201.209030628        679621531.28338432     
   3217741590.9616985       -20043394.087797284        679272310.78664720     
   3087012728.9773202       -3197308.2167189121        687194717.15247285     
   2960618050.6179099        28096056.404258966        703388750.38087189     
   2838557555.8834548        73836699.775071740        727854410.47182965     
   3076903899.8832588       -7104953.0761744976        792344980.86878872     
   2962292559.7203484       -604200.48045217991        794206795.89206433     
   2848918262.6636872        10020029.136098266        802582462.36360228     
   2736781008.7132788        24767735.773499608        817471980.28340650     
   2625880797.8691201        43638919.431717277        838875349.65147185     
   2800546137.3877468        8095187.3143590689        906092954.92622209     
   2701364287.2018251        17191220.743744373        906552474.86435294     
   2600322339.6034431        20086929.464935541        911768070.83643901     
   2497420294.5926003        16782313.477929473        921739742.84248829     
   2392658152.1693048        7277372.7827286720        936467490.88249469     
   2523731349.0845027        23158219.962572813        1020865453.4556873     
   2434956773.4061279        33342869.584790587        1016309347.7035053     
   2341224959.7965875        27003392.769787192        1014751542.5709867     
   2242535908.2558770        4139789.5175575018        1016192038.0581166     
   2138889618.7839985       -35247940.171908855        1020630834.1649014     
   2246459534.9735188        38084144.868464589        1136662476.4571834     
   2163070018.3332591        47850746.042686939        1123477414.4095349     
   2071626123.2431178        30769419.050652623        1111532877.5672376     
   1972127849.7030978       -13159836.107651949        1100828865.9302909     
   1864575197.7132034       -83937019.432202935        1091365379.4987009     
   2838557555.8834548        73836699.775071740        727854410.47182965     
   2714515176.0677571        104470644.35009801        724382770.68832541     
   2576570173.1074696        88762511.776497245        719941391.26280332     
   2424722547.0026035        26712302.054277539        714530272.19528508     
   2258972297.7531362       -81679984.816578388        708149413.48573351     
   2625880797.8691201        43638919.431717277        838875349.65147185     
   2494883635.5189838        52082925.000017166        818544803.96711302     
   2359749588.7627110        46737315.881224632        798954920.36135888     
   2220478657.6003160        27602092.075351715        780105698.83422446     
   2077070842.0318017       -5322746.4176011086        761997139.38568902     
   2392658152.1693048        7277372.7827286720        936467490.88249469     
   2259593069.3436394       -5002502.0380265713        910671401.15882027     
   2132156840.8503144        1480470.9156712294        887326375.23437357     
   2010349466.6893220        26726291.643829107        866432413.10916972     
   1894170946.8606787        70734960.146452665        847989514.78318942     
   2138889618.7839985       -35247940.171908855        1020630834.1649014     
   2008643477.5417418       -66785636.764040470        1000762562.2634503     
   1893791929.3702774       -47008023.120179534        985055755.88185835     
   1794334974.2696195        24084900.759682775        973510415.02012730     
   1710272612.2397606        146493134.87556165        966126539.67823851     
   1864575197.7132034       -83937019.432202935        1091365379.4987009     
   1742034860.1132736       -133266479.17803550        1088818287.2810118     
   1644654854.3226075       -98728166.226317763        1092143062.3038008     
   1572435180.3412035        19677919.422933280        1101339704.5670745     
   1525375838.1690621        221951777.76973638        1116408214.0708272     
   3768551391.0630183        1130565417.3189056        800596893.88612771     
   3779246780.5398545        1008515892.8345624        884865561.65024662     
   3790606639.8191376        888681267.69170952        974092059.54975295     
   3802630968.9008670        771061541.89034641        1068276387.5846474     
   3815319767.7850437        655656715.43047345        1167418545.7549291     
   3208036361.9571199        962410908.58713603        756631842.50101721     
   3236024015.2976432        868086685.73153949        853024975.81934714     
   3263768917.7483087        772953293.24308324        951363873.90618396     
   3291271069.3091159        677010731.12176704        1051648536.7615283     
   3318530469.9800658        580258999.36759162        1153878964.3853788     
   2685762748.6759105        805728824.60277307        721864319.52089524     
   2722436764.8318906        736548133.06145406        829323494.25241339     
   2757960809.4057088        663534202.91292560        935716368.38555849     
   2792334882.3973627        586687034.15718746        1041042941.9203302     
   2825558983.8068552        506006626.79423988        1145303214.8567278     
   2201730551.2193894        660519165.36581683        696294324.94576132     
   2238485029.1425967        613900234.82430613        813761116.94944596     
   2273182314.7913365        560423996.70123625        927149542.98787653     
   2305822408.1656079        500090450.99660718        1036459603.0610530     
   2336405309.2654119        432899597.71041858        1141691297.1689756     
   1755939769.5875564        526781930.87626696        679921858.77561581     
   1784168808.2297604        500142991.02009571        806337843.91044402     
   1809433433.9051919        463622674.60801554        925663397.71313775     
   1831733646.6138506        417220981.64002609        1037898520.1836967     
   1851069446.3557363        360937912.11612785        1143043211.3221211     
   3815319767.7850437        655656715.43047345        1167418545.7549291     
   3798323697.2241426        537974537.35800290        1189089011.1115847     
   3785033338.7647009        432644732.95706785        1205779234.8548622     
   3775448692.4067202        339667302.22766650        1217489216.9847608     
   3769569758.1501999        259042245.16980267        1224218957.5012808     
   3318530469.9800658        580258999.36759162        1153878964.3853788     
   3294119231.8602929        473174887.71086216        1182082338.6782897     
   3273358752.3675194        378259971.47746229        1207116271.9048922     
   3256249031.5017438        295514250.66739166        1228980764.0651858     
   3242790069.2629690        224937725.28065038        1247675815.1591711     
   2825558983.8068552        506006626.79423988        1145303214.8567278     
   2798906293.9769826        411072696.30788386        1179975385.6990206     
   2775849409.2996483        328124782.99665010        1213288916.0220759     
   2756388329.7748504        257162886.86053944        1245243805.8258917     
   2740523055.4025884        198187007.89955080        1275840055.1104686     
   2336405309.2654119        432899597.71041858        1141691297.1689756     
   2312684883.5742121        351667963.14906615        1182768152.1737792     
   2292505309.5610867        282239167.51462996        1224297167.2064137     
   2275866587.2260365        224613210.80711150        1266278342.2668798     
   2262768716.5690618        178790093.02650809        1308711677.3551776     
   1851069446.3557363        360937912.11612785        1143043211.3221211     
   1835455000.6519797        294960688.23441148        1190460638.1025634     
   1823326453.1518350        240603125.03140342        1240141025.4579062     
   1814683803.8553052        197865222.50710845        1292084373.3881502     
   1809527052.7623866        166746980.66152090        1346290681.8932960     
   3769569758.1501999        259042245.16980267        1224218957.5012808     
   3661915809.6909962        165787584.36947739        1191764508.4504158     
   3562360259.3622093        99527584.003873467        1169933409.2565122     
   3470903107.1638360        60262244.072982311        1158725659.9195702     
   3387544353.0958776        47991564.576809525        1158141260.4395919     
   3242790069.2629690        224937725.28065038        1247675815.1591711     
   3165126482.6304827        150199474.23162353        1230977716.7943316     
   3093767958.2429700        96478097.332513928        1222452760.0350912     
   3028714496.1004372        63773594.583326936        1222100944.8814452     
   2969966096.2028761        52085965.984055758        1229922271.3333988     
   2740523055.4025884        198187007.89955080        1275840055.1104686     
   2685849235.5929193        139864988.10065150        1272806082.2319779     
   2635687142.1427855        96582056.166872501        1275495042.7077198     
   2590036775.0521860        68338212.098213911        1283906936.5376925     
   2548898134.3211255        55133455.894675732        1298041763.7218986     
   2262768716.5690618        178790093.02650809        1308711677.3551776     
   2224084068.5783072        134784125.97656441        1317249604.7633550     
   2188117811.0616493        99839460.506944656        1329060257.2744002     
   2154869944.0190883        73956096.617644906        1344143634.8883107     
   2124340467.4506238        57134034.308671951        1362499737.6050880     
   1809527052.7623866        166746980.66152090        1346290681.8932960     
   1779830981.5866482        134956887.85936630        1364308284.3884618     
   1751059964.9995658        106250310.35273314        1383148403.7351308     
   1723214003.0011418        80627248.141625881        1402811039.9332995     
   1696293095.5913742        58087701.226041377        1423296192.9829724     
   3387544353.0958776        47991564.576809525        1158141260.4395919     
   3297030162.8066177        43645944.947074890        1150577016.2246537     
   3205058249.5953932        34441248.910797834        1145775246.7721384     
   3111628613.4622111        20377476.467993140        1143735952.0820482     
   3016741254.4070692        1454627.6186513901        1144459132.1543834     
   2969966096.2028761        52085965.984055758        1229922271.3333988     
   2885887961.6003747        41793479.929036021        1220466702.1741621     
   2801434916.1522813        30251291.055379152        1214571824.1096871     
   2716606959.8586001        17459399.363093734        1212237637.1399755     
   2631404092.7193265        3417804.8521671295        1213464141.2650275     
   2548898134.3211255        55133455.894675732        1298041763.7218986     
   2473536673.4977808        39578288.842097640        1287958150.3741267     
   2398883113.9052134        26382792.558778286        1282233444.4534574     
   2324937455.5434256        15546967.044724226        1280867645.9598880     
   2251699698.4124136        7070812.2999274731        1283860754.8934221     
   2124340467.4506238        57134034.308671951        1362499737.6050880     
   2059976298.4988301        37000371.686251163        1353051360.8245492     
   1997402842.8541842        22835753.420990467        1348760107.8034461     
   1936620100.5166869        14640179.512886167        1349625978.5417855     
   1877628071.4863341        12413649.961940765        1355648973.0395637     
   1696293095.5913742        58087701.226041377        1423296192.9829724     
   1645206836.6035266        34059728.461495221        1415746333.5254261     
   1596994102.9991965        19610173.642009139        1414151814.1596575     
   1551654894.7783837        14739036.767578185        1418512634.8856661     
   1509189211.9410861        19446317.838200271        1428828795.7034559     
   3016741254.4070692        1454627.6186513901        1144459132.1543834     
   2919822396.2388544       -16234780.995124578        1133306356.9521530     
   2825576353.2801676       -25014805.577138543        1128294234.7455354     
   2734003125.5310173       -24885446.127368212        1129422765.5345333     
   2645102712.9913960       -15846702.645838380        1136691949.3191433     
   2631404092.7193265        3417804.8521671295        1213464141.2650275     
   2551448806.0560613       -7090988.6077666283        1206369219.4904447     
   2473159766.6613693       -12045624.505800247        1204525480.8424006     
   2396536974.5352511       -11446102.841915965        1207932925.3208916     
   2321580429.6777053       -5292423.6161246300        1216591552.9259248     
   2251699698.4124136        7070812.2999274731        1283860754.8934221     
   2186166640.7710280        2980231.2489159107        1279649357.2820342     
   2121293262.4572532        1088581.2899447680        1279799672.9281087     
   2057079563.4710946        1395862.4230225086        1284311701.8316453     
   1993525543.8125467        3902074.6481422186        1293185443.9926455     
   1877628071.4863341        12413649.961940765        1355648973.0395637     
   1823975900.3837504        13978878.574922800        1353146770.3269198     
   1769976840.6678233        14387811.810089707        1354116811.0026612     
   1715630892.3385525        13640449.667443514        1358559095.0667889     
   1660938055.3959332        11736792.146972358        1366473622.5193079     
   1509189211.9410861        19446317.838200271        1428828795.7034559     
   1464876584.8942354        25904953.370264947        1426861458.6251018     
   1419210501.2930808        27852067.054647982        1427476895.0660570     
   1372190961.1376216        25287658.891352177        1430675105.0263278     
   1323817964.4278569        18211728.880367219        1436456088.5059068     
   2645102712.9913960       -15846702.645838380        1136691949.3191433     
   2544547280.5949407       -5346117.0738805532        1130530442.4685926     
   2444588273.4598093        7142552.7024846077        1128471694.7080803     
   2345225691.5860000        21619306.683261395        1130515706.0376127     
   2246459534.9735188        38084144.868464589        1136662476.4571834     
   2321580429.6777053       -5292423.6161246300        1216591552.9259248     
   2230901240.4543304       -683484.50158655643        1209815194.1427605     
   2140647267.6097500        5342842.5422596931        1207892797.1236432     
   2050818511.1439552        12786557.515390277        1210824361.8685629     
   1961414971.0569506        21647660.417820334        1218609888.3775308     
   1993525543.8125467        3902074.6481422186        1293185443.9926455     
   1914868891.1165495        3263255.3115603924        1285594489.5805817     
   1836466245.9168053        3471127.6291553974        1283608699.6065631     
   1758317608.2133160        4525691.6009340286        1287228074.0705872     
   1680422978.0060792        6426947.2268917561        1296452612.9726543     
   1660938055.3959332        11736792.146972358        1366473622.5193079     
   1596450232.5815992        6494102.3655577302        1357868328.7820497     
   1532045208.3809853        1527407.9632005095        1355619402.1568377     
   1467722982.7940886       -3163291.0600953102        1359726842.6436718     
   1403483555.8209107       -7577994.7043293715        1370190650.2425497     
   1323817964.4278569        18211728.880367219        1436456088.5059068     
   1275645264.8494759        9009056.6603964567        1426636711.7471654     
   1227384155.0022783       -488316.45563304424        1423924904.7744715     
   1179034634.8862672       -10280390.467705131        1428320667.5878217     
   1130596704.5014379       -20367165.375841618        1439824000.1872201     
   2246459534.9735188        38084144.868464589        1136662476.4571834     
   2163070018.3332591        47850746.042686939        1123477414.4095349     
   2071626123.2431178        30769419.050652623        1111532877.5672376     
   1972127849.7030978       -13159836.107651949        1100828865.9302909     
   1864575197.7132034       -83937019.432202935        1091365379.4987009     
   1961414971.0569506        21647660.417820334        1218609888.3775308     
   1880920490.6612334        27324950.407776237        1199989077.8338563     
   1796139344.9945014        18713356.161013007        1183298380.2385480     
   1707071534.0567536       -4187122.3224668503        1168537795.5915959     
   1613717057.8479986       -41376485.042646170        1155707323.8930063     
   1680422978.0060792        6426947.2268917561        1296452612.9726543     
   1604793784.5492115        8606001.2408559918        1276791719.3083034     
   1528645639.0001938        9055214.9476521611        1259750526.3353209     
   1451978541.3590305        7774588.3472978473        1245329034.0537031     
   1374792491.6257195        4764121.4397901893        1233527242.4634547     
   1403483555.8209107       -7577994.7043293715        1370190650.2425497     
   1334689899.9971921       -8306101.4580681920        1353885338.8328638     
   1269145005.2601976        1794995.4105951190        1340889315.8575518     
   1206848871.6099179        22725295.901642323        1331202581.3166142     
   1147801499.0463610        54484800.015101612        1324825135.2100508     
   1130596704.5014379       -20367165.375841618        1439824000.1872201     
   1070608837.0051873       -23411357.688969612        1431269936.4075420     
   1017637443.7745119       -3067302.4501771927        1426714748.8052468     
   971682524.80942810        40665000.340581596        1426158437.3803315     
   932744080.10992765        107785550.68329072        1429601002.1327965     
   1864575197.7132034       -83937019.432202935        1091365379.4987009     
   1742034860.1132736       -133266479.17803550        1088818287.2810118     
   1644654854.3226075       -98728166.226317763        1092143062.3038008     
   1572435180.3412035        19677919.422933280        1101339704.5670745     
   1525375838.1690621        221951777.76973638        1116408214.0708272     
   1613717057.8479986       -41376485.042646170        1155707323.8930063     
   1513781091.1824613       -66504790.077524900        1179942349.1516018     
   1427385968.7916770       -46496947.529905081        1210108602.9551833     
   1354531690.6756396        18647042.600212693        1246206085.3037581     
   1295218256.8343496        128927180.31282163        1288234796.1973140     
   1374792491.6257195        4764121.4397901893        1233527242.4634547     
   1297630499.6217406        3887852.2340115309        1270988316.4080682     
   1222389864.3579979        9416105.4956833720        1314439980.2021794     
   1149070585.8344901        21348881.224803329        1363882233.8457901     
   1077672664.0512195        39686179.421388209        1419315077.3388948     
   1147801499.0463610        54484800.015101612        1324825135.2100508     
   1093583085.4311078        77911447.756575227        1361956189.0504179     
   1029666541.0215743        69010992.850448221        1405137194.0447886     
   956051865.81776416        27783435.296737552        1454368150.1931710     
   872739059.81968021       -45771224.904567957        1509649057.4955370     
   932744080.10992765        107785550.68329072        1429601002.1327965     
   901638848.61056113        155565996.49015811        1452845967.0786483     
   849215998.78240645        132287714.53439990        1482200244.4830105     
   775475530.62545085        37950704.815976441        1517663834.3458905     
   680417444.13971519       -127445032.66505849        1559236736.6672757     
   1755939769.5875564        526781930.87626696        679921858.77561581     
   1784168808.2297604        500142991.02009571        806337843.91044402     
   1809433433.9051919        463622674.60801554        925663397.71313775     
   1831733646.6138506        417220981.64002609        1037898520.1836967     
   1851069446.3557363        360937912.11612785        1143043211.3221211     
   1326190978.6778555        397857293.60335666        669619869.56314957     
   1339632036.8029075        375558872.49788582        791756498.52413392     
   1350849785.2000098        345849418.96591878        908606531.01543546     
   1359844223.8691635        308728933.00745493        1020169967.0370544     
   1366615352.8103685        264197414.62249488        1126446806.5889902     
   890284753.38772964        267085426.01631889        662261305.86105394     
   894091644.88834798        250673667.82936415        780983199.09348881     
   896416329.89984131        229321221.34532577        896222330.71869278     
   897258808.42220962        203028086.56420356        1007978700.7366657     
   896619080.45545244        171794263.48599762        1116252309.1474073     
   448221093.71717876        134466328.11515364        657846167.66932869     
   447547632.48608327        125487377.01453085        774017945.61850870     
   446133068.00468624        114038081.74623692        888510796.82290947     
   443977400.27298832        100118442.31027219        1001324721.2825308     
   441080629.29098862        83728458.706635892        1112459718.9973733     
 -0.33379709253066581      -0.10013912775919974        656374454.98797405     
 -0.40388736883333831        5.3385672714014315E-002   770860738.09919357     
 -0.48545510560156385       0.16865227163538501        885471929.32808554     
 -0.57850042293158310       0.24566026868411020        1000208028.6746497     
 -0.68302321788376108       0.28441000699230590        1115069036.1388865     
   1851069446.3557363        360937912.11612785        1143043211.3221211     
   1835455000.6519797        294960688.23441148        1190460638.1025634     
   1823326453.1518350        240603125.03140342        1240141025.4579062     
   1814683803.8553052        197865222.50710845        1292084373.3881502     
   1809527052.7623866        166746980.66152090        1346290681.8932960     
   1366615352.8103685        264197414.62249488        1126446806.5889902     
   1360614720.0696735        216427557.18932280        1181816801.6910837     
   1357228510.9841962        177372445.27354231        1238117377.0094290     
   1356456725.5539367        147032078.87515551        1295348532.5440247     
   1358299363.7788956        125406457.99416226        1353510268.2948735     
   896619080.45545244        171794263.48599762        1116252309.1474073     
   896425459.65310669        141089732.19395587        1178558152.2646914     
   897974787.95758367        116195031.25798982        1240462195.2395766     
   901267065.36888325        97110160.678098500        1301964438.0720651     
   906302291.88700461        83835120.454281509        1363064880.7621546     
   441080629.29098862        83728458.706635892        1112459718.9973733     
   442887219.40227914        68947213.248311326        1180684689.8233855     
   445565284.07199705        57070882.984744683        1247175480.1483505     
   449114823.30014163        48099467.915934041        1311932089.9722686     
   453535837.08671421        42032968.041882753        1374954519.2951386     
 -0.68302321788376108       0.28441000699230590        1115069036.1388865     
 -0.68280984689621582       0.35238740153897585        1188196414.3671670     
 -0.67256360308173069       0.45380735856408400        1258257231.7357507     
 -0.65228636258663630       0.58866397119122293        1325251488.2446377     
 -0.62197687476585528       0.75696175518201270        1389179183.8938277     
   1809527052.7623866        166746980.66152090        1346290681.8932960     
   1779830981.5866482        134956887.85936630        1364308284.3884618     
   1751059964.9995658        106250310.35273314        1383148403.7351308     
   1723214003.0011418        80627248.141625881        1402811039.9332995     
   1696293095.5913742        58087701.226041377        1423296192.9829724     
   1358299363.7788956        125406457.99416226        1353510268.2948735     
   1333636197.4473417        100846554.54090571        1372481876.4910810     
   1309666822.0504763        78599287.536610782        1392833927.8661833     
   1286391237.5882993        58664656.981278241        1414566422.4201791     
   1263809444.0608110        41042662.874907136        1437679360.1530693     
   906302291.88700461        83835120.454281509        1363064880.7621546     
   888266105.62075722        66983628.916260779        1382720687.0631065     
   870692446.63522959        51673894.980639726        1404314862.8703468     
   853581314.93042171        37905918.647418410        1427847408.1838729     
   836932710.50633442        25679699.916597635        1453318323.0036852     
   453535837.08671421        42032968.041882753        1374954519.2951386     
   443720706.10689431        33368110.985434085        1395024716.1045392     
   434136838.75382572        25474132.684821859        1417591208.7476184     
   424784235.02750850        18351033.140047908        1442653997.2243786     
   415662894.92794311        11998812.351114303        1470213081.5348172     
 -0.62197687476585528       0.75696175518201270        1389179183.8938277     
  -1.0942468771750098       0.74842216901926695        1409393963.6153789     
  -1.5937344964807081       0.64915719320137588        1432662965.4980028     
  -2.1204387919290646       0.45916952989375381        1458986189.5416989     
  -2.6743610073740012       0.17845633395927119        1488363635.7464662     
   1696293095.5913742        58087701.226041377        1423296192.9829724     
   1645206836.6035266        34059728.461495221        1415746333.5254261     
   1596994102.9991965        19610173.642009139        1414151814.1596575     
   1551654894.7783837        14739036.767578185        1418512634.8856661     
   1509189211.9410861        19446317.838200271        1428828795.7034559     
   1263809444.0608110        41042662.874907136        1437679360.1530693     
   1229215423.6072166        24137885.405318558        1434591233.9111855     
   1196776547.1956027        14416921.408999443        1436590290.6127253     
   1166492814.8259697        11879770.885949790        1443676530.2576919     
   1138364226.4983175        16526433.836168170        1455849952.8460848     
   836932710.50633442        25679699.916597635        1453318323.0036852     
   816350479.59170091        15153983.043378443        1453853818.4123356     
   797205011.37751174        9417475.1716405153        1458608339.6160588     
   779496305.86376739        8470176.3013849556        1467581886.6148565     
   763224363.05046701        12312086.432609081        1480774459.4087286     
   415662894.92794311        11998812.351114303        1470213081.5348172     
   406612004.55698067        7108021.3756786138        1473534087.0288770     
   398279495.54492521        4611834.9299345911        1480205961.1696589     
   390665367.89177763        4510253.0138830096        1490228703.9571612     
   383769621.59753919        6803275.6275279671        1503602315.3913887     
  -2.6743610073740012       0.17845633395927119        1488363635.7464662     
  -1.4969459051449077       0.40221401072375174        1493632039.7608094     
 -0.30215921340095891       0.68387663892638695        1501383155.2735233     
  0.90999989709379192        1.0234473296316964        1511616982.2846081     
   2.1395302654090189        1.4209225600166211        1524333520.7940605     
   1509189211.9410861        19446317.838200271        1428828795.7034559     
   1464876584.8942354        25904953.370264947        1426861458.6251018     
   1419210501.2930808        27852067.054647982        1427476895.0660570     
   1372190961.1376216        25287658.891352177        1430675105.0263278     
   1323817964.4278569        18211728.880367219        1436456088.5059068     
   1138364226.4983175        16526433.836168170        1455849952.8460848     
   1101134693.0092084        20171891.527202904        1451456845.5729003     
   1062890067.0974077        20433707.809266329        1450578693.1727505     
   1023630348.7629160        17311882.682358861        1453215495.6456347     
   983355538.00573111        10806416.146473229        1459367252.9915574     
   763224363.05046701        12312086.432609081        1480774459.4087286     
   735741298.41545296        13943378.871521384        1474350340.0942621     
   707581505.48935962        13318910.340171814        1472373357.0065529     
   678744984.27218699        10438680.838556796        1474843510.1456027     
   649231734.76393545        5302690.3666798770        1481760799.5114095     
   383769621.59753919        6803275.6275279671        1503602315.3913887     
   368696401.11297268        7219415.4032278806        1495541942.1891847     
   353284816.46893799        6507674.6473653764        1492860886.5674660     
   337534867.66543728        4668053.3599510640        1495559148.5262260     
   321446554.70247138        1700551.5409851968        1503636728.0654705     
   2.1395302654090189        1.4209225600166211        1524333520.7940605     
   1.1017624084126481        1.1223070321072295        1515031651.8576717     
   3.6141236523658915E-002  0.73084642733305349        1512041281.8554890     
  -1.0573348057902083       0.24653694836534090        1515362410.7875106     
  -2.1786619669511502      -0.33061028731534525        1524995038.6537366     
   1323817964.4278569        18211728.880367219        1436456088.5059068     
   1275645264.8494759        9009056.6603964567        1426636711.7471654     
   1227384155.0022783       -488316.45563304424        1423924904.7744715     
   1179034634.8862672       -10280390.467705131        1428320667.5878217     
   1130596704.5014379       -20367165.375841618        1439824000.1872201     
   983355538.00573111        10806416.146473229        1459367252.9915574     
   953099672.85861921        5666509.7450268865        1450990881.8946929     
   922777499.99227726        305577.61281341314        1448351560.0007923     
   892389019.40670311       -5276380.2501736879        1451449287.3098533     
   861934231.10189760       -11079363.843933403        1460284063.8218777     
   649231734.76393545        5302690.3666798770        1481760799.5114095     
   632976930.95356715        3050817.8554003835        1474853220.3842764     
   616677921.97355282        651594.77863579988        1472312169.8770204     
   600334707.82389367       -1894978.8636127412        1474137647.9896443     
   583947288.50458908       -4588903.0713455677        1480329654.7221446     
   321446554.70247138        1700551.5409851968        1503636728.0654705     
   315277039.13431692        1161980.9915053099        1498223727.2159162     
   309085420.94610620        549735.04183833301        1495806734.4031551     
   302871700.13783640       -136186.30802436173        1496385749.6271906     
   296635876.70950592       -895783.05809180439        1499960772.8880196     
  -2.1786619669511502      -0.33061028731534525        1524995038.6537366     
  -2.5991242125577760      -0.84663375211612169        1521102402.3896127     
  -3.0900601903257154       -1.5975700043993044        1518835253.5791993     
  -3.6514697744398590       -2.5834177574194577        1518193592.2224932     
  -4.2833527018322508       -3.8041773485898300        1519177418.3194988     
   1130596704.5014379       -20367165.375841618        1439824000.1872201     
   1070608837.0051873       -23411357.688969612        1431269936.4075420     
   1017637443.7745119       -3067302.4501771927        1426714748.8052468     
   971682524.80942810        40665000.340581596        1426158437.3803315     
   932744080.10992765        107785550.68329072        1429601002.1327965     
   861934231.10189760       -11079363.843933403        1460284063.8218777     
   813340384.67373443       -14443392.148918033        1456049430.3898506     
   770008893.91585791       -266234.88627862930        1456654360.6770895     
   731939758.82827747        31452107.944013417        1462098854.6835995     
   699132979.41098475        80711636.341931492        1472382912.4093697     
   583947288.50458908       -4588903.0713455677        1480329654.7221446     
   549149427.54990411       -7552178.0465654731        1478367979.9432564     
   517859803.67021209        1178670.5615266263        1482086556.4255257     
   490078416.86552435        21603642.752964705        1491485384.1689463     
   465805267.13583034        53722738.527715459        1506564463.1735258     
   296635876.70950592       -895783.05809180439        1499960772.8880196     
   278035965.63368726       -2737715.3819376528        1498225585.0677643     
   261190173.03757197        1267413.8932281584        1503011336.0505538     
   246098498.92116737        11119604.767428070        1514318025.8363826     
   232760943.28446442        26818857.240635984        1532145654.4252532     
  -4.2833527018322508       -3.8041773485898300        1519177418.3194988     
  -1.0749099412763499       -4.1550172643171512        1515622245.7633700     
   2.0179406680441359       -4.8911643508291904        1519428699.5521717     
   4.9952113645080161       -6.0125774665852223        1530596779.6859012     
   7.8568873934342953       -7.5193068346893126        1549126486.1645546     
   932744080.10992765        107785550.68329072        1429601002.1327965     
   901638848.61056113        155565996.49015811        1452845967.0786483     
   849215998.78240645        132287714.53439990        1482200244.4830105     
   775475530.62545085        37950704.815976441        1517663834.3458905     
   680417444.13971519       -127445032.66505849        1559236736.6672757     
   699132979.41098475        80711636.341931492        1472382912.4093697     
   679532931.70877206        117665633.26109914        1473530291.9623168     
   643944670.53850996        101325585.28676590        1479916911.7209573     
   592368195.90019166        31691492.418914586        1491542771.6852865     
   524803507.79382777       -91236645.342424303        1508407871.8553133     
   465805267.13583034        53722738.527715459        1506564463.1735258     
   455224482.50843698        79104510.342483044        1491831896.3377569     
   433984889.27373064        68956920.132877097        1481468497.4548631     
   402086487.43171120        23279967.898893028        1475474266.5248466     
   359529276.98237985       -57926346.359465033        1473849203.5477006     
   232760943.28446442        26818857.240635984        1532145654.4252532     
   228713501.00954762        39882627.734287314        1507750780.2049673     
   219336654.98806888        35181719.072731853        1486855001.6847365     
   204630405.22000432        12716131.255893536        1469458318.8645675     
   184594751.70537561       -27514135.716165982        1455560731.7444546     
   7.8568873934342953       -7.5193068346893126        1549126486.1645546     
  -12.787885585617111       -14.563458223254006        1521286943.5639474     
  -32.318485433623138       -17.893697787221981        1496076424.4105878     
  -50.734924022954999       -17.510068223666224        1473494928.7044621     
  -68.037194193589201       -13.412543237228899        1453542456.4455709     
 -0.33379709253066581      -0.10013912775919974        656374454.98797405     
 -0.40388736883333831        5.3385672714014315E-002   770860738.09919357     
 -0.48545510560156385       0.16865227163538501        885471929.32808554     
 -0.57850042293158310       0.24566026868411020        1000208028.6746497     
 -0.68302321788376108       0.28441000699230590        1115069036.1388865     
  -448221094.36987126       -134466328.31096140        657846167.80821097     
  -447547633.28714871       -125487376.94231915        774017945.74588513     
  -446133068.97109497       -114038081.46257237        888510796.94148517     
  -443977401.42170972       -100118441.87172095        1001324721.3950108     
  -441080630.63899302       -83728458.169764429        1112459719.1064615     
  -890284753.99571729       -267085426.19871518        662261306.12126088     
  -894091645.64517272       -250673667.78045285        780983199.33766663     
  -896416330.81648779       -229321221.10172284        896222330.95225143     
  -897258809.50966239       -203028086.16252509        1007978700.9650153     
  -896619081.72469699       -171794262.96285975        1116252309.3759582     
  -1326190979.2113352       -397857293.76340055        669619869.92712343     
  -1339632037.4779587       -375558872.46101511        791756498.87453794     
  -1350849786.0216336       -345849418.74879926        908606531.36038506     
  -1359844224.8423588       -308728932.62675244        1020169967.3846643     
  -1366615353.9401350       -264197414.09487501        1126446806.9473755     
  -1755939770.0167243       -526781931.00501728        679921859.22579896     
  -1784168808.7855072       -500142990.98400617        806337844.35649931     
  -1809433434.5865321       -463622674.40380156        925663398.16588545     
  -1831733647.4197989       -417220981.26440299        1037898520.6539568     
  -1851069447.2853076       -360937911.56581068        1143043211.8207140     
 -0.68302321788376108       0.28441000699230590        1115069036.1388865     
 -0.68280984689621582       0.35238740153897585        1188196414.3671670     
 -0.67256360308173069       0.45380735856408400        1258257231.7357507     
 -0.65228636258663630       0.58866397119122293        1325251488.2446377     
 -0.62197687476585528       0.75696175518201270        1389179183.8938277     
  -441080630.63899302       -83728458.169764429        1112459719.1064615     
  -442887220.74600822       -68947212.560334817        1180684689.9718754     
  -445565285.39994198       -57070882.107300967        1247175480.3357055     
  -449114824.60079402       -48099466.810661182        1311932090.1979525     
  -453535838.34856516       -42032966.670417711        1374954519.5586162     
  -896619081.72469699       -171794262.96285975        1116252309.3759582     
  -896425460.91575885       -141089731.50502437        1178558152.5620623     
  -897974789.21068978       -116195030.39341852        1240462195.6046965     
  -901267066.60948980       -97110159.628043622        1301964438.5038619     
  -906302293.11215878       -83835119.208898544        1363064881.2595565     
  -1366615353.9401350       -264197414.09487501        1126446806.9473755     
  -1360614721.1920621       -216427556.48167923        1181816802.1377280     
  -1357228512.1048081       -177372444.40454838        1238117377.5427244     
  -1356456726.6783731       -147032077.86348253        1295348533.1623652     
  -1358299364.9127584       -125406456.85848129        1353510268.9966505     
  -1851069447.2853076       -360937911.56581068        1143043211.8207140     
  -1835455001.5749161       -294960687.49029851        1190460638.6988723     
  -1823326454.0822957       -240603124.14068806        1240141026.1497886     
  -1814683804.8074441       -197865221.51697624        1292084374.1734624     
  -1809527053.7503636       -166746979.61916667        1346290682.7698951     
 -0.62197687476585528       0.75696175518201270        1389179183.8938277     
  -1.0942468771750098       0.74842216901926695        1409393963.6153789     
  -1.5937344964807081       0.64915719320137588        1432662965.4980028     
  -2.1204387919290646       0.45916952989375381        1458986189.5416989     
  -2.6743610073740012       0.17845633395927119        1488363635.7464662     
  -453535838.34856516       -42032966.670417711        1374954519.5586162     
  -443720708.30842888       -33368109.684537545        1395024716.3400753     
  -434136841.93504995       -25474131.587848336        1417591208.9712930     
  -424784239.22842532       -18351032.380339488        1442653997.4522696     
  -415662900.18855619       -11998812.062017128        1470213081.7830062     
  -906302293.11215878       -83835119.208898544        1363064881.2595565     
  -888266107.73479819       -66983627.781157583        1382720687.5214620     
  -870692449.66373193       -51673894.041063935        1404314863.3218126     
  -853581318.89895904       -37905917.988614380        1427847408.6606100     
  -836932715.44047964       -25679699.623811990        1453318323.5378525     
  -1358299364.9127584       -125406456.85848129        1353510268.9966505     
  -1333636199.3733530       -100846553.54143155        1372481877.1595402     
  -1309666824.7797799       -78599286.710490108        1392833928.5495622     
  -1286391241.1320391       -58664656.365654826        1414566423.1667180     
  -1263809448.4301300       -41042662.506925046        1437679361.0110049     
  -1809527053.7503636       -166746979.61916667        1346290682.7698951     
  -1779830983.2240934       -134956886.96536052        1364308285.2543082     
  -1751059967.2831941       -106250309.59612399        1383148404.6545408     
  -1723214005.9276655       -80627247.511454940        1402811040.9705932     
  -1696293099.1575060       -58087700.711353421        1423296194.2024641     
  -2.6743610073740012       0.17845633395927119        1488363635.7464662     
  -1.4969459051449077       0.40221401072375174        1493632039.7608094     
 -0.30215921340095891       0.68387663892638695        1501383155.2735233     
  0.90999989709379192        1.0234473296316964        1511616982.2846081     
   2.1395302654090189        1.4209225600166211        1524333520.7940605     
  -415662900.18855619       -11998812.062017128        1470213081.7830062     
  -406612007.48820978       -7108020.5754300952        1473534087.3735178     
  -398279496.12981689       -4611833.5620226711        1480205961.5764921     
  -390665366.11337900       -4510251.0217983276        1490228704.3919306     
  -383769617.43889570       -6803272.9547553807        1503602315.8198307     
  -836932715.44047964       -25679699.623811990        1453318323.5378525     
  -816350482.31979275       -15153982.205170125        1453853819.1186519     
  -797205011.90038610       -9417473.7907953560        1458608340.4260077     
  -779496304.18226159       -8470174.3806934357        1467581887.4599180     
  -763224359.16541672       -12312083.974858493        1480774460.2203846     
  -1263809448.4301300       -41042662.506925046        1437679361.0110049     
  -1229215425.9916959       -24137884.487006903        1434591234.9962122     
  -1196776547.6138680       -14416920.002441883        1436590291.8220670     
  -1166492813.2966480       -11879769.053239644        1443676531.4885707     
  -1138364223.0400362       -16526431.639393628        1455849953.9957216     
  -1696293099.1575060       -58087700.711353421        1423296194.2024641     
  -1645206838.5039175       -34059727.420937598        1415746335.0061984     
  -1596994103.2702613       -19610172.196963251        1414151815.7646725     
  -1551654893.4565392       -14739035.039435983        1418512636.4778869     
  -1509189209.0627506       -19446315.948353946        1428828797.1458430     
   2.1395302654090189        1.4209225600166211        1524333520.7940605     
   1.1017624084126481        1.1223070321072295        1515031651.8576717     
   3.6141236523658915E-002  0.73084642733305349        1512041281.8554890     
  -1.0573348057902083       0.24653694836534090        1515362410.7875106     
  -2.1786619669511502      -0.33061028731534525        1524995038.6537366     
  -383769617.43889570       -6803272.9547553807        1503602315.8198307     
  -368696398.99092811       -7219413.4069683552        1495541942.5333881     
  -353284816.42164677       -6507673.4548013508        1492860886.8756757     
  -337534869.73105252       -4668053.0982583463        1495559148.8466918     
  -321446558.91914177       -1700552.3373270035        1503636728.4464371     
  -763224359.16541672       -12312083.974858493        1480774460.2203846     
  -735741296.39022100       -13943377.128230274        1474350340.7579200     
  -707581505.34454095       -13318909.379987657        1472373357.6187065     
  -678744986.02837968       -10438680.730139792        1474843510.8027442     
  -649231738.44173372       -5302691.1786774099        1481760800.3100376     
  -1138364223.0400362       -16526431.639393628        1455849953.9957216     
  -1101134691.0961132       -20171890.041466534        1451456846.5312624     
  -1062890066.7325389       -20433707.044701755        1450578694.0845799     
  -1023630349.9493138       -17311882.649101675        1453215496.6556747     
  -983355540.74643576       -10806416.854659200        1459367254.2445436     
  -1509189209.0627506       -19446315.948353946        1428828797.1458430     
  -1464876583.1086071       -25904952.146688402        1426861459.8534205     
  -1419210500.5856411       -27852066.448949218        1427476896.2732990     
  -1372190961.4938567       -25287658.855148375        1430675106.4054775     
  -1323817965.8332508       -18211729.365274847        1436456090.2499542     
  -2.1786619669511502      -0.33061028731534525        1524995038.6537366     
  -2.5991242125577760      -0.84663375211612169        1521102402.3896127     
  -3.0900601903257154       -1.5975700043993044        1518835253.5791993     
  -3.6514697744398590       -2.5834177574194577        1518193592.2224932     
  -4.2833527018322508       -3.8041773485898300        1519177418.3194988     
  -321446558.91914177       -1700552.3373270035        1503636728.4464371     
  -315277044.22132456       -1161982.7339120507        1498223727.5503557     
  -309085427.04479384       -549738.20145098865        1495806734.6486020     
  -302871707.38954771        136181.26006114483        1496385749.7411733     
  -296635885.25558645        895775.65062384307        1499960772.8280725     
  -649231738.44173372       -5302691.1786774099        1481760800.3100376     
  -632976935.65244818       -3050819.5638707280        1474853221.0893872     
  -616677927.83525980       -651597.85605493188        1472312170.4036791     
  -600334714.99016881        1894973.9447704554        1474137648.2529151     
  -583947297.11717403        4588895.8386055231        1480329654.6370921     
  -983355540.74643576       -10806416.854659200        1459367254.2445436     
  -953099676.89249039       -5666511.3364999294        1450990883.0067089     
  -922777505.46145415       -305580.56137245893        1448351560.8444347     
  -892389026.45332813        5276375.4707232714        1451449287.7577202     
  -861934239.86811209        11079356.759785533        1460284063.7465658     
  -1323817965.8332508       -18211729.365274847        1436456090.2499542     
  -1275645267.9414566       -9009058.0518112779        1426636713.3023214     
  -1227384159.9233828        488313.68258225918        1423924905.9708650     
  -1179034641.7790298        10280385.837906480        1428320668.2555876     
  -1130596713.5083966        20367158.414164782        1439824000.1564832     
  -4.2833527018322508       -3.8041773485898300        1519177418.3194988     
  -1.0749099412763499       -4.1550172643171512        1515622245.7633700     
   2.0179406680441359       -4.8911643508291904        1519428699.5521717     
   4.9952113645080161       -6.0125774665852223        1530596779.6859012     
   7.8568873934342953       -7.5193068346893126        1549126486.1645546     
  -296635885.25558645        895775.65062384307        1499960772.8280725     
  -278035967.83718437        2737707.4515779316        1498225584.7009246     
  -261190169.05679142       -1267422.8741659373        1503011335.2783990     
  -246098488.91440678       -11119615.326603621        1514318024.5605023     
  -232760927.41004011       -26818869.905768164        1532145652.5472343     
  -583947297.11717403        4588895.8386055231        1480329654.6370921     
  -549149430.17537951        7552170.3854052722        1478367979.3294272     
  -517859800.39401835       -1178678.9359093308        1482086555.0860844     
  -490078407.77309424       -21603652.125347227        1491485381.9070699     
  -465805252.31260896       -53722749.182911918        1506564459.7923830     
  -861934239.86811209        11079356.759785533        1460284063.7465658     
  -813340388.08949733        14443384.646458328        1456049429.6488836     
  -770008891.99374330        266226.92359623313        1456654358.9752276     
  -731939751.58085167       -31452116.408806831        1462098851.7255995     
  -699132966.85082245       -80711645.350750685        1472382907.8999939     
  -1130596713.5083966        20367158.414164782        1439824000.1564832     
  -1070608841.5795403        23411350.234728754        1431269935.6592932     
  -1017637443.8559667        3067294.7043472528        1426714746.9458292     
  -971682520.33768070       -40665008.176989973        1426158434.0160892     
  -932744071.02468169       -107785558.40928653        1429600996.8700743     
   7.8568873934342953       -7.5193068346893126        1549126486.1645546     
  -12.787885585617111       -14.563458223254006        1521286943.5639474     
  -32.318485433623138       -17.893697787221981        1496076424.4105878     
  -50.734924022954999       -17.510068223666224        1473494928.7044621     
  -68.037194193589201       -13.412543237228899        1453542456.4455709     
  -232760927.41004011       -26818869.905768164        1532145652.5472343     
  -228713526.07547742       -39882654.774949491        1507750780.1443114     
  -219336719.66713580       -35181756.064864330        1486855003.7763338     
  -204630508.18501627       -12716173.775524817        1469458323.4433148     
  -184594891.62911466        27514092.093094215        1455560739.1452384     
  -465805252.31260896       -53722749.182911918        1506564459.7923830     
  -455224507.31954497       -79104535.373393476        1491831895.5400219     
  -433984953.29308128       -68956958.119209394        1481468499.9103212     
  -402086590.23323399       -23280017.420410737        1475474272.9032791     
  -359529418.13998729        57926286.723052680        1473849214.5189002     
  -699132966.85082245       -80711645.350750685        1472382907.8999939     
  -679532956.52008104       -117665656.35876636        1473530289.7510808     
  -643944733.19633067       -101325624.05674730        1479916912.8125329     
  -592368296.87957907       -31691548.444732338        1491542777.0843558     
  -524803647.56981874        91236570.477320164        1508407882.5665500     
  -932744071.02468169       -107785558.40928653        1429600996.8700743     
  -901638873.67709231       -155566017.73109180        1452845962.7774863     
  -849216059.37687874       -132287753.87747735        1482200242.4829750     
  -775475628.12405908       -37950766.848510057        1517663835.9865546     
  -680417579.91860497        127444943.35590121        1559236743.2881999     
  -1755939770.0167243       -526781931.00501728        679921859.22579896     
  -1784168808.7855072       -500142990.98400617        806337844.35649931     
  -1809433434.5865321       -463622674.40380156        925663398.16588545     
  -1831733647.4197989       -417220981.26440299        1037898520.6539568     
  -1851069447.2853076       -360937911.56581068        1143043211.8207140     
  -2201730551.5221510       -660519165.45664525        696294325.46801031     
  -2238485029.5516243       -613900234.77442157        813761117.47263420     
  -2273182315.3071766       -560423996.51246345        927149543.52237654     
  -2305822408.7888098       -500090450.67077088        1036459603.6172383     
  -2336405309.9965219       -432899597.24934381        1141691297.7572184     
  -2685762748.8378792       -805728824.65136385        721864320.10448086     
  -2722436765.0810905       -736548132.99384189        829323494.84021699     
  -2757960809.7442198       -663534202.73604488        935716368.98750579     
  -2792334882.8272667       -586687033.87797284        1041042942.5463463     
  -2825558984.3302302       -506006626.41962498        1145303215.5167391     
  -3208036361.9639101       -962410908.58917296        756631843.13521039     
  -3236024015.3739076       -868086685.64226747        853024976.45924842     
  -3263768917.8976603       -772953293.07454574        951363874.56127226     
  -3291271069.5351677       -677010730.88600779        1051648537.4412810     
  -3318530470.2864313       -580258999.07665372        1153878965.0992763     
  -3768551390.9002433       -1130565417.2700729        800596894.56019890     
  -3779246780.4300737       -1008515892.7196976        884865562.32972848     
  -3790606639.7674980       -888681267.52796531        974092060.24367642     
  -3802630968.9125156       -771061541.69487691        1068276388.3020432     
  -3815319767.8651252       -655656715.22043109        1167418546.5048292     
  -1851069447.2853076       -360937911.56581068        1143043211.8207140     
  -1835455001.5749161       -294960687.49029851        1190460638.6988723     
  -1823326454.0822957       -240603124.14068806        1240141026.1497886     
  -1814683804.8074441       -197865221.51697624        1292084374.1734624     
  -1809527053.7503636       -166746979.61916667        1346290682.7698951     
  -2336405309.9965219       -432899597.24934381        1141691297.7572184     
  -2312684884.3079414       -351667962.53435808        1182768152.8531907     
  -2292505310.3055854       -282239166.77345645        1224297167.9812875     
  -2275866587.9894547       -224613209.96663988        1266278343.1415091     
  -2262768717.3595500       -178790092.11390686        1308711678.3338561     
  -2825558984.3302302       -506006626.41962498        1145303215.5167391     
  -2798906294.4938402       -411072695.81427830        1179975386.4506600     
  -2775849409.8121290       -328124782.39120054        1213288916.8760729     
  -2756388330.2850986       -257162886.15039134        1245243806.7929773     
  -2740523055.9127502       -198187007.09185171        1275840056.2013731     
  -3318530470.2864313       -580258999.07665372        1153878965.0992763     
  -3294119232.1326108       -473174887.33006012        1182082339.4912817     
  -3273358752.6019258       -378259970.99392045        1207116272.8341458     
  -3256249031.6943784       -295514250.06823432        1228980765.1278682     
  -3242790069.4099660       -224937724.55299985        1247675816.3724496     
  -3815319767.8651252       -655656715.22043109        1167418546.5048292     
  -3798323697.2242560       -537974537.08170545        1189089011.9750545     
  -3785033338.6749773       -432644732.58161736        1205779235.8555048     
  -3775448692.2172904       -339667301.72016692        1217489218.1461816     
  -3769569757.8511949       -259042244.49735427        1224218958.8470824     
  -1809527053.7503636       -166746979.61916667        1346290682.7698951     
  -1779830983.2240934       -134956886.96536052        1364308285.2543082     
  -1751059967.2831941       -106250309.59612399        1383148404.6545408     
  -1723214005.9276655       -80627247.511454940        1402811040.9705932     
  -1696293099.1575060       -58087700.711353421        1423296194.2024641     
  -2262768717.3595500       -178790092.11390686        1308711678.3338561     
  -2224084069.8615799       -134784125.14858723        1317249605.7489831     
  -2188117812.8407922       -99839459.773877263        1329060258.3084805     
  -2154869946.2971845       -73956095.989768624        1344143636.0123475     
  -2124340470.2307591       -57134033.796267271        1362499738.8605843     
  -2740523055.9127502       -198187007.09185171        1275840056.2013731     
  -2685849236.5043645       -139864987.33340549        1272806083.3401022     
  -2635687143.4649730       -96582055.471603155        1275495043.8517523     
  -2590036776.7945733       -68338211.506442785        1283906937.7363217     
  -2548898136.4931669       -55133455.437926888        1298041764.9938109     
  -3242790069.4099660       -224937724.55299985        1247675816.3724496     
  -3165126483.1524510       -150199473.51981437        1230977718.0276673     
  -3093767959.1557379       -96478096.689304113        1222452761.2843552     
  -3028714497.4198327       -63773594.061478972        1222100946.1425135     
  -2969966097.9447289       -52085965.636332393        1229922272.6021404     
  -3769569757.8511949       -259042244.49735427        1224218958.8470824     
  -3661915809.8058357       -165787583.70781112        1191764509.8116751     
  -3562360259.9130893       -99527583.426983118        1169933410.6062896     
  -3470903108.1729612       -60262243.654874325        1158725661.2309234     
  -3387544354.5854459       -47991564.391484022        1158141261.6855783     
  -1696293099.1575060       -58087700.711353421        1423296194.2024641     
  -1645206838.5039175       -34059727.420937598        1415746335.0061984     
  -1596994103.2702613       -19610172.196963251        1414151815.7646725     
  -1551654893.4565392       -14739035.039435983        1418512636.4778869     
  -1509189209.0627506       -19446315.948353946        1428828797.1458430     
  -2124340470.2307591       -57134033.796267271        1362499738.8605843     
  -2059976299.9230280       -37000370.755693436        1353051362.2807851     
  -1997402842.9350264       -22835752.114221573        1348760109.3840101     
  -1936620099.2667577       -14640177.871856332        1349625980.1702614     
  -1877628068.9182203       -12413648.028597355        1355648974.6395366     
  -2548898136.4931669       -55133455.437926888        1298041764.9938109     
  -2473536674.4504800       -39578288.022949219        1287958151.8140464     
  -2398883113.6273227       -26382791.339739323        1282233446.0455923     
  -2324937454.0236940       -15546965.388291478        1280867647.6884477     
  -2251699695.6395960       -7070810.1686083078        1283860756.7426119     
  -2969966097.9447289       -52085965.636332393        1229922272.6021404     
  -2885887962.0862751       -41793479.222712398        1220466703.6059830     
  -2801434915.3471475       -30251289.873512387        1214571825.7494183     
  -2716606957.7273479       -17459397.588740349        1212237639.0324481     
  -2631404089.2268753       -3417802.3683916330        1213464143.4550691     
  -3387544354.5854459       -47991564.391484022        1158141261.6855783     
  -3297030162.8304110       -43645944.354971409        1150577017.6565943     
  -3205058248.0945039       -34441247.715551138        1145775248.4954877     
  -3111628610.3777194       -20377474.473205328        1143735954.2022605     
  -3016741249.6800609       -1454624.6279486418        1144459134.7769098     
  -1509189209.0627506       -19446315.948353946        1428828797.1458430     
  -1464876583.1086071       -25904952.146688402        1426861459.8534205     
  -1419210500.5856411       -27852066.448949218        1427476896.2732990     
  -1372190961.4938567       -25287658.855148375        1430675106.4054775     
  -1323817965.8332508       -18211729.365274847        1436456090.2499542     
  -1877628068.9182203       -12413648.028597355        1355648974.6395366     
  -1823975898.4605181       -13978876.984331369        1353146771.8330309     
  -1769976839.4073119       -14387810.621722937        1354116812.4917490     
  -1715630891.7586017       -13640448.940768480        1358559096.6156888     
  -1660938055.5143914       -11736791.941479564        1366473624.2048523     
  -2251699695.6395960       -7070810.1686083078        1283860756.7426119     
  -2186166638.5271258       -2980229.2363865376        1279649359.1198189     
  -2121293260.7924702       -1088579.5635426044        1279799674.7151725     
  -2057079562.4356279       -1395861.1500778198        1284311703.5286715     
  -1993525543.4566016       -3902073.9959998131        1293185445.5603158     
  -2631404089.2268753       -3417802.3683916330        1213464143.4550691     
  -2551448803.3084316        7090991.0971528292        1206369221.7137864     
  -2473159764.7411194        12045626.725590229        1204525482.9435723     
  -2396536973.5249362        11446104.516925454        1207932927.1444252     
  -2321580429.6598892        5292424.4711538553        1216591554.3163507     
  -3016741249.6800609       -1454624.6279486418        1144459134.7769098     
  -2919822392.8044329        16234784.016278505        1133306359.6149325     
  -2825576351.2532554        25014808.245678782        1128294237.1769471     
  -2734003125.0265241        24885448.060255289        1129422767.4629514     
  -2645102714.1242447        15846703.459987283        1136691950.4729497     
  -1323817965.8332508       -18211729.365274847        1436456090.2499542     
  -1275645267.9414566       -9009058.0518112779        1426636713.3023214     
  -1227384159.9233828        488313.68258225918        1423924905.9708650     
  -1179034641.7790298        10280385.837906480        1428320668.2555876     
  -1130596713.5083966        20367158.414164782        1439824000.1564832     
  -1660938055.5143914       -11736791.941479564        1366473624.2048523     
  -1596450234.7376599       -6494103.2564427257        1357868329.9116342     
  -1532045212.6711748       -1527410.2722296715        1355619402.6741395     
  -1467722989.3149292        3163287.0111892819        1359726842.4923611     
  -1403483564.6689291        7577988.5937851667        1370190649.3663039     
  -1993525543.4566016       -3902073.9959998131        1293185445.5603158     
  -1914868892.8248181       -3263255.8483731747        1285594490.2789075     
  -1836466249.7397971       -3471129.5232902765        1283608699.4927642     
  -1758317614.2015412       -4525695.0207583904        1287228073.2018805     
  -1680422986.2100506       -6426952.3407728672        1296452611.4062595     
  -2321580429.6598892        5292424.4711538553        1216591554.3163507     
  -2230901242.2029233        683484.17242360115        1209815194.4041402     
  -2140647271.1292491       -5342844.0706049204        1207892796.4267378     
  -2050818516.4388552       -12786560.257905006        1210824360.3841403     
  -1961414978.1317534       -21647664.389506102        1218609886.2763443     
  -2645102714.1242447        15846703.459987283        1136691950.4729497     
  -2544547282.8719854        5346116.8059201241        1130530442.2873311     
  -2444588276.8395271       -7142553.9141573906        1128471693.4760613     
  -2345225696.0268826       -21619308.700275660        1130515704.0391378     
  -2246459540.4340444       -38084147.552415729        1136662473.9765637     
  -1130596713.5083966        20367158.414164782        1439824000.1564832     
  -1070608841.5795403        23411350.234728754        1431269935.6592932     
  -1017637443.8559667        3067294.7043472528        1426714746.9458292     
  -971682520.33768070       -40665008.176989973        1426158434.0160892     
  -932744071.02468169       -107785558.40928653        1429600996.8700743     
  -1403483564.6689291        7577988.5937851667        1370190649.3663039     
  -1334689905.2850642        8306094.7992628217        1353885337.4676630     
  -1269145007.0580840       -1795002.8515442610        1340889313.7387860     
  -1206848869.9879870       -22725304.358630776        1331202578.1796715     
  -1147801494.0747786       -54484809.722006619        1324825130.7903221     
  -1680422986.2100506       -6426952.3407728672        1296452611.4062595     
  -1604793789.6967766       -8606006.8480571508        1276791717.3292992     
  -1528645641.2919855       -9055221.7169502974        1259750523.8081403     
  -1451978540.9956839       -7774596.9474719167        1245329030.8427842     
  -1374792488.8078685       -4764132.5396195650        1233527238.4332306     
  -1961414978.1317534       -21647664.389506102        1218609886.2763443     
  -1880920494.8146770       -27324954.707231522        1199989075.2441986     
  -1796139346.5576844       -18713361.891912460        1183298377.1538908     
  -1707071533.3607774        4187114.0564562082        1168537792.0054288     
  -1613717055.2239587        41376473.137868166        1155707319.7988057     
  -2246459540.4340444       -38084147.552415729        1136662473.9765637     
  -2163070020.6387625       -47850748.778262973        1123477411.2123616     
  -2071626122.8551681       -30769423.376396894        1111532873.7760408     
  -1972127847.0832605        13159828.653179169        1100828861.6676016     
  -1864575193.3230429        83937007.310454369        1091365374.8870437     
  -932744071.02468169       -107785558.40928653        1429600996.8700743     
  -901638873.67709231       -155566017.73109180        1452845962.7774863     
  -849216059.37687874       -132287753.87747735        1482200242.4829750     
  -775475628.12405908       -37950766.848510057        1517663835.9865546     
  -680417579.91860497        127444943.35590121        1559236743.2881999     
  -1147801494.0747786       -54484809.722006619        1324825130.7903221     
  -1093583110.6368337       -77911469.680818319        1361956185.2059927     
  -1029666596.9340026       -69011028.756678402        1405137192.1939414     
  -956051952.96627617       -27783486.949556530        1454368151.7541544     
  -872739178.73365927        45771155.740536690        1509649063.8866568     
  -1374792488.8078685       -4764132.5396195650        1233527238.4332306     
  -1297630522.7818789       -3887874.1861543655        1270988313.5548160     
  -1222389913.1787238       -9416137.2421390414        1314439980.0228674     
  -1149070659.9984107       -21348921.707586586        1363882237.8373837     
  -1077672763.2409289       -39686227.582485855        1419315086.9983718     
  -1613717055.2239587        41376473.137868166        1155707319.7988057     
  -1513781110.1122270        66504768.752931237        1179942347.8239534     
  -1427386008.1110575        46496920.666113496        1210108605.9697657     
  -1354531749.2204509       -18647071.122580886        1246206094.2362323     
  -1295218333.4404168       -128927206.61317718        1288234812.6233630     
  -1864575193.3230429        83937007.310454369        1091365374.8870437     
  -1742034872.6278758        133266459.13641334        1088818288.0134068     
  -1644654881.7309980        98728144.968076348        1092143070.0346220     
  -1572435220.6324131       -19677935.194570184        1101339720.9506927     
  -1525375889.3321249       -221951781.35153458        1116408240.7616153     
  -3768551390.9002433       -1130565417.2700729        800596894.56019890     
  -3779246780.4300737       -1008515892.7196976        884865562.32972848     
  -3790606639.7674980       -888681267.52796531        974092060.24367642     
  -3802630968.9125156       -771061541.69487691        1068276388.3020432     
  -3815319767.8651252       -655656715.22043109        1167418546.5048292     
  -4340113751.6110640       -1302034125.4833193        858869751.15290236     
  -4335379829.5605192       -1125634554.0170724        942425405.71715522     
  -4331815273.7606134       -953132870.05295157        1020349612.8336153     
  -4329420084.2113457       -784529073.59095657        1092642372.5022821     
  -4328194260.9127150       -619823164.63108754        1159303684.7231562     
  -4895529360.0605593       -1468658808.0181677        936560689.68677640     
  -4905621205.2645311       -1246985713.2865169        1018814285.1955341     
  -4917387313.1621866       -1030893494.2004745        1084847155.6642871     
  -4930827683.7535229       -820382150.76004100        1134659301.0930350     
  -4945942317.0385418       -615451682.96521437        1168250721.4817786     
  -5434798216.2487297       -1630439464.8746188        1033669710.1618209     
  -5489970907.5421085       -1372569370.5280309        1114032200.7648644     
  -5547322757.9722137       -1121963139.9705341        1167584688.7356911     
  -5606853767.5390463       -878620773.20212853        1194327174.0743017     
  -5668563936.2426071       -642542270.22281313        1194259656.7806954     
  -5957920320.1755724       -1787376096.0526719        1150196812.5780361     
  -6088428936.3932486       -1502385525.7416143        1228079152.4251466     
  -6221621608.1906958       -1226341807.3631301        1268562212.0478284     
  -6357498335.5679159       -959244940.91722000        1271645991.4460824     
  -6496059118.5249081       -701094926.40388274        1237330490.6199079     
  -3815319767.8651252       -655656715.22043109        1167418546.5048292     
  -3798323697.2242560       -537974537.08170545        1189089011.9750545     
  -3785033338.6749773       -432644732.58161736        1205779235.8555048     
  -3775448692.2172904       -339667301.72016692        1217489218.1461816     
  -3769569757.8511949       -259042244.49735427        1224218958.8470824     
  -4328194260.9127150       -619823164.63108754        1159303684.7231562     
  -4298460860.3332949       -464304922.57503343        1141479329.1223826     
  -4279254757.2975607       -343877672.33125329        1129701761.8524230     
  -4270575951.8055072       -258541413.89974928        1123970982.9132760     
  -4272424443.8571362       -208296147.28051615        1124286992.3049428     
  -4945942317.0385418       -615451682.96521437        1168250721.4817786     
  -4871965786.7474670       -412645637.05990148        1102973028.4492340     
  -4815338139.4521637       -267669201.14049673        1054769153.6680906     
  -4776059375.1526356       -180522375.20700336        1023639097.1383482     
  -4754129493.8488770       -151205159.25941777        1009582858.8600079     
  -5668563936.2426071       -642542270.22281313        1194259656.7806954     
  -5518838476.4667664       -382996680.53630686        1073570109.9556072     
  -5393283485.1387901       -204019319.00934720        980981411.30250823     
  -5291898962.2586756       -105610185.64193368        916493560.82139814     
  -5214684907.8264265       -87769280.434060812        880106558.51227748     
  -6496059118.5249081       -701094926.40388274        1237330490.6199079     
  -6239078929.4911947       -375358053.00425196        1053270573.6415033     
  -6013090794.3574333       -152928025.93780136        908338534.75567579     
  -5818094713.1236267       -33804845.204534531        802534373.96242511     
  -5654090685.7897768       -17988510.804446220        735858091.26175189     
  -3769569757.8511949       -259042244.49735427        1224218958.8470824     
  -3661915809.8058357       -165787583.70781112        1191764509.8116751     
  -3562360259.9130893       -99527583.426983118        1169933410.6062896     
  -3470903108.1729612       -60262243.654874325        1158725661.2309234     
  -3387544354.5854459       -47991564.391484022        1158141261.6855783     
  -4272424443.8571362       -208296147.28051615        1124286992.3049428     
  -4148598996.8082523       -143404756.00745106        1090653202.0157387     
  -4029448048.0901861       -94095025.837106228        1065381046.4030275     
  -3914971597.7029328       -60366956.769476652        1048470525.4668076     
  -3805169645.6464949       -42220548.804568052        1039921639.2070816     
  -4754129493.8488770       -151205159.25941777        1009582858.8600079     
  -4620594591.0922689       -116615650.49157405        978764277.10910690     
  -4488310286.8446751       -86194803.420445919        954045614.88116980     
  -4357276581.1060953       -59942618.046039820        935426872.17619646     
  -4227493473.8765335       -37859094.368349552        922908048.99418747     
  -5214684907.8264265       -87769280.434060812        880106558.51227748     
  -5077902592.6578836       -85420267.160174608        856097735.09178042     
  -4938946976.1765566       -75826916.177005053        835927116.04071784     
  -4797818058.3824463       -58989227.484555483        819594701.35909009     
  -4654515839.2755508       -34907201.082824707        807100491.04690015     
  -5654090685.7897768       -17988510.804446220        735858091.26175189     
  -5520523001.5051003       -49818606.013256788        722653575.96375716     
  -5381358116.0858355       -62991364.106782198        711025549.88166821     
  -5236596029.5319910       -57506785.085031271        700974013.01548898     
  -5086236741.8435574       -33364868.947997093        692498965.36521602     
  -3387544354.5854459       -47991564.391484022        1158141261.6855783     
  -3297030162.8304110       -43645944.354971409        1150577017.6565943     
  -3205058248.0945039       -34441247.715551138        1145775248.4954877     
  -3111628610.3777194       -20377474.473205328        1143735954.2022605     
  -3016741249.6800609       -1454624.6279486418        1144459134.7769098     
  -3805169645.6464949       -42220548.804568052        1039921639.2070816     
  -3704562868.5991011       -33634157.644003630        1032304057.4201407     
  -3603766075.1780167       -24414378.571135759        1028708888.4231232     
  -3502779265.3832388       -14561211.585951567        1029136132.2160313     
  -3401602439.2147646       -4074656.6884582043        1033585788.7988627     
  -4227493473.8765335       -37859094.368349552        922908048.99418747     
  -4113194288.9023600       -23951985.293408155        913758138.40757811     
  -3999972794.1616788       -13637176.996765852        909890578.53293979     
  -3887828989.6544852       -6914669.4784159660        911305369.37027049     
  -3776762875.3807817       -3784462.7383649349        918002510.91957569     
  -4654515839.2755508       -34907201.082824707        807100491.04690015     
  -4522924423.7401848       -14599427.303182364        794939260.61890864     
  -4393678405.0454865       -2109642.9924366474        789320318.82493472     
  -4266777783.1914625        2562151.8494009972        790243665.66497874     
  -4142222558.1781082       -584042.77766299248        797709301.13903892     
  -5086236741.8435574       -33364868.947997093        692498965.36521602     
  -4933753273.1125746       -5576483.6733236313        675847424.05413055     
  -4784882907.8294458        10168223.441842079        666998109.29911113     
  -4639625645.9941683        13869252.397499800        665951021.10015333     
  -4497981487.6067438        5526603.1936459541        672706159.45726025     
  -3016741249.6800609       -1454624.6279486418        1144459134.7769098     
  -2919822392.8044329        16234784.016278505        1133306359.6149325     
  -2825576351.2532554        25014808.245678782        1128294237.1769471     
  -2734003125.0265241        24885448.060255289        1129422767.4629514     
  -2645102714.1242447        15846703.459987283        1136691950.4729497     
  -3401602439.2147646       -4074656.6884582043        1033585788.7988627     
  -3291806525.0991306        6901313.5435540676        1022938707.7862436     
  -3183582810.4668322        12636618.831121802        1017605657.7139946     
  -3076931295.3178725        13131259.174226165        1017586638.5821166     
  -2971851979.6522431        8385234.5728864670        1022881650.3906100     
  -3776762875.3807817       -3784462.7383649349        918002510.91957569     
  -3656451680.5497680       -230463.87594890594        909145175.87094271     
  -3536612069.3609776        1751589.5123908520        904775249.97906113     
  -3417244041.8144112        2161697.4266495705        904892733.24393189     
  -3298347597.9100676        999859.86683821678        909497625.66555071     
  -4142222558.1781082       -584042.77766299248        797709301.13903892     
  -4013757859.1563449       -5160548.2422385216        791925763.86902893     
  -3884664127.9356942       -7640279.7105114460        789803013.97214818     
  -3754941364.5161524       -8023237.1824860573        791341051.44839633     
  -3624589568.8977218       -6309420.6581609249        796539876.29777956     
  -4497981487.6067438        5526603.1936459541        672706159.45726025     
  -4363725060.9188614       -7888939.5553045273        671280471.78050184     
  -4227738986.1909771       -15538988.837583542        672688949.69325280     
  -4090023263.4230900       -17423544.653187752        676931593.19551682     
  -3950577892.6151967       -13542607.002102852        684008402.28728771     
  -2645102714.1242447        15846703.459987283        1136691950.4729497     
  -2544547282.8719854        5346116.8059201241        1130530442.2873311     
  -2444588276.8395271       -7142553.9141573906        1128471693.4760613     
  -2345225696.0268826       -21619308.700275660        1130515704.0391378     
  -2246459540.4340444       -38084147.552415729        1136662473.9765637     
  -2971851979.6522431        8385234.5728864670        1022881650.3906100     
  -2859119479.4778447        2840515.4301218987        1016196768.2499644     
  -2746855208.3216858       -4264967.1067752838        1013632441.0955464     
  -2635059166.1837635       -12931213.037796974        1015188668.9273567     
  -2523731353.0640783       -23158222.362947106        1020865451.7453941     
  -3298347597.9100676        999859.86683821678        909497625.66555071     
  -3173387184.2081623        426261.61697614193        902438931.80504644     
  -3048766803.3229275       -1280779.3551144600        899518588.54264653     
  -2924486455.2543607       -4121263.0494365692        900736595.87835538     
  -2800546140.0024571       -8095189.4659801722        906092953.81217289     
  -3624589568.8977218       -6309420.6581609249        796539876.29777956     
  -3487350397.0629392       -1896644.6335122585        789256932.95257616     
  -3350323061.8432550        1810009.3408155441        786130135.81736112     
  -3213507563.2386670        4810541.2648061514        787159484.89213336     
  -3076903901.2491789        7104951.1384780407        792344980.17689216     
  -3950577892.6151967       -13542607.002102852        684008402.28728771     
  -3801009118.0421629       -4128203.3213164806        676650771.69255412     
  -3651523983.8826623        5007398.9810271263        673467082.91968691     
  -3502122490.1366892        13864199.904947281        674457335.96868920     
  -3352804636.8042417        22442199.450443983        679621530.83955598     
  -2246459540.4340444       -38084147.552415729        1136662473.9765637     
  -2163070020.6387625       -47850748.778262973        1123477411.2123616     
  -2071626122.8551681       -30769423.376396894        1111532873.7760408     
  -1972127847.0832605        13159828.653179169        1100828861.6676016     
  -1864575193.3230429        83937007.310454369        1091365374.8870437     
  -2523731353.0640783       -23158222.362947106        1020865451.7453941     
  -2434956773.9803205       -33342872.332199931        1016309344.7369766     
  -2341224957.3728247       -27003397.222336173        1014751538.4864475     
  -2242535903.2415833       -4139797.0333238840        1016192032.9938084     
  -2138889611.5866086        35247928.234803319        1020630828.2590619     
  -2800546140.0024571       -8095189.4659801722        906092953.81217289     
  -2701364286.1159086       -17191223.524345636        906552472.01753020     
  -2600322335.1701894       -20086934.052170992        911768066.41078877     
  -2497420287.1653113       -16782321.049445033        921739736.99194837     
  -2392658142.1012659       -7277384.5161769390        936467483.76100445     
  -3076903901.2491789        7104951.1384780407        792344980.17689216     
  -2962292557.0455179        604197.64530217648        794206793.05402565     
  -2848918256.2472701       -10020033.865920663        802582457.54906762     
  -2736780998.8544345       -24767743.395183206        817471973.66201949     
  -2625880784.8670058       -43638930.942477584        838875341.39288163     
  -3352804636.8042417        22442199.450443983        679621530.83955598     
  -3217741586.7691612        20043391.176739931        679272307.84646070     
  -3087012720.6040730        3197303.3363970518        687194711.90128171     
  -2960618038.3089623       -28096064.070544124        703388743.00402367     
  -2838557539.8838453       -73836711.044118166        727854401.15468383     
  -1864575193.3230429        83937007.310454369        1091365374.8870437     
  -1742034872.6278758        133266459.13641334        1088818288.0134068     
  -1644654881.7309980        98728144.968076348        1092143070.0346220     
  -1572435220.6324131       -19677935.194570184        1101339720.9506927     
  -1525375889.3321249       -221951781.35153458        1116408240.7616153     
  -2138889611.5866086        35247928.234803319        1020630828.2590619     
  -2008643484.3369823        66785617.519685745        1000762563.2860440     
  -1893791948.4539392        47008002.249288440        985055764.27724302     
  -1794335003.9374704       -24084917.576377153        973510431.23265326     
  -1710272650.7875931       -146493141.95733047        966126564.15227664     
  -2392658142.1012659       -7277384.5161769390        936467483.76100445     
  -2259593073.8132925        5002482.5727837086        910671402.19227600     
  -2132156858.4601958       -1480493.4545003176        887326383.65711832     
  -2010349496.0419626       -26726312.598024607        866432428.15552998     
  -1894170986.5586150       -70734974.857792258        847989535.68752158     
  -2625880784.8670058       -43638930.942477584        838875341.39288163     
  -2494883641.0568094       -52082945.704280615        818544804.73209763     
  -2359749611.7497730       -46737342.143288970        798954928.17424119     
  -2220478696.9458942       -27602120.259502172        780105711.71931863     
  -2077070896.6451817        5322719.9470822811        761997155.36732745     
  -2838557539.8838453       -73836711.044118166        727854401.15468383     
  -2714515186.0675206       -104470667.31148970        724382770.90550947     
  -2576570208.3226643       -88762543.817064166        719941397.82862115     
  -2424722606.6492529       -26712340.560801029        714530281.92402565     
  -2258972381.0472956        81679942.457292795        708149423.19172847     
  -5957920320.1755724       -1787376096.0526719        1150196812.5780361     
  -6088428936.3932486       -1502385525.7416143        1228079152.4251466     
  -6221621608.1906958       -1226341807.3631301        1268562212.0478284     
  -6357498335.5679159       -959244940.91722000        1271645991.4460824     
  -6496059118.5249081       -701094926.40388274        1237330490.6199079     
  -6810411522.1646671       -2043123456.6494002        1353888290.5794568     
  -6828405033.6219301       -1395440880.3819051        1202858487.2725439     
  -6897761896.5717402       -918969475.75623918        1092079889.5542762     
  -7018482111.0141001       -613709242.77240467        1021552497.4246534     
  -7190565676.9490099       -479660181.43040013        991276310.88367677     
  -8337787672.5395889       -2501336301.7618766        1712490437.8101184     
  -8021407548.3419399       -1424404160.2695940        1275755979.4509418     
  -7805070071.5496216       -680947510.12839985        956923212.49348414     
  -7688775242.1626253       -270966351.33829165        755992136.93774605     
  -7672523060.1809549       -194460683.89927006        672962752.78372586     
  -10540048771.300337       -3162014631.3901014        2226003254.2700200     
  -9667436480.5532856       -1589275365.4046841        1446771628.9603407     
  -8943546133.1243362       -512275910.47960997        863092180.86545336     
  -8368377729.0134869        68983733.385120869        474964909.98535913     
  -7941931268.2207460        154503566.18950701        282389816.32005680     
  -13417194818.446915       -4025158445.5340743        2894426739.9591632     
  -11766491830.255959       -1890054495.7871714        1715905435.8007402     
  -10313190081.295885       -412954676.80987024        810586794.67018414     
  -9057289571.5666904        406141011.39783001        178470816.56749302     
  -7998790301.0683746        567232568.83593035       -180442498.50733098     
  -6496059118.5249081       -701094926.40388274        1237330490.6199079     
  -6239078929.4911947       -375358053.00425196        1053270573.6415033     
  -6013090794.3574333       -152928025.93780136        908338534.75567579     
  -5818094713.1236267       -33804845.204534531        802534373.96242511     
  -5654090685.7897768       -17988510.804446220        735858091.26175189     
  -7190565676.9490099       -479660181.43040013        991276310.88367677     
  -6900363114.9399147       -304273616.64816618        847048265.06574309     
  -6622982916.7852879       -171628264.71415114        723944237.74030793     
  -6358425082.4851265       -81724125.628355503        621964228.90737152     
  -6106689612.0394316       -34561199.390781164        541108238.56693482     
  -7672523060.1809549       -194460683.89927006        672962752.78372586     
  -7400537724.0538483       -184856307.39164352        589764549.84600008     
  -7123205061.7357187       -157427510.24727392        509686505.80069417     
  -6840525073.2265673       -112174292.46616149        432728620.64780986     
  -6552497758.5263901       -49096654.048304319        358890894.38734502     
  -7941931268.2207460        154503566.18950701        282389816.32005680     
  -7739602756.8329916       -17106125.234685421        281419427.98227549     
  -7513757229.2087250       -110325762.53716898        265565338.93683630     
  -7264394685.3479490       -125155345.71794987        234827549.18373972     
  -6991515125.2506599       -61594874.777020931        189206058.72298354     
  -7998790301.0683746        567232568.83593035       -180442498.50733098     
  -7917558213.2773418        198976929.82271290       -77987100.525429711     
  -7794639419.2043095       -30323021.583835602       -8419262.8512685169     
  -7630033918.8492765       -120667285.38371992        28261014.515158914     
  -7423741712.2122412       -72055861.576933861        32053731.573850691     
  -5654090685.7897768       -17988510.804446220        735858091.26175189     
  -5520523001.5051003       -49818606.013256788        722653575.96375716     
  -5381358116.0858355       -62991364.106782198        711025549.88166821     
  -5236596029.5319910       -57506785.085031271        700974013.01548898     
  -5086236741.8435574       -33364868.947997093        692498965.36521602     
  -6106689612.0394316       -34561199.390781164        541108238.56693482     
  -5958851006.2339325       -36434168.359000444        534609117.76547283     
  -5809970367.8797340       -34833695.498209238        530597956.70859575     
  -5660047696.9768286       -29759780.808404684        529074755.39630532     
  -5509082993.5252209       -21212424.289588451        530039513.82860136     
  -6552497758.5263901       -49096654.048304319        358890894.38734502     
  -6387784029.6895657       -20231236.322783709        353782804.73222309     
  -6226583436.8899145       -3076272.0545194149        352074145.35036361     
  -6068895980.1274433        2368238.7564897537        353764916.24177122     
  -5914721659.4021482       -3897703.8897550106        358855117.40644473     
  -6991515125.2506599       -61594874.777020931        189206058.72298354     
  -6807322071.8719940       -1209809.9046077728        180174636.86400396     
  -6631197323.1163855        32280906.224280357        175454115.80697361     
  -6463140878.9838305        38877273.609651089        175044495.55188471     
  -6303152739.4743357        18579292.251497030        178945776.09874102     
  -7423741712.2122412       -72055861.576933861        32053731.573850691     
  -7217465132.7812214        20630110.895528316        13784614.160824886     
  -7023812026.5591383        71237839.338202477        737868.07842299296     
  -6842782393.5459929        79767323.751080036       -7086506.6733571878     
  -6674376233.7417850        46218564.134172916       -9688510.0945132133     
  -5086236741.8435574       -33364868.947997093        692498965.36521602     
  -4933753273.1125746       -5576483.6733236313        675847424.05413055     
  -4784882907.8294458        10168223.441842079        666998109.29911113     
  -4639625645.9941683        13869252.397499800        665951021.10015333     
  -4497981487.6067438        5526603.1936459541        672706159.45726025     
  -5509082993.5252209       -21212424.289588451        530039513.82860136     
  -5343833906.4334373       -8596088.5019519329        515470173.21961093     
  -5179769490.8946896        71342.108897447586        506419554.67525959     
  -5016889746.9089794        4789867.5429565907        502887658.19554448     
  -4855194674.4763031        5559487.8002355099        504874483.78046775     
  -5914721659.4021482       -3897703.8897550106        358855117.40644473     
  -5743231252.4964962       -8410707.1532437801        349201148.04350102     
  -5570497085.2490578       -8777842.6107904911        342782396.25376964     
  -5396519157.6598454       -4999110.2624065876        339598862.03724682     
  -5221297469.7288437        2925489.8919255733        339650545.39394295     
  -6303152739.4743357        18579292.251497030        178945776.09874102     
  -6131945311.3017445       -5020339.6271872520        177040348.52579299     
  -5957065690.8925514       -16379330.717212200        176086634.03463483     
  -5778513878.2467594       -15497681.018574238        176084632.62526914     
  -5596289873.3643789       -2375390.5312836170        177034344.29768157     
  -6674376233.7417850        46218564.134172916       -9688510.0945132133     
  -6509976082.8491859        1575014.0762066841       -1012225.3335052951     
  -6339475307.8251667       -22733122.210368872        6332268.0178678604     
  -6162873908.6697388       -26705844.725569487        12344969.959594244     
  -5980171885.3828897       -10343153.469378710        17025880.491690669     
  -4497981487.6067438        5526603.1936459541        672706159.45726025     
  -4363725060.9188614       -7888939.5553045273        671280471.78050184     
  -4227738986.1909771       -15538988.837583542        672688949.69325280     
  -4090023263.4230900       -17423544.653187752        676931593.19551682     
  -3950577892.6151967       -13542607.002102852        684008402.28728771     
  -4855194674.4763031        5559487.8002355099        504874483.78046775     
  -4709836912.0691643        420950.83150458336        502130698.79154718     
  -4563958410.5606356       -2981789.1326026917        503182158.97095686     
  -4417559169.9507313       -4648732.0921134949        508028864.31869513     
  -4270639190.2394400       -4579878.0470049381        516670814.83476126     
  -5221297469.7288437        2925489.8919255733        339650545.39394295     
  -5062092429.9486771        6887741.1995651722        334178269.33113921     
  -4903575560.0057526        8556093.0497341156        333462318.01547951     
  -4745746859.9000626        7930545.4424619675        337502691.44696498     
  -4588606329.6316128        5011098.3777141571        346299389.62560016     
  -5596289873.3643789       -2375390.5312836170        177034344.29768157     
  -5420491614.5574188        11511431.548846722        167423183.39927018     
  -5246590434.5263214        19074657.709439993        163529426.82681990     
  -5074586333.2710829        20314287.950509787        165353074.58033597     
  -4904479310.7916975        15230322.272059917        172894126.65981442     
  -5980171885.3828897       -10343153.469378710        17025880.491690669     
  -5785034465.8953800        14292021.879369020        1865440.9959464238     
  -5593003034.1223469        28573904.846515417       -6616514.5950176595     
  -5404077590.0637970        32502495.432064056       -8419986.2811987791     
  -5218258133.7197218        26077793.636023760       -3544974.0626021414     
  -3950577892.6151967       -13542607.002102852        684008402.28728771     
  -3801009118.0421629       -4128203.3213164806        676650771.69255412     
  -3651523983.8826623        5007398.9810271263        673467082.91968691     
  -3502122490.1366892        13864199.904947281        674457335.96868920     
  -3352804636.8042417        22442199.450443983        679621530.83955598     
  -4270639190.2394400       -4579878.0470049381        516670814.83476126     
  -4111882399.3050160       -471817.60185456276        509853520.91512072     
  -3953324481.7358475        2973331.6257584095        507154530.81367540     
  -3794965437.5319524        5755569.6358125210        508573844.53042954     
  -3636805266.6933217        7874896.4283168316        514111462.06537700     
  -4588606329.6316128        5011098.3777141571        346299389.62560016     
  -4420820488.0605574        3765125.8698217869        339887993.93736506     
  -4253348752.8065081        1472132.3052570820        337539264.06364924     
  -4086191123.8694596       -1867882.3159852028        339253200.00446159     
  -3919347601.2494206       -6254917.9939088821        345029801.75980043     
  -4904479310.7916975        15230322.272059917        172894126.65981442     
  -4727823384.3088036        8582627.0936844349        166754190.75927833     
  -4551596797.0946388        503801.01952171326        164621282.66960263     
  -4375799549.1492262       -9006155.9504776001        166495402.39077875     
  -4200431640.4725456       -19947243.816241264        172376549.92281273     
  -5218258133.7197218        26077793.636023760       -3544974.0626021414     
  -5032891088.0497503        13980686.069713593       -9547888.6191196609     
  -4848068614.6002502        68337.768521547318       -11599413.368455021     
  -4663790713.3712358       -15659251.267625332       -9699548.3106091823     
  -4480057384.3626928       -33202081.038689852       -3848293.4455792597     
  -3352804636.8042417        22442199.450443983        679621530.83955598     
  -3217741586.7691612        20043391.176739931        679272307.84646070     
  -3087012720.6040730        3197303.3363970518        687194711.90128171     
  -2960618038.3089623       -28096064.070544124        703388743.00402367     
  -2838557539.8838453       -73836711.044118166        727854401.15468383     
  -3636805266.6933217        7874896.4283168316        514111462.06537700     
  -3484216325.2208056        6542575.5682873726        509521699.53390640     
  -3332602320.6089830        1960465.1726059914        509895652.42631269     
  -3181963252.8578568       -5871434.7587193251        515233320.74259269     
  -3032299121.9674153       -16953124.225674987        525534704.48275220     
  -3919347601.2494206       -6254917.9939088821        345029801.75980043     
  -3758683944.4081583       -9356104.2608745098        340118621.20079499     
  -3595635977.4183054       -4509590.0325191021        336863244.44162089     
  -3430203700.2798495        8284624.6911756992        335263671.48227566     
  -3262387112.9927902        29026539.910215616        335319902.32277852     
  -4200431640.4725456       -19947243.816241264        172376549.92281273     
  -4041144444.3312345       -27652648.310750246        171063072.84711254     
  -3876113691.0320349       -16212862.278957844        168097487.94720903     
  -3705339380.5749483        14372114.279129028        163479795.22308987     
  -3528821512.9599519        64102281.363565445        157209994.67476639     
  -4480057384.3626928       -33202081.038689852       -3848293.4455792597     
  -4331597824.9900274       -48347056.581354141        2355054.4728715513     
  -4174035461.4501696       -33149351.566708326        3598382.9430761370     
  -4007370293.7431459        12391034.005168676       -118308.03497783332     
  -3831602321.8689117        88274100.134389400       -8795018.4612777084     
  -2838557539.8838453       -73836711.044118166        727854401.15468383     
  -2714515186.0675206       -104470667.31148970        724382770.90550947     
  -2576570208.3226643       -88762543.817064166        719941397.82862115     
  -2424722606.6492529       -26712340.560801029        714530281.92402565     
  -2258972381.0472956        81679942.457292795        708149423.19172847     
  -3032299121.9674153       -16953124.225674987        525534704.48275220     
  -2897644451.0396771       -28228644.171674609        522495456.33747631     
  -2759173739.3986411       -26784028.406682253        524121940.41606683     
  -2616886987.0443163       -12619276.930707097        530414156.71852541     
  -2470784193.9766746        14265610.256263494        541372105.24485111     
  -3262387112.9927902        29026539.910215616        335319902.32277852     
  -3101018767.6634073        41939863.472688437        320945355.86361289     
  -2945920964.8359790        33951378.695307732        316872016.67988104     
  -2797093704.5105090        5061085.5780562162        323099884.77160078     
  -2654536986.6870017       -44731015.879036903        339628960.13875645     
  -3528821512.9599519        64102281.363565445        157209994.67476639     
  -3324638135.9387140        106034855.62157512        119732469.48391679     
  -3136811884.6346874        93443677.488871694        98191626.620080397     
  -2965342759.0478668        26328746.965472460        92587466.083259374     
  -2810230759.1782641       -95309935.948631167        102919987.87345774     
  -3831602321.8689117        88274100.134389400       -8795018.4612777084     
  -3568502555.8656020        164056332.27498746       -81143202.801610738     
  -3331846498.7947574        151692867.97402573       -131919229.76335557     
  -3121634150.6563702        51183707.231531262       -161123099.34651330     
  -2937865511.4504471       -137471149.95248830       -168754811.55106655     
 </DataArray>
 <DataArray  type="Float64" Name="VM" NumberOfComponents="1" format="ascii">
   12936375099.688917     
   11340913525.837101     
   10210029089.332466     
   9272191605.1399307     
   8302846014.4999456     
   10130569957.522150     
   9322035726.8360844     
   8826248645.6105385     
   8443255386.4307089     
   8035199584.7317743     
   7982333373.5907068     
   7734910468.0846806     
   7669098474.7483435     
   7669541085.3720875     
   7666293602.4811029     
   6491578201.3052950     
   6586830850.1655226     
   6757418657.1410933     
   6961259322.8041143     
   7171692045.1625242     
   5657856627.1494598     
   5890967398.4489880     
   6116404600.5025358     
   6331728706.6544027     
   6536736518.4083366     
   8302846014.4999456     
   8020035990.6098719     
   7779535900.2017593     
   7570579819.6510201     
   7388185928.7127371     
   8035199584.7317743     
   7746414625.0349827     
   7473374963.7840595     
   7214107577.3629427     
   6968632075.6091051     
   7666293602.4811029     
   7380891617.7243385     
   7100900390.5147076     
   6826404433.3194971     
   6557616921.2718515     
   7171692045.1625242     
   6910894834.4209013     
   6657999226.7462711     
   6409144260.5731640     
   6161184331.8094845     
   6536736518.4083366     
   6328763524.3296051     
   6142989049.8222504     
   5965473438.1018820     
   5787211573.8340921     
   7388185928.7127371     
   7227841706.6506233     
   7059700636.5601578     
   6883023669.9725256     
   6697626145.6227379     
   6968632075.6091051     
   6813867361.5214262     
   6654339450.9989939     
   6489752886.1415081     
   6320067450.1499300     
   6557616921.2718515     
   6407062368.1581078     
   6254843302.2832451     
   6100928249.1131649     
   5945353201.2131834     
   6161184331.8094845     
   6012449395.0089769     
   5865082175.0022907     
   5719120921.2038860     
   5574621966.9134989     
   5787211573.8340921     
   5636516293.5140448     
   5490052459.3166294     
   5347728388.3806067     
   5209595017.5606604     
   6697626145.6227379     
   6510763972.3745174     
   6328148880.8409681     
   6149601656.0895100     
   5975079802.7251673     
   6320067450.1499300     
   6137102244.1420813     
   5956706030.6747150     
   5778834372.2440243     
   5603498563.5102310     
   5945353201.2131834     
   5770814126.7615881     
   5597688561.6295176     
   5425997458.3365364     
   5255789017.8745737     
   5574621966.9134989     
   5413670397.0929661     
   5253547738.8731089     
   5094303086.2164755     
   4936054436.1695566     
   5209595017.5606604     
   5068012302.5364885     
   4927323923.3475170     
   4787602629.9217529     
   4649121134.7384501     
   5975079802.7251673     
   5792194610.7360468     
   5607356309.9630260     
   5420421554.1642838     
   5231349394.3850536     
   5603498563.5102310     
   5433999550.0337524     
   5263779786.7083035     
   5092833271.5640602     
   4921231888.1698446     
   5255789017.8745737     
   5098501641.3545313     
   4941727767.7760496     
   4785555011.1869478     
   4630129260.7961531     
   4936054436.1695566     
   4789671416.0209579     
   4644964304.3060856     
   4502065591.4475813     
   4361154351.4953537     
   4649121134.7384501     
   4512159784.1669035     
   4377882466.5983334     
   4246414996.8035674     
   4117930359.4112000     
   5231349394.3850536     
   5039923121.2045717     
   4848144429.6043997     
   4656011167.5774946     
   4463553960.0626478     
   4921231888.1698446     
   4740926674.6875410     
   4560770478.6412745     
   4380805398.4924526     
   4201116276.3787794     
   4630129260.7961531     
   4461713180.7694101     
   4294070049.5064960     
   4127300221.8614240     
   3961558568.7927337     
   4361154351.4953537     
   4205411857.2219319     
   4051191802.0631113     
   3898663882.8899441     
   3748064278.1208286     
   4117930359.4112000     
   3975621312.0495834     
   3835702132.6347880     
   3698416738.8154440     
   3564085180.9444318     
   4463553960.0626478     
   4307629740.2813787     
   4157564594.4834089     
   4013580179.3096132     
   3876523195.9069190     
   4201116276.3787794     
   4038273467.0458245     
   3878975088.2516203     
   3723328767.6428170     
   3571700011.0060735     
   3961558568.7927337     
   3799956316.2842898     
   3640444234.0109434     
   3483100534.3848171     
   3328066479.2719669     
   3748064278.1208286     
   3597421173.6885972     
   3448587587.1879978     
   3301914320.7125034     
   3157891506.8810401     
   3564085180.9444318     
   3435547956.7655458     
   3310020797.6171560     
   3188594383.2315092     
   3072879311.4566970     
   3876523195.9069190     
   3655996840.8569307     
   3417870217.2200193     
   3159885715.3838043     
   2886436238.4668245     
   3571700011.0060735     
   3385261751.4969840     
   3189100220.3427138     
   2982908220.2292562     
   2769551389.9271245     
   3328066479.2719669     
   3171301049.4955997     
   3013443954.0452771     
   2855012313.4733953     
   2697382111.5983620     
   3157891506.8810401     
   3022308409.3201532     
   2892052306.7380528     
   2767535133.3654990     
   2649429389.0469065     
   3072879311.4566970     
   2944505188.0581660     
   2823621189.3012080     
   2710513528.0239582     
   2607406193.9747386     
   5657856627.1494598     
   5890967398.4489880     
   6116404600.5025358     
   6331728706.6544027     
   6536736518.4083366     
   5151667129.6559582     
   5311455974.0024805     
   5467857114.5958757     
   5617983413.8529730     
   5760377948.7244997     
   4643785295.5566292     
   4755712445.4108429     
   4868759271.8085175     
   4980289217.2131052     
   5088375663.9407911     
   4134474062.6569443     
   4224572760.5103416     
   4320605316.8571682     
   4420906045.6063843     
   4524012195.7745781     
   3625248961.5605607     
   3719857696.1741796     
   3825751952.3389950     
   3942856706.7189107     
   4071069738.3605652     
   6536736518.4083366     
   6328763524.3296051     
   6142989049.8222504     
   5965473438.1018820     
   5787211573.8340921     
   5760377948.7244997     
   5652276188.8398724     
   5560195158.5516891     
   5475066305.7173090     
   5391355642.2460423     
   5088375663.9407911     
   5054263559.2556076     
   5030688261.8079615     
   5012450189.6725874     
   4996352067.6940193     
   4524012195.7745781     
   4539325221.2343283     
   4559321350.1546516     
   4581536225.4204302     
   4604251522.2928085     
   4071069738.3605652     
   4112794197.0184841     
   4151842337.0901055     
   4187341664.2987194     
   4218580021.8301320     
   5787211573.8340921     
   5636516293.5140448     
   5490052459.3166294     
   5347728388.3806067     
   5209595017.5606604     
   5391355642.2460423     
   5249509078.6271868     
   5110847705.4507046     
   4975412012.3412237     
   4843293682.5432739     
   4996352067.6940193     
   4868120630.1055422     
   4743005255.3916378     
   4620967003.4526320     
   4502039881.8145208     
   4604251522.2928085     
   4495006445.6669569     
   4389904866.7307281     
   4288610867.5658264     
   4191032484.5381961     
   4218580021.8301320     
   4134116674.0851722     
   4056105988.9725266     
   3983663009.3484101     
   3916511192.1558084     
   5209595017.5606604     
   5068012302.5364885     
   4927323923.3475170     
   4787602629.9217529     
   4649121134.7384501     
   4843293682.5432739     
   4720890982.5432701     
   4600459215.6301184     
   4482163152.1147280     
   4366303842.2249613     
   4502039881.8145208     
   4396053183.3582487     
   4292915395.2382078     
   4192828574.6141634     
   4096076778.1661177     
   4191032484.5381961     
   4098447565.2854753     
   4009297720.1149397     
   3923777955.4323044     
   3842128857.3171701     
   3916511192.1558084     
   3834043984.7223368     
   3755209863.9523945     
   3680168000.9302688     
   3609113712.8595371     
   4649121134.7384501     
   4512159784.1669035     
   4377882466.5983334     
   4246414996.8035674     
   4117930359.4112000     
   4366303842.2249613     
   4239222199.3278909     
   4114894925.5560060     
   3993517774.0305486     
   3875338384.9696259     
   4096076778.1661177     
   3981008807.7161174     
   3869066741.0325475     
   3760510753.2104907     
   3655674155.6396208     
   3842128857.3171701     
   3741385627.9276710     
   3644468786.1924291     
   3551694003.3837690     
   3463488814.3954306     
   3609113712.8595371     
   3525078575.9985614     
   3445915314.1530938     
   3371975179.8104634     
   3303776838.6137290     
   4117930359.4112000     
   3975621312.0495834     
   3835702132.6347880     
   3698416738.8154440     
   3564085180.9444318     
   3875338384.9696259     
   3744833992.2688403     
   3617282650.3587217     
   3492989102.5103097     
   3372340589.7725506     
   3655674155.6396208     
   3537644294.5918822     
   3423226098.9845381     
   3312788051.1424961     
   3206784461.5800457     
   3463488814.3954306     
   3358669563.8435054     
   3258200215.5284362     
   3162507487.4151163     
   3072101873.6319666     
   3303776838.6137290     
   3212888129.9942045     
   3127130847.8362775     
   3046973263.7851949     
   2972958309.5210161     
   3564085180.9444318     
   3435547956.7655458     
   3310020797.6171560     
   3188594383.2315092     
   3072879311.4566970     
   3372340589.7725506     
   3266383427.7292051     
   3165486574.1312480     
   3070436642.7498055     
   2982230587.3439879     
   3206784461.5800457     
   3117168100.9399509     
   3033778223.2959528     
   2957074524.6315107     
   2887623211.6432967     
   3072101873.6319666     
   2991252557.0163445     
   2916848394.7394981     
   2849147168.1306043     
   2788645651.7259350     
   2972958309.5210161     
   2892103315.2455454     
   2816976186.1060147     
   2747887714.6532907     
   2685782595.5327582     
   3072879311.4566970     
   2944505188.0581660     
   2823621189.3012080     
   2710513528.0239582     
   2607406193.9747386     
   2982230587.3439879     
   2847325576.2011395     
   2715750546.4861546     
   2587603561.6082892     
   2463174020.8778534     
   2887623211.6432967     
   2757726724.2518172     
   2627733372.7279325     
   2498120386.6485004     
   2369844204.9273891     
   2788645651.7259350     
   2679148109.5514002     
   2566843502.7040992     
   2453603327.1506681     
   2344387110.1625276     
   2685782595.5327582     
   2615564193.2263389     
   2540736114.6153650     
   2465936900.7901683     
   2403450865.2375093     
   3625248961.5605607     
   3719857696.1741796     
   3825751952.3389950     
   3942856706.7189107     
   4071069738.3605652     
   3138113780.9159055     
   3255646078.3160758     
   3382629608.8041725     
   3518590184.0638256     
   3663065357.0479631     
   2694770547.8779616     
   2830599185.4494252     
   2973771931.9936008     
   3123206736.9516687     
   3277992231.3834901     
   2298715972.6228819     
   2449510911.4572172     
   2605053895.6921110     
   2763427798.1325002     
   2923207137.1160307     
   1955174554.0779305     
   2119340458.5059404     
   2284876177.2992921     
   2448833151.5465012     
   2609263589.4699574     
   4071069738.3605652     
   4112794197.0184841     
   4151842337.0901055     
   4187341664.2987194     
   4218580021.8301320     
   3663065357.0479631     
   3702482607.2077303     
   3740476790.6123719     
   3776162018.5447073     
   3808798158.3462224     
   3277992231.3834901     
   3321043357.0946097     
   3364281619.0821552     
   3406884941.1958556     
   3448175195.8878469     
   2923207137.1160307     
   2975853835.4555707     
   3030662536.9447989     
   3086942279.3563819     
   3144154305.3820653     
   2609263589.4699574     
   2676957113.8554244     
   2749101756.0339108     
   2825174547.4367099     
   2904815887.1472974     
   4218580021.8301320     
   4134116674.0851722     
   4056105988.9725266     
   3983663009.3484101     
   3916511192.1558084     
   3808798158.3462224     
   3756474892.4055300     
   3710175145.2011585     
   3669416672.7577300     
   3634122230.7391019     
   3448175195.8878469     
   3423126937.2834053     
   3403274530.9694591     
   3388393895.3357568     
   3378480293.7614956     
   3144154305.3820653     
   3141716893.8631339     
   3143019324.4039073     
   3147973084.9735188     
   3156569527.7145243     
   2904815887.1472974     
   2920585988.9684339     
   2937813470.0848527     
   2956461684.4358473     
   2976502450.7860985     
   3916511192.1558084     
   3834043984.7223368     
   3755209863.9523945     
   3680168000.9302688     
   3609113712.8595371     
   3634122230.7391019     
   3560632195.9199290     
   3491383659.0655327     
   3426570901.9148731     
   3366421129.5234785     
   3378480293.7614956     
   3316407749.1325374     
   3259511440.1671901     
   3208004977.2048550     
   3162147291.9774594     
   3156569527.7145243     
   3108198102.4799609     
   3066266275.8932676     
   3030978411.0953712     
   3002613106.9803839     
   2976502450.7860985     
   2943610596.6761642     
   2918721201.6108270     
   2901984586.3030782     
   2893671931.2868891     
   3609113712.8595371     
   3525078575.9985614     
   3445915314.1530938     
   3371975179.8104634     
   3303776838.6137290     
   3366421129.5234785     
   3300608075.4405441     
   3240231470.8042321     
   3185632958.8454924     
   3137249672.6041985     
   3162147291.9774594     
   3112125578.0635176     
   3067774225.5062461     
   3029368997.2011676     
   2997226419.9085965     
   3002613106.9803839     
   2965569911.9613414     
   2934017032.2371063     
   2908130307.9718986     
   2888097881.7467852     
   2893671931.2868891     
   2866424215.3395395     
   2844024805.8720217     
   2826542370.2798500     
   2814060223.0180993     
   3303776838.6137290     
   3212888129.9942045     
   3127130847.8362775     
   3046973263.7851949     
   2972958309.5210161     
   3137249672.6041985     
   3060948220.7594118     
   2991316960.3089037     
   2928836639.1351824     
   2874054182.6504469     
   2997226419.9085965     
   2935769811.7940278     
   2882568228.7691865     
   2838064839.6456017     
   2802754151.5291429     
   2888097881.7467852     
   2840730047.3947792     
   2803201149.7498970     
   2775866505.3348045     
   2759116953.3844290     
   2814060223.0180993     
   2778801282.2581425     
   2754951516.3782558     
   2742744807.9408889     
   2742438738.4687929     
   2972958309.5210161     
   2892103315.2455454     
   2816976186.1060147     
   2747887714.6532907     
   2685782595.5327582     
   2874054182.6504469     
   2794124880.3046441     
   2719088102.8543205     
   2649094224.6142769     
   2584481176.4667583     
   2802754151.5291429     
   2729875011.8580060     
   2661561841.7610507     
   2597988991.9925137     
   2539349481.1068077     
   2759116953.3844290     
   2700290488.5067673     
   2646206082.1236901     
   2597282344.6395082     
   2554087715.0493817     
   2742438738.4687929     
   2705072396.9170752     
   2673062232.8176689     
   2647279880.6706738     
   2629138639.4582305     
   2685782595.5327582     
   2615564193.2263389     
   2540736114.6153650     
   2465936900.7901683     
   2403450865.2375093     
   2584481176.4667583     
   2563868486.2491360     
   2549323489.3530517     
   2543410038.5599108     
   2550660773.8618813     
   2539349481.1068077     
   2554417533.3418245     
   2581873907.8951821     
   2622367605.4100842     
   2676480995.4979687     
   2554087715.0493817     
   2584872433.9283590     
   2630047336.9878607     
   2689573355.2266541     
   2764206149.6468930     
   2629138639.4582305     
   2651258806.4539256     
   2686462302.4744363     
   2735559038.6399064     
   2803494883.3470926     
   1955174554.0779305     
   2119340458.5059404     
   2284876177.2992921     
   2448833151.5465012     
   2609263589.4699574     
   1653665774.4427276     
   1820215048.3672071     
   1988445079.4688866     
   2155668549.6402097     
   2320135508.4688292     
   1393531340.1545510     
   1570960278.6198404     
   1749350327.8933082     
   1926703977.6817448     
   2101776078.1966991     
   1207061489.1319981     
   1398998115.4607155     
   1590445707.1492453     
   1780629916.9288700     
   1969094069.4269485     
   1136873904.8295021     
   1335169963.9478490     
   1533682370.2722824     
   1732411123.8028018     
   1931356224.5394080     
   2609263589.4699574     
   2676957113.8554244     
   2749101756.0339108     
   2825174547.4367099     
   2904815887.1472974     
   2320135508.4688292     
   2407013012.4531369     
   2496317125.9558716     
   2587650302.9869299     
   2680733960.7615933     
   2101776078.1966991     
   2205449261.2661114     
   2309060235.2465091     
   2412369107.5178857     
   2515207708.5987000     
   1969094069.4269485     
   2086244467.4854245     
   2200612809.8135042     
   2312123034.2230563     
   2420722590.2545338     
   1931356224.5394080     
   2058016559.0550959     
   2179365454.3572869     
   2295402910.4459810     
   2406128927.3211784     
   2904815887.1472974     
   2920585988.9684339     
   2937813470.0848527     
   2956461684.4358473     
   2976502450.7860985     
   2680733960.7615933     
   2702847095.7622471     
   2727347650.2827749     
   2754228158.2580848     
   2783486039.8343768     
   2515207708.5987000     
   2543571050.5186348     
   2575283316.4989691     
   2610349938.0650773     
   2648778222.4984088     
   2420722590.2545338     
   2453869851.8296518     
   2491336784.1624756     
   2533127482.8348622     
   2579246337.2055926     
   2406128927.3211784     
   2441141952.8627176     
   2481445046.3648381     
   2527038207.8275385     
   2577921437.2508168     
   2976502450.7860985     
   2943610596.6761642     
   2918721201.6108270     
   2901984586.3030782     
   2893671931.2868891     
   2783486039.8343768     
   2766954744.7250886     
   2758007089.7957373     
   2756736244.3054547     
   2763300633.2503185     
   2648778222.4984088     
   2644874205.5800834     
   2647778639.8781943     
   2657531475.8935513     
   2674199904.7214856     
   2579246337.2055926     
   2583873401.7567120     
   2594193533.4030290     
   2610215037.6344161     
   2631952561.3236680     
   2577921437.2508168     
   2587046580.6784592     
   2600471906.5618153     
   2618197414.9008851     
   2640223105.6956625     
   2893671931.2868891     
   2866424215.3395395     
   2844024805.8720217     
   2826542370.2798500     
   2814060223.0180993     
   2763300633.2503185     
   2740597283.7053876     
   2724145679.1708150     
   2714019833.0219278     
   2710301953.8245578     
   2674199904.7214856     
   2655631324.6272306     
   2644820347.9483252     
   2641819194.3671165     
   2646683299.9038839     
   2631952561.3236680     
   2615963395.4274106     
   2609301502.0618787     
   2611985345.8739886     
   2624033988.5249181     
   2640223105.6956625     
   2624111796.0924902     
   2618932323.3152800     
   2624684687.3640285     
   2641368888.2387357     
   2814060223.0180993     
   2778801282.2581425     
   2754951516.3782558     
   2742744807.9408889     
   2742438738.4687929     
   2710301953.8245578     
   2686848333.1174979     
   2672901635.2634931     
   2668559477.8532696     
   2673928139.4908013     
   2646683299.9038839     
   2631409141.5664701     
   2623547147.7782245     
   2623125690.7755361     
   2630175437.3498230     
   2624033988.5249181     
   2614011787.6660099     
   2609152648.7771320     
   2609460378.5709658     
   2614939067.6992378     
   2641368888.2387357     
   2634626644.4538879     
   2630699827.5259328     
   2629588437.4548640     
   2631292474.2406902     
   2742438738.4687929     
   2705072396.9170752     
   2673062232.8176689     
   2647279880.6706738     
   2629138639.4582305     
   2673928139.4908013     
   2652115838.0169230     
   2637924288.1969876     
   2631901058.1603966     
   2634882814.5891981     
   2630175437.3498230     
   2619634527.1406035     
   2618646876.0846462     
   2627478267.5766287     
   2646515783.0716276     
   2614939067.6992378     
   2610002373.1533561     
   2616298932.7797966     
   2633899931.4435945     
   2662905451.6515951     
   2631292474.2406902     
   2625134734.7438006     
   2631727706.1026678     
   2651071388.3172879     
   2683165781.3876543     
   2629138639.4582305     
   2651258806.4539256     
   2686462302.4744363     
   2735559038.6399064     
   2803494883.3470926     
   2634882814.5891981     
   2628597933.8399820     
   2632516996.9265413     
   2647117473.2746730     
   2675351767.9711423     
   2646515783.0716276     
   2618045791.0508327     
   2597579335.9312682     
   2585329354.8969073     
   2582660915.4957709     
   2662905451.6515951     
   2620060312.2345352     
   2583378228.0387974     
   2552911367.1030064     
   2529008174.4552836     
   2683165781.3876543     
   2634946279.1439242     
   2591280379.0851169     
   2552168081.2112088     
   2517609385.5222015     
   1136873904.8295021     
   1335169963.9478490     
   1533682370.2722824     
   1732411123.8028018     
   1931356224.5394080     
   1207061489.5505388     
   1398998115.8975463     
   1590445707.6038585     
   1780629917.4027674     
   1969094069.9224377     
   1393531340.8323886     
   1570960279.3604791     
   1749350328.6923914     
   1926703978.5404663     
   2101776079.1192625     
   1653665775.2228696     
   1820215049.2576036     
   1988445080.4644580     
   2155668550.7435079     
   2320135509.6872721     
   1955174554.8520846     
   2119340459.4240224     
   2284876178.3594155     
   2448833152.7551188     
   2609263590.8394585     
   1931356224.5394080     
   2058016559.0550959     
   2179365454.3572869     
   2295402910.4459810     
   2406128927.3211784     
   1969094069.9224377     
   2086244468.0508761     
   2200612810.4497766     
   2312123034.9306922     
   2420722591.0336156     
   2101776079.1192625     
   2205449262.3116093     
   2309060236.4153523     
   2412369108.8094172     
   2515207710.0112743     
   2320135509.6872721     
   2407013013.8314004     
   2496317127.4933233     
   2587650304.6806989     
   2680733962.6071668     
   2609263590.8394585     
   2676957115.4060469     
   2749101757.7640820     
   2825174549.3410797     
   2904815889.2180471     
   2406128927.3211784     
   2441141952.8627176     
   2481445046.3648381     
   2527038207.8275385     
   2577921437.2508168     
   2420722591.0336156     
   2453869852.7144098     
   2491336785.1667476     
   2533127483.9716606     
   2579246338.4875045     
   2515207710.0112743     
   2543571052.1448779     
   2575283318.3710494     
   2610349940.2144351     
   2648778224.9561992     
   2680733962.6071668     
   2702847097.9042482     
   2727347652.7755837     
   2754228161.1564021     
   2783486043.1934953     
   2904815889.2180471     
   2920585991.3729739     
   2937813472.9014158     
   2956461687.7447286     
   2976502454.6696358     
   2577921437.2508168     
   2587046580.6784592     
   2600471906.5618153     
   2618197414.9008851     
   2640223105.6956625     
   2579246338.4875045     
   2583873402.8643446     
   2594193534.2912774     
   2610215038.2600746     
   2631952561.6449070     
   2648778224.9561992     
   2644874207.7036190     
   2647778641.5762119     
   2657531477.0785990     
   2674199905.3093390     
   2783486043.1934953     
   2766954747.6576290     
   2758007092.1637263     
   2756736245.9752779     
   2763300634.0924087     
   2976502454.6696358     
   2943610600.1426187     
   2918721204.4767957     
   2901984588.3877621     
   2893671932.4121461     
   2640223105.6956625     
   2624111796.0924902     
   2618932323.3152800     
   2624684687.3640285     
   2641368888.2387357     
   2631952561.6449070     
   2615963395.8567662     
   2609301502.6623015     
   2611985346.7059865     
   2624033989.6467476     
   2674199905.3093390     
   2655631325.4091401     
   2644820349.0559106     
   2641819195.9289360     
   2646683302.0457487     
   2763300634.0924087     
   2740597284.7539954     
   2724145680.6298614     
   2714019835.0941405     
   2710301956.7118497     
   2893671932.4121461     
   2866424216.5709772     
   2844024807.4854794     
   2826542372.5538607     
   2814060226.2345543     
   2641368888.2387357     
   2634626644.4538879     
   2630699827.5259328     
   2629588437.4548640     
   2631292474.2406902     
   2624033989.6467476     
   2614011788.7491770     
   2609152649.7346096     
   2609460379.3157129     
   2614939068.1443152     
   2646683302.0457487     
   2631409143.6761460     
   2623547149.6810722     
   2623125692.2956500     
   2630175438.3103600     
   2710301956.7118497     
   2686848336.0668383     
   2672901638.0141139     
   2668559480.1388869     
   2673928141.0402107     
   2814060226.2345543     
   2778801285.7529340     
   2754951519.8080287     
   2742744810.9476013     
   2742438740.6803212     
   2631292474.2406902     
   2625134734.7438006     
   2631727706.1026678     
   2651071388.3172879     
   2683165781.3876543     
   2614939068.1443152     
   2610002372.3267932     
   2616298930.6086483     
   2633899927.8803749     
   2662905446.6763592     
   2630175438.3103600     
   2619634525.8304501     
   2618646872.3389373     
   2627478261.2692204     
   2646515774.1174064     
   2673928141.0402107     
   2652115836.6620817     
   2637924283.6535811     
   2631901050.1825156     
   2634882802.9700871     
   2742438740.6803212     
   2705072396.0199633     
   2673062228.3880897     
   2647279872.3086538     
   2629138626.7826734     
   2683165781.3876543     
   2634946279.1439242     
   2591280379.0851169     
   2552168081.2112088     
   2517609385.5222015     
   2662905446.6763592     
   2620060313.3585086     
   2583378235.6346731     
   2552911381.5140948     
   2529008196.1414375     
   2646515774.1174064     
   2618045792.2065597     
   2597579347.8138194     
   2585329377.9380836     
   2582660950.0234609     
   2634882802.9700871     
   2628597934.0284481     
   2632517009.6389394     
   2647117498.7957549     
   2675351805.9948707     
   2629138626.7826734     
   2651258804.8067727     
   2686462312.5455647     
   2735559060.4012604     
   2803494915.5367379     
   1955174554.8520846     
   2119340459.4240224     
   2284876178.3594155     
   2448833152.7551188     
   2609263590.8394585     
   2298715973.3265486     
   2449510912.3114734     
   2605053896.6991930     
   2763427799.2989020     
   2923207138.4514561     
   2694770548.4744749     
   2830599186.1882544     
   2973771932.8805547     
   3123206737.9940190     
   3277992232.5896683     
   3138113781.3801212     
   3255646078.9052658     
   3382629609.5267382     
   3518590184.9279284     
   3663065358.0615883     
   3625248961.8734694     
   3719857696.5896330     
   3825751952.8669605     
   3942856707.3681517     
   4071069739.1388865     
   2609263590.8394585     
   2676957115.4060469     
   2749101757.7640820     
   2825174549.3410797     
   2904815889.2180471     
   2923207138.4514561     
   2975853836.9587588     
   3030662538.6236773     
   3086942281.2164402     
   3144154307.4270635     
   3277992232.5896683     
   3321043358.4462996     
   3364281620.5946870     
   3406884942.8835278     
   3448175197.7641144     
   3663065358.0615883     
   3702482608.3320322     
   3740476791.8679910     
   3776162019.9522996     
   3808798159.9261475     
   4071069739.1388865     
   4112794197.8589640     
   4151842338.0168204     
   4187341665.3362942     
   4218580023.0029211     
   2904815889.2180471     
   2920585991.3729739     
   2937813472.9014158     
   2956461687.7447286     
   2976502454.6696358     
   3144154307.4270635     
   3141716896.2413640     
   3143019327.1579642     
   3147973088.1461711     
   3156569531.3492804     
   3448175197.7641144     
   3423126939.4856577     
   3403274533.5104680     
   3388393898.2268052     
   3378480297.0133553     
   3808798159.9261475     
   3756474894.3187842     
   3710175147.4367061     
   3669416675.3015800     
   3634122233.5754104     
   4218580023.0029211     
   4134116675.6283555     
   4056105990.8567472     
   3983663011.5401311     
   3916511194.6182866     
   2976502454.6696358     
   2943610600.1426187     
   2918721204.4767957     
   2901984588.3877621     
   2893671932.4121461     
   3156569531.3492804     
   3108198105.6144409     
   3066266278.4472489     
   3030978412.9914627     
   3002613108.1433816     
   3378480297.0133553     
   3316407751.8107452     
   3259511442.2814665     
   3208004978.7698469     
   3162147293.0125260     
   3634122233.5754104     
   3560632198.0611882     
   3491383660.5981832     
   3426570902.9334836     
   3366421130.1318245     
   3916511194.6182866     
   3834043986.2796607     
   3755209864.7548466     
   3680168001.1398778     
   3609113712.6528764     
   2893671932.4121461     
   2866424216.5709772     
   2844024807.4854794     
   2826542372.5538607     
   2814060226.2345543     
   3002613108.1433816     
   2965569913.3262887     
   2934017033.8941460     
   2908130310.0128083     
   2888097884.2654171     
   3162147293.0125260     
   3112125579.4602556     
   3067774227.1882105     
   3029368999.0882649     
   2997226421.9172740     
   3366421130.1318245     
   3300608076.7190232     
   3240231472.5336704     
   3185632960.7940416     
   3137249674.5263815     
   3609113712.6528764     
   3525078576.9792829     
   3445915315.9855046     
   3371975182.1351533     
   3303776841.0441895     
   2814060226.2345543     
   2778801285.7529340     
   2754951519.8080287     
   2742744810.9476013     
   2742438740.6803212     
   2888097884.2654171     
   2840730049.9755177     
   2803201152.2142367     
   2775866507.4889913     
   2759116955.0209575     
   2997226421.9172740     
   2935769813.6502376     
   2882568230.4493752     
   2838064841.1148739     
   2802754152.7435317     
   3137249674.5263815     
   3060948222.2239285     
   2991316961.4360275     
   2928836640.0419483     
   2874054183.4539752     
   3303776841.0441895     
   3212888131.5015764     
   3127130848.6698494     
   3046973264.2011404     
   2972958309.7872524     
   2742438740.6803212     
   2705072396.0199633     
   2673062228.3880897     
   2647279872.3086538     
   2629138626.7826734     
   2759116955.0209575     
   2700290487.4089694     
   2646206077.9851642     
   2597282337.1787558     
   2554087704.0164886     
   2802754152.7435317     
   2729875010.4686961     
   2661561837.5640702     
   2597988984.7950692     
   2539349470.7267785     
   2874054183.4539752     
   2794124878.3386917     
   2719088098.0009861     
   2649094216.7432094     
   2584481165.4077158     
   2972958309.7872524     
   2892103312.2471142     
   2816976179.7916555     
   2747887704.9330783     
   2685782582.2079792     
   2629138626.7826734     
   2651258804.8067727     
   2686462312.5455647     
   2735559060.4012604     
   2803494915.5367379     
   2554087704.0164886     
   2584872434.1585412     
   2630047349.0910621     
   2689573379.6403022     
   2764206186.5835533     
   2539349470.7267785     
   2554417535.2880187     
   2581873923.2470865     
   2622367635.2936096     
   2676481041.0860806     
   2584481165.4077158     
   2563868488.9898243     
   2549323508.0091305     
   2543410075.2683854     
   2550660830.3662901     
   2685782582.2079792     
   2615564195.0995936     
   2540736135.1526413     
   2465936943.3707776     
   2403450931.7342587     
   3625248961.8734694     
   3719857696.5896330     
   3825751952.8669605     
   3942856707.3681517     
   4071069739.1388865     
   4134474062.8169241     
   4224572760.7462125     
   4320605317.1716080     
   4420906046.0036812     
   4524012196.2603168     
   4643785295.5772543     
   4755712445.4782715     
   4868759271.9181671     
   4980289217.3649654     
   5088375664.1383247     
   5151667129.5491295     
   5311455973.9125376     
   5467857114.5115471     
   5617983413.7704248     
   5760377948.6452723     
   5657856626.9239454     
   5890967398.2113237     
   6116404600.2354202     
   6331728706.3505487     
   6536736518.0673666     
   4071069739.1388865     
   4112794197.8589640     
   4151842338.0168204     
   4187341665.3362942     
   4218580023.0029211     
   4524012196.2603168     
   4539325221.7082720     
   4559321350.6318293     
   4581536225.9167871     
   4604251522.8249207     
   5088375664.1383247     
   5054263559.3798838     
   5030688261.8666000     
   5012450189.6749229     
   4996352067.6514549     
   5760377948.6452723     
   5652276188.6428833     
   5560195158.2386618     
   5475066305.2920685     
   5391355641.7156639     
   6536736518.0673666     
   6328763523.8456945     
   6142989049.1928892     
   5965473437.3264723     
   5787211572.9158535     
   4218580023.0029211     
   4134116675.6283555     
   4056105990.8567472     
   3983663011.5401311     
   3916511194.6182866     
   4604251522.8249207     
   4495006446.5643988     
   4389904867.9960260     
   4288610869.1994815     
   4191032486.5396333     
   4996352067.6514549     
   4868120630.3569937     
   4743005255.9627047     
   4620967004.3682051     
   4502039883.0997458     
   5391355641.7156639     
   5249509078.2446527     
   5110847705.2570944     
   4975412012.3776875     
   4843293682.8519993     
   5787211572.9158535     
   5636516292.5172586     
   5490052458.2911921     
   5347728387.3774595     
   5209595016.6327581     
   3916511194.6182866     
   3834043986.2796607     
   3755209864.7548466     
   3680168001.1398778     
   3609113712.6528764     
   4191032486.5396333     
   4098447566.2544827     
   4009297720.1258054     
   3923777954.5684261     
   3842128855.6722617     
   4502039883.0997458     
   4396053183.6250591     
   4292915394.5032301     
   4192828572.9002805     
   4096076775.5015469     
   4843293682.8519993     
   4720890982.0118589     
   4600459214.2337351     
   4482163149.8326120     
   4366303839.0368786     
   5209595016.6327581     
   5068012301.1241093     
   4927323921.3981018     
   4787602627.3862877     
   4649121131.5651283     
   3609113712.6528764     
   3525078576.9792829     
   3445915315.9855046     
   3371975182.1351533     
   3303776841.0441895     
   3842128855.6722617     
   3741385627.7361245     
   3644468787.2944050     
   3551694005.6030564     
   3463488817.5370994     
   4096076775.5015469     
   3981008806.5351629     
   3869066741.3149724     
   3760510754.9289503     
   3655674158.7596021     
   4366303839.0368786     
   4239222197.3578219     
   4114894924.8874011     
   3993517774.7492037     
   3875338387.1663775     
   4649121131.5651283     
   4512159781.6121969     
   4377882464.8152447     
   4246414995.9567280     
   4117930359.6821895     
   3303776841.0441895     
   3212888131.5015764     
   3127130848.6698494     
   3046973264.2011404     
   2972958309.7872524     
   3463488817.5370994     
   3358669566.1914415     
   3258200217.1815314     
   3162507488.4765210     
   3072101874.2133274     
   3655674158.7596021     
   3537644297.0796695     
   3423226100.8090987     
   3312788052.2714252     
   3206784461.9817872     
   3875338387.1663775     
   3744833994.1019096     
   3617282651.6889625     
   3492989103.1899958     
   3372340589.6445012     
   4117930359.6821895     
   3975621312.3904614     
   3835702132.8200150     
   3698416738.6032934     
   3564085180.0724173     
   2972958309.7872524     
   2892103312.2471142     
   2816976179.7916555     
   2747887704.9330783     
   2685782582.2079792     
   3072101874.2133274     
   2991252553.3692183     
   2916848386.7966094     
   2849147155.8218837     
   2788645634.9467688     
   3206784461.9817872     
   3117168096.3285828     
   3033778213.5850039     
   2957074509.7545352     
   2887623191.5535736     
   3372340589.6445012     
   3266383421.9468493     
   3165486562.5911803     
   3070436625.3781819     
   2982230564.1222053     
   3564085180.0724173     
   3435547949.7023516     
   3310020784.2529225     
   3188594363.4834251     
   3072879285.3145833     
   2685782582.2079792     
   2615564195.0995936     
   2540736135.1526413     
   2465936943.3707776     
   2403450931.7342587     
   2788645634.9467688     
   2679148108.1828599     
   2566843518.5426698     
   2453603362.0151529     
   2344387165.1962767     
   2887623191.5535736     
   2757726720.9320736     
   2627733386.4128723     
   2498120417.5614161     
   2369844253.0648723     
   2982230564.1222053     
   2847325572.9705696     
   2715750562.1998315     
   2587603595.0233769     
   2463174070.6037869     
   3072879285.3145833     
   2944505187.4904685     
   2823621212.2926612     
   2710513571.9378309     
   2607406255.6746321     
   5657856626.9239454     
   5890967398.2113237     
   6116404600.2354202     
   6331728706.3505487     
   6536736518.0673666     
   6491578201.0292969     
   6586830849.7579851     
   6757418656.6092978     
   6961259322.1708612     
   7171692044.4572849     
   7982333373.3897781     
   7734910467.6543407     
   7669098474.1087284     
   7669541084.5601854     
   7666293601.5377169     
   10130569957.517694     
   9322035726.5218887     
   8826248645.0094738     
   8443255385.5842314     
   8035199583.6795216     
   12936375100.001440     
   11340913525.767614     
   10210029088.901741     
   9272191604.3925610     
   8302846013.4746170     
   6536736518.0673666     
   6328763523.8456945     
   6142989049.1928892     
   5965473437.3264723     
   5787211572.9158535     
   7171692044.4572849     
   6910894833.5722570     
   6657999225.7517881     
   6409144259.4286509     
   6161184330.5106010     
   7666293601.5377169     
   7380891616.5942049     
   7100900389.1940470     
   6826404431.8021955     
   6557616919.5487385     
   8035199583.6795216     
   7746414623.7088223     
   7473374962.1752605     
   7214107575.4637775     
   6968632073.4085636     
   8302846013.4746170     
   8020035989.1806469     
   7779535898.3467512     
   7570579817.3589954     
   7388185925.9734983     
   5787211572.9158535     
   5636516292.5172586     
   5490052458.2911921     
   5347728387.3774595     
   5209595016.6327581     
   6161184330.5106010     
   6012449393.4440536     
   5865082173.1945333     
   5719120919.1773777     
   5574621964.6938229     
   6557616919.5487385     
   6407062366.1214085     
   6254843299.9438200     
   6100928246.4819841     
   5945353198.3006887     
   6968632073.4085636     
   6813867359.1049919     
   6654339448.3761959     
   6489752883.3226156     
   6320067447.1437922     
   7388185925.9734983     
   7227841703.9407272     
   7059700633.8957481     
   6883023667.3743982     
   6697626143.1126585     
   5209595016.6327581     
   5068012301.1241093     
   4927323921.3981018     
   4787602627.3862877     
   4649121131.5651283     
   5574621964.6938229     
   5413670394.6142597     
   5253547736.1155367     
   5094303083.1638813     
   4936054432.8082485     
   5945353198.3006887     
   5770814123.5751028     
   5597688558.1600018     
   5425997454.5775261     
   5255789013.8225269     
   6320067447.1437922     
   6137102240.6006680     
   5956706026.5792484     
   5778834367.5780516     
   5603498558.2587681     
   6697626143.1126585     
   6510763968.8215094     
   6328148876.1961632     
   6149601650.3092651     
   5975079795.7670326     
   4649121131.5651283     
   4512159781.6121969     
   4377882464.8152447     
   4246414995.9567280     
   4117930359.6821895     
   4936054432.8082485     
   4789671412.6607742     
   4644964301.0601654     
   4502065588.4367704     
   4361154348.8535118     
   5255789013.8225269     
   5098501636.7544460     
   4941727762.7152414     
   4785555005.7579546     
   4630129255.1009665     
   5603498558.2587681     
   5433999543.7747602     
   5263779779.5144281     
   5092833263.5125504     
   4921231879.3449163     
   5975079795.7670326     
   5792194602.4159660     
   5607356300.3468399     
   5420421543.3240557     
   5231349382.3990498     
   4117930359.6821895     
   3975621312.3904614     
   3835702132.8200150     
   3698416738.6032934     
   3564085180.0724173     
   4361154348.8535118     
   4205411854.7654891     
   4051191799.6653666     
   3898663880.4219217     
   3748064275.4531579     
   4630129255.1009665     
   4461713174.8558798     
   4294070043.2844157     
   4127300215.2464867     
   3961558561.7141242     
   4921231879.3449163     
   4740926664.7127800     
   4560770467.4065571     
   4380805385.8946657     
   4201116262.3334603     
   5231349382.3990498     
   5039923106.6167974     
   4848144412.2369413     
   4656011147.2536278     
   4463553936.6206541     
   3564085180.0724173     
   3435547949.7023516     
   3310020784.2529225     
   3188594363.4834251     
   3072879285.3145833     
   3748064275.4531579     
   3597421165.4631181     
   3448587573.2864227     
   3301914300.9851723     
   3157891481.1387315     
   3961558561.7141242     
   3799956305.1742635     
   3640444218.8708272     
   3483100515.1930761     
   3328066455.9860764     
   4201116262.3334603     
   4038273451.3021102     
   3878975071.0234604     
   3723328749.1527691     
   3571699991.5428872     
   4463553936.6206541     
   4307629718.1919746     
   4157564574.2512188     
   4013580161.4606123     
   3876523181.1238780     
   3072879285.3145833     
   2944505187.4904685     
   2823621212.2926612     
   2710513571.9378309     
   2607406255.6746321     
   3157891481.1387315     
   3022308414.5282559     
   2892052341.4741745     
   2767535195.8861394     
   2649429477.1122484     
   3328066455.9860764     
   3171301060.7071190     
   3013443998.2059355     
   2855012389.3997703     
   2697382218.5709405     
   3571699991.5428872     
   3385261768.7601547     
   3189100272.0444555     
   2982908305.2199931     
   2769551509.1392756     
   3876523181.1238780     
   3655996864.1248579     
   3417870275.2328873     
   3159885806.5300879     
   2886436365.0424232     
 </DataArray>
 <DataArray  type="Float64" Name="strain" NumberOfComponents="3" format="ascii">
  0.20349412141108220        0.0000000000000000       0.12542515871846543     
  0.18665792469466541       -2.7331550890758016E-002   7.4355902209335356E-002
  0.16982172797824863       -4.4683372464107460E-002   3.5125427763281522E-002
  0.15298553126183184       -5.2055464720048392E-002   7.7337353803039119E-003
  0.13614933454541503       -4.9447827658580745E-002  -7.8191749395974675E-003
  0.15985740636932472        0.0000000000000000        9.6460141002262495E-002
  0.15317756452348191       -2.1849259648657582E-002   6.2693437241836236E-002
  0.14649772267763911       -3.6179798828743184E-002   3.7400661159481680E-002
  0.13981788083179630       -4.2991617540256821E-002   2.0581812755198922E-002
  0.13313803898595350       -4.2284715783198472E-002   1.2236892028987797E-002
  0.12645644637578302        0.0000000000000000        7.4207918952578306E-002
  0.12656810501550969       -1.6366968406557145E-002   5.5282759092019233E-002
  0.12667976365523639       -2.7676225193378895E-002   4.1466672524527445E-002
  0.12679142229496307       -3.3927770360465265E-002   3.2759659250102866E-002
  0.12690308093468977       -3.5121603907816226E-002   2.9161719268745549E-002
  0.10329124143045709        0.0000000000000000        5.8668492569412811E-002
  0.10682954617074880       -1.0884677164456714E-002   5.2123867759884396E-002
  0.11036785091104047       -1.9172651558014613E-002   4.7323461858418722E-002
  0.11390615565133215       -2.4863923180673701E-002   4.4267274865015818E-002
  0.11744446039162384       -2.7958492032433963E-002   4.2955306779675677E-002
   9.0361791533346975E-002   0.0000000000000000        4.9841861852766060E-002
   9.3961887989199161E-002  -5.4023859223562782E-003   5.3216763245431717E-002
   9.7561984445051347E-002  -1.0669077922650323E-002   5.4971029161155593E-002
  0.10116208090090353       -1.5800076000882134E-002   5.5104659599937773E-002
  0.10476217735675572       -2.0795380157051714E-002   5.3617654561778173E-002
  0.13614933454541503       -4.9447827658580745E-002  -7.8191749395974675E-003
  0.13295418822773308       -4.2904073236568113E-002  -3.3794410234314412E-003
  0.12975904191005116       -3.8467813410874165E-002  -3.6483472344341766E-004
  0.12656389559236922       -3.6139048181498837E-002   1.2246439603670264E-003
  0.12336874927468727       -3.5917777548442165E-002   1.3889950279994401E-003
  0.13313803898595350       -4.2284715783198472E-002   1.2236892028987797E-002
  0.12890784867716418       -3.8412911702707817E-002   1.2194841869409105E-002
  0.12467765836837491       -3.5730023443924501E-002   1.1507831343793677E-002
  0.12044746805958562       -3.4236051006848491E-002   1.0175860452141181E-002
  0.11621727775079632       -3.3930994391479799E-002   8.1989291944519344E-003
  0.12690308093468977       -3.5121603907816226E-002   2.9161719268745549E-002
  0.12241801388493412       -3.3921750168847492E-002   2.5556463808033517E-002
  0.11793294683517844       -3.2992233476974789E-002   2.2086415231425537E-002
  0.11344787978542281       -3.2333053832198068E-002   1.8751573538921769E-002
  0.10896281273566712       -3.1944211234517433E-002   1.5551938730522116E-002
  0.11744446039162384       -2.7958492032433963E-002   4.2955306779675677E-002
  0.11348468385104279       -2.9430588634987175E-002   3.6705424792441578E-002
  0.10952490731046176       -3.0254443510025104E-002   3.1370916939452549E-002
  0.10556513076988072       -3.0430056657547746E-002   2.6951783220708698E-002
  0.10160535422929967       -2.9957428077555068E-002   2.3448023636209989E-002
  0.10476217735675572       -2.0795380157051714E-002   5.3617654561778173E-002
  0.10210785857549030       -2.4939427101126871E-002   4.5641724822633345E-002
   9.9453539794224860E-002  -2.7516653543075413E-002   3.9361336467874597E-002
   9.6799221012959444E-002  -2.8527059482897368E-002   3.4776489497501888E-002
   9.4144902231694014E-002  -2.7970644920592716E-002   3.1887183911515349E-002
  0.12336874927468727       -3.5917777548442165E-002   1.3889950279994401E-003
  0.12039423614524136       -3.6431160862305675E-002   5.9733327179688211E-004
  0.11741972301579548       -3.6306357473691250E-002   3.1974279100968617E-005
  0.11444520988634958       -3.5543367382598737E-002  -3.0708195008870287E-004
  0.11147069675690369       -3.4142190589028232E-002  -4.1983541577167438E-004
  0.11621727775079632       -3.3930994391479799E-002   8.1989291944519344E-003
  0.11344931885539289       -3.4016446875095988E-002   7.8075675806550809E-003
  0.11068135995998948       -3.3694001734974582E-002   7.6030116714364201E-003
  0.10791340106458611       -3.2963658971115646E-002   7.5852614667964516E-003
  0.10514544216918265       -3.1825418583519005E-002   7.7543169667349809E-003
  0.10896281273566712       -3.1944211234517433E-002   1.5551938730522116E-002
  0.10636191101537819       -3.1601732887886168E-002   1.5330588180390261E-002
  0.10376100929508925       -3.1081645996257866E-002   1.5256546275908972E-002
  0.10116010757480029       -3.0383950559632368E-002   1.5329813017077972E-002
   9.8559205854511361E-002  -2.9508646578009834E-002   1.5550388403897483E-002
  0.10160535422929967       -2.9957428077555068E-002   2.3448023636209989E-002
   9.9132012625197205E-002  -2.9187018900676428E-002   2.3166395071002759E-002
   9.6658671021094725E-002  -2.8469290257541174E-002   2.2992578092517917E-002
   9.4185329416992231E-002  -2.7804242148149211E-002   2.2926572700755602E-002
   9.1711987812889736E-002  -2.7191874572500579E-002   2.2968378895715732E-002
   9.4144902231694014E-002  -2.7970644920592716E-002   3.1887183911515349E-002
   9.1759623684849967E-002  -2.6772304913466660E-002   3.1314988252492348E-002
   8.9374345138005934E-002  -2.5856934518824464E-002   3.0811107121263802E-002
   8.6989066591161873E-002  -2.5224533736665982E-002   3.0375540517829539E-002
   8.4603788044317840E-002  -2.4875102566991381E-002   3.0008288442189779E-002
  0.11147069675690369       -3.4142190589028232E-002  -4.1983541577167438E-004
  0.10850747651030662       -3.2576130667106157E-002  -4.3863072791472391E-005
  0.10554425626370956       -3.1318491190959322E-002   2.7439829781425451E-004
  0.10258103601711249       -3.0369272160587549E-002   5.3494869604432671E-004
   9.9617815770515428E-002  -2.9728473575990788E-002   7.3778812189978504E-004
  0.10514544216918265       -3.1825418583519005E-002   7.7543169667349809E-003
  0.10217398688338031       -3.0576054244582165E-002   7.6717484325188184E-003
   9.9202531597577970E-002  -2.9512339626702258E-002   7.6304207922671813E-003
   9.6231076311775590E-002  -2.8634274729879495E-002   7.6303340459797295E-003
   9.3259621025973294E-002  -2.7941859554113435E-002   7.6714881936566504E-003
   9.8559205854511361E-002  -2.9508646578009834E-002   1.5550388403897483E-002
   9.5678467395843181E-002  -2.8575977822058049E-002   1.5132049717202653E-002
   9.2797728937175028E-002  -2.7706188062445243E-002   1.4853903790812077E-002
   8.9916990478506847E-002  -2.6899277299171270E-002   1.4715950624724961E-002
   8.7036252019838667E-002  -2.6155245532236110E-002   1.4718190218942093E-002
   9.1711987812889736E-002  -2.7191874572500579E-002   2.2968378895715732E-002
   8.9020918047695199E-002  -2.6575901399534051E-002   2.2337040781260736E-002
   8.6329848282500676E-002  -2.5900036498188287E-002   2.1944847293449005E-002
   8.3638778517306070E-002  -2.5164279868463077E-002   2.1791798432280678E-002
   8.0947708752111547E-002  -2.4368631510358660E-002   2.1877894197755720E-002
   8.4603788044317840E-002  -2.4875102566991381E-002   3.0008288442189779E-002
   8.2201338838936350E-002  -2.4575824977009983E-002   2.9286721624692522E-002
   7.9798889633554901E-002  -2.4093884933931144E-002   2.8903251300178054E-002
   7.7396440428173452E-002  -2.3429282437754960E-002   2.8857877468646494E-002
   7.4993991222792017E-002  -2.2582017488481293E-002   2.9150600130097626E-002
   9.9617815770515428E-002  -2.9728473575990788E-002   7.3778812189978504E-004
   9.6488701344257410E-002  -2.9163372744509197E-002   8.0835723237859813E-005
   9.3359586917999449E-002  -2.8441246973482118E-002  -2.8671570995694728E-004
   9.0230472491741487E-002  -2.7562096262909914E-002  -3.6486617768446972E-004
   8.7101358065483470E-002  -2.6525920612792686E-002  -1.5361567994454095E-004
   9.3259621025973294E-002  -2.7941859554113435E-002   7.6714881936566504E-003
   9.0399084172914840E-002  -2.7294315301144678E-002   7.2550045486386161E-003
   8.7538547319856386E-002  -2.6550863172713157E-002   7.0862750845522987E-003
   8.4678010466797918E-002  -2.5711503168818761E-002   7.1652998013976843E-003
   8.1817473613739478E-002  -2.4776235289461379E-002   7.4920786991752863E-003
   8.7036252019838667E-002  -2.6155245532236110E-002   1.4718190218942093E-002
   8.4402645955444319E-002  -2.5425257857780159E-002   1.4481058263485252E-002
   8.1769039891049972E-002  -2.4660479371943968E-002   1.4450033704424985E-002
   7.9135433826655624E-002  -2.3860910074727439E-002   1.4625116541761036E-002
   7.6501827762261304E-002  -2.3026549966130572E-002   1.5006306775493444E-002
   8.0947708752111547E-002  -2.4368631510358660E-002   2.1877894197755720E-002
   7.8499386691845890E-002  -2.3556200414415696E-002   2.1758996867777852E-002
   7.6051064631580317E-002  -2.2770095571174893E-002   2.1804560149660902E-002
   7.3602742571314703E-002  -2.2010316980636036E-002   2.2014584043405068E-002
   7.1154420511049074E-002  -2.1276864642799459E-002   2.2389068549010162E-002
   7.4993991222792017E-002  -2.2582017488481293E-002   2.9150600130097626E-002
   7.2689306382119623E-002  -2.1687142971051343E-002   2.9088820361516193E-002
   7.0384621541447298E-002  -2.0879711770405825E-002   2.9149854420260427E-002
   6.8079936700774918E-002  -2.0159723886544842E-002   2.9333702306330235E-002
   6.5775251860102579E-002  -1.9527179319468402E-002   2.9640364019725418E-002
   8.7101358065483470E-002  -2.6525920612792686E-002  -1.5361567994454095E-004
   8.3951421813035998E-002  -2.5397466924079071E-002  -4.1374193517951241E-004
   8.0801485560588582E-002  -2.4241482097719341E-002  -5.0264133085686780E-004
   7.7651549308141110E-002  -2.3057966133713213E-002  -4.2031386697669038E-004
   7.4501613055693694E-002  -2.1846919032060597E-002  -1.6675954353917444E-004
   8.1817473613739478E-002  -2.4776235289461379E-002   7.4920786991752863E-003
   7.8839969715833791E-002  -2.3782160736145558E-002   7.2260148442414851E-003
   7.5862465817928104E-002  -2.2766380710373624E-002   7.1335888388340263E-003
   7.2884961920022390E-002  -2.1728895212146326E-002   7.2148006829524242E-003
   6.9907458022116786E-002  -2.0669704241463416E-002   7.4696503765969147E-003
   7.6501827762261304E-002  -2.3026549966130572E-002   1.5006306775493444E-002
   7.3699167208866115E-002  -2.2166854548211101E-002   1.4728479655669813E-002
   7.0896506655470787E-002  -2.1291279323027254E-002   1.4626701375341097E-002
   6.8093846102075528E-002  -2.0399824290579221E-002   1.4700971934507312E-002
   6.5291185548680297E-002  -1.9492489450866513E-002   1.4951291333168082E-002
   7.1154420511049074E-002  -2.1276864642799459E-002   2.2389068549010162E-002
   6.8529014292132900E-002  -2.0551548360277117E-002   2.2093652499105831E-002
   6.5903608073216685E-002  -1.9816177935681321E-002   2.1976696278664946E-002
   6.3278201854300525E-002  -1.9070753369012226E-002   2.2038199887687529E-002
   6.0652795635384331E-002  -1.8315274660269359E-002   2.2278163326173203E-002
   6.5775251860102579E-002  -1.9527179319468402E-002   2.9640364019725418E-002
   6.3329510965634161E-002  -1.8936242172343104E-002   2.9321533374549263E-002
   6.0883770071165771E-002  -1.8341076548335236E-002   2.9183573548805075E-002
   5.8438029176697354E-002  -1.7741682447445051E-002   2.9226484542493228E-002
   5.5992288282228964E-002  -1.7138059869672317E-002   2.9450266355613319E-002
   7.4501613055693694E-002  -2.1846919032060597E-002  -1.6675954353917444E-004
   7.1951562159021543E-002  -2.0852205001633817E-002   1.0205212700720168E-004
   6.9401511262349391E-002  -2.0317688251305144E-002   1.5592968396427320E-004
   6.6851460365677268E-002  -2.0243368781075174E-002  -5.1268726676267917E-006
   6.4301409469005089E-002  -2.0629246590943340E-002  -3.8111754288938648E-004
   6.9907458022116786E-002  -2.0669704241463416E-002   7.4696503765969147E-003
   6.7214144421559541E-002  -1.9744844881960044E-002   7.4127330295324367E-003
   6.4520830821002323E-002  -1.9110354217270142E-002   7.2842243882865199E-003
   6.1827517220445202E-002  -1.8766232247394321E-002   7.0841244528601494E-003
   5.9134203619887971E-002  -1.8712478972332303E-002   6.8124332232523122E-003
   6.5291185548680297E-002  -1.9492489450866513E-002   1.4951291333168082E-002
   6.2597952063646517E-002  -1.8637484762286133E-002   1.4738473553776360E-002
   5.9904718578612723E-002  -1.7903020183235169E-002   1.4597407299612133E-002
   5.7211485093578936E-002  -1.7289095713713475E-002   1.4528092570675583E-002
   5.4518251608545176E-002  -1.6795711353721210E-002   1.4530529366966721E-002
   6.0652795635384331E-002  -1.8315274660269359E-002   2.2278163326173203E-002
   5.8102985085282367E-002  -1.7530124642612402E-002   2.2079273699739124E-002
   5.5553174535180438E-002  -1.6695686149200237E-002   2.2095478417941267E-002
   5.3003363985078517E-002  -1.5811959180032958E-002   2.2326777480779467E-002
   5.0453553434976546E-002  -1.4878943735110256E-002   2.2773170888253376E-002
   5.5992288282228964E-002  -1.7138059869672317E-002   2.9450266355613319E-002
   5.3729243486467293E-002  -1.6422764522938449E-002   2.9435133467421382E-002
   5.1466198690705595E-002  -1.5488352115165249E-002   2.9778437743273822E-002
   4.9203153894943868E-002  -1.4334822646351900E-002   3.0480179183171113E-002
   4.6940109099182226E-002  -1.2962176116499413E-002   3.1540357787112616E-002
   6.4301409469005089E-002  -2.0629246590943340E-002  -3.8111754288938648E-004
   6.0295323846709215E-002  -2.0576784943654225E-002  -3.5162055564780248E-003
   5.6289238224413229E-002  -1.9187447101952054E-002  -5.7165000676664968E-003
   5.2283152602117383E-002  -1.6461233065838098E-002  -6.9820010764554408E-003
   4.8277066979821370E-002  -1.2398142835310821E-002  -7.3127085828432747E-003
   5.9134203619887971E-002  -1.8712478972332303E-002   6.8124332232523122E-003
   5.5940809555798054E-002  -1.8390438326366776E-002   5.1884069187606574E-003
   5.2747415491708027E-002  -1.7241454243779986E-002   4.2549702282801416E-003
   4.9554021427618028E-002  -1.5265526724572265E-002   4.0121231518113754E-003
   4.6360627363527973E-002  -1.2462655768743502E-002   4.4598656893546362E-003
   5.4518251608545176E-002  -1.6795711353721210E-002   1.4530529366966721E-002
   5.1893345214272496E-002  -1.6204091709078883E-002   1.3907632013779758E-002
   4.9268438819999830E-002  -1.5295461385607376E-002   1.3731120386216059E-002
   4.6643532425727365E-002  -1.4069820383306213E-002   1.4000994484275504E-002
   4.4018626031454566E-002  -1.2527168702176406E-002   1.4717254307957894E-002
   5.0453553434976546E-002  -1.4878943735110256E-002   2.2773170888253376E-002
   4.8152930822132768E-002  -1.4017745091791434E-002   2.2641469728579888E-002
   4.5852308209289011E-002  -1.3349468527434814E-002   2.2711950406141181E-002
   4.3551685596445323E-002  -1.2874114042040937E-002   2.2984612920936669E-002
   4.1251062983601469E-002  -1.2591681635609198E-002   2.3459457272967360E-002
   4.6940109099182226E-002  -1.2962176116499413E-002   3.1540357787112616E-002
   4.4719566379378795E-002  -1.1831398474503818E-002   3.1389920063160770E-002
   4.2499023659575336E-002  -1.1403475669262392E-002   3.1197460288054812E-002
   4.0278480939772002E-002  -1.1678407700775058E-002   3.0962978461795687E-002
   3.8057938219968501E-002  -1.2656194569041990E-002   3.0686474584381784E-002
   9.0361791533346975E-002   0.0000000000000000        4.9841861852766060E-002
   9.3961887989199161E-002  -5.4023859223562782E-003   5.3216763245431717E-002
   9.7561984445051347E-002  -1.0669077922650323E-002   5.4971029161155593E-002
  0.10116208090090353       -1.5800076000882134E-002   5.5104659599937773E-002
  0.10476217735675572       -2.0795380157051714E-002   5.3617654561778173E-002
   8.2427772955539574E-002   0.0000000000000000        4.4792354078702565E-002
   8.4636668282301097E-002  -4.5736983639646824E-003   4.8274728671415031E-002
   8.6845563609062620E-002  -9.0372281263795401E-003   5.0595336482887887E-002
   8.9054458935824143E-002  -1.3390589287244575E-002   5.1754177513121134E-002
   9.1263354262585653E-002  -1.7633781846559778E-002   5.1751251762114786E-002
   7.4248861968121915E-002   0.0000000000000000        4.0584296523286864E-002
   7.5525424861494897E-002  -3.7450108055730878E-003   4.4148618995533746E-002
   7.6801987754867879E-002  -7.4053783301087604E-003   4.7010043382243162E-002
   7.8078550648240860E-002  -1.0981102573607014E-002   4.9168569683415084E-002
   7.9355113541613842E-002  -1.4472183536067853E-002   5.0624197899049560E-002
   6.5825058571093997E-002   0.0000000000000000        3.7217689186518972E-002
   6.6628157726780574E-002  -2.9163232471814933E-003   4.0838434217787850E-002
   6.7431256882467150E-002  -5.7735285338379782E-003   4.4215149859221418E-002
   6.8234356038153726E-002  -8.5716158599694510E-003   4.7347836110819615E-002
   6.9037455193840302E-002  -1.1310585225575926E-002   5.0236492972582501E-002
   5.7156362764455779E-002   0.0000000000000000        3.4692532068398868E-002
   5.7944866878158093E-002  -2.0876356887898975E-003   3.8344174338177356E-002
   5.8733370991860413E-002  -4.1416787375671976E-003   4.2210655913822628E-002
   5.9521875105562720E-002  -6.1621291463318968E-003   4.6291976795334720E-002
   6.0310379219265034E-002  -8.1489869150839968E-003   5.0588136982713590E-002
  0.10476217735675572       -2.0795380157051714E-002   5.3617654561778173E-002
  0.10210785857549030       -2.4939427101126871E-002   4.5641724822633345E-002
   9.9453539794224860E-002  -2.7516653543075413E-002   3.9361336467874597E-002
   9.6799221012959444E-002  -2.8527059482897368E-002   3.4776489497501888E-002
   9.4144902231694014E-002  -2.7970644920592716E-002   3.1887183911515349E-002
   9.1263354262585653E-002  -1.7633781846559778E-002   5.1751251762114786E-002
   9.0065657883918931E-002  -2.1210914375050301E-002   4.6521371395493859E-002
   8.8867961505252197E-002  -2.3566095443441331E-002   4.2509194449684290E-002
   8.7670265126585503E-002  -2.4699325051732796E-002   3.9714720924685976E-002
   8.6472568747918754E-002  -2.4610603199924780E-002   3.8137950820498950E-002
   7.9355113541613842E-002  -1.4472183536067853E-002   5.0624197899049560E-002
   7.9136201601971032E-002  -1.7482401648973765E-002   4.7795497862925536E-002
   7.8917289662328249E-002  -1.9615537343807218E-002   4.5706663284037961E-002
   7.8698377722685439E-002  -2.0871590620568266E-002   4.4357694162386899E-002
   7.8479465783042643E-002  -2.1250561479256837E-002   4.3748590497972445E-002
   6.9037455193840302E-002  -1.1310585225575926E-002   5.0236492972582501E-002
   6.9319489729646633E-002  -1.3753888922897205E-002   4.9464104224928210E-002
   6.9601524265452949E-002  -1.5664979244173139E-002   4.8953742970935681E-002
   6.9883558801259252E-002  -1.7043856189403697E-002   4.8705409210604803E-002
   7.0165593337065568E-002  -1.7890519758588897E-002   4.8719102943935701E-002
   6.0310379219265034E-002  -8.1489869150839968E-003   5.0588136982713590E-002
   6.0615522266945693E-002  -1.0025376196820663E-002   5.1527190481502005E-002
   6.0920665314626345E-002  -1.1714421144539041E-002   5.2250433510377364E-002
   6.1225808362307003E-002  -1.3216121758239158E-002   5.2757866069339632E-002
   6.1530951409987655E-002  -1.4530478037920957E-002   5.3049488158388836E-002
   9.4144902231694014E-002  -2.7970644920592716E-002   3.1887183911515349E-002
   9.1759623684849967E-002  -2.6772304913466660E-002   3.1314988252492348E-002
   8.9374345138005934E-002  -2.5856934518824464E-002   3.0811107121263802E-002
   8.6989066591161873E-002  -2.5224533736665982E-002   3.0375540517829539E-002
   8.4603788044317840E-002  -2.4875102566991381E-002   3.0008288442189779E-002
   8.6472568747918754E-002  -2.4610603199924780E-002   3.8137950820498950E-002
   8.4204608557953392E-002  -2.3965841845674258E-002   3.7097568475610146E-002
   8.1936648367988030E-002  -2.3430952946638328E-002   3.6223508316684104E-002
   7.9668688178022667E-002  -2.3005936502816834E-002   3.5515770343721095E-002
   7.7400727988057319E-002  -2.2690792514209995E-002   3.4974354556720974E-002
   7.8479465783042643E-002  -2.1250561479256837E-002   4.3748590497972445E-002
   7.6426831608124440E-002  -2.1159378777881849E-002   4.2413118624486962E-002
   7.4374197433206224E-002  -2.1004971374452140E-002   4.1341976595132862E-002
   7.2321563258288007E-002  -2.0787339268967742E-002   4.0535164409910292E-002
   7.0268929083369791E-002  -2.0506482461428638E-002   3.9992682068819015E-002
   7.0165593337065568E-002  -1.7890519758588897E-002   4.8719102943935701E-002
   6.8426292835363028E-002  -1.8352915710089422E-002   4.7261638699122907E-002
   6.6686992333660461E-002  -1.8578989802265990E-002   4.6166511956609986E-002
   6.4947691831957893E-002  -1.8568742035118626E-002   4.5433722716397014E-002
   6.3208391330255340E-002  -1.8322172408647266E-002   4.5063270978483935E-002
   6.1530951409987655E-002  -1.4530478037920957E-002   5.3049488158388836E-002
   6.0202992239669219E-002  -1.5546452642297023E-002   5.1643128699518016E-002
   5.8875033069350782E-002  -1.6153008230079820E-002   5.0697114401115531E-002
   5.7547073899032360E-002  -1.6350144801269478E-002   5.0211445263181380E-002
   5.6219114728713909E-002  -1.6137862355865895E-002   5.0186121285715646E-002
   8.4603788044317840E-002  -2.4875102566991381E-002   3.0008288442189779E-002
   8.2201338838936350E-002  -2.4575824977009983E-002   2.9286721624692522E-002
   7.9798889633554901E-002  -2.4093884933931144E-002   2.8903251300178054E-002
   7.7396440428173452E-002  -2.3429282437754960E-002   2.8857877468646494E-002
   7.4993991222792017E-002  -2.2582017488481293E-002   2.9150600130097626E-002
   7.7400727988057319E-002  -2.2690792514209995E-002   3.4974354556720974E-002
   7.5309076618998938E-002  -2.2371298332319642E-002   3.4447367881576471E-002
   7.3217425249940571E-002  -2.1933231308647647E-002   3.4203880386095460E-002
   7.1125773880882190E-002  -2.1376591443193999E-002   3.4243892070277712E-002
   6.9034122511823837E-002  -2.0701378735958814E-002   3.4567402934123415E-002
   7.0268929083369791E-002  -2.0506482461428638E-002   3.9992682068819015E-002
   6.8433478237315104E-002  -2.0166771687629252E-002   3.9596185924711633E-002
   6.6598027391260403E-002  -1.9772577683364063E-002   3.9428591646948105E-002
   6.4762576545205716E-002  -1.9323900448633049E-002   3.9489899235528599E-002
   6.2927125699151015E-002  -1.8820739983436238E-002   3.9780108690452932E-002
   6.3208391330255340E-002  -1.8322172408647266E-002   4.5063270978483935E-002
   6.1574543693884876E-002  -1.7962245042938887E-002   4.4733175754097715E-002
   5.9940696057514398E-002  -1.7611924058080548E-002   4.4577385082735996E-002
   5.8306848421143927E-002  -1.7271209454072109E-002   4.4595898964398903E-002
   5.6673000784773463E-002  -1.6940101230913725E-002   4.4788717399086235E-002
   5.6219114728713909E-002  -1.6137862355865895E-002   5.0186121285715646E-002
   5.4732272988708253E-002  -1.5757718398248508E-002   4.9858337369734995E-002
   5.3245431248702568E-002  -1.5451270432797003E-002   4.9650260693459333E-002
   5.1758589508696891E-002  -1.5218518459511171E-002   4.9561891256888750E-002
   5.0271747768691227E-002  -1.5059462478391156E-002   4.9593229060023281E-002
   7.4993991222792017E-002  -2.2582017488481293E-002   2.9150600130097626E-002
   7.2689306382119623E-002  -2.1687142971051343E-002   2.9088820361516193E-002
   7.0384621541447298E-002  -2.0879711770405825E-002   2.9149854420260427E-002
   6.8079936700774918E-002  -2.0159723886544842E-002   2.9333702306330235E-002
   6.5775251860102579E-002  -1.9527179319468402E-002   2.9640364019725418E-002
   6.9034122511823837E-002  -2.0701378735958814E-002   3.4567402934123415E-002
   6.6870161640454256E-002  -1.9982780144399970E-002   3.4316783010855029E-002
   6.4706200769084676E-002  -1.9295982625975948E-002   3.4224797198866619E-002
   6.2542239897715138E-002  -1.8640986180686402E-002   3.4291445498158116E-002
   6.0378279026345516E-002  -1.8017790808531553E-002   3.4516727908729727E-002
   6.2927125699151015E-002  -1.8820739983436238E-002   3.9780108690452932E-002
   6.0939709081038643E-002  -1.8278417317748819E-002   3.9396290856147383E-002
   5.8952292462926256E-002  -1.7712253481546151E-002   3.9206927417076362E-002
   5.6964875844813904E-002  -1.7122248474828010E-002   3.9212018373239524E-002
   5.4977459226701497E-002  -1.6508402297594676E-002   3.9411563724637208E-002
   5.6673000784773463E-002  -1.6940101230913725E-002   4.4788717399086235E-002
   5.4897948703872712E-002  -1.6574054491097612E-002   4.4327343897393491E-002
   5.3122896622971962E-002  -1.6128524337116229E-002   4.4096245074889642E-002
   5.1347844542071232E-002  -1.5603510768969649E-002   4.4095420931574536E-002
   4.9572792461170474E-002  -1.4999013786657786E-002   4.4324871467448235E-002
   5.0271747768691227E-002  -1.5059462478391156E-002   4.9593229060023281E-002
   4.8744880508956534E-002  -1.4869691664446349E-002   4.9109942134593298E-002
   4.7218013249221827E-002  -1.4544795192686484E-002   4.8892750172306529E-002
   4.5691145989487127E-002  -1.4084773063111221E-002   4.8941653173163104E-002
   4.4164278729752454E-002  -1.3489625275720951E-002   4.9256651137162877E-002
   6.5775251860102579E-002  -1.9527179319468402E-002   2.9640364019725418E-002
   6.3329510965634161E-002  -1.8936242172343104E-002   2.9321533374549263E-002
   6.0883770071165771E-002  -1.8341076548335236E-002   2.9183573548805075E-002
   5.8438029176697354E-002  -1.7741682447445051E-002   2.9226484542493228E-002
   5.5992288282228964E-002  -1.7138059869672317E-002   2.9450266355613319E-002
   6.0378279026345516E-002  -1.8017790808531553E-002   3.4516727908729727E-002
   5.8113023377284620E-002  -1.7405141217808784E-002   3.4201133717218168E-002
   5.5847767728223682E-002  -1.6781782116815830E-002   3.4065639197089506E-002
   5.3582512079162738E-002  -1.6147713505552670E-002   3.4110244348343678E-002
   5.1317256430101849E-002  -1.5502935384019201E-002   3.4334949170980844E-002
   5.4977459226701497E-002  -1.6508402297594676E-002   3.9411563724637208E-002
   5.2891917674998797E-002  -1.5874040263274589E-002   3.9105687020178317E-002
   5.0806376123296068E-002  -1.5222487685296417E-002   3.8979138839052942E-002
   4.8720834571593409E-002  -1.4553744563660343E-002   3.9031919181261115E-002
   4.6635293019890653E-002  -1.3867810898366084E-002   3.9264028046802957E-002
   4.9572792461170474E-002  -1.4999013786657786E-002   4.4324871467448235E-002
   4.7666193858776761E-002  -1.4342939308740414E-002   4.4035193283429655E-002
   4.5759595256383026E-002  -1.3663193253777118E-002   4.3924072474695416E-002
   4.3852996653989250E-002  -1.2959775621767946E-002   4.3991509041245408E-002
   4.1946398051595515E-002  -1.2232686412712968E-002   4.4237502983079782E-002
   4.4164278729752454E-002  -1.3489625275720951E-002   4.9256651137162877E-002
   4.2435851928618415E-002  -1.2811838354206045E-002   4.8989652506972348E-002
   4.0707425127484403E-002  -1.2103898822257639E-002   4.8900440104016812E-002
   3.8978998326350364E-002  -1.1365806679875644E-002   4.8989013928296549E-002
   3.7250571525216325E-002  -1.0597561927059851E-002   4.9255373979811279E-002
   5.5992288282228964E-002  -1.7138059869672317E-002   2.9450266355613319E-002
   5.3729243486467293E-002  -1.6422764522938449E-002   2.9435133467421382E-002
   5.1466198690705595E-002  -1.5488352115165249E-002   2.9778437743273822E-002
   4.9203153894943868E-002  -1.4334822646351900E-002   3.0480179183171113E-002
   4.6940109099182226E-002  -1.2962176116499413E-002   3.1540357787112616E-002
   5.1317256430101849E-002  -1.5502935384019201E-002   3.4334949170980844E-002
   4.9374563664408067E-002  -1.4821532806609278E-002   3.4415627821989453E-002
   4.7431870898714298E-002  -1.4077590827716799E-002   3.4778573369089433E-002
   4.5489178133020482E-002  -1.3271109447341400E-002   3.5423785812280950E-002
   4.3546485367326748E-002  -1.2402088665483646E-002   3.6351265151563783E-002
   4.6635293019890653E-002  -1.3867810898366084E-002   3.9264028046802957E-002
   4.4936782016311697E-002  -1.3220301090280051E-002   3.9283940577455295E-002
   4.3238271012732712E-002  -1.2666829540268293E-002   3.9509949736245692E-002
   4.1539760009153694E-002  -1.2207396248330844E-002   3.9942055523174494E-002
   3.9841249005574772E-002  -1.1842001214467712E-002   4.0580257938241437E-002
   4.1946398051595515E-002  -1.2232686412712968E-002   4.4237502983079782E-002
   4.0415898542178183E-002  -1.1619069373950797E-002   4.4040071733818562E-002
   3.8885399032760851E-002  -1.1256068252819815E-002   4.3972566844742760E-002
   3.7354899523343497E-002  -1.1143683049320095E-002   4.4034988315851717E-002
   3.5824400013926186E-002  -1.1281913763451806E-002   4.4227336147145725E-002
   3.7250571525216325E-002  -1.0597561927059851E-002   4.9255373979811279E-002
   3.5811913242007554E-002  -1.0017837657621514E-002   4.8684021291079849E-002
   3.4373254958798699E-002  -9.8453069653713782E-003   4.8166424694580295E-002
   3.2934596675589886E-002  -1.0079969850309688E-002   4.7702584190312605E-002
   3.1495938392381073E-002  -1.0721826312436067E-002   4.7292499778277042E-002
   4.6940109099182226E-002  -1.2962176116499413E-002   3.1540357787112616E-002
   4.4719566379378795E-002  -1.1831398474503818E-002   3.1389920063160770E-002
   4.2499023659575336E-002  -1.1403475669262392E-002   3.1197460288054812E-002
   4.0278480939772002E-002  -1.1678407700775058E-002   3.0962978461795687E-002
   3.8057938219968501E-002  -1.2656194569041990E-002   3.0686474584381784E-002
   4.3546485367326748E-002  -1.2402088665483646E-002   3.6351265151563783E-002
   4.1320979300316307E-002  -1.1606369427594632E-002   3.5470274838574900E-002
   3.9095473233305728E-002  -1.1019792679126478E-002   3.4621379882325554E-002
   3.6869967166295176E-002  -1.0642358420079052E-002   3.3804580282816396E-002
   3.4644461099284707E-002  -1.0474066650452363E-002   3.3019876040046525E-002
   3.9841249005574772E-002  -1.1842001214467712E-002   4.0580257938241437E-002
   3.7684896999250789E-002  -1.1381340380685306E-002   3.9462427383548881E-002
   3.5528544992926882E-002  -1.0636109688990383E-002   3.8450809593489524E-002
   3.3372192986602892E-002  -9.6063091393827939E-003   3.7545404568064024E-002
   3.1215840980279047E-002  -8.2919387318625137E-003   3.6746212307271542E-002
   3.5824400013926186E-002  -1.1281913763451806E-002   4.4227336147145725E-002
   3.3811319476182565E-002  -1.1156311333776051E-002   4.3366377698082846E-002
   3.1798238938438854E-002  -1.0252426698854379E-002   4.2685749421547195E-002
   2.9785158400695243E-002  -8.5702598586867174E-003   4.2185451317538848E-002
   2.7772077862951536E-002  -6.1098108132727758E-003   4.1865483386057001E-002
   3.1495938392381073E-002  -1.0721826312436067E-002   4.7292499778277042E-002
   2.9700246731111407E-002  -1.0931282286866961E-002   4.7182125782177176E-002
   2.7904555069841713E-002  -9.8687437087183333E-003   4.7326199366498040E-002
   2.6108863408572061E-002  -7.5342105779904640E-003   4.7724720531239898E-002
   2.4313171747302353E-002  -3.9276828946830378E-003   4.8377689276402513E-002
   5.7156362764455779E-002   0.0000000000000000        3.4692532068398868E-002
   5.7944866878158093E-002  -2.0876356887898975E-003   3.8344174338177356E-002
   5.8733370991860413E-002  -4.1416787375671976E-003   4.2210655913822628E-002
   5.9521875105562720E-002  -6.1621291463318968E-003   4.6291976795334720E-002
   6.0310379219265034E-002  -8.1489869150839968E-003   5.0588136982713590E-002
   4.8655218156349656E-002   0.0000000000000000        3.2787379841710748E-002
   4.9593300159636360E-002  -1.7120086476292247E-003   3.6964415618838377E-002
   5.0531382162923064E-002  -3.4362897013568237E-003   4.1225767869267974E-002
   5.1469464166209768E-002  -5.1728431611827962E-003   4.5571436592999559E-002
   5.2407546169496472E-002  -6.9216690271071343E-003   5.0001421790033085E-002
   4.0734068354917975E-002   0.0000000000000000        3.1280787179238795E-002
   4.1691205415224246E-002  -1.3363816064685527E-003   3.5937351417604582E-002
   4.2648342475530517E-002  -2.7309006651464497E-003   4.0547709296707535E-002
   4.3605479535836780E-002  -4.1835571760336903E-003   4.5111860816547639E-002
   4.4562616596143051E-002  -5.6943511391302762E-003   4.9629805977124873E-002
   3.3392913360160738E-002   0.0000000000000000        3.0172754080982991E-002
   3.4238582644921745E-002  -9.6075456530788023E-004   3.5262981734475993E-002
   3.5084251929682758E-002  -2.0255116289360766E-003   4.0176480196141319E-002
   3.5929921214443765E-002  -3.1942711908845862E-003   4.4913249465978966E-002
   3.6775590499204772E-002  -4.4670332511534162E-003   4.9473289543988948E-002
   2.6631753172077940E-002   0.0000000000000000        2.9463280546943353E-002
   2.7235431848728862E-002  -5.8512752414720693E-004   3.4941306569452574E-002
   2.7839110525379789E-002  -1.3201225927257018E-003   4.0112080567569305E-002
   2.8442789202030711E-002  -2.2049852057354855E-003   4.4975602541293527E-002
   2.9046467878681634E-002  -3.2397153631765520E-003   4.9531872490625253E-002
   6.0310379219265034E-002  -8.1489869150839968E-003   5.0588136982713590E-002
   6.0615522266945693E-002  -1.0025376196820663E-002   5.1527190481502005E-002
   6.0920665314626345E-002  -1.1714421144539041E-002   5.2250433510377364E-002
   6.1225808362307003E-002  -1.3216121758239158E-002   5.2757866069339632E-002
   6.1530951409987655E-002  -1.4530478037920957E-002   5.3049488158388836E-002
   5.2407546169496472E-002  -6.9216690271071343E-003   5.0001421790033085E-002
   5.2536112759117244E-002  -8.5843480307870972E-003   5.1223568009392553E-002
   5.2664679348738017E-002  -1.0062460903879893E-002   5.2308371782545326E-002
   5.2793245938358775E-002  -1.1356007646385526E-002   5.3255833109491384E-002
   5.2921812527979568E-002  -1.2464988258304006E-002   5.4065951990230746E-002
   4.4562616596143051E-002  -5.6943511391302762E-003   4.9629805977124873E-002
   4.4593074751410292E-002  -7.1433198647535157E-003   5.1132266713624225E-002
   4.4623532906677553E-002  -8.4105006632207383E-003   5.2575853027623284E-002
   4.4653991061944807E-002  -9.4958935345319274E-003   5.3960564919121976E-002
   4.4684449217212055E-002  -1.0399498478687097E-002   5.5286402388120305E-002
   3.6775590499204772E-002  -4.4670332511534162E-003   4.9473289543988948E-002
   3.6786408243824870E-002  -5.7022916987199577E-003   5.1253286594197103E-002
   3.6797225988444961E-002  -6.7585404225615998E-003   5.3052877245611259E-002
   3.6808043733065059E-002  -7.6357794226783269E-003   5.4872061498231456E-002
   3.6818861477685157E-002  -8.3340086990701737E-003   5.6710839352057694E-002
   2.9046467878681634E-002  -3.2397153631765520E-003   4.9531872490625253E-002
   2.9116113236360937E-002  -4.2612635326863737E-003   5.1586627651111078E-002
   2.9185758594040233E-002  -5.1065801819024500E-003   5.3739444436509270E-002
   2.9255403951719546E-002  -5.7756653108247194E-003   5.5990322846819839E-002
   2.9325049309398839E-002  -6.2685189194532503E-003   5.8339262882042831E-002
   6.1530951409987655E-002  -1.4530478037920957E-002   5.3049488158388836E-002
   6.0202992239669219E-002  -1.5546452642297023E-002   5.1643128699518016E-002
   5.8875033069350782E-002  -1.6153008230079820E-002   5.0697114401115531E-002
   5.7547073899032360E-002  -1.6350144801269478E-002   5.0211445263181380E-002
   5.6219114728713909E-002  -1.6137862355865895E-002   5.0186121285715646E-002
   5.2921812527979568E-002  -1.2464988258304006E-002   5.4065951990230746E-002
   5.2001110672683259E-002  -1.3322307842625353E-002   5.3342367727754372E-002
   5.1080408817386930E-002  -1.3860871502339616E-002   5.2972952934853955E-002
   5.0159706962090649E-002  -1.4080679237446736E-002   5.2957707611529292E-002
   4.9239005106794319E-002  -1.3981731047946783E-002   5.3296631757780613E-002
   4.4684449217212055E-002  -1.0399498478687097E-002   5.5286402388120305E-002
   4.4064828986045398E-002  -1.1098163042953739E-002   5.5154930230052378E-002
   4.3445208754878728E-002  -1.1568734774599385E-002   5.5271451850667855E-002
   4.2825588523712037E-002  -1.1811213673624033E-002   5.5635967249966674E-002
   4.2205968292545380E-002  -1.1825599740027698E-002   5.6248476427948939E-002
   3.6818861477685157E-002  -8.3340086990701737E-003   5.6710839352057694E-002
   3.6394147179755636E-002  -8.8740182432821314E-003   5.7080816206412047E-002
   3.5969432881826094E-002  -9.2765980468591681E-003   5.7592611148557342E-002
   3.5544718583896580E-002  -9.5417481098013582E-003   5.8246224178493462E-002
   3.5120004285967038E-002  -9.6694684321085855E-003   5.9041655296220484E-002
   2.9325049309398839E-002  -6.2685189194532503E-003   5.8339262882042831E-002
   2.8989065253813971E-002  -6.6498734436104684E-003   5.9120025656833351E-002
   2.8653081198229100E-002  -6.9844613191189439E-003   5.9936430828522333E-002
   2.8317097142644236E-002  -7.2722825459786127E-003   6.0788478397109651E-002
   2.7981113087059362E-002  -7.5133371241895147E-003   6.1676168362595471E-002
   5.6219114728713909E-002  -1.6137862355865895E-002   5.0186121285715646E-002
   5.4732272988708253E-002  -1.5757718398248508E-002   4.9858337369734995E-002
   5.3245431248702568E-002  -1.5451270432797003E-002   4.9650260693459333E-002
   5.1758589508696891E-002  -1.5218518459511171E-002   4.9561891256888750E-002
   5.0271747768691227E-002  -1.5059462478391156E-002   4.9593229060023281E-002
   4.9239005106794319E-002  -1.3981731047946783E-002   5.3296631757780613E-002
   4.7889165293694393E-002  -1.3732881809184604E-002   5.2886890427547024E-002
   4.6539325480594460E-002  -1.3502986396505087E-002   5.2631445711419776E-002
   4.5189485667494533E-002  -1.3292044809908105E-002   5.2530297609398938E-002
   4.3839645854394607E-002  -1.3100057049393848E-002   5.2583446121484523E-002
   4.2205968292545380E-002  -1.1825599740027698E-002   5.6248476427948939E-002
   4.1027719780752522E-002  -1.1708045220120609E-002   5.5811519849545493E-002
   3.9849471268959658E-002  -1.1554702360213092E-002   5.5563449259649816E-002
   3.8671222757166800E-002  -1.1365571160305055E-002   5.5504264658261811E-002
   3.7492974245373921E-002  -1.1140651620396610E-002   5.5633966045381629E-002
   3.5120004285967038E-002  -9.6694684321085855E-003   5.9041655296220484E-002
   3.4147936449882579E-002  -9.6832086310566327E-003   5.8632225635730464E-002
   3.3175868613798121E-002  -9.6064183239210812E-003   5.8446271338149329E-002
   3.2203800777713683E-002  -9.4390975107019968E-003   5.8483792403477376E-002
   3.1231732941629196E-002  -9.1812461913993240E-003   5.8744788831714426E-002
   2.7981113087059362E-002  -7.5133371241895147E-003   6.1676168362595471E-002
   2.7249815301084633E-002  -7.6583720419927115E-003   6.1349007786101806E-002
   2.6518517515109898E-002  -7.6581342876291640E-003   6.1279911946918487E-002
   2.5787219729135169E-002  -7.5126238610989477E-003   6.1468880845045537E-002
   2.5055921943160434E-002  -7.2218407624020931E-003   6.1915914480483086E-002
   5.0271747768691227E-002  -1.5059462478391156E-002   4.9593229060023281E-002
   4.8744880508956534E-002  -1.4869691664446349E-002   4.9109942134593298E-002
   4.7218013249221827E-002  -1.4544795192686484E-002   4.8892750172306529E-002
   4.5691145989487127E-002  -1.4084773063111221E-002   4.8941653173163104E-002
   4.4164278729752454E-002  -1.3489625275720951E-002   4.9256651137162877E-002
   4.3839645854394607E-002  -1.3100057049393848E-002   5.2583446121484523E-002
   4.2559601710639855E-002  -1.2875427173743084E-002   5.2275999511252599E-002
   4.1279557566885158E-002  -1.2566559241736851E-002   5.2196104169837360E-002
   3.9999513423130434E-002  -1.2173453253374855E-002   5.2343760097238637E-002
   3.8719469279375709E-002  -1.1696109208657268E-002   5.2718967293456737E-002
   3.7492974245373921E-002  -1.1140651620396610E-002   5.5633966045381629E-002
   3.6421209523272553E-002  -1.0881162683039874E-002   5.5451472148888147E-002
   3.5349444801171165E-002  -1.0588323290787186E-002   5.5457985826884715E-002
   3.4277680079069797E-002  -1.0262133443638431E-002   5.5653507079371292E-002
   3.3205915356968402E-002  -9.9025931415936963E-003   5.6038035906347969E-002
   3.1231732941629196E-002  -9.1812461913993240E-003   5.8744788831714426E-002
   3.0329703946854560E-002  -8.8868981923367063E-003   5.8636360047499857E-002
   2.9427674952079940E-002  -8.6100873398376205E-003   5.8678395143448657E-002
   2.8525645957305324E-002  -8.3508136339020371E-003   5.8870894119560854E-002
   2.7623616962530687E-002  -8.1090770745301244E-003   5.9213856975836671E-002
   2.5055921943160434E-002  -7.2218407624020931E-003   6.1915914480483086E-002
   2.4285084981385929E-002  -6.8926337016334271E-003   6.1830663207087744E-002
   2.3514248019611439E-002  -6.6318513888879368E-003   6.1857332119529138E-002
   2.2743411057836931E-002  -6.4394938241655719E-003   6.1995921217807538E-002
   2.1972574096062444E-002  -6.3155610074664970E-003   6.2246430501922634E-002
   4.4164278729752454E-002  -1.3489625275720951E-002   4.9256651137162877E-002
   4.2435851928618415E-002  -1.2811838354206045E-002   4.8989652506972348E-002
   4.0707425127484403E-002  -1.2103898822257639E-002   4.8900440104016812E-002
   3.8978998326350364E-002  -1.1365806679875644E-002   4.8989013928296549E-002
   3.7250571525216325E-002  -1.0597561927059851E-002   4.9255373979811279E-002
   3.8719469279375709E-002  -1.1696109208657268E-002   5.2718967293456737E-002
   3.7185104763413440E-002  -1.1165897610631428E-002   5.2425325079519622E-002
   3.5650740247451206E-002  -1.0614188962344423E-002   5.2342021208691206E-002
   3.4116375731488971E-002  -1.0040983263796606E-002   5.2469055680971065E-002
   3.2582011215526743E-002  -9.4462805149877482E-003   5.2806428496359664E-002
   3.3205915356968402E-002  -9.9025931415936963E-003   5.6038035906347969E-002
   3.1898165242051357E-002  -9.5199568670567419E-003   5.5709094548491878E-002
   3.0590415127134313E-002  -9.1244791024314362E-003   5.5623043649617739E-002
   2.9282665012217265E-002  -8.7161598477176801E-003   5.5779883209725448E-002
   2.7974914897300196E-002  -8.2949991029155346E-003   5.6179613228815026E-002
   2.7623616962530687E-002  -8.1090770745301244E-003   5.9213856975836671E-002
   2.6575033364532201E-002  -7.8740161234820347E-003   5.8840960913888816E-002
   2.5526449766533753E-002  -7.6347692425182516E-003   5.8743507426796300E-002
   2.4477866168535287E-002  -7.3913364316386980E-003   5.8921496514559107E-002
   2.3429282570536825E-002  -7.1437176908433764E-003   5.9374928177177155E-002
   2.1972574096062444E-002  -6.3155610074664970E-003   6.2246430501922634E-002
   2.1215709130855950E-002  -6.2280753799074384E-003   6.1820924175710501E-002
   2.0458844165649470E-002  -6.1450593826052752E-003   6.1703412540227098E-002
   1.9701979200442976E-002  -6.0665130155597539E-003   6.1893895595472273E-002
   1.8945114235236510E-002  -5.9924362787712182E-003   6.2392373341446206E-002
   3.7250571525216325E-002  -1.0597561927059851E-002   4.9255373979811279E-002
   3.5811913242007554E-002  -1.0017837657621514E-002   4.8684021291079849E-002
   3.4373254958798699E-002  -9.8453069653713782E-003   4.8166424694580295E-002
   3.2934596675589886E-002  -1.0079969850309688E-002   4.7702584190312605E-002
   3.1495938392381073E-002  -1.0721826312436067E-002   4.7292499778277042E-002
   3.2582011215526743E-002  -9.4462805149877482E-003   5.2806428496359664E-002
   3.1212050092315008E-002  -8.9491866131765629E-003   5.1999526706133781E-002
   2.9842088969103293E-002  -8.6688074556222905E-003   5.1276263143670411E-002
   2.8472127845891562E-002  -8.6051430423248823E-003   5.0636637808969161E-002
   2.7102166722679871E-002  -8.7581933732840955E-003   5.0080650702030272E-002
   2.7974914897300196E-002  -8.2949991029155346E-003   5.6179613228815026E-002
   2.6703533069615912E-002  -7.8805355687317918E-003   5.5327641170026476E-002
   2.5432151241931635E-002  -7.4923079458734318E-003   5.4589189474530571E-002
   2.4160769414247354E-002  -7.1303162343401890E-003   5.3964258142327137E-002
   2.2889387586563045E-002  -6.7945604341320964E-003   5.3452847173416376E-002
   2.3429282570536825E-002  -7.1437176908433764E-003   5.9374928177177155E-002
   2.2286362173910210E-002  -6.8118845242870971E-003   5.8668364682757428E-002
   2.1143441777283653E-002  -6.3158084361244031E-003   5.8105203687160580E-002
   2.0000521380657086E-002  -5.6554894263555503E-003   5.7685445190386611E-002
   1.8857600984030509E-002  -4.8309274949801112E-003   5.7409089192435536E-002
   1.8945114235236510E-002  -5.9924362787712182E-003   6.2392373341446206E-002
   1.7960537405197971E-002  -5.7432334798420970E-003   6.2021697244326823E-002
   1.6975960575159418E-002  -5.1393089263755132E-003   6.1824305781560701E-002
   1.5991383745120893E-002  -4.1806626183707798E-003   6.1800198953147700E-002
   1.5006806915082341E-002  -2.8672945558281260E-003   6.1949376759087849E-002
   3.1495938392381073E-002  -1.0721826312436067E-002   4.7292499778277042E-002
   2.9700246731111407E-002  -1.0931282286866961E-002   4.7182125782177176E-002
   2.7904555069841713E-002  -9.8687437087183333E-003   4.7326199366498040E-002
   2.6108863408572061E-002  -7.5342105779904640E-003   4.7724720531239898E-002
   2.4313171747302353E-002  -3.9276828946830378E-003   4.8377689276402513E-002
   2.7102166722679871E-002  -8.7581933732840955E-003   5.0080650702030272E-002
   2.5562208803428646E-002  -8.6773186238710553E-003   5.1130835129902741E-002
   2.4022250884177476E-002  -7.9118789694568037E-003   5.2438039461391278E-002
   2.2482292964926265E-002  -6.4618744100413197E-003   5.4002263696496189E-002
   2.0942335045675053E-002  -4.3273049456247215E-003   5.5823507835216946E-002
   2.2889387586563045E-002  -6.7945604341320964E-003   5.3452847173416376E-002
   2.1607735732525619E-002  -6.4233549608751772E-003   5.5076160377682953E-002
   2.0326083878488214E-002  -5.9550142301952672E-003   5.6959065808761110E-002
   1.9044432024450820E-002  -5.3895382420923958E-003   5.9101563466650908E-002
   1.7762780170413384E-002  -4.7269269965662941E-003   6.1503653351352106E-002
   1.8857600984030509E-002  -4.8309274949801112E-003   5.7409089192435536E-002
   1.7836827518402255E-002  -4.1693912978792852E-003   5.9018101525518112E-002
   1.6816054052773997E-002  -3.9981494909337341E-003   6.0889278408607507E-002
   1.5795280587145716E-002  -4.3172020741431951E-003   6.3022619841704083E-002
   1.4774507121517511E-002  -5.1265490475078668E-003   6.5418125824806606E-002
   1.5006806915082341E-002  -2.8672945558281260E-003   6.1949376759087849E-002
   1.4249484161058562E-002  -1.9154276348835042E-003   6.2956658573408097E-002
   1.3492161407034776E-002  -2.0412847516720345E-003   6.4228677260930456E-002
   1.2734838653010967E-002  -3.2448659061943136E-003   6.5765432821655256E-002
   1.1977515898987212E-002  -5.5261710984495505E-003   6.7566925255581944E-002
   2.6631753172077940E-002   0.0000000000000000        2.9463280546943353E-002
   2.7235431848728862E-002  -5.8512752414720693E-004   3.4941306569452574E-002
   2.7839110525379789E-002  -1.3201225927257018E-003   4.0112080567569305E-002
   2.8442789202030711E-002  -2.2049852057354855E-003   4.4975602541293527E-002
   2.9046467878681634E-002  -3.2397153631765520E-003   4.9531872490625253E-002
   2.0113896509947476E-002   0.0000000000000000        2.9016861014403150E-002
   2.0449406250892359E-002  -4.3884564238310525E-004   3.4309448269379136E-002
   2.0784915991837238E-002  -9.9009194323473708E-004   3.9372949677335539E-002
   2.1120425732782118E-002  -1.6537389025549024E-003   4.4207365238272359E-002
   2.1455935473727001E-002  -2.4297865203435952E-003   4.8812694952189574E-002
   1.3502652093047234E-002   0.0000000000000000        2.8697989920645671E-002
   1.3648159075658979E-002  -2.9256376061900400E-004   3.3842605294051184E-002
   1.3793666058270726E-002  -6.6006129374377755E-004   3.8836300997810019E-002
   1.3939173040882475E-002  -1.1024925993743219E-003   4.3679077031922184E-002
   1.4084680023494219E-002  -1.6198576775106350E-003   4.8370933396387650E-002
   6.7980199213772113E-003   0.0000000000000000        2.8506667265670912E-002
   6.8316903230287336E-003  -1.4628187885490211E-004   3.3540777643468710E-002
   6.8653607246802533E-003  -3.3003064425281628E-004   3.8502134528992746E-002
   6.8990311263317774E-003  -5.5124629619373840E-004   4.3390737922243003E-002
   6.9327015279832980E-003  -8.0992883467767823E-004   4.8206587823219509E-002
  -5.0625892367150982E-012   0.0000000000000000        2.8442893049478876E-002
  -6.9983845107923770E-012   2.9091980560669306E-012   3.3403965317631720E-002
  -8.9341797848696558E-012   5.2381467219309030E-012   3.8370450270883705E-002
  -1.0869975058946935E-011   6.9868399260597513E-012   4.3342347909234823E-002
  -1.2805770333024213E-011   8.1552828726239035E-012   4.8319658232685081E-002
   2.9046467878681634E-002  -3.2397153631765520E-003   4.9531872490625253E-002
   2.9116113236360937E-002  -4.2612635326863737E-003   5.1586627651111078E-002
   2.9185758594040233E-002  -5.1065801819024500E-003   5.3739444436509270E-002
   2.9255403951719546E-002  -5.7756653108247194E-003   5.5990322846819839E-002
   2.9325049309398839E-002  -6.2685189194532503E-003   5.8339262882042831E-002
   2.1455935473727001E-002  -2.4297865203435952E-003   4.8812694952189574E-002
   2.1594774215214614E-002  -3.1959476471929882E-003   5.1212061406613628E-002
   2.1733612956702224E-002  -3.8299351336952758E-003   5.3651753003741920E-002
   2.1872451698189833E-002  -4.3317489798504246E-003   5.6131769743574408E-002
   2.2011290439677450E-002  -4.7013891856584403E-003   5.8652111626111184E-002
   1.4084680023494219E-002  -1.6198576775106350E-003   4.8370933396387650E-002
   1.4234975666582000E-002  -2.1306317616996027E-003   5.1070853264803297E-002
   1.4385271309669779E-002  -2.5532900854880881E-003   5.3753361793714989E-002
   1.4535566952757564E-002  -2.8878326488761090E-003   5.6418458983122824E-002
   1.4685862595845338E-002  -3.1342594518636649E-003   5.9066144833026697E-002
   6.9327015279832980E-003  -8.0992883467767823E-004   4.8206587823219509E-002
   7.0367175904630956E-003  -1.0653158762062068E-003   5.1163003225680036E-002
   7.1407336529428940E-003  -1.2766450372809072E-003   5.4044270806428520E-002
   7.2447497154226898E-003  -1.4439163179018073E-003   5.6850390565464974E-002
   7.3487657779024891E-003  -1.5671297180688583E-003   5.9581362502789337E-002
  -1.2805770333024213E-011   8.1552828726239035E-012   4.8319658232685081E-002
  -1.3142101122631811E-011   9.2871725934640104E-012   5.1488511289243907E-002
  -1.3478430177515932E-011   1.0926273991476720E-011   5.4524480041882525E-002
  -1.3814759232400053E-011   1.3072497999453564E-011   5.7427564490600970E-002
  -1.4151090022007651E-011   1.5725913626862820E-011   6.0197764635399199E-002
   2.9325049309398839E-002  -6.2685189194532503E-003   5.8339262882042831E-002
   2.8989065253813971E-002  -6.6498734436104684E-003   5.9120025656833351E-002
   2.8653081198229100E-002  -6.9844613191189439E-003   5.9936430828522333E-002
   2.8317097142644236E-002  -7.2722825459786127E-003   6.0788478397109651E-002
   2.7981113087059362E-002  -7.5133371241895147E-003   6.1676168362595471E-002
   2.2011290439677450E-002  -4.7013891856584403E-003   5.8652111626111184E-002
   2.1723037184751166E-002  -4.9874050782216135E-003   5.9474214647946846E-002
   2.1434783929824883E-002  -5.2383459846422013E-003   6.0356136874201279E-002
   2.1146530674898599E-002  -5.4542119049201931E-003   6.1297878304874431E-002
   2.0858277419972315E-002  -5.6350028390556028E-003   6.2299438939966340E-002
   1.4685862595845338E-002  -3.1342594518636649E-003   5.9066144833026697E-002
   1.4469516949097982E-002  -3.3249367128327725E-003   5.9917896439401284E-002
   1.4253171302350629E-002  -3.4922306501654864E-003   6.0853644057715026E-002
   1.4036825655603271E-002  -3.6361412638618021E-003   6.1873387687967824E-002
   1.3820480008855919E-002  -3.7566685539217118E-003   6.2977127330159699E-002
   7.3487657779024891E-003  -1.5671297180688583E-003   5.9581362502789337E-002
   7.2285045468544022E-003  -1.6624683474439038E-003   6.0451071031196693E-002
   7.1082433158063197E-003  -1.7461153156887645E-003   6.1428952379063470E-002
   6.9879820847582354E-003  -1.8180706228034106E-003   6.2515006546389737E-002
   6.8677208537101467E-003  -1.8783342687878103E-003   6.3709233533175411E-002
  -1.4151090022007651E-011   1.5725913626862820E-011   6.0197764635399199E-002
  -2.1979558798013166E-011   1.7944937202862832E-011   6.1073738423333086E-002
  -2.9808027574018681E-011   1.8787959035759805E-011   6.2082061838246785E-002
  -3.7636494181619851E-011   1.8255019457874555E-011   6.3222734880140283E-002
  -4.5464965126029711E-011   1.6346077269524528E-011   6.4495757549013530E-002
   2.7981113087059362E-002  -7.5133371241895147E-003   6.1676168362595471E-002
   2.7249815301084633E-002  -7.6583720419927115E-003   6.1349007786101806E-002
   2.6518517515109898E-002  -7.6581342876291640E-003   6.1279911946918487E-002
   2.5787219729135169E-002  -7.5126238610989477E-003   6.1468880845045537E-002
   2.5055921943160434E-002  -7.2218407624020931E-003   6.1915914480483086E-002
   2.0858277419972315E-002  -5.6350028390556028E-003   6.2299438939966340E-002
   2.0366234299760349E-002  -5.7437790279474404E-003   6.2165620136151373E-002
   1.9874191179548382E-002  -5.7436007124946897E-003   6.2252245926551431E-002
   1.9382148059336409E-002  -5.6344678926973507E-003   6.2559316311166652E-002
   1.8890104939124450E-002  -5.4163805685554511E-003   6.3086831289997009E-002
   1.3820480008855919E-002  -3.7566685539217118E-003   6.2977127330159699E-002
   1.3530071411311457E-002  -3.8291860139021971E-003   6.3000332131201209E-002
   1.3239662813766994E-002  -3.8290671373602172E-003   6.3206361383362553E-002
   1.2949254216222532E-002  -3.7563119242957541E-003   6.3595215086643786E-002
   1.2658845618678072E-002  -3.6109203747088509E-003   6.4166893241044909E-002
   6.8677208537101467E-003  -1.8783342687878103E-003   6.3709233533175411E-002
   6.7413266357379507E-003  -1.9145929998569261E-003   6.3853143771251342E-002
   6.6149324177657469E-003  -1.9145335622257160E-003   6.4142258317351888E-002
   6.4885381997935448E-003  -1.8781559558941712E-003   6.4576577171476982E-002
   6.3621439818213462E-003  -1.8054601808622298E-003   6.5156100333626843E-002
  -4.5464965126029711E-011   1.6346077269524528E-011   6.4495757549013530E-002
  -2.6960168472700552E-011   1.4188296371120401E-011   6.4724055056301744E-002
  -8.4553700846479174E-012   1.2908740049111245E-011   6.5059936728519341E-002
   1.0049428303404717E-011   1.2507456008392648E-011   6.5503402565666349E-002
   2.8554224956733876E-011   1.2984391339898593E-011   6.6054452567742616E-002
   2.5055921943160434E-002  -7.2218407624020931E-003   6.1915914480483086E-002
   2.4285084981385929E-002  -6.8926337016334271E-003   6.1830663207087744E-002
   2.3514248019611439E-002  -6.6318513888879368E-003   6.1857332119529138E-002
   2.2743411057836931E-002  -6.4394938241655719E-003   6.1995921217807538E-002
   2.1972574096062444E-002  -6.3155610074664970E-003   6.2246430501922634E-002
   1.8890104939124450E-002  -5.4163805685554511E-003   6.3086831289997009E-002
   1.8251385425850794E-002  -5.1694752729259941E-003   6.2896463308159012E-002
   1.7612665912577131E-002  -4.9738885386659340E-003   6.2858410037485851E-002
   1.6973946399303472E-002  -4.8296203657752657E-003   6.2972671477977499E-002
   1.6335226886029820E-002  -4.7366707542541020E-003   6.3239247629634149E-002
   1.2658845618678072E-002  -3.6109203747088509E-003   6.4166893241044909E-002
   1.2192638079233275E-002  -3.4463168442185749E-003   6.3888514737418023E-002
   1.1726430539788469E-002  -3.3159256884439346E-003   6.3802845470283961E-002
   1.1260223000343666E-002  -3.2197469073849882E-003   6.3909885439642780E-002
   1.0794015460898858E-002  -3.1577805010416793E-003   6.4209634645494409E-002
   6.3621439818213462E-003  -1.8054601808622298E-003   6.5156100333626843E-002
   6.1088429415334057E-003  -1.7231584155110655E-003   6.4806817494864666E-002
   5.8555419012454729E-003  -1.6579628382219335E-003   6.4690638417923524E-002
   5.6022408609575323E-003  -1.6098734489946686E-003   6.4807563102803126E-002
   5.3489398206695970E-003  -1.5788902478292705E-003   6.5157591549503721E-002
   2.8554224956733876E-011   1.2984391339898593E-011   6.6054452567742616E-002
   1.2751171646341319E-011   1.3196305159723920E-011   6.5651371580499107E-002
  -3.0518781946042850E-012   1.2000067606265929E-011   6.5521788880404525E-002
  -1.8854931504996841E-011   9.3956231683733904E-012   6.5665704467458799E-002
  -3.4657981345942446E-011   5.3831383794999965E-012   6.6083118341661917E-002
   2.1972574096062444E-002  -6.3155610074664970E-003   6.2246430501922634E-002
   2.1215709130855950E-002  -6.2280753799074384E-003   6.1820924175710501E-002
   2.0458844165649470E-002  -6.1450593826052752E-003   6.1703412540227098E-002
   1.9701979200442976E-002  -6.0665130155597539E-003   6.1893895595472273E-002
   1.8945114235236510E-002  -5.9924362787712182E-003   6.2392373341446206E-002
   1.6335226886029820E-002  -4.7366707542541020E-003   6.3239247629634149E-002
   1.5856661998918518E-002  -4.6710565352093142E-003   6.2876271548770027E-002
   1.5378097111807220E-002  -4.6087945397478292E-003   6.2761900933367670E-002
   1.4899532224695920E-002  -4.5498847678697441E-003   6.2896135783426982E-002
   1.4420967337584627E-002  -4.4943272195750450E-003   6.3278976098948031E-002
   1.0794015460898858E-002  -3.1577805010416793E-003   6.4209634645494409E-002
   1.0534361426615783E-002  -3.1140376905111622E-003   6.3910306216651974E-002
   1.0274707392332702E-002  -3.0725296968905011E-003   6.3800194028004215E-002
   1.0015053358049624E-002  -3.0332565201796804E-003   6.3879298079551255E-002
   9.7553993237665462E-003  -2.9962181603787053E-003   6.4147618371292930E-002
   5.3489398206695970E-003  -1.5788902478292705E-003   6.5157591549503721E-002
   5.2488074139477557E-003  -1.5570188458131629E-003   6.4923028179356371E-002
   5.1486750072259110E-003  -1.5362648540332251E-003   6.4818291824136717E-002
   5.0485426005040619E-003  -1.5166282724895881E-003   6.4843382483844927E-002
   4.9484101937822250E-003  -1.4981091011823933E-003   6.4998300158480848E-002
  -3.4657981345942446E-011   5.3831383794999965E-012   6.6083118341661917E-002
  -3.9085568115382330E-011  -1.1149414724798135E-012   6.5914437436883216E-002
  -4.3513153150098738E-011  -1.1175865788359829E-011   6.5816194321765303E-002
  -4.7940740786900360E-011  -2.4799613751458338E-011   6.5788388996308039E-002
  -5.2368324954255030E-011  -4.1986192300669245E-011   6.5831021460511618E-002
   1.8945114235236510E-002  -5.9924362787712182E-003   6.2392373341446206E-002
   1.7960537405197971E-002  -5.7432334798420970E-003   6.2021697244326823E-002
   1.6975960575159418E-002  -5.1393089263755132E-003   6.1824305781560701E-002
   1.5991383745120893E-002  -4.1806626183707798E-003   6.1800198953147700E-002
   1.5006806915082341E-002  -2.8672945558281260E-003   6.1949376759087849E-002
   1.4420967337584627E-002  -4.4943272195750450E-003   6.3278976098948031E-002
   1.3627890038640164E-002  -4.3074251258506391E-003   6.3095475316893523E-002
   1.2834812739695691E-002  -3.8544817176839330E-003   6.3121688962673880E-002
   1.2041735440751223E-002  -3.1354969950744965E-003   6.3357617036289310E-002
   1.1248658141806755E-002  -2.1504709580227321E-003   6.3803259537739354E-002
   9.7553993237665462E-003  -2.9962181603787053E-003   6.4147618371292930E-002
   9.1902513493978960E-003  -2.8716167718589453E-003   6.4062612464207774E-002
   8.6251033750292354E-003  -2.5696545089922834E-003   6.4223750778439448E-002
   8.0599554006605817E-003  -2.0903313717782097E-003   6.4631033313987674E-002
   7.4948074262919280E-003  -1.4336473602172273E-003   6.5284460070852784E-002
   4.9484101937822250E-003  -1.4981091011823933E-003   6.4998300158480848E-002
   4.6476213374711424E-003  -1.4358084178673972E-003   6.4923108686269784E-002
   4.3468324811600590E-003  -1.2848273003007241E-003   6.5130491228857335E-002
   4.0460436248489825E-003  -1.0451657484820357E-003   6.5620447786243249E-002
   3.7452547685378939E-003  -7.1682376241172241E-004   6.6392978358427640E-002
  -5.2368324954255030E-011  -4.1986192300669245E-011   6.5831021460511618E-002
   2.8599206336465954E-012  -6.3875738032237450E-011   6.5676963983079373E-002
   5.8088166221548221E-011  -9.1609109187373861E-011   6.5841910313927443E-002
   1.1331641007472637E-010  -1.2518568126562712E-010   6.6325860453055718E-002
   1.6854465739735147E-010  -1.6460621754532667E-010   6.7128814400464032E-002
   1.5006806915082341E-002  -2.8672945558281260E-003   6.1949376759087849E-002
   1.4249484161058562E-002  -1.9154276348835042E-003   6.2956658573408097E-002
   1.3492161407034776E-002  -2.0412847516720345E-003   6.4228677260930456E-002
   1.2734838653010967E-002  -3.2448659061943136E-003   6.5765432821655256E-002
   1.1977515898987212E-002  -5.5261710984495505E-003   6.7566925255581944E-002
   1.1248658141806755E-002  -2.1504709580227321E-003   6.3803259537739354E-002
   1.0737220695507373E-002  -1.4365707708588749E-003   6.3852979318367059E-002
   1.0225783249208004E-002  -1.5309635979131181E-003   6.4129732841241488E-002
   9.7143458029086208E-003  -2.4336494391857151E-003   6.4633520106362419E-002
   9.2029083566092518E-003  -4.1446282946762114E-003   6.5364341113730240E-002
   7.4948074262919280E-003  -1.4336473602172273E-003   6.5284460070852784E-002
   7.1915521567615347E-003  -9.5771390683413449E-004   6.4646048841302803E-002
   6.8882968872311257E-003  -1.0206424441540352E-003   6.4196968223044062E-002
   6.5850416177007211E-003  -1.6224329721770056E-003   6.3937218216076688E-002
   6.2817863481703234E-003  -2.7630854909029834E-003   6.3866798820400361E-002
   3.7452547685378939E-003  -7.1682376241172241E-004   6.6392978358427640E-002
   3.6124785448210239E-003  -4.7885704280961616E-004   6.5335867142215245E-002
   3.4797023211041553E-003  -5.1032129039481344E-004   6.4430383406338582E-002
   3.3469260973872711E-003  -8.1121650516846264E-004   6.3676527150797926E-002
   3.2141498736704237E-003  -1.3815426871296443E-003   6.3074298375593030E-002
   1.6854465739735147E-010  -1.6460621754532667E-010   6.7128814400464032E-002
  -1.4031413531068182E-010  -1.7878487579281455E-010   6.5922434221104387E-002
  -4.4917293495760902E-010  -1.3663586928558402E-010   6.4829978391125476E-002
  -7.5803172593091883E-010  -3.8159850279662066E-011   6.3851446910526688E-002
  -1.0668905203736756E-009   1.1664358368079775E-010   6.2986839779308079E-002
  -5.0625892367150982E-012   0.0000000000000000        2.8442893049478876E-002
  -6.9983845107923770E-012   2.9091980560669306E-012   3.3403965317631720E-002
  -8.9341797848696558E-012   5.2381467219309030E-012   3.8370450270883705E-002
  -1.0869975058946935E-011   6.9868399260597513E-012   4.3342347909234823E-002
  -1.2805770333024213E-011   8.1552828726239035E-012   4.8319658232685081E-002
  -6.7980199312763813E-003   0.0000000000000000        2.8506667271689143E-002
  -6.8316903367408831E-003   1.4628188406375781E-004   3.3540777648988357E-002
  -6.8653607422053883E-003   3.3003065381260240E-004   3.8502134534131024E-002
  -6.8990311476698910E-003   5.5124630924653292E-004   4.3390737927117139E-002
  -6.9327015531343954E-003   8.0992885036555804E-004   4.8206587827946672E-002
  -1.3502652102268378E-002   0.0000000000000000        2.8697989931921304E-002
  -1.3648159088517280E-002   2.9256376521831539E-004   3.3842605304632220E-002
  -1.3793666074766182E-002   6.6006130238705808E-004   3.8836301007930896E-002
  -1.3939173061015081E-002   1.1024926115062268E-003   4.3679077041817331E-002
  -1.4084680047263985E-002   1.6198576925758224E-003   4.8370933406291519E-002
  -2.0113896518038583E-002   0.0000000000000000        2.9016861030175350E-002
  -2.0449406262327569E-002   4.3884564637287492E-004   3.4309448284563310E-002
  -2.0784916006616565E-002   9.9009195096151376E-004   3.9372949692283353E-002
  -2.1120425750905551E-002   1.6537389137659202E-003   4.4207365253335455E-002
  -2.1455935495194544E-002   2.4297865347860919E-003   4.8812694967719610E-002
  -2.6631753178586987E-002   0.0000000000000000        2.9463280566451287E-002
  -2.7235431858171757E-002   5.8512752752743272E-004   3.4941306588781640E-002
  -2.7839110537756531E-002   1.3201225995359694E-003   4.0112080587188369E-002
  -2.8442789217341301E-002   2.2049852160256119E-003   4.4975602561671463E-002
  -2.9046467896926075E-002   3.2397153769963610E-003   4.9531872512230936E-002
  -1.2805770333024213E-011   8.1552828726239035E-012   4.8319658232685081E-002
  -1.3142101122631811E-011   9.2871725934640104E-012   5.1488511289243907E-002
  -1.3478430177515932E-011   1.0926273991476720E-011   5.4524480041882525E-002
  -1.3814759232400053E-011   1.3072497999453564E-011   5.7427564490600970E-002
  -1.4151090022007651E-011   1.5725913626862820E-011   6.0197764635399199E-002
  -6.9327015531343954E-003   8.0992885036555804E-004   4.8206587827946672E-002
  -7.0367176162984633E-003   1.0653158943911274E-003   5.1163003232114604E-002
  -7.1407336794625277E-003   1.2766450585446935E-003   5.4044270814547241E-002
  -7.2447497426265947E-003   1.4439163428262838E-003   5.6850390575244610E-002
  -7.3487658057906644E-003   1.5671297472358639E-003   5.9581362514206704E-002
  -1.4084680047263985E-002   1.6198576925758224E-003   4.8370933406291519E-002
  -1.4234975691070861E-002   2.1306317794950549E-003   5.1070853277689364E-002
  -1.4385271334877736E-002   2.5532901061631405E-003   5.3753361809536854E-002
  -1.4535566978684612E-002   2.8878326725800558E-003   5.6418459001834016E-002
  -1.4685862622491486E-002   3.1342594787458176E-003   5.9066144854580782E-002
  -2.1455935495194544E-002   2.4297865347860919E-003   4.8812694967719610E-002
  -2.1594774237459303E-002   3.1959476645989889E-003   5.1212061425968208E-002
  -2.1733612979724058E-002   3.8299351537815669E-003   5.3651753026851386E-002
  -2.1872451721988807E-002   4.3317490023338243E-003   5.6131769770369155E-002
  -2.2011290464253565E-002   4.7013892102557697E-003   5.8652111656521518E-002
  -2.9046467896926075E-002   3.2397153769963610E-003   4.9531872512230936E-002
  -2.9116113255463774E-002   4.2612635497029372E-003   5.1586627676951137E-002
  -2.9185758614001484E-002   5.1065802014000090E-003   5.3739444466490836E-002
  -2.9255403972539191E-002   5.7756653320876171E-003   5.5990322880850041E-002
  -2.9325049331076894E-002   6.2685189417657078E-003   5.8339262920028792E-002
  -1.4151090022007651E-011   1.5725913626862820E-011   6.0197764635399199E-002
  -2.1979558798013166E-011   1.7944937202862832E-011   6.1073738423333086E-002
  -2.9808027574018681E-011   1.8787959035759805E-011   6.2082061838246785E-002
  -3.7636494181619851E-011   1.8255019457874555E-011   6.3222734880140283E-002
  -4.5464965126029711E-011   1.6346077269524528E-011   6.4495757549013530E-002
  -7.3487658057906644E-003   1.5671297472358639E-003   5.9581362514206704E-002
  -7.2285045900511279E-003   1.6624683801331856E-003   6.0451071041403265E-002
  -7.1082433743115906E-003   1.7461153498777773E-003   6.1428952388756029E-002
  -6.9879821585720576E-003   1.8180706564698015E-003   6.2515006556265018E-002
  -6.8677209428325177E-003   1.8783342999091623E-003   6.3709233543930266E-002
  -1.4685862622491486E-002   3.1342594787458176E-003   5.9066144854580782E-002
  -1.4469516990007515E-002   3.3249367423213647E-003   5.9917896459263355E-002
  -1.4253171357523547E-002   3.4922306809675946E-003   6.0853644077278550E-002
  -1.4036825725039578E-002   3.6361412946845553E-003   6.1873387708626437E-002
  -1.3820480092555602E-002   3.7566685834721988E-003   6.2977127353306947E-002
  -2.2011290464253565E-002   4.7013892102557697E-003   5.8652111656521518E-002
  -2.1723037221848724E-002   4.9874051045095714E-003   5.9474214676913405E-002
  -2.1434783979443883E-002   5.2383460120573981E-003   6.0356136903814368E-002
  -2.1146530737039045E-002   5.4542119328992817E-003   6.1297878337224450E-002
  -2.0858277494634207E-002   5.6350028670352319E-003   6.2299438977143545E-002
  -2.9325049331076894E-002   6.2685189417657078E-003   5.8339262920028792E-002
  -2.8989065285574756E-002   6.6498734666977921E-003   5.9120025694353352E-002
  -2.8653081240072615E-002   6.9844613431472372E-003   5.9936430868363436E-002
  -2.8317097194570484E-002   7.2722825711140793E-003   6.0788478442059042E-002
  -2.7981113149068336E-002   7.5133371505983065E-003   6.1676168415440116E-002
  -4.5464965126029711E-011   1.6346077269524528E-011   6.4495757549013530E-002
  -2.6960168472700552E-011   1.4188296371120401E-011   6.4724055056301744E-002
  -8.4553700846479174E-012   1.2908740049111245E-011   6.5059936728519341E-002
   1.0049428303404717E-011   1.2507456008392648E-011   6.5503402565666349E-002
   2.8554224956733876E-011   1.2984391339898593E-011   6.6054452567742616E-002
  -6.8677209428325177E-003   1.8783342999091623E-003   6.3709233543930266E-002
  -6.7413266885930131E-003   1.9145930278505474E-003   6.3853143786185770E-002
  -6.6149324343535015E-003   1.9145335879487066E-003   6.4142258334981328E-002
  -6.4885381801139917E-003   1.8781559802035896E-003   6.4576577190316994E-002
  -6.3621439258744854E-003   1.8054602046152224E-003   6.5156100352192658E-002
  -1.3820480092555602E-002   3.7566685834721988E-003   6.2977127353306947E-002
  -1.3530071460970695E-002   3.8291860415127950E-003   6.3000332161808253E-002
  -1.3239662829385792E-002   3.8290671629886749E-003   6.3206361418460338E-002
  -1.2949254197800894E-002   3.7563119478997513E-003   6.3595215123263119E-002
  -1.2658845566215986E-002   3.6109203962461089E-003   6.4166893276216663E-002
  -2.0858277494634207E-002   5.6350028670352319E-003   6.2299438977143545E-002
  -2.0366234344093230E-002   5.7437790551750304E-003   6.2165620183169193E-002
  -1.9874191193552257E-002   5.7436007380286423E-003   6.2252245978956240E-002
  -1.9382148043011270E-002   5.6344679155959131E-003   6.2559316364504736E-002
  -1.8890104892470300E-002   5.4163805878769539E-003   6.3086831339814603E-002
  -2.7981113149068336E-002   7.5133371505983065E-003   6.1676168415440116E-002
  -2.7249815337960604E-002   7.6583720688372936E-003   6.1349007850268603E-002
  -2.6518517526852872E-002   7.6581343130685854E-003   6.1279912016469144E-002
  -2.5787219715745140E-002   7.5126238832920961E-003   6.1468880914041762E-002
  -2.5055921904637408E-002   7.2218407795078543E-003   6.1915914542986533E-002
   2.8554224956733876E-011   1.2984391339898593E-011   6.6054452567742616E-002
   1.2751171646341319E-011   1.3196305159723920E-011   6.5651371580499107E-002
  -3.0518781946042850E-012   1.2000067606265929E-011   6.5521788880404525E-002
  -1.8854931504996841E-011   9.3956231683733904E-012   6.5665704467458799E-002
  -3.4657981345942446E-011   5.3831383794999965E-012   6.6083118341661917E-002
  -6.3621439258744854E-003   1.8054602046152224E-003   6.5156100352192658E-002
  -6.1088429161472932E-003   1.7231584381718346E-003   6.4806817509780151E-002
  -5.8555419064201062E-003   1.6579628578615446E-003   6.4690638431279285E-002
  -5.6022408966929166E-003   1.6098734636842901E-003   6.4807563116689976E-002
  -5.3489398869657270E-003   1.5788902556402584E-003   6.5157591566012280E-002
  -1.2658845566215986E-002   3.6109203962461089E-003   6.4166893276216663E-002
  -1.2192638054195865E-002   3.4463168631472668E-003   6.3888514766176532E-002
  -1.1726430542175745E-002   3.3159257037229106E-003   6.3802845496810617E-002
  -1.1260223030155628E-002   3.2197469179729016E-003   6.3909885468118918E-002
  -1.0794015518135507E-002   3.1577805058973785E-003   6.4209634680101629E-002
  -1.8890104892470300E-002   5.4163805878769539E-003   6.3086831339814603E-002
  -1.8251385401394551E-002   5.1694752881227893E-003   6.2896463349688042E-002
  -1.7612665910318806E-002   4.9738885495843321E-003   6.2858410076998467E-002
  -1.6973946419243054E-002   4.8296203722615408E-003   6.2972671521745904E-002
  -1.6335226928167301E-002   4.7366707561545263E-003   6.3239247683930216E-002
  -2.5055921904637408E-002   7.2218407795078543E-003   6.1915914542986533E-002
  -2.4285084957743341E-002   6.8926337130982285E-003   6.1830663260314889E-002
  -2.3514248010849274E-002   6.6318513954457189E-003   6.1857332171842958E-002
  -2.2743411063955204E-002   6.4394938265501436E-003   6.1995921277570691E-002
  -2.1972574117061140E-002   6.3155610064116741E-003   6.2246430577498013E-002
  -3.4657981345942446E-011   5.3831383794999965E-012   6.6083118341661917E-002
  -3.9085568115382330E-011  -1.1149414724798135E-012   6.5914437436883216E-002
  -4.3513153150098738E-011  -1.1175865788359829E-011   6.5816194321765303E-002
  -4.7940740786900360E-011  -2.4799613751458338E-011   6.5788388996308039E-002
  -5.2368324954255030E-011  -4.1986192300669245E-011   6.5831021460511618E-002
  -5.3489398869657270E-003   1.5788902556402584E-003   6.5157591566012280E-002
  -5.2488074900191818E-003   1.5570188422080883E-003   6.4923028193848750E-002
  -5.1486750930726435E-003   1.5362648318664532E-003   6.4818291834772751E-002
  -5.0485426961261008E-003   1.5166282246154243E-003   6.4843382488784171E-002
  -4.9484102991795599E-003   1.4981090204549963E-003   6.4998300155883149E-002
  -1.0794015518135507E-002   3.1577805058973785E-003   6.4209634680101629E-002
  -1.0534361496388117E-002   3.1140376855310625E-003   6.3910306247206783E-002
  -1.0274707474640722E-002   3.0725296749087166E-003   6.3800194050826098E-002
  -1.0015053452893332E-002   3.0332564740303512E-003   6.3879298090959657E-002
  -9.7553994311459294E-003   2.9962180828959628E-003   6.4147618367607323E-002
  -1.6335226928167301E-002   4.7366707561545263E-003   6.3239247683930216E-002
  -1.5856662058192340E-002   4.6710565288541200E-003   6.2876271596957384E-002
  -1.5378097188217374E-002   4.6087945179510634E-003   6.2761900969925510E-002
  -1.4899532318242417E-002   4.5498847234453615E-003   6.2896135802834541E-002
  -1.4420967448267461E-002   4.4943271453369849E-003   6.3278976095684517E-002
  -2.1972574117061140E-002   6.3155610064116741E-003   6.2246430577498013E-002
  -2.1215709175431884E-002   6.2280753721770943E-003   6.1820924243100595E-002
  -2.0458844233802623E-002   6.1450593609932852E-003   6.1703412592070822E-002
  -1.9701979292173363E-002   6.0665129728602572E-003   6.1893895624408793E-002
  -1.8945114350544100E-002   5.9924362077780624E-003   6.2392373340114271E-002
  -5.2368324954255030E-011  -4.1986192300669245E-011   6.5831021460511618E-002
   2.8599206336465954E-012  -6.3875738032237450E-011   6.5676963983079373E-002
   5.8088166221548221E-011  -9.1609109187373861E-011   6.5841910313927443E-002
   1.1331641007472637E-010  -1.2518568126562712E-010   6.6325860453055718E-002
   1.6854465739735147E-010  -1.6460621754532667E-010   6.7128814400464032E-002
  -4.9484102991795599E-003   1.4981090204549963E-003   6.4998300155883149E-002
  -4.6476213345442961E-003   1.4358082967122210E-003   6.4923108670373403E-002
  -4.3468323699090271E-003   1.2848271307145248E-003   6.5130491195397294E-002
  -4.0460434052737616E-003   1.0451655224619737E-003   6.5620447730955100E-002
  -3.7452544406384944E-003   7.1682347195406448E-004   6.6392978277046821E-002
  -9.7553994311459294E-003   2.9962180828959628E-003   6.4147618367607323E-002
  -9.1902513548500174E-003   2.8716166573003188E-003   6.4062612437608510E-002
  -8.6251032785540933E-003   2.5696543530382698E-003   6.4223750720396988E-002
  -8.0599552022581674E-003   2.0903311701096841E-003   6.4631033215973036E-002
  -7.4948071259622571E-003   1.4336471085145130E-003   6.5284459924336596E-002
  -1.4420967448267461E-002   4.4943271453369849E-003   6.3278976095684517E-002
  -1.3627890058057247E-002   4.3074250178884582E-003   6.3095475284784958E-002
  -1.2834812667847037E-002   3.8544815753619871E-003   6.3121688888926525E-002
  -1.2041735277636828E-002   3.1354968177574778E-003   6.3357616908109315E-002
  -1.1248657887426620E-002   2.1504707450749339E-003   6.3803259342333066E-002
  -1.8945114350544100E-002   5.9924362077780624E-003   6.2392373340114271E-002
  -1.7960537444165984E-002   5.7432333784765144E-003   6.2021697211902704E-002
  -1.6975960537787847E-002   5.1393087976856211E-003   6.1824305700985932E-002
  -1.5991383631409728E-002   4.1806624654052368E-003   6.1800198807363871E-002
  -1.5006806725031595E-002   2.8672943816352991E-003   6.1949376531036549E-002
   1.6854465739735147E-010  -1.6460621754532667E-010   6.7128814400464032E-002
  -1.4031413531068182E-010  -1.7878487579281455E-010   6.5922434221104387E-002
  -4.4917293495760902E-010  -1.3663586928558402E-010   6.4829978391125476E-002
  -7.5803172593091883E-010  -3.8159850279662066E-011   6.3851446910526688E-002
  -1.0668905203736756E-009   1.1664358368079775E-010   6.2986839779308079E-002
  -3.7452544406384944E-003   7.1682347195406448E-004   6.6392978277046821E-002
  -3.6124788273832094E-003   4.7885671746156211E-004   6.5335867139586834E-002
  -3.4797032141279417E-003   5.1032099725460689E-004   6.4430383496974469E-002
  -3.3469276008726472E-003   8.1121631133300107E-004   6.3676527349210310E-002
  -3.2141519876173821E-003   1.3815426596971436E-003   6.3074298696293662E-002
  -7.4948071259622571E-003   1.4336471085145130E-003   6.5284459924336596E-002
  -7.1915524451254490E-003   9.5771361370783348E-004   6.4646048806734288E-002
  -6.8882977642886409E-003   1.0206421311452496E-003   6.4196968329447254E-002
  -6.5850430834518466E-003   1.6224326608259912E-003   6.3937218492475426E-002
  -6.2817884026150524E-003   2.7630852027508146E-003   6.3866799295819010E-002
  -1.1248657887426620E-002   2.1504707450749339E-003   6.3803259342333066E-002
  -1.0737220993540852E-002   1.4365705099542991E-003   6.3852979222546832E-002
  -1.0225784099655107E-002   1.5309632650358646E-003   6.4129732888543095E-002
  -9.7143472057693234E-003   2.4336490103190229E-003   6.4633520340322090E-002
  -9.2029103118835796E-003   4.1446277458044301E-003   6.5364341577883830E-002
  -1.5006806725031595E-002   2.8672943816352991E-003   6.1949376531036549E-002
  -1.4249484472629415E-002   1.9154274062005983E-003   6.2956658387024411E-002
  -1.3492162220227259E-002   2.0412843989264379E-003   6.4228677174262255E-002
  -1.2734839967825101E-002   3.2448653598117945E-003   6.5765432892750705E-002
  -1.1977517715422922E-002   5.5261702888580455E-003   6.7566925542488665E-002
  -2.6631753178586987E-002   0.0000000000000000        2.9463280566451287E-002
  -2.7235431858171757E-002   5.8512752752743272E-004   3.4941306588781640E-002
  -2.7839110537756531E-002   1.3201225995359694E-003   4.0112080587188369E-002
  -2.8442789217341301E-002   2.2049852160256119E-003   4.4975602561671463E-002
  -2.9046467896926075E-002   3.2397153769963610E-003   4.9531872512230936E-002
  -3.3392913364752620E-002   0.0000000000000000        3.0172754103613780E-002
  -3.4238582651988293E-002   9.6075456818442689E-004   3.5262981757147482E-002
  -3.5084251939223966E-002   2.0255116346614950E-003   4.0176480219302986E-002
  -3.5929921226459639E-002   3.1942711994311992E-003   4.4913249490080326E-002
  -3.6775590513695319E-002   4.4670332624935473E-003   4.9473289569479467E-002
  -4.0734068357374503E-002   0.0000000000000000        3.1280787204527503E-002
  -4.1691205419715632E-002   1.3363816088414211E-003   3.5937351443076068E-002
  -4.2648342482056775E-002   2.7309006697870189E-003   4.0547709322791919E-002
  -4.3605479544397918E-002   4.1835571828367875E-003   4.5111860843675008E-002
  -4.4562616606739047E-002   5.6943511479907345E-003   4.9629806005725363E-002
  -4.8655218156452636E-002   0.0000000000000000        3.2787379869192453E-002
  -4.9593300161353791E-002   1.7120086494984152E-003   3.6964415646567432E-002
  -5.0531382166254947E-002   3.4362897049125402E-003   4.1225767897655134E-002
  -5.1469464171156089E-002   5.1728431662423757E-003   4.5571436622455511E-002
  -5.2407546176057251E-002   6.9216690334879278E-003   5.0001421820968638E-002
  -5.7156362761987024E-002   0.0000000000000000        3.4692532097608621E-002
  -5.7944866876902743E-002   2.0876356901554094E-003   3.8344174367621567E-002
  -5.8733370991818475E-002   4.1416787400380666E-003   4.2210655943892644E-002
  -5.9521875106734207E-002   6.1621291496479613E-003   4.6291976826421874E-002
  -6.0310379221649932E-002   8.1489869189851072E-003   5.0588137015209263E-002
  -2.9046467896926075E-002   3.2397153769963610E-003   4.9531872512230936E-002
  -2.9116113255463774E-002   4.2612635497029372E-003   5.1586627676951137E-002
  -2.9185758614001484E-002   5.1065802014000090E-003   5.3739444466490836E-002
  -2.9255403972539191E-002   5.7756653320876171E-003   5.5990322880850041E-002
  -2.9325049331076894E-002   6.2685189417657078E-003   5.8339262920028792E-002
  -3.6775590513695319E-002   4.4670332624935473E-003   4.9473289569479467E-002
  -3.6786408259127233E-002   5.7022917126337384E-003   5.1253286623638261E-002
  -3.6797226004559140E-002   6.7585404386369856E-003   5.3052877279189121E-002
  -3.6808043749991047E-002   7.6357794405032759E-003   5.4872061536132055E-002
  -3.6818861495422968E-002   8.3340087182326369E-003   5.6710839394467097E-002
  -4.4562616606739047E-002   5.6943511479907345E-003   4.9629806005725363E-002
  -4.4593074762492607E-002   7.1433198755645605E-003   5.1132266746195268E-002
  -4.4623532918246146E-002   8.4105006758739692E-003   5.2575853064629821E-002
  -4.4653991073999685E-002   9.4958935489189693E-003   5.3960564961029016E-002
  -4.4684449229753252E-002   1.0399498494699559E-002   5.5286402435392838E-002
  -5.2407546176057251E-002   6.9216690334879278E-003   5.0001421820968638E-002
  -5.2536112765559882E-002   8.5843480384953860E-003   5.1223568044622206E-002
  -5.2664679355062499E-002   1.0062460913110957E-002   5.2308371822812984E-002
  -5.2793245944565137E-002   1.1356007657334653E-002   5.3255833155540958E-002
  -5.2921812534067768E-002   1.2464988271166499E-002   5.4065952042806148E-002
  -6.0310379221649932E-002   8.1489869189851072E-003   5.0588137015209263E-002
  -6.0615522268329072E-002   1.0025376201426187E-002   5.1527190518919026E-002
  -6.0920665315008206E-002   1.1714421150347933E-002   5.2250433553738540E-002
  -6.1225808361687339E-002   1.3216121765750335E-002   5.2757866119667866E-002
  -6.1530951408366480E-002   1.4530478047633404E-002   5.3049488216706901E-002
  -2.9325049331076894E-002   6.2685189417657078E-003   5.8339262920028792E-002
  -2.8989065285574756E-002   6.6498734666977921E-003   5.9120025694353352E-002
  -2.8653081240072615E-002   6.9844613431472372E-003   5.9936430868363436E-002
  -2.8317097194570484E-002   7.2722825711140793E-003   6.0788478442059042E-002
  -2.7981113149068336E-002   7.5133371505983065E-003   6.1676168415440116E-002
  -3.6818861495422968E-002   8.3340087182326369E-003   5.6710839394467097E-002
  -3.6394147205283389E-002   8.8740182634981096E-003   5.7080816249122604E-002
  -3.5969432915143811E-002   9.2765980679726714E-003   5.7592611193367491E-002
  -3.5544718625004225E-002   9.5417481316564436E-003   5.8246224227201729E-002
  -3.5120004334864653E-002   9.6694684545493431E-003   5.9041655350625319E-002
  -4.4684449229753252E-002   1.0399498494699559E-002   5.5286402435392838E-002
  -4.4064829005072387E-002   1.1098163060298399E-002   5.5154930278071092E-002
  -4.3445208780391535E-002   1.1568734792798147E-002   5.5271451900242602E-002
  -4.2825588555710670E-002   1.1811213692198820E-002   5.5635967301907271E-002
  -4.2205968331029811E-002   1.1825599758500387E-002   5.6248476483065135E-002
  -5.2921812534067768E-002   1.2464988271166499E-002   5.4065952042806148E-002
  -5.2001110684941780E-002   1.3322307857098682E-002   5.3342367781198913E-002
  -5.1080408835815785E-002   1.3860871517623623E-002   5.2972952988988721E-002
  -5.0159706986689812E-002   1.4080679252741177E-002   5.2957707666175587E-002
  -4.9239005137563824E-002   1.3981731062451441E-002   5.3296631812759419E-002
  -6.1530951408366480E-002   1.4530478047633404E-002   5.3049488216706901E-002
  -6.0202992244891541E-002   1.5546452653898996E-002   5.1643128758505921E-002
  -5.8875033081416575E-002   1.6153008242449064E-002   5.0697114459605883E-002
  -5.7547073917941650E-002   1.6350144813283569E-002   5.0211445320006681E-002
  -5.6219114754466677E-002   1.6137862366402494E-002   5.0186121339708401E-002
  -2.7981113149068336E-002   7.5133371505983065E-003   6.1676168415440116E-002
  -2.7249815337960604E-002   7.6583720688372936E-003   6.1349007850268603E-002
  -2.6518517526852872E-002   7.6581343130685854E-003   6.1279912016469144E-002
  -2.5787219715745140E-002   7.5126238832920961E-003   6.1468880914041762E-002
  -2.5055921904637408E-002   7.2218407795078543E-003   6.1915914542986533E-002
  -3.5120004334864653E-002   9.6694684545493431E-003   5.9041655350625319E-002
  -3.4147936478272002E-002   9.6832086536869158E-003   5.8632225698834022E-002
  -3.3175868621679330E-002   9.6064183461047718E-003   5.8446271406640438E-002
  -3.2203800765086679E-002   9.4390975318028487E-003   5.8483792474044664E-002
  -3.1231732908494021E-002   9.1812462107811466E-003   5.8744788901046591E-002
  -4.2205968331029811E-002   1.1825599758500387E-002   5.6248476483065135E-002
  -4.1027719800726586E-002   1.1708045238536580E-002   5.5811519911942012E-002
  -3.9849471270423348E-002   1.1554702379140957E-002   5.5563449328642336E-002
  -3.8671222740120109E-002   1.1365571180313613E-002   5.5504264733166067E-002
  -3.7492974209816891E-002   1.1140651642054508E-002   5.5633966125513183E-002
  -4.9239005137563824E-002   1.3981731062451441E-002   5.3296631812759419E-002
  -4.7889165305324354E-002   1.3732881823386167E-002   5.2886890489592595E-002
  -4.6539325473084897E-002   1.3502986412177197E-002   5.2631445782474792E-002
  -4.5189485640845427E-002   1.3292044828824399E-002   5.2530297691406082E-002
  -4.3839645808605963E-002   1.3100057073327849E-002   5.2583446216386324E-002
  -5.6219114754466677E-002   1.6137862366402494E-002   5.0186121339708401E-002
  -5.4732272992065324E-002   1.5757718408235866E-002   4.9858337431785749E-002
  -5.3245431229663978E-002   1.5451270445213335E-002   4.9650260768137805E-002
  -5.1758589467262625E-002   1.5218518477335173E-002   4.9561891348764618E-002
  -5.0271747704861272E-002   1.5059462504601162E-002   4.9593229173666098E-002
  -2.5055921904637408E-002   7.2218407795078543E-003   6.1915914542986533E-002
  -2.4285084957743341E-002   6.8926337130982285E-003   6.1830663260314889E-002
  -2.3514248010849274E-002   6.6318513954457189E-003   6.1857332171842958E-002
  -2.2743411063955204E-002   6.4394938265501436E-003   6.1995921277570691E-002
  -2.1972574117061140E-002   6.3155610064116741E-003   6.2246430577498013E-002
  -3.1231732908494021E-002   9.1812462107811466E-003   5.8744788901046591E-002
  -3.0329703922753644E-002   8.8868982092304011E-003   5.8636360112764671E-002
  -2.9427674937013253E-002   8.6100873533411781E-003   5.8678395207975798E-002
  -2.8525645951272851E-002   8.3508136431135332E-003   5.8870894186679845E-002
  -2.7623616965532463E-002   8.1090770785472999E-003   5.9213857048876939E-002
  -3.7492974209816891E-002   1.1140651642054508E-002   5.5633966125513183E-002
  -3.6421209495936829E-002   1.0881162705362518E-002   5.5451472228525492E-002
  -3.5349444782056788E-002   1.0588323311236641E-002   5.5457985904324145E-002
  -3.4277680068176740E-002   1.0262133459676841E-002   5.5653507152909100E-002
  -3.3205915354296692E-002   9.9025931506830089E-003   5.6038035974280351E-002
  -4.3839645808605963E-002   1.3100057073327849E-002   5.2583446216386324E-002
  -4.2559601677292960E-002   1.2875427201494705E-002   5.2275999607597413E-002
  -4.1279557545979943E-002   1.2566559269132102E-002   5.2196104260888131E-002
  -3.9999513414666898E-002   1.2173453276240106E-002   5.2343760176258428E-002
  -3.8719469283353923E-002   1.1696109222818676E-002   5.2718967353708526E-002
  -5.0271747704861272E-002   1.5059462504601162E-002   4.9593229173666098E-002
  -4.8744880466821947E-002   1.4869691697626808E-002   4.9109942249980415E-002
  -4.7218013228782656E-002   1.4544795227027590E-002   4.8892750277667707E-002
  -4.5691145990743351E-002   1.4084773092803544E-002   4.8941653256727891E-002
  -4.4164278752704011E-002   1.3489625294954344E-002   4.9256651187161160E-002
  -2.1972574117061140E-002   6.3155610064116741E-003   6.2246430577498013E-002
  -2.1215709175431884E-002   6.2280753721770943E-003   6.1820924243100595E-002
  -2.0458844233802623E-002   6.1450593609932852E-003   6.1703412592070822E-002
  -1.9701979292173363E-002   6.0665129728602572E-003   6.1893895624408793E-002
  -1.8945114350544100E-002   5.9924362077780624E-003   6.2392373340114271E-002
  -2.7623616965532463E-002   8.1090770785472999E-003   5.9213857048876939E-002
  -2.6575033396012117E-002   7.8740161194142538E-003   5.8840960962837488E-002
  -2.5526449826491767E-002   7.6347692254853800E-003   5.8743507449212709E-002
  -2.4477866256971431E-002   7.3913363967611327E-003   5.8921496508002318E-002
  -2.3429282687451078E-002   7.1437176332410646E-003   5.9374928139206501E-002
  -3.3205915354296692E-002   9.9025931506830089E-003   5.6038035974280351E-002
  -3.1898165267838438E-002   9.5199568666512052E-003   5.5709094578752658E-002
  -3.0590415181380171E-002   9.1244790899774816E-003   5.5623043644686447E-002
  -2.9282665094921893E-002   8.7161598206617324E-003   5.5779883172081490E-002
  -2.7974915008463646E-002   8.2949990587040390E-003   5.6179613160937919E-002
  -3.8719469283353923E-002   1.1696109222818676E-002   5.2718967353708526E-002
  -3.7185104790910840E-002   1.1165897613888344E-002   5.2425325090846076E-002
  -3.5650740298467792E-002   1.0614188954469497E-002   5.2342021178491967E-002
  -3.4116375806024730E-002   1.0040983244562526E-002   5.2469055616646075E-002
  -3.2582011313581696E-002   9.4462804841669995E-003   5.2806428405308255E-002
  -4.4164278752704011E-002   1.3489625294954344E-002   4.9256651187161160E-002
  -4.2435851965229351E-002   1.2811838361125261E-002   4.8989652499117686E-002
  -4.0707425177754664E-002   1.2103898818961678E-002   4.8900440050629324E-002
  -3.8978998390279997E-002   1.1365806668463152E-002   4.8989013841695975E-002
  -3.7250571602805330E-002   1.0597561909629960E-002   4.9255373872317765E-002
  -1.8945114350544100E-002   5.9924362077780624E-003   6.2392373340114271E-002
  -1.7960537444165984E-002   5.7432333784765144E-003   6.2021697211902704E-002
  -1.6975960537787847E-002   5.1393087976856211E-003   6.1824305700985932E-002
  -1.5991383631409728E-002   4.1806624654052368E-003   6.1800198807363871E-002
  -1.5006806725031595E-002   2.8672943816352991E-003   6.1949376531036549E-002
  -2.3429282687451078E-002   7.1437176332410646E-003   5.9374928139206501E-002
  -2.2286362228747386E-002   6.8118844397463685E-003   5.8668364623598729E-002
  -2.1143441770043677E-002   6.3158083210980154E-003   5.8105203595347391E-002
  -2.0000521311339961E-002   5.6554892772960885E-003   5.7685445054452437E-002
  -1.8857600852636276E-002   4.8309273083404491E-003   5.7409089000913960E-002
  -2.7974915008463646E-002   8.2949990587040390E-003   5.6179613160937919E-002
  -2.6703533127372659E-002   7.8805355010162642E-003   5.5327641084269630E-002
  -2.5432151246281676E-002   7.4923078445107566E-003   5.4589189365019414E-002
  -2.4160769365190706E-002   7.1303160891872212E-003   5.3964258003187320E-002
  -2.2889387484099709E-002   6.7945602350456824E-003   5.3452846998773326E-002
  -3.2582011313581696E-002   9.4462804841669995E-003   5.2806428405308255E-002
  -3.1212050140041796E-002   8.9491865622861946E-003   5.1999526593915268E-002
  -2.9842088966501843E-002   8.6688073679232133E-003   5.1276263010001932E-002
  -2.8472127792961904E-002   8.6051429010781579E-003   5.0636637653568586E-002
  -2.7102166619421986E-002   8.7581931617509295E-003   5.0080650524614911E-002
  -3.7250571602805330E-002   1.0597561909629960E-002   4.9255373872317765E-002
  -3.5811913266754730E-002   1.0017837623556097E-002   4.8684021152535673E-002
  -3.4373254930704152E-002   9.8453068913358921E-003   4.8166424530295099E-002
  -3.2934596594653573E-002   1.0079969712969289E-002   4.7702584005596071E-002
  -3.1495938258602987E-002   1.0721826088456121E-002   4.7292499578438563E-002
  -1.5006806725031595E-002   2.8672943816352991E-003   6.1949376531036549E-002
  -1.4249484472629415E-002   1.9154274062005983E-003   6.2956658387024411E-002
  -1.3492162220227259E-002   2.0412843989264379E-003   6.4228677174262255E-002
  -1.2734839967825101E-002   3.2448653598117945E-003   6.5765432892750705E-002
  -1.1977517715422922E-002   5.5261702888580455E-003   6.7566925542488665E-002
  -1.8857600852636276E-002   4.8309273083404491E-003   5.7409089000913960E-002
  -1.7836827828876470E-002   4.1693910585038629E-003   5.9018101358926350E-002
  -1.6816054805116654E-002   3.9981491720587070E-003   6.0889278328404128E-002
  -1.5795281781356821E-002   4.3172016490054393E-003   6.3022619909346697E-002
  -1.4774508757597005E-002   5.1265484893439073E-003   6.5418126101755125E-002
  -2.2889387484099709E-002   6.7945602350456824E-003   5.3452846998773326E-002
  -2.1607736008767212E-002   6.4233547108068223E-003   5.5076160254042023E-002
  -2.0326084533434704E-002   5.9550139451913023E-003   5.6959065800990923E-002
  -1.9044433058102245E-002   5.3895379381989437E-003   5.9101563639619964E-002
  -1.7762781582769720E-002   4.7269266898298801E-003   6.1503653769929445E-002
  -2.7102166619421986E-002   8.7581931617509295E-003   5.0080650524614911E-002
  -2.5562209012301773E-002   8.6773183631099898E-003   5.1130835072371317E-002
  -2.4022251405181525E-002   7.9118787183238455E-003   5.2438039592023179E-002
  -2.2482293798061277E-002   6.4618742273925738E-003   5.4002264083570062E-002
  -2.0942336190941060E-002   4.3273048903157973E-003   5.5823508547012402E-002
  -3.1495938258602987E-002   1.0721826088456121E-002   4.7292499578438563E-002
  -2.9700246839479999E-002   1.0931282015412935E-002   4.7182125813914289E-002
  -2.7904555420357018E-002   9.8687434914562638E-003   4.7326199701500288E-002
  -2.6108864001234033E-002   7.5342105165858951E-003   4.7724721241196685E-002
  -2.4313172582111076E-002   3.9276830908017146E-003   4.8377690433003329E-002
  -5.7156362761987024E-002   0.0000000000000000        3.4692532097608621E-002
  -5.7944866876902743E-002   2.0876356901554094E-003   3.8344174367621567E-002
  -5.8733370991818475E-002   4.1416787400380666E-003   4.2210655943892644E-002
  -5.9521875106734207E-002   6.1621291496479613E-003   4.6291976826421874E-002
  -6.0310379221649932E-002   8.1489869189851072E-003   5.0588137015209263E-002
  -6.5825058566101144E-002   0.0000000000000000        3.7217689216625771E-002
  -6.6628157722589967E-002   2.9163232475180574E-003   4.0838434247743395E-002
  -6.7431256879078805E-002   5.7735285345872104E-003   4.4215149889456663E-002
  -6.8234356035567642E-002   8.5716158612074503E-003   4.7347836141765562E-002
  -6.9037455192056479E-002   1.1310585227378784E-002   5.0236493004670105E-002
  -7.4248861960918483E-002   0.0000000000000000        4.0584296553093646E-002
  -7.5525424854642934E-002   3.7450108048807072E-003   4.4148619025139814E-002
  -7.6801987748367398E-002   7.4053783291363542E-003   4.7010043412119111E-002
  -7.8078550642091848E-002   1.0981102572766934E-002   4.9168569714031517E-002
  -7.9355113535816285E-002   1.4472183535772468E-002   5.0624197930877073E-002
  -8.2427772946439062E-002   0.0000000000000000        4.4792354107012239E-002
  -8.4636668273061641E-002   4.5736983622433544E-003   4.8274728699810796E-002
  -8.6845563599684220E-002   9.0372281236854989E-003   5.0595336511879946E-002
  -8.9054458926306798E-002   1.3390589284326423E-002   5.1754177543219738E-002
  -9.1263354252929377E-002   1.7633781844166148E-002   5.1751251793830139E-002
  -9.0361791522662854E-002   0.0000000000000000        4.9841861878381563E-002
  -9.3961887977846076E-002   5.4023859196060051E-003   5.3216763271756354E-002
  -9.7561984433029283E-002   1.0669077918234644E-002   5.4971029188739237E-002
 -0.10116208088821249        1.5800075995885909E-002   5.5104659629330234E-002
 -0.10476217734339571        2.0795380152559825E-002   5.3617654593529337E-002
  -6.0310379221649932E-002   8.1489869189851072E-003   5.0588137015209263E-002
  -6.0615522268329072E-002   1.0025376201426187E-002   5.1527190518919026E-002
  -6.0920665315008206E-002   1.1714421150347933E-002   5.2250433553738540E-002
  -6.1225808361687339E-002   1.3216121765750335E-002   5.2757866119667866E-002
  -6.1530951408366480E-002   1.4530478047633404E-002   5.3049488216706901E-002
  -6.9037455192056479E-002   1.1310585227378784E-002   5.0236493004670105E-002
  -6.9319489726013095E-002   1.3753888925415920E-002   4.9464104261969920E-002
  -6.9601524259969752E-002   1.5664979247633583E-002   4.8953743013604993E-002
  -6.9883558793926381E-002   1.7043856194031717E-002   4.8705409259575297E-002
  -7.0165593327883025E-002   1.7890519764610410E-002   4.8719102999880859E-002
  -7.9355113535816285E-002   1.4472183535772468E-002   5.0624197930877073E-002
  -7.9136201593824951E-002   1.7482401649405649E-002   4.7795497899466813E-002
  -7.8917289651833575E-002   1.9615537344919207E-002   4.5706663325617257E-002
  -7.8698377709842240E-002   2.0871590622313120E-002   4.4357694209328426E-002
  -7.8479465767850864E-002   2.1250561481587420E-002   4.3748590550600340E-002
  -9.1263354252929377E-002   1.7633781844166148E-002   5.1751251793830139E-002
  -9.0065657871764571E-002   2.1210914373395385E-002   4.6521371431409643E-002
  -8.8867961490599764E-002   2.3566095442204830E-002   4.2509194489775359E-002
  -8.7670265109434931E-002   2.4699325050594485E-002   3.9714720968927253E-002
  -8.6472568728270138E-002   2.4610603198564451E-002   3.8137950868865358E-002
 -0.10476217734339571        2.0795380152559825E-002   5.3617654593529337E-002
 -0.10210785855983198        2.4939427097385107E-002   4.5641724857798480E-002
  -9.9453539776268210E-002   2.7516653539490475E-002   3.9361336506079286E-002
  -9.6799220992704452E-002   2.8527059478875898E-002   3.4776489538371758E-002
  -9.4144902209140707E-002   2.7970644915541444E-002   3.1887183954675914E-002
  -6.1530951408366480E-002   1.4530478047633404E-002   5.3049488216706901E-002
  -6.0202992244891541E-002   1.5546452653898996E-002   5.1643128758505921E-002
  -5.8875033081416575E-002   1.6153008242449064E-002   5.0697114459605883E-002
  -5.7547073917941650E-002   1.6350144813283569E-002   5.0211445320006681E-002
  -5.6219114754466677E-002   1.6137862366402494E-002   5.0186121339708401E-002
  -7.0165593327883025E-002   1.7890519764610410E-002   4.8719102999880859E-002
  -6.8426292833433613E-002   1.8352915717250409E-002   4.7261638754015345E-002
  -6.6686992338984230E-002   1.8578989809832493E-002   4.6166512010797862E-002
  -6.4947691844534833E-002   1.8568742042356721E-002   4.5433722770228328E-002
  -6.3208391350085408E-002   1.8322172414823007E-002   4.5063271032306867E-002
  -7.8479465767850864E-002   2.1250561481587420E-002   4.3748590550600340E-002
  -7.6426831599079953E-002   2.1159378780601777E-002   4.2413118674727968E-002
  -7.4374197430309014E-002   2.1004971377215940E-002   4.1341976644850689E-002
  -7.2321563261538060E-002   2.0787339271429815E-002   4.0535164460968512E-002
  -7.0268929092767135E-002   2.0506482463243506E-002   3.9992682123081456E-002
  -8.6472568728270138E-002   2.4610603198564451E-002   3.8137950868865358E-002
  -8.4204608541830525E-002   2.3965841843953176E-002   3.7097568520643817E-002
  -8.1936648355390926E-002   2.3430952944599369E-002   3.6223508361764439E-002
  -7.9668688168951340E-002   2.3005936500502980E-002   3.5515770392227239E-002
  -7.7400727982511727E-002   2.2690792511664011E-002   3.4974354612032341E-002
  -9.4144902209140707E-002   2.7970644915541444E-002   3.1887183954675914E-002
  -9.1759623661685386E-002   2.6772304907304555E-002   3.1314988291762810E-002
  -8.9374345114230022E-002   2.5856934511982808E-002   3.0811107161538957E-002
  -8.6989066566774687E-002   2.5224533729576098E-002   3.0375540564004523E-002
  -8.4603788019319309E-002   2.4875102560084503E-002   3.0008288499159361E-002
  -5.6219114754466677E-002   1.6137862366402494E-002   5.0186121339708401E-002
  -5.4732272992065324E-002   1.5757718408235866E-002   4.9858337431785749E-002
  -5.3245431229663978E-002   1.5451270445213335E-002   4.9650260768137805E-002
  -5.1758589467262625E-002   1.5218518477335173E-002   4.9561891348764618E-002
  -5.0271747704861272E-002   1.5059462504601162E-002   4.9593229173666098E-002
  -6.3208391350085408E-002   1.8322172414823007E-002   4.5063271032306867E-002
  -6.1574543688431668E-002   1.7962245048928779E-002   4.4733175821539434E-002
  -5.9940696026777929E-002   1.7611924066371153E-002   4.4577385165002009E-002
  -5.8306848365124217E-002   1.7271209467150335E-002   4.4595899062694691E-002
  -5.6673000703470450E-002   1.6940101251266187E-002   4.4788717514617382E-002
  -7.0268929092767135E-002   2.0506482463243506E-002   3.9992682123081456E-002
  -6.8433478221905625E-002   2.0166771689621665E-002   3.9596185997661716E-002
  -6.6598027351044156E-002   1.9772577687528967E-002   3.9428591736427390E-002
  -6.4762576480182674E-002   1.9323900456965491E-002   3.9489899339378388E-002
  -6.2927125609321205E-002   1.8820739997931157E-002   3.9780108806514947E-002
  -7.7400727982511727E-002   2.2690792511664011E-002   3.4974354612032341E-002
  -7.5309076592487173E-002   2.2371298330314551E-002   3.4447367960152707E-002
  -7.3217425202462591E-002   2.1933231308686824E-002   3.4203880482413837E-002
  -7.1125773812438051E-002   2.1376591446780665E-002   3.4243892178815745E-002
  -6.9034122422413483E-002   2.0701378744596155E-002   3.4567403049358354E-002
  -8.4603788019319309E-002   2.4875102560084503E-002   3.0008288499159361E-002
  -8.2201338800176299E-002   2.4575824971007479E-002   2.9286721709012323E-002
  -7.9798889581033303E-002   2.4093884929844597E-002   2.8903251402961481E-002
  -7.7396440361890306E-002   2.3429282436595839E-002   2.8857877581006646E-002
  -7.4993991142747296E-002   2.2582017491261153E-002   2.9150600243147945E-002
  -5.0271747704861272E-002   1.5059462504601162E-002   4.9593229173666098E-002
  -4.8744880466821947E-002   1.4869691697626808E-002   4.9109942249980415E-002
  -4.7218013228782656E-002   1.4544795227027590E-002   4.8892750277667707E-002
  -4.5691145990743351E-002   1.4084773092803544E-002   4.8941653256727891E-002
  -4.4164278752704011E-002   1.3489625294954344E-002   4.9256651187161160E-002
  -5.6673000703470450E-002   1.6940101251266187E-002   4.4788717514617382E-002
  -5.4897948652703282E-002   1.6574054517888223E-002   4.4327344004070554E-002
  -5.3122896601936150E-002   1.6128524366186191E-002   4.4096245167606435E-002
  -5.1347844551169003E-002   1.5603510796159797E-002   4.4095421005225052E-002
  -4.9572792500401822E-002   1.4999013807809325E-002   4.4324871516926434E-002
  -6.2927125609321205E-002   1.8820739997931157E-002   3.9780108806514947E-002
  -6.0939709023116392E-002   1.8278417338149694E-002   3.9396290954407519E-002
  -5.8952292436911587E-002   1.7712253505344736E-002   3.9206927499092652E-002
  -5.6964875850706767E-002   1.7122248499516216E-002   3.9212018440570380E-002
  -5.4977459264501982E-002   1.6508402320664306E-002   3.9411563778840530E-002
  -6.9034122422413483E-002   2.0701378744596155E-002   3.4567403049358354E-002
  -6.6870161578061221E-002   1.9982780158411081E-002   3.4316783100991254E-002
  -6.4706200733709016E-002   1.9295982644503280E-002   3.4224797272126420E-002
  -6.2542239889356782E-002   1.8640986202872661E-002   3.4291445562763839E-002
  -6.0378279045004563E-002   1.8017790833519259E-002   3.4516727972903782E-002
  -7.4993991142747296E-002   2.2582017491261153E-002   2.9150600243147945E-002
  -7.2689306317537838E-002   2.1687142978672566E-002   2.9088820443821745E-002
  -7.0384621492328367E-002   2.0879711783661825E-002   2.9149854486707621E-002
  -6.8079936667118895E-002   2.0159723906228985E-002   2.9333702371805728E-002
  -6.5775251841909438E-002   1.9527179346374268E-002   2.9640364099115801E-002
  -4.4164278752704011E-002   1.3489625294954344E-002   4.9256651187161160E-002
  -4.2435851965229351E-002   1.2811838361125261E-002   4.8989652499117686E-002
  -4.0707425177754664E-002   1.2103898818961678E-002   4.8900440050629324E-002
  -3.8978998390279997E-002   1.1365806668463152E-002   4.8989013841695975E-002
  -3.7250571602805330E-002   1.0597561909629960E-002   4.9255373872317765E-002
  -4.9572792500401822E-002   1.4999013807809325E-002   4.4324871516926434E-002
  -4.7666193901781354E-002   1.4342939321224588E-002   4.4035193290831789E-002
  -4.5759595303160892E-002   1.3663193256495509E-002   4.3924072447473678E-002
  -4.3852996704540403E-002   1.2959775613622201E-002   4.3991508986852126E-002
  -4.1946398105919908E-002   1.2232686392604608E-002   4.4237502908967080E-002
  -5.4977459264501982E-002   1.6508402320664306E-002   3.9411563778840530E-002
  -5.2891917711554257E-002   1.5874040281323748E-002   3.9105687044885346E-002
  -5.0806376158606552E-002   1.5222487694029396E-002   3.8979138836848018E-002
  -4.8720834605658833E-002   1.4553744558781195E-002   3.9031919154728735E-002
  -4.6635293052711052E-002   1.3867810875579284E-002   3.9264027998527490E-002
  -6.0378279045004563E-002   1.8017790833519259E-002   3.4516727972903782E-002
  -5.8113023394548095E-002   1.7405141241422825E-002   3.4201133761278299E-002
  -5.5847767744091656E-002   1.6781782131563200E-002   3.4065639218752317E-002
  -5.3582512093635154E-002   1.6147713503940106E-002   3.4110244345325780E-002
  -5.1317256443178708E-002   1.5502935358553863E-002   3.4334949140998661E-002
  -6.5775251841909438E-002   1.9527179346374268E-002   2.9640364099115801E-002
  -6.3329510950762807E-002   1.8936242201522208E-002   2.9321533440010678E-002
  -6.0883770059616177E-002   1.8341076569097101E-002   2.9183573593186435E-002
  -5.8438029168469560E-002   1.7741682449099235E-002   2.9226484558643198E-002
  -5.5992288277322916E-002   1.7138059841528608E-002   2.9450266336380759E-002
  -3.7250571602805330E-002   1.0597561909629960E-002   4.9255373872317765E-002
  -3.5811913266754730E-002   1.0017837623556097E-002   4.8684021152535673E-002
  -3.4373254930704152E-002   9.8453068913358921E-003   4.8166424530295099E-002
  -3.2934596594653573E-002   1.0079969712969289E-002   4.7702584005596071E-002
  -3.1495938258602987E-002   1.0721826088456121E-002   4.7292499578438563E-002
  -4.1946398105919908E-002   1.2232686392604608E-002   4.4237502908967080E-002
  -4.0415898538011003E-002   1.1619069331031601E-002   4.4040071605268988E-002
  -3.8885398970102070E-002   1.1256068166491856E-002   4.3972566667746057E-002
  -3.7354899402193109E-002   1.1143682898985853E-002   4.4034988096398366E-002
  -3.5824399834284162E-002   1.1281913528513099E-002   4.4227335891226016E-002
  -4.6635293052711052E-002   1.3867810875579284E-002   3.9264027998527490E-002
  -4.4936781984310087E-002   1.3220301038507118E-002   3.9283940454092975E-002
  -4.3238270915908969E-002   1.2666829441648098E-002   3.9509949544467515E-002
  -4.1539759847507962E-002   1.2207396085002473E-002   3.9942055269651097E-002
  -3.9841248779106886E-002   1.1842000968570049E-002   4.0580257629643526E-002
  -5.1317256443178708E-002   1.5502935358553863E-002   3.4334949140998661E-002
  -4.9374563605651817E-002   1.4821532745982628E-002   3.4415627699007779E-002
  -4.7431870768124898E-002   1.4077590716804339E-002   3.4778573160459597E-002
  -4.5489177930597993E-002   1.3271109271019120E-002   3.5423785525354176E-002
  -4.3546485093071040E-002   1.2402088408627068E-002   3.6351264793691537E-002
  -5.5992288277322916E-002   1.7138059841528608E-002   2.9450266336380759E-002
  -5.3729243402036386E-002   1.6422764453458139E-002   2.9435133340013298E-002
  -5.1466198526749871E-002   1.5488351991960317E-002   2.9778437515722206E-002
  -4.9203153651463320E-002   1.4334822457035743E-002   3.0480178863507693E-002
  -4.6940108776176825E-002   1.2962175848683921E-002   3.1540357383369633E-002
  -3.1495938258602987E-002   1.0721826088456121E-002   4.7292499578438563E-002
  -2.9700246839479999E-002   1.0931282015412935E-002   4.7182125813914289E-002
  -2.7904555420357018E-002   9.8687434914562638E-003   4.7326199701500288E-002
  -2.6108864001234033E-002   7.5342105165858951E-003   4.7724721241196685E-002
  -2.4313172582111076E-002   3.9276830908017146E-003   4.8377690433003329E-002
  -3.5824399834284162E-002   1.1281913528513099E-002   4.4227335891226016E-002
  -3.3811319493214802E-002   1.1156311047013007E-002   4.3366377742395240E-002
  -3.1798239152145427E-002   1.0252426446424504E-002   4.2685749785347199E-002
  -2.9785158811075955E-002   8.5702597267477316E-003   4.2185452020081643E-002
  -2.7772078470006567E-002   6.1098108879824586E-003   4.1865484446598655E-002
  -3.9841248779106886E-002   1.1842000968570049E-002   4.0580257629643526E-002
  -3.7684896976418789E-002   1.1381340078612856E-002   3.9462427428331961E-002
  -3.5528545173730761E-002   1.0636109401392639E-002   3.8450809958475128E-002
  -3.3372193371042587E-002   9.6063089369094034E-003   3.7545405220072964E-002
  -3.1215841568354621E-002   8.2919386851632026E-003   3.6746213213125933E-002
  -4.3546485093071040E-002   1.2402088408627068E-002   3.6351264793691537E-002
  -4.1320979289092091E-002   1.1606369110212705E-002   3.5470274871724231E-002
  -3.9095473485113108E-002   1.1019792356360716E-002   3.4621380220883784E-002
  -3.6869967681134062E-002   1.0642358147071103E-002   3.3804580841170474E-002
  -3.4644461877155107E-002   1.0474066482343947E-002   3.3019876732584191E-002
  -4.6940108776176825E-002   1.2962175848683921E-002   3.1540357383369633E-002
  -4.4719566431234564E-002   1.1831398141812777E-002   3.1389920072572075E-002
  -4.2499024086292414E-002   1.1403475311328917E-002   3.1197460572573582E-002
  -4.0278481741350208E-002   1.1678407357232915E-002   3.0962978883374445E-002
  -3.8057939396408058E-002   1.2656194279524691E-002   3.0686475004974900E-002
  -9.0361791522662854E-002   0.0000000000000000        4.9841861878381563E-002
  -9.3961887977846076E-002   5.4023859196060051E-003   5.3216763271756354E-002
  -9.7561984433029283E-002   1.0669077918234644E-002   5.4971029188739237E-002
 -0.10116208088821249        1.5800075995885909E-002   5.5104659629330234E-002
 -0.10476217734339571        2.0795380152559825E-002   5.3617654593529337E-002
 -0.10329124141949746        0.0000000000000000        5.8668492591776464E-002
 -0.10682954615845597        1.0884677161744565E-002   5.2123867781810232E-002
 -0.11036785089741448        1.9172651553588049E-002   4.7323461880685300E-002
 -0.11390615563637299        2.4863923175530427E-002   4.4267274888401646E-002
 -0.11744446037533149        2.7958492027571707E-002   4.2955306804959327E-002
 -0.12645644636685044        0.0000000000000000        7.4207918971771800E-002
 -0.12656810500435103        1.6366968403883138E-002   5.5282759109540808E-002
 -0.12667976364185168        2.7676225188941445E-002   4.1466672541384315E-002
 -0.12679142227935231        3.3927770355174934E-002   3.2759659267302330E-002
 -0.12690308091685290        3.5121603902583606E-002   2.9161719287294788E-002
 -0.15985740636472179        0.0000000000000000        9.6460141018367543E-002
 -0.15317756451553136        2.1849259646021701E-002   6.2693437254948095E-002
 -0.14649772266634087        3.6179798824294840E-002   3.7400661170836312E-002
 -0.13981788081715038        4.2991617534819448E-002   2.0581812766032229E-002
 -0.13313803896795998        4.2284715777595516E-002   1.2236892040535794E-002
 -0.20349412141311155        0.0000000000000000       0.12542515873156374     
 -0.18665792469199680        2.7331550888160271E-002   7.4355902218032080E-002
 -0.16982172797088207        4.4683372459648256E-002   3.5125427769041311E-002
 -0.15298553124976733        5.2055464714463949E-002   7.7337353845913642E-003
 -0.13614933452865258        4.9447827652607385E-002  -7.8191749353176757E-003
 -0.10476217734339571        2.0795380152559825E-002   5.3617654593529337E-002
 -0.10210785855983198        2.4939427097385107E-002   4.5641724857798480E-002
  -9.9453539776268210E-002   2.7516653539490475E-002   3.9361336506079286E-002
  -9.6799220992704452E-002   2.8527059478875898E-002   3.4776489538371758E-002
  -9.4144902209140707E-002   2.7970644915541444E-002   3.1887183954675914E-002
 -0.11744446037533149        2.7958492027571707E-002   4.2955306804959327E-002
 -0.11348468383242442        2.9430588630563470E-002   3.6705424819515532E-002
 -0.10952490728951737        3.0254443505357251E-002   3.1370916968746679E-002
 -0.10556513074661032        3.0430056651953037E-002   2.6951783252652767E-002
 -0.10160535420370329        2.9957428070350803E-002   2.3448023671233845E-002
 -0.12690308091685290        3.5121603902583606E-002   2.9161719287294788E-002
 -0.12241801386393926        3.3921750163741854E-002   2.5556463826660002E-002
 -0.11793294681102560        3.2992233471224028E-002   2.2086415251363414E-002
 -0.11344787975811198        3.2333053825030142E-002   1.8751573561405093E-002
 -0.10896281270519831        3.1944211225160210E-002   1.5551938756784950E-002
 -0.13313803896795998        4.2284715777595516E-002   1.2236892040535794E-002
 -0.12890784865437643        3.8412911696920203E-002   1.2194841879231939E-002
 -0.12467765834079292        3.5730023437090815E-002   1.1507831353929573E-002
 -0.12044746802720940        3.4236050998107254E-002   1.0175860464628721E-002
 -0.11621727771362590        3.3930994379969624E-002   8.1989292113292863E-003
 -0.13614933452865258        4.9447827652607385E-002  -7.8191749353176757E-003
 -0.13295418820373595        4.2904073230098601E-002  -3.3794410227686207E-003
 -0.12975904187881931        3.8467813402957615E-002  -3.6483472355496906E-004
 -0.12656389555390268        3.6139048171184386E-002   1.2246439623235530E-003
 -0.12336874922898602        3.5917777534778983E-002   1.3889950348668634E-003
  -9.4144902209140707E-002   2.7970644915541444E-002   3.1887183954675914E-002
  -9.1759623661685386E-002   2.6772304907304555E-002   3.1314988291762810E-002
  -8.9374345114230022E-002   2.5856934511982808E-002   3.0811107161538957E-002
  -8.6989066566774687E-002   2.5224533729576098E-002   3.0375540564004523E-002
  -8.4603788019319309E-002   2.4875102560084503E-002   3.0008288499159361E-002
 -0.10160535420370329        2.9957428070350803E-002   2.3448023671233845E-002
  -9.9132012595437205E-002   2.9187018891852986E-002   2.3166395103170489E-002
  -9.6658670987171194E-002   2.8469290247761854E-002   2.2992578124039150E-002
  -9.4185329378905114E-002   2.7804242138077397E-002   2.2926572733839898E-002
  -9.1711987770639075E-002   2.7191874562799631E-002   2.2968378932572725E-002
 -0.10896281270519831        3.1944211225160210E-002   1.5551938756784950E-002
 -0.10636191097987883        3.1601732876401431E-002   1.5330588205063000E-002
 -0.10376100925455932        3.1081645983540917E-002   1.5256546298515757E-002
 -0.10116010752923983        3.0383950546578713E-002   1.5329813037143420E-002
  -9.8559205803920358E-002   2.9508646565514822E-002   1.5550388420945940E-002
 -0.11621727771362590        3.3930994379969624E-002   8.1989292113292863E-003
 -0.11344931881501019        3.4016446860949838E-002   7.8075675974401716E-003
 -0.11068135991639450        3.3694001719319931E-002   7.6030116849688566E-003
 -0.10791340101777876        3.2963658955080001E-002   7.5852614739150047E-003
 -0.10514544211916307        3.1825418568229957E-002   7.7543169642787782E-003
 -0.12336874922898602        3.5917777534778983E-002   1.3889950348668634E-003
 -0.12039423610083133        3.6431160845498245E-002   5.9733328030241173E-004
 -0.11741972297267665        3.6306357455099067E-002   3.1974283398329695E-005
 -0.11444520984452194        3.5543367363581296E-002  -3.0708195584547814E-004
 -0.11147069671636728        3.4142190570945141E-002  -4.1983543742890594E-004
  -8.4603788019319309E-002   2.4875102560084503E-002   3.0008288499159361E-002
  -8.2201338800176299E-002   2.4575824971007479E-002   2.9286721709012323E-002
  -7.9798889581033303E-002   2.4093884929844597E-002   2.8903251402961481E-002
  -7.7396440361890306E-002   2.3429282436595839E-002   2.8857877581006646E-002
  -7.4993991142747296E-002   2.2582017491261153E-002   2.9150600243147945E-002
  -9.1711987770639075E-002   2.7191874562799631E-002   2.2968378932572725E-002
  -8.9020917998047538E-002   2.6575901390467990E-002   2.2337040839516473E-002
  -8.6329848225455988E-002   2.5900036489621744E-002   2.1944847369261250E-002
  -8.3638778452864437E-002   2.5164279860260839E-002   2.1791798521806929E-002
  -8.0947708680272901E-002   2.4368631502385441E-002   2.1877894297153602E-002
  -9.8559205803920358E-002   2.9508646565514822E-002   1.5550388420945940E-002
  -9.5678467339175371E-002   2.8575977809928411E-002   1.5132049748551712E-002
  -9.2797728874430344E-002   2.7706188049398783E-002   1.4853903837663352E-002
  -8.9916990409685385E-002   2.6899277283925785E-002   1.4715950688280695E-002
  -8.7036251944940357E-002   2.6155245513509645E-002   1.4718190300404194E-002
 -0.10514544211916307        3.1825418568229957E-002   7.7543169642787782E-003
 -0.10217398682355980        3.0576054229388933E-002   7.6717484361176957E-003
  -9.9202531527956467E-002   2.9512339609175889E-002   7.6304208081675092E-003
  -9.6231076232353135E-002   2.8634274707590897E-002   7.6303340804283297E-003
  -9.3259620936749901E-002   2.7941859524633836E-002   7.6714882528995353E-003
 -0.11147069671636728        3.4142190570945141E-002  -4.1983543742890594E-004
 -0.10850747645120079        3.2576130648849372E-002  -4.3863097785229455E-005
 -0.10554425618603427        3.1318491168953022E-002   2.7439828077427397E-004
 -0.10258103592086780        3.0369272131255870E-002   5.3494869824908392E-004
  -9.9617815655701270E-002   2.9728473535758138E-002   7.3778815463992897E-004
  -7.4993991142747296E-002   2.2582017491261153E-002   2.9150600243147945E-002
  -7.2689306317537838E-002   2.1687142978672566E-002   2.9088820443821745E-002
  -7.0384621492328367E-002   2.0879711783661825E-002   2.9149854486707621E-002
  -6.8079936667118895E-002   2.0159723906228985E-002   2.9333702371805728E-002
  -6.5775251841909438E-002   1.9527179346374268E-002   2.9640364099115801E-002
  -8.0947708680272901E-002   2.4368631502385441E-002   2.1877894297153602E-002
  -7.8499386621976919E-002   2.3556200407537559E-002   2.1758996947633710E-002
  -7.6051064563680909E-002   2.2770095567259799E-002   2.1804560222074797E-002
  -7.3602742505384955E-002   2.2010316981551762E-002   2.2014584120476789E-002
  -7.1154420447088973E-002   2.1276864650413785E-002   2.2389068642839655E-002
  -8.7036251944940357E-002   2.6155245513509645E-002   1.4718190300404194E-002
  -8.4402645871809123E-002   2.5425257836402808E-002   1.4481058337682699E-002
  -8.1769039798677876E-002   2.4660479350857661E-002   1.4450033780670779E-002
  -7.9135433725546683E-002   2.3860910056874678E-002   1.4625116629368481E-002
  -7.6501827652415449E-002   2.3026549954453301E-002   1.5006306883776008E-002
  -9.3259620936749901E-002   2.7941859524633836E-002   7.6714882528995353E-003
  -9.0399084067034549E-002   2.7294315265267873E-002   7.2550046139683751E-003
  -8.7538547197319225E-002   2.6550863134455607E-002   7.0862751624955287E-003
  -8.4678010327603942E-002   2.5711503132197246E-002   7.1652998984812252E-003
  -8.1817473457888590E-002   2.4776235258492818E-002   7.4920788219252910E-003
  -9.9617815655701270E-002   2.9728473535758138E-002   7.3778815463992897E-004
  -9.6488701207653182E-002   2.9163372694133050E-002   8.0835776491011702E-005
  -9.3359586759605040E-002   2.8441246918053664E-002  -2.8671563245076526E-004
  -9.0230472311556925E-002   2.7562096207520051E-002  -3.6486607218528047E-004
  -8.7101357863508810E-002   2.6525920562532335E-002  -1.5361554271275946E-004
  -6.5775251841909438E-002   1.9527179346374268E-002   2.9640364099115801E-002
  -6.3329510950762807E-002   1.8936242201522208E-002   2.9321533440010678E-002
  -6.0883770059616177E-002   1.8341076569097101E-002   2.9183573593186435E-002
  -5.8438029168469560E-002   1.7741682449099235E-002   2.9226484558643198E-002
  -5.5992288277322916E-002   1.7138059841528608E-002   2.9450266336380759E-002
  -7.1154420447088973E-002   2.1276864650413785E-002   2.2389068642839655E-002
  -6.8529014233740998E-002   2.0551548369827505E-002   2.2093652572988565E-002
  -6.5903608020392926E-002   1.9816177935775212E-002   2.1976696335259269E-002
  -6.3278201807044937E-002   1.9070753348256638E-002   2.2038199929651947E-002
  -6.0652795593696948E-002   1.8315274607271892E-002   2.2278163356166336E-002
  -7.6501827652415449E-002   2.3026549954453301E-002   1.5006306883776008E-002
  -7.3699167097025065E-002   2.2166854538133149E-002   1.4728479737285818E-002
  -7.0896506541634763E-002   2.1291279302453496E-002   1.4626701442758135E-002
  -6.8093845986244406E-002   2.0399824247414211E-002   1.4700972000193335E-002
  -6.5291185430854132E-002   1.9492489373015287E-002   1.4951291409591352E-002
  -8.1817473457888590E-002   2.4776235258492818E-002   7.4920788219252910E-003
  -7.8839969540615146E-002   2.3782160706438758E-002   7.2260149329020605E-003
  -7.5862465623341591E-002   2.2766380669131888E-002   7.1335889156827811E-003
  -7.2884961706068049E-002   2.1728895146571503E-002   7.2148007702670788E-003
  -6.9907457788794564E-002   2.0669704138758710E-002   7.4696504966552182E-003
  -8.7101357863508810E-002   2.6525920562532335E-002  -1.5361554271275946E-004
  -8.3951421564511075E-002   2.5397466874743979E-002  -4.1374184016185200E-004
  -8.0801485265513451E-002   2.4241482035809947E-002  -5.0264124596638426E-004
  -7.7651548966515799E-002   2.3057966045729086E-002  -4.2031376012639787E-004
  -7.4501612667518091E-002   2.1846918904501966E-002  -1.6675938264176793E-004
  -5.5992288277322916E-002   1.7138059841528608E-002   2.9450266336380759E-002
  -5.3729243402036386E-002   1.6422764453458139E-002   2.9435133340013298E-002
  -5.1466198526749871E-002   1.5488351991960317E-002   2.9778437515722206E-002
  -4.9203153651463320E-002   1.4334822457035743E-002   3.0480178863507693E-002
  -4.6940108776176825E-002   1.2962175848683921E-002   3.1540357383369633E-002
  -6.0652795593696948E-002   1.8315274607271892E-002   2.2278163356166336E-002
  -5.8102984964854859E-002   1.7530124552242149E-002   2.2079273646469277E-002
  -5.5553174336012749E-002   1.6695686022588349E-002   2.2095478271806884E-002
  -5.3003363707170681E-002   1.5811959018310628E-002   2.2326777232179018E-002
  -5.0453553078328550E-002   1.4878943539409162E-002   2.2773170527585929E-002
  -6.5291185430854132E-002   1.9492489373015287E-002   1.4951291409591352E-002
  -6.2597951885498271E-002   1.8637484651026215E-002   1.4738473585367784E-002
  -5.9904718340142493E-002   1.7903020053216208E-002   1.4597407259136906E-002
  -5.7211484794786702E-002   1.7289095579585509E-002   1.4528092430898611E-002
  -5.4518251249430910E-002   1.6795711230134208E-002   1.4530529100653736E-002
  -6.9907457788794564E-002   2.0669704138758710E-002   7.4696504966552182E-003
  -6.7214144163966830E-002   1.9744844749810336E-002   7.4127331567082101E-003
  -6.4520830539139123E-002   1.9110354083844209E-002   7.2842244777123911E-003
  -6.1827516914311452E-002   1.8766232140860227E-002   7.0841244596672277E-003
  -5.9134203289483690E-002   1.8712478920859185E-002   6.8124331025732100E-003
  -7.4501612667518091E-002   2.1846918904501966E-002  -1.6675938264176793E-004
  -7.1951561800260355E-002   2.0852204848594236E-002   1.0205236049110056E-004
  -6.9401510933002619E-002   2.0317688114472376E-002   1.5592992753329926E-004
  -6.6851460065744939E-002   2.0243368702135209E-002  -5.1266815157061107E-006
  -6.4301409198487147E-002   2.0629246611584384E-002  -3.8111746665536739E-004
  -4.6940108776176825E-002   1.2962175848683921E-002   3.1540357383369633E-002
  -4.4719566431234564E-002   1.1831398141812777E-002   3.1389920072572075E-002
  -4.2499024086292414E-002   1.1403475311328917E-002   3.1197460572573582E-002
  -4.0278481741350208E-002   1.1678407357232915E-002   3.0962978883374445E-002
  -3.8057939396408058E-002   1.2656194279524691E-002   3.0686475004974900E-002
  -5.0453553078328550E-002   1.4878943539409162E-002   2.2773170527585929E-002
  -4.8152930963136248E-002   1.4017744852337144E-002   2.2641469774623973E-002
  -4.5852308847943946E-002   1.3349468223548502E-002   2.2711950751362897E-002
  -4.3551686732751733E-002   1.2874113653043130E-002   2.2984613457802769E-002
  -4.1251064617559230E-002   1.2591681140821098E-002   2.3459457893943547E-002
  -5.4518251249430910E-002   1.6795711230134208E-002   1.4530529100653736E-002
  -5.1893345445086898E-002   1.6204091562861844E-002   1.3907632087423225E-002
  -4.9268439640742859E-002   1.5295461135768358E-002   1.3731120722794844E-002
  -4.6643533836398764E-002   1.4069819948853481E-002   1.4000995006769369E-002
  -4.4018628032054849E-002   1.2527168002117728E-002   1.4717254939346114E-002
  -5.9134203289483690E-002   1.8712478920859185E-002   6.8124331025732100E-003
  -5.5940809877086439E-002   1.8390438273386489E-002   5.1884070109697276E-003
  -5.2747416464689154E-002   1.7241454047987968E-002   4.2549704868701504E-003
  -4.9554023052291805E-002   1.5265526244663874E-002   4.0121235302745728E-003
  -4.6360629639894582E-002   1.2462654863414135E-002   4.4598661411831692E-003
  -6.4301409198487147E-002   2.0629246611584384E-002  -3.8111746665536739E-004
  -6.0295324259134975E-002   2.0576784983911134E-002  -3.5162054547364652E-003
  -5.6289239319782747E-002   1.9187446960207549E-002  -5.7164999564120744E-003
  -5.2283154380430491E-002   1.6461232540474040E-002  -6.9820009716822437E-003
  -4.8277069441078346E-002   1.2398141724710765E-002  -7.3127085005462167E-003
 </DataArray>
 </PointData>
 </Piece>
 <Piece  NumberOfPoints="          1600 "  NumberOfCells="         1024 ">
 <Points>
 <DataArray  type="Float64" NumberOfComponents="3"  format="ascii" >
  0.50000000000000000        0.0000000000000000        0.0000000000000000     
  0.53125000000000000        0.0000000000000000        0.0000000000000000     
  0.56250000000000000        0.0000000000000000        0.0000000000000000     
  0.59375000000000000        0.0000000000000000        0.0000000000000000     
  0.62500000000000000        0.0000000000000000        0.0000000000000000     
  0.50000000000000000        3.1250000000000000E-002   0.0000000000000000     
  0.53125000000000000        3.1250000000000000E-002   0.0000000000000000     
  0.56250000000000000        3.1250000000000000E-002   0.0000000000000000     
  0.59375000000000000        3.1250000000000000E-002   0.0000000000000000     
  0.62500000000000000        3.1250000000000000E-002   0.0000000000000000     
  0.50000000000000000        6.2500000000000000E-002   0.0000000000000000     
  0.53125000000000000        6.2500000000000000E-002   0.0000000000000000     
  0.56250000000000000        6.2500000000000000E-002   0.0000000000000000     
  0.59375000000000000        6.2500000000000000E-002   0.0000000000000000     
  0.62500000000000000        6.2500000000000000E-002   0.0000000000000000     
  0.50000000000000000        9.3750000000000000E-002   0.0000000000000000     
  0.53125000000000000        9.3750000000000000E-002   0.0000000000000000     
  0.56250000000000000        9.3750000000000000E-002   0.0000000000000000     
  0.59375000000000000        9.3750000000000000E-002   0.0000000000000000     
  0.62500000000000000        9.3750000000000000E-002   0.0000000000000000     
  0.50000000000000000       0.12500000000000000        0.0000000000000000     
  0.53125000000000000       0.12500000000000000        0.0000000000000000     
  0.56250000000000000       0.12500000000000000        0.0000000000000000     
  0.59375000000000000       0.12500000000000000        0.0000000000000000     
  0.62500000000000000       0.12500000000000000        0.0000000000000000     
  0.62500000000000000        0.0000000000000000        0.0000000000000000     
  0.65625000000000000        0.0000000000000000        0.0000000000000000     
  0.68750000000000000        0.0000000000000000        0.0000000000000000     
  0.71875000000000000        0.0000000000000000        0.0000000000000000     
  0.75000000000000000        0.0000000000000000        0.0000000000000000     
  0.62500000000000000        3.1250000000000000E-002   0.0000000000000000     
  0.65625000000000000        3.1250000000000000E-002   0.0000000000000000     
  0.68750000000000000        3.1250000000000000E-002   0.0000000000000000     
  0.71875000000000000        3.1250000000000000E-002   0.0000000000000000     
  0.75000000000000000        3.1250000000000000E-002   0.0000000000000000     
  0.62500000000000000        6.2500000000000000E-002   0.0000000000000000     
  0.65625000000000000        6.2500000000000000E-002   0.0000000000000000     
  0.68750000000000000        6.2500000000000000E-002   0.0000000000000000     
  0.71875000000000000        6.2500000000000000E-002   0.0000000000000000     
  0.75000000000000000        6.2500000000000000E-002   0.0000000000000000     
  0.62500000000000000        9.3750000000000000E-002   0.0000000000000000     
  0.65625000000000000        9.3750000000000000E-002   0.0000000000000000     
  0.68750000000000000        9.3750000000000000E-002   0.0000000000000000     
  0.71875000000000000        9.3750000000000000E-002   0.0000000000000000     
  0.75000000000000000        9.3750000000000000E-002   0.0000000000000000     
  0.62500000000000000       0.12500000000000000        0.0000000000000000     
  0.65625000000000000       0.12500000000000000        0.0000000000000000     
  0.68750000000000000       0.12500000000000000        0.0000000000000000     
  0.71875000000000000       0.12500000000000000        0.0000000000000000     
  0.75000000000000000       0.12500000000000000        0.0000000000000000     
  0.75000000000000000        0.0000000000000000        0.0000000000000000     
  0.78125000000000000        0.0000000000000000        0.0000000000000000     
  0.81250000000000000        0.0000000000000000        0.0000000000000000     
  0.84375000000000000        0.0000000000000000        0.0000000000000000     
  0.87500000000000000        0.0000000000000000        0.0000000000000000     
  0.75000000000000000        3.1250000000000000E-002   0.0000000000000000     
  0.78125000000000000        3.1250000000000000E-002   0.0000000000000000     
  0.81250000000000000        3.1250000000000000E-002   0.0000000000000000     
  0.84375000000000000        3.1250000000000000E-002   0.0000000000000000     
  0.87500000000000000        3.1250000000000000E-002   0.0000000000000000     
  0.75000000000000000        6.2500000000000000E-002   0.0000000000000000     
  0.78125000000000000        6.2500000000000000E-002   0.0000000000000000     
  0.81250000000000000        6.2500000000000000E-002   0.0000000000000000     
  0.84375000000000000        6.2500000000000000E-002   0.0000000000000000     
  0.87500000000000000        6.2500000000000000E-002   0.0000000000000000     
  0.75000000000000000        9.3750000000000000E-002   0.0000000000000000     
  0.78125000000000000        9.3750000000000000E-002   0.0000000000000000     
  0.81250000000000000        9.3750000000000000E-002   0.0000000000000000     
  0.84375000000000000        9.3750000000000000E-002   0.0000000000000000     
  0.87500000000000000        9.3750000000000000E-002   0.0000000000000000     
  0.75000000000000000       0.12500000000000000        0.0000000000000000     
  0.78125000000000000       0.12500000000000000        0.0000000000000000     
  0.81250000000000000       0.12500000000000000        0.0000000000000000     
  0.84375000000000000       0.12500000000000000        0.0000000000000000     
  0.87500000000000000       0.12500000000000000        0.0000000000000000     
  0.87500000000000000        0.0000000000000000        0.0000000000000000     
  0.90625000000000000        0.0000000000000000        0.0000000000000000     
  0.93750000000000000        0.0000000000000000        0.0000000000000000     
  0.96875000000000000        0.0000000000000000        0.0000000000000000     
   1.0000000000000000        0.0000000000000000        0.0000000000000000     
  0.87500000000000000        3.1250000000000000E-002   0.0000000000000000     
  0.90625000000000000        3.1250000000000000E-002   0.0000000000000000     
  0.93750000000000000        3.1250000000000000E-002   0.0000000000000000     
  0.96875000000000000        3.1250000000000000E-002   0.0000000000000000     
   1.0000000000000000        3.1250000000000000E-002   0.0000000000000000     
  0.87500000000000000        6.2500000000000000E-002   0.0000000000000000     
  0.90625000000000000        6.2500000000000000E-002   0.0000000000000000     
  0.93750000000000000        6.2500000000000000E-002   0.0000000000000000     
  0.96875000000000000        6.2500000000000000E-002   0.0000000000000000     
   1.0000000000000000        6.2500000000000000E-002   0.0000000000000000     
  0.87500000000000000        9.3750000000000000E-002   0.0000000000000000     
  0.90625000000000000        9.3750000000000000E-002   0.0000000000000000     
  0.93750000000000000        9.3750000000000000E-002   0.0000000000000000     
  0.96875000000000000        9.3750000000000000E-002   0.0000000000000000     
   1.0000000000000000        9.3750000000000000E-002   0.0000000000000000     
  0.87500000000000000       0.12500000000000000        0.0000000000000000     
  0.90625000000000000       0.12500000000000000        0.0000000000000000     
  0.93750000000000000       0.12500000000000000        0.0000000000000000     
  0.96875000000000000       0.12500000000000000        0.0000000000000000     
   1.0000000000000000       0.12500000000000000        0.0000000000000000     
   1.0000000000000000        0.0000000000000000        0.0000000000000000     
   1.0312500000000000        0.0000000000000000        0.0000000000000000     
   1.0625000000000000        0.0000000000000000        0.0000000000000000     
   1.0937500000000000        0.0000000000000000        0.0000000000000000     
   1.1250000000000000        0.0000000000000000        0.0000000000000000     
   1.0000000000000000        3.1250000000000000E-002   0.0000000000000000     
   1.0312500000000000        3.1250000000000000E-002   0.0000000000000000     
   1.0625000000000000        3.1250000000000000E-002   0.0000000000000000     
   1.0937500000000000        3.1250000000000000E-002   0.0000000000000000     
   1.1250000000000000        3.1250000000000000E-002   0.0000000000000000     
   1.0000000000000000        6.2500000000000000E-002   0.0000000000000000     
   1.0312500000000000        6.2500000000000000E-002   0.0000000000000000     
   1.0625000000000000        6.2500000000000000E-002   0.0000000000000000     
   1.0937500000000000        6.2500000000000000E-002   0.0000000000000000     
   1.1250000000000000        6.2500000000000000E-002   0.0000000000000000     
   1.0000000000000000        9.3750000000000000E-002   0.0000000000000000     
   1.0312500000000000        9.3750000000000000E-002   0.0000000000000000     
   1.0625000000000000        9.3750000000000000E-002   0.0000000000000000     
   1.0937500000000000        9.3750000000000000E-002   0.0000000000000000     
   1.1250000000000000        9.3750000000000000E-002   0.0000000000000000     
   1.0000000000000000       0.12500000000000000        0.0000000000000000     
   1.0312500000000000       0.12500000000000000        0.0000000000000000     
   1.0625000000000000       0.12500000000000000        0.0000000000000000     
   1.0937500000000000       0.12500000000000000        0.0000000000000000     
   1.1250000000000000       0.12500000000000000        0.0000000000000000     
   1.1250000000000000        0.0000000000000000        0.0000000000000000     
   1.1562500000000000        0.0000000000000000        0.0000000000000000     
   1.1875000000000000        0.0000000000000000        0.0000000000000000     
   1.2187500000000000        0.0000000000000000        0.0000000000000000     
   1.2500000000000000        0.0000000000000000        0.0000000000000000     
   1.1250000000000000        3.1250000000000000E-002   0.0000000000000000     
   1.1562500000000000        3.1250000000000000E-002   0.0000000000000000     
   1.1875000000000000        3.1250000000000000E-002   0.0000000000000000     
   1.2187500000000000        3.1250000000000000E-002   0.0000000000000000     
   1.2500000000000000        3.1250000000000000E-002   0.0000000000000000     
   1.1250000000000000        6.2500000000000000E-002   0.0000000000000000     
   1.1562500000000000        6.2500000000000000E-002   0.0000000000000000     
   1.1875000000000000        6.2500000000000000E-002   0.0000000000000000     
   1.2187500000000000        6.2500000000000000E-002   0.0000000000000000     
   1.2500000000000000        6.2500000000000000E-002   0.0000000000000000     
   1.1250000000000000        9.3750000000000000E-002   0.0000000000000000     
   1.1562500000000000        9.3750000000000000E-002   0.0000000000000000     
   1.1875000000000000        9.3750000000000000E-002   0.0000000000000000     
   1.2187500000000000        9.3750000000000000E-002   0.0000000000000000     
   1.2500000000000000        9.3750000000000000E-002   0.0000000000000000     
   1.1250000000000000       0.12500000000000000        0.0000000000000000     
   1.1562500000000000       0.12500000000000000        0.0000000000000000     
   1.1875000000000000       0.12500000000000000        0.0000000000000000     
   1.2187500000000000       0.12500000000000000        0.0000000000000000     
   1.2500000000000000       0.12500000000000000        0.0000000000000000     
   1.2500000000000000        0.0000000000000000        0.0000000000000000     
   1.2812500000000000        0.0000000000000000        0.0000000000000000     
   1.3125000000000000        0.0000000000000000        0.0000000000000000     
   1.3437500000000000        0.0000000000000000        0.0000000000000000     
   1.3750000000000000        0.0000000000000000        0.0000000000000000     
   1.2500000000000000        3.1250000000000000E-002   0.0000000000000000     
   1.2812500000000000        3.1250000000000000E-002   0.0000000000000000     
   1.3125000000000000        3.1250000000000000E-002   0.0000000000000000     
   1.3437500000000000        3.1250000000000000E-002   0.0000000000000000     
   1.3750000000000000        3.1250000000000000E-002   0.0000000000000000     
   1.2500000000000000        6.2500000000000000E-002   0.0000000000000000     
   1.2812500000000000        6.2500000000000000E-002   0.0000000000000000     
   1.3125000000000000        6.2500000000000000E-002   0.0000000000000000     
   1.3437500000000000        6.2500000000000000E-002   0.0000000000000000     
   1.3750000000000000        6.2500000000000000E-002   0.0000000000000000     
   1.2500000000000000        9.3750000000000000E-002   0.0000000000000000     
   1.2812500000000000        9.3750000000000000E-002   0.0000000000000000     
   1.3125000000000000        9.3750000000000000E-002   0.0000000000000000     
   1.3437500000000000        9.3750000000000000E-002   0.0000000000000000     
   1.3750000000000000        9.3750000000000000E-002   0.0000000000000000     
   1.2500000000000000       0.12500000000000000        0.0000000000000000     
   1.2812500000000000       0.12500000000000000        0.0000000000000000     
   1.3125000000000000       0.12500000000000000        0.0000000000000000     
   1.3437500000000000       0.12500000000000000        0.0000000000000000     
   1.3750000000000000       0.12500000000000000        0.0000000000000000     
   1.3750000000000000        0.0000000000000000        0.0000000000000000     
   1.4062500000000000        0.0000000000000000        0.0000000000000000     
   1.4375000000000000        0.0000000000000000        0.0000000000000000     
   1.4687500000000000        0.0000000000000000        0.0000000000000000     
   1.5000000000000000        0.0000000000000000        0.0000000000000000     
   1.3750000000000000        3.1250000000000000E-002   0.0000000000000000     
   1.4062500000000000        3.1250000000000000E-002   0.0000000000000000     
   1.4375000000000000        3.1250000000000000E-002   0.0000000000000000     
   1.4687500000000000        3.1250000000000000E-002   0.0000000000000000     
   1.5000000000000000        3.1250000000000000E-002   0.0000000000000000     
   1.3750000000000000        6.2500000000000000E-002   0.0000000000000000     
   1.4062500000000000        6.2500000000000000E-002   0.0000000000000000     
   1.4375000000000000        6.2500000000000000E-002   0.0000000000000000     
   1.4687500000000000        6.2500000000000000E-002   0.0000000000000000     
   1.5000000000000000        6.2500000000000000E-002   0.0000000000000000     
   1.3750000000000000        9.3750000000000000E-002   0.0000000000000000     
   1.4062500000000000        9.3750000000000000E-002   0.0000000000000000     
   1.4375000000000000        9.3750000000000000E-002   0.0000000000000000     
   1.4687500000000000        9.3750000000000000E-002   0.0000000000000000     
   1.5000000000000000        9.3750000000000000E-002   0.0000000000000000     
   1.3750000000000000       0.12500000000000000        0.0000000000000000     
   1.4062500000000000       0.12500000000000000        0.0000000000000000     
   1.4375000000000000       0.12500000000000000        0.0000000000000000     
   1.4687500000000000       0.12500000000000000        0.0000000000000000     
   1.5000000000000000       0.12500000000000000        0.0000000000000000     
  0.50000000000000000       0.12500000000000000        0.0000000000000000     
  0.53125000000000000       0.12500000000000000        0.0000000000000000     
  0.56250000000000000       0.12500000000000000        0.0000000000000000     
  0.59375000000000000       0.12500000000000000        0.0000000000000000     
  0.62500000000000000       0.12500000000000000        0.0000000000000000     
  0.50000000000000000       0.15625000000000000        0.0000000000000000     
  0.53125000000000000       0.15625000000000000        0.0000000000000000     
  0.56250000000000000       0.15625000000000000        0.0000000000000000     
  0.59375000000000000       0.15625000000000000        0.0000000000000000     
  0.62500000000000000       0.15625000000000000        0.0000000000000000     
  0.50000000000000000       0.18750000000000000        0.0000000000000000     
  0.53125000000000000       0.18750000000000000        0.0000000000000000     
  0.56250000000000000       0.18750000000000000        0.0000000000000000     
  0.59375000000000000       0.18750000000000000        0.0000000000000000     
  0.62500000000000000       0.18750000000000000        0.0000000000000000     
  0.50000000000000000       0.21875000000000000        0.0000000000000000     
  0.53125000000000000       0.21875000000000000        0.0000000000000000     
  0.56250000000000000       0.21875000000000000        0.0000000000000000     
  0.59375000000000000       0.21875000000000000        0.0000000000000000     
  0.62500000000000000       0.21875000000000000        0.0000000000000000     
  0.50000000000000000       0.25000000000000000        0.0000000000000000     
  0.53125000000000000       0.25000000000000000        0.0000000000000000     
  0.56250000000000000       0.25000000000000000        0.0000000000000000     
  0.59375000000000000       0.25000000000000000        0.0000000000000000     
  0.62500000000000000       0.25000000000000000        0.0000000000000000     
  0.62500000000000000       0.12500000000000000        0.0000000000000000     
  0.65625000000000000       0.12500000000000000        0.0000000000000000     
  0.68750000000000000       0.12500000000000000        0.0000000000000000     
  0.71875000000000000       0.12500000000000000        0.0000000000000000     
  0.75000000000000000       0.12500000000000000        0.0000000000000000     
  0.62500000000000000       0.15625000000000000        0.0000000000000000     
  0.65625000000000000       0.15625000000000000        0.0000000000000000     
  0.68750000000000000       0.15625000000000000        0.0000000000000000     
  0.71875000000000000       0.15625000000000000        0.0000000000000000     
  0.75000000000000000       0.15625000000000000        0.0000000000000000     
  0.62500000000000000       0.18750000000000000        0.0000000000000000     
  0.65625000000000000       0.18750000000000000        0.0000000000000000     
  0.68750000000000000       0.18750000000000000        0.0000000000000000     
  0.71875000000000000       0.18750000000000000        0.0000000000000000     
  0.75000000000000000       0.18750000000000000        0.0000000000000000     
  0.62500000000000000       0.21875000000000000        0.0000000000000000     
  0.65625000000000000       0.21875000000000000        0.0000000000000000     
  0.68750000000000000       0.21875000000000000        0.0000000000000000     
  0.71875000000000000       0.21875000000000000        0.0000000000000000     
  0.75000000000000000       0.21875000000000000        0.0000000000000000     
  0.62500000000000000       0.25000000000000000        0.0000000000000000     
  0.65625000000000000       0.25000000000000000        0.0000000000000000     
  0.68750000000000000       0.25000000000000000        0.0000000000000000     
  0.71875000000000000       0.25000000000000000        0.0000000000000000     
  0.75000000000000000       0.25000000000000000        0.0000000000000000     
  0.75000000000000000       0.12500000000000000        0.0000000000000000     
  0.78125000000000000       0.12500000000000000        0.0000000000000000     
  0.81250000000000000       0.12500000000000000        0.0000000000000000     
  0.84375000000000000       0.12500000000000000        0.0000000000000000     
  0.87500000000000000       0.12500000000000000        0.0000000000000000     
  0.75000000000000000       0.15625000000000000        0.0000000000000000     
  0.78125000000000000       0.15625000000000000        0.0000000000000000     
  0.81250000000000000       0.15625000000000000        0.0000000000000000     
  0.84375000000000000       0.15625000000000000        0.0000000000000000     
  0.87500000000000000       0.15625000000000000        0.0000000000000000     
  0.75000000000000000       0.18750000000000000        0.0000000000000000     
  0.78125000000000000       0.18750000000000000        0.0000000000000000     
  0.81250000000000000       0.18750000000000000        0.0000000000000000     
  0.84375000000000000       0.18750000000000000        0.0000000000000000     
  0.87500000000000000       0.18750000000000000        0.0000000000000000     
  0.75000000000000000       0.21875000000000000        0.0000000000000000     
  0.78125000000000000       0.21875000000000000        0.0000000000000000     
  0.81250000000000000       0.21875000000000000        0.0000000000000000     
  0.84375000000000000       0.21875000000000000        0.0000000000000000     
  0.87500000000000000       0.21875000000000000        0.0000000000000000     
  0.75000000000000000       0.25000000000000000        0.0000000000000000     
  0.78125000000000000       0.25000000000000000        0.0000000000000000     
  0.81250000000000000       0.25000000000000000        0.0000000000000000     
  0.84375000000000000       0.25000000000000000        0.0000000000000000     
  0.87500000000000000       0.25000000000000000        0.0000000000000000     
  0.87500000000000000       0.12500000000000000        0.0000000000000000     
  0.90625000000000000       0.12500000000000000        0.0000000000000000     
  0.93750000000000000       0.12500000000000000        0.0000000000000000     
  0.96875000000000000       0.12500000000000000        0.0000000000000000     
   1.0000000000000000       0.12500000000000000        0.0000000000000000     
  0.87500000000000000       0.15625000000000000        0.0000000000000000     
  0.90625000000000000       0.15625000000000000        0.0000000000000000     
  0.93750000000000000       0.15625000000000000        0.0000000000000000     
  0.96875000000000000       0.15625000000000000        0.0000000000000000     
   1.0000000000000000       0.15625000000000000        0.0000000000000000     
  0.87500000000000000       0.18750000000000000        0.0000000000000000     
  0.90625000000000000       0.18750000000000000        0.0000000000000000     
  0.93750000000000000       0.18750000000000000        0.0000000000000000     
  0.96875000000000000       0.18750000000000000        0.0000000000000000     
   1.0000000000000000       0.18750000000000000        0.0000000000000000     
  0.87500000000000000       0.21875000000000000        0.0000000000000000     
  0.90625000000000000       0.21875000000000000        0.0000000000000000     
  0.93750000000000000       0.21875000000000000        0.0000000000000000     
  0.96875000000000000       0.21875000000000000        0.0000000000000000     
   1.0000000000000000       0.21875000000000000        0.0000000000000000     
  0.87500000000000000       0.25000000000000000        0.0000000000000000     
  0.90625000000000000       0.25000000000000000        0.0000000000000000     
  0.93750000000000000       0.25000000000000000        0.0000000000000000     
  0.96875000000000000       0.25000000000000000        0.0000000000000000     
   1.0000000000000000       0.25000000000000000        0.0000000000000000     
   1.0000000000000000       0.12500000000000000        0.0000000000000000     
   1.0312500000000000       0.12500000000000000        0.0000000000000000     
   1.0625000000000000       0.12500000000000000        0.0000000000000000     
   1.0937500000000000       0.12500000000000000        0.0000000000000000     
   1.1250000000000000       0.12500000000000000        0.0000000000000000     
   1.0000000000000000       0.15625000000000000        0.0000000000000000     
   1.0312500000000000       0.15625000000000000        0.0000000000000000     
   1.0625000000000000       0.15625000000000000        0.0000000000000000     
   1.0937500000000000       0.15625000000000000        0.0000000000000000     
   1.1250000000000000       0.15625000000000000        0.0000000000000000     
   1.0000000000000000       0.18750000000000000        0.0000000000000000     
   1.0312500000000000       0.18750000000000000        0.0000000000000000     
   1.0625000000000000       0.18750000000000000        0.0000000000000000     
   1.0937500000000000       0.18750000000000000        0.0000000000000000     
   1.1250000000000000       0.18750000000000000        0.0000000000000000     
   1.0000000000000000       0.21875000000000000        0.0000000000000000     
   1.0312500000000000       0.21875000000000000        0.0000000000000000     
   1.0625000000000000       0.21875000000000000        0.0000000000000000     
   1.0937500000000000       0.21875000000000000        0.0000000000000000     
   1.1250000000000000       0.21875000000000000        0.0000000000000000     
   1.0000000000000000       0.25000000000000000        0.0000000000000000     
   1.0312500000000000       0.25000000000000000        0.0000000000000000     
   1.0625000000000000       0.25000000000000000        0.0000000000000000     
   1.0937500000000000       0.25000000000000000        0.0000000000000000     
   1.1250000000000000       0.25000000000000000        0.0000000000000000     
   1.1250000000000000       0.12500000000000000        0.0000000000000000     
   1.1562500000000000       0.12500000000000000        0.0000000000000000     
   1.1875000000000000       0.12500000000000000        0.0000000000000000     
   1.2187500000000000       0.12500000000000000        0.0000000000000000     
   1.2500000000000000       0.12500000000000000        0.0000000000000000     
   1.1250000000000000       0.15625000000000000        0.0000000000000000     
   1.1562500000000000       0.15625000000000000        0.0000000000000000     
   1.1875000000000000       0.15625000000000000        0.0000000000000000     
   1.2187500000000000       0.15625000000000000        0.0000000000000000     
   1.2500000000000000       0.15625000000000000        0.0000000000000000     
   1.1250000000000000       0.18750000000000000        0.0000000000000000     
   1.1562500000000000       0.18750000000000000        0.0000000000000000     
   1.1875000000000000       0.18750000000000000        0.0000000000000000     
   1.2187500000000000       0.18750000000000000        0.0000000000000000     
   1.2500000000000000       0.18750000000000000        0.0000000000000000     
   1.1250000000000000       0.21875000000000000        0.0000000000000000     
   1.1562500000000000       0.21875000000000000        0.0000000000000000     
   1.1875000000000000       0.21875000000000000        0.0000000000000000     
   1.2187500000000000       0.21875000000000000        0.0000000000000000     
   1.2500000000000000       0.21875000000000000        0.0000000000000000     
   1.1250000000000000       0.25000000000000000        0.0000000000000000     
   1.1562500000000000       0.25000000000000000        0.0000000000000000     
   1.1875000000000000       0.25000000000000000        0.0000000000000000     
   1.2187500000000000       0.25000000000000000        0.0000000000000000     
   1.2500000000000000       0.25000000000000000        0.0000000000000000     
   1.2500000000000000       0.12500000000000000        0.0000000000000000     
   1.2812500000000000       0.12500000000000000        0.0000000000000000     
   1.3125000000000000       0.12500000000000000        0.0000000000000000     
   1.3437500000000000       0.12500000000000000        0.0000000000000000     
   1.3750000000000000       0.12500000000000000        0.0000000000000000     
   1.2500000000000000       0.15625000000000000        0.0000000000000000     
   1.2812500000000000       0.15625000000000000        0.0000000000000000     
   1.3125000000000000       0.15625000000000000        0.0000000000000000     
   1.3437500000000000       0.15625000000000000        0.0000000000000000     
   1.3750000000000000       0.15625000000000000        0.0000000000000000     
   1.2500000000000000       0.18750000000000000        0.0000000000000000     
   1.2812500000000000       0.18750000000000000        0.0000000000000000     
   1.3125000000000000       0.18750000000000000        0.0000000000000000     
   1.3437500000000000       0.18750000000000000        0.0000000000000000     
   1.3750000000000000       0.18750000000000000        0.0000000000000000     
   1.2500000000000000       0.21875000000000000        0.0000000000000000     
   1.2812500000000000       0.21875000000000000        0.0000000000000000     
   1.3125000000000000       0.21875000000000000        0.0000000000000000     
   1.3437500000000000       0.21875000000000000        0.0000000000000000     
   1.3750000000000000       0.21875000000000000        0.0000000000000000     
   1.2500000000000000       0.25000000000000000        0.0000000000000000     
   1.2812500000000000       0.25000000000000000        0.0000000000000000     
   1.3125000000000000       0.25000000000000000        0.0000000000000000     
   1.3437500000000000       0.25000000000000000        0.0000000000000000     
   1.3750000000000000       0.25000000000000000        0.0000000000000000     
   1.3750000000000000       0.12500000000000000        0.0000000000000000     
   1.4062500000000000       0.12500000000000000        0.0000000000000000     
   1.4375000000000000       0.12500000000000000        0.0000000000000000     
   1.4687500000000000       0.12500000000000000        0.0000000000000000     
   1.5000000000000000       0.12500000000000000        0.0000000000000000     
   1.3750000000000000       0.15625000000000000        0.0000000000000000     
   1.4062500000000000       0.15625000000000000        0.0000000000000000     
   1.4375000000000000       0.15625000000000000        0.0000000000000000     
   1.4687500000000000       0.15625000000000000        0.0000000000000000     
   1.5000000000000000       0.15625000000000000        0.0000000000000000     
   1.3750000000000000       0.18750000000000000        0.0000000000000000     
   1.4062500000000000       0.18750000000000000        0.0000000000000000     
   1.4375000000000000       0.18750000000000000        0.0000000000000000     
   1.4687500000000000       0.18750000000000000        0.0000000000000000     
   1.5000000000000000       0.18750000000000000        0.0000000000000000     
   1.3750000000000000       0.21875000000000000        0.0000000000000000     
   1.4062500000000000       0.21875000000000000        0.0000000000000000     
   1.4375000000000000       0.21875000000000000        0.0000000000000000     
   1.4687500000000000       0.21875000000000000        0.0000000000000000     
   1.5000000000000000       0.21875000000000000        0.0000000000000000     
   1.3750000000000000       0.25000000000000000        0.0000000000000000     
   1.4062500000000000       0.25000000000000000        0.0000000000000000     
   1.4375000000000000       0.25000000000000000        0.0000000000000000     
   1.4687500000000000       0.25000000000000000        0.0000000000000000     
   1.5000000000000000       0.25000000000000000        0.0000000000000000     
  0.50000000000000000       0.25000000000000000        0.0000000000000000     
  0.53125000000000000       0.25000000000000000        0.0000000000000000     
  0.56250000000000000       0.25000000000000000        0.0000000000000000     
  0.59375000000000000       0.25000000000000000        0.0000000000000000     
  0.62500000000000000       0.25000000000000000        0.0000000000000000     
  0.50000000000000000       0.28125000000000000        0.0000000000000000     
  0.53125000000000000       0.28125000000000000        0.0000000000000000     
  0.56250000000000000       0.28125000000000000        0.0000000000000000     
  0.59375000000000000       0.28125000000000000        0.0000000000000000     
  0.62500000000000000       0.28125000000000000        0.0000000000000000     
  0.50000000000000000       0.31250000000000000        0.0000000000000000     
  0.53125000000000000       0.31250000000000000        0.0000000000000000     
  0.56250000000000000       0.31250000000000000        0.0000000000000000     
  0.59375000000000000       0.31250000000000000        0.0000000000000000     
  0.62500000000000000       0.31250000000000000        0.0000000000000000     
  0.50000000000000000       0.34375000000000000        0.0000000000000000     
  0.53125000000000000       0.34375000000000000        0.0000000000000000     
  0.56250000000000000       0.34375000000000000        0.0000000000000000     
  0.59375000000000000       0.34375000000000000        0.0000000000000000     
  0.62500000000000000       0.34375000000000000        0.0000000000000000     
  0.50000000000000000       0.37500000000000000        0.0000000000000000     
  0.53125000000000000       0.37500000000000000        0.0000000000000000     
  0.56250000000000000       0.37500000000000000        0.0000000000000000     
  0.59375000000000000       0.37500000000000000        0.0000000000000000     
  0.62500000000000000       0.37500000000000000        0.0000000000000000     
  0.62500000000000000       0.25000000000000000        0.0000000000000000     
  0.65625000000000000       0.25000000000000000        0.0000000000000000     
  0.68750000000000000       0.25000000000000000        0.0000000000000000     
  0.71875000000000000       0.25000000000000000        0.0000000000000000     
  0.75000000000000000       0.25000000000000000        0.0000000000000000     
  0.62500000000000000       0.28125000000000000        0.0000000000000000     
  0.65625000000000000       0.28125000000000000        0.0000000000000000     
  0.68750000000000000       0.28125000000000000        0.0000000000000000     
  0.71875000000000000       0.28125000000000000        0.0000000000000000     
  0.75000000000000000       0.28125000000000000        0.0000000000000000     
  0.62500000000000000       0.31250000000000000        0.0000000000000000     
  0.65625000000000000       0.31250000000000000        0.0000000000000000     
  0.68750000000000000       0.31250000000000000        0.0000000000000000     
  0.71875000000000000       0.31250000000000000        0.0000000000000000     
  0.75000000000000000       0.31250000000000000        0.0000000000000000     
  0.62500000000000000       0.34375000000000000        0.0000000000000000     
  0.65625000000000000       0.34375000000000000        0.0000000000000000     
  0.68750000000000000       0.34375000000000000        0.0000000000000000     
  0.71875000000000000       0.34375000000000000        0.0000000000000000     
  0.75000000000000000       0.34375000000000000        0.0000000000000000     
  0.62500000000000000       0.37500000000000000        0.0000000000000000     
  0.65625000000000000       0.37500000000000000        0.0000000000000000     
  0.68750000000000000       0.37500000000000000        0.0000000000000000     
  0.71875000000000000       0.37500000000000000        0.0000000000000000     
  0.75000000000000000       0.37500000000000000        0.0000000000000000     
  0.75000000000000000       0.25000000000000000        0.0000000000000000     
  0.78125000000000000       0.25000000000000000        0.0000000000000000     
  0.81250000000000000       0.25000000000000000        0.0000000000000000     
  0.84375000000000000       0.25000000000000000        0.0000000000000000     
  0.87500000000000000       0.25000000000000000        0.0000000000000000     
  0.75000000000000000       0.28125000000000000        0.0000000000000000     
  0.78125000000000000       0.28125000000000000        0.0000000000000000     
  0.81250000000000000       0.28125000000000000        0.0000000000000000     
  0.84375000000000000       0.28125000000000000        0.0000000000000000     
  0.87500000000000000       0.28125000000000000        0.0000000000000000     
  0.75000000000000000       0.31250000000000000        0.0000000000000000     
  0.78125000000000000       0.31250000000000000        0.0000000000000000     
  0.81250000000000000       0.31250000000000000        0.0000000000000000     
  0.84375000000000000       0.31250000000000000        0.0000000000000000     
  0.87500000000000000       0.31250000000000000        0.0000000000000000     
  0.75000000000000000       0.34375000000000000        0.0000000000000000     
  0.78125000000000000       0.34375000000000000        0.0000000000000000     
  0.81250000000000000       0.34375000000000000        0.0000000000000000     
  0.84375000000000000       0.34375000000000000        0.0000000000000000     
  0.87500000000000000       0.34375000000000000        0.0000000000000000     
  0.75000000000000000       0.37500000000000000        0.0000000000000000     
  0.78125000000000000       0.37500000000000000        0.0000000000000000     
  0.81250000000000000       0.37500000000000000        0.0000000000000000     
  0.84375000000000000       0.37500000000000000        0.0000000000000000     
  0.87500000000000000       0.37500000000000000        0.0000000000000000     
  0.87500000000000000       0.25000000000000000        0.0000000000000000     
  0.90625000000000000       0.25000000000000000        0.0000000000000000     
  0.93750000000000000       0.25000000000000000        0.0000000000000000     
  0.96875000000000000       0.25000000000000000        0.0000000000000000     
   1.0000000000000000       0.25000000000000000        0.0000000000000000     
  0.87500000000000000       0.28125000000000000        0.0000000000000000     
  0.90625000000000000       0.28125000000000000        0.0000000000000000     
  0.93750000000000000       0.28125000000000000        0.0000000000000000     
  0.96875000000000000       0.28125000000000000        0.0000000000000000     
   1.0000000000000000       0.28125000000000000        0.0000000000000000     
  0.87500000000000000       0.31250000000000000        0.0000000000000000     
  0.90625000000000000       0.31250000000000000        0.0000000000000000     
  0.93750000000000000       0.31250000000000000        0.0000000000000000     
  0.96875000000000000       0.31250000000000000        0.0000000000000000     
   1.0000000000000000       0.31250000000000000        0.0000000000000000     
  0.87500000000000000       0.34375000000000000        0.0000000000000000     
  0.90625000000000000       0.34375000000000000        0.0000000000000000     
  0.93750000000000000       0.34375000000000000        0.0000000000000000     
  0.96875000000000000       0.34375000000000000        0.0000000000000000     
   1.0000000000000000       0.34375000000000000        0.0000000000000000     
  0.87500000000000000       0.37500000000000000        0.0000000000000000     
  0.90625000000000000       0.37500000000000000        0.0000000000000000     
  0.93750000000000000       0.37500000000000000        0.0000000000000000     
  0.96875000000000000       0.37500000000000000        0.0000000000000000     
   1.0000000000000000       0.37500000000000000        0.0000000000000000     
   1.0000000000000000       0.25000000000000000        0.0000000000000000     
   1.0312500000000000       0.25000000000000000        0.0000000000000000     
   1.0625000000000000       0.25000000000000000        0.0000000000000000     
   1.0937500000000000       0.25000000000000000        0.0000000000000000     
   1.1250000000000000       0.25000000000000000        0.0000000000000000     
   1.0000000000000000       0.28125000000000000        0.0000000000000000     
   1.0312500000000000       0.28125000000000000        0.0000000000000000     
   1.0625000000000000       0.28125000000000000        0.0000000000000000     
   1.0937500000000000       0.28125000000000000        0.0000000000000000     
   1.1250000000000000       0.28125000000000000        0.0000000000000000     
   1.0000000000000000       0.31250000000000000        0.0000000000000000     
   1.0312500000000000       0.31250000000000000        0.0000000000000000     
   1.0625000000000000       0.31250000000000000        0.0000000000000000     
   1.0937500000000000       0.31250000000000000        0.0000000000000000     
   1.1250000000000000       0.31250000000000000        0.0000000000000000     
   1.0000000000000000       0.34375000000000000        0.0000000000000000     
   1.0312500000000000       0.34375000000000000        0.0000000000000000     
   1.0625000000000000       0.34375000000000000        0.0000000000000000     
   1.0937500000000000       0.34375000000000000        0.0000000000000000     
   1.1250000000000000       0.34375000000000000        0.0000000000000000     
   1.0000000000000000       0.37500000000000000        0.0000000000000000     
   1.0312500000000000       0.37500000000000000        0.0000000000000000     
   1.0625000000000000       0.37500000000000000        0.0000000000000000     
   1.0937500000000000       0.37500000000000000        0.0000000000000000     
   1.1250000000000000       0.37500000000000000        0.0000000000000000     
   1.1250000000000000       0.25000000000000000        0.0000000000000000     
   1.1562500000000000       0.25000000000000000        0.0000000000000000     
   1.1875000000000000       0.25000000000000000        0.0000000000000000     
   1.2187500000000000       0.25000000000000000        0.0000000000000000     
   1.2500000000000000       0.25000000000000000        0.0000000000000000     
   1.1250000000000000       0.28125000000000000        0.0000000000000000     
   1.1562500000000000       0.28125000000000000        0.0000000000000000     
   1.1875000000000000       0.28125000000000000        0.0000000000000000     
   1.2187500000000000       0.28125000000000000        0.0000000000000000     
   1.2500000000000000       0.28125000000000000        0.0000000000000000     
   1.1250000000000000       0.31250000000000000        0.0000000000000000     
   1.1562500000000000       0.31250000000000000        0.0000000000000000     
   1.1875000000000000       0.31250000000000000        0.0000000000000000     
   1.2187500000000000       0.31250000000000000        0.0000000000000000     
   1.2500000000000000       0.31250000000000000        0.0000000000000000     
   1.1250000000000000       0.34375000000000000        0.0000000000000000     
   1.1562500000000000       0.34375000000000000        0.0000000000000000     
   1.1875000000000000       0.34375000000000000        0.0000000000000000     
   1.2187500000000000       0.34375000000000000        0.0000000000000000     
   1.2500000000000000       0.34375000000000000        0.0000000000000000     
   1.1250000000000000       0.37500000000000000        0.0000000000000000     
   1.1562500000000000       0.37500000000000000        0.0000000000000000     
   1.1875000000000000       0.37500000000000000        0.0000000000000000     
   1.2187500000000000       0.37500000000000000        0.0000000000000000     
   1.2500000000000000       0.37500000000000000        0.0000000000000000     
   1.2500000000000000       0.25000000000000000        0.0000000000000000     
   1.2812500000000000       0.25000000000000000        0.0000000000000000     
   1.3125000000000000       0.25000000000000000        0.0000000000000000     
   1.3437500000000000       0.25000000000000000        0.0000000000000000     
   1.3750000000000000       0.25000000000000000        0.0000000000000000     
   1.2500000000000000       0.28125000000000000        0.0000000000000000     
   1.2812500000000000       0.28125000000000000        0.0000000000000000     
   1.3125000000000000       0.28125000000000000        0.0000000000000000     
   1.3437500000000000       0.28125000000000000        0.0000000000000000     
   1.3750000000000000       0.28125000000000000        0.0000000000000000     
   1.2500000000000000       0.31250000000000000        0.0000000000000000     
   1.2812500000000000       0.31250000000000000        0.0000000000000000     
   1.3125000000000000       0.31250000000000000        0.0000000000000000     
   1.3437500000000000       0.31250000000000000        0.0000000000000000     
   1.3750000000000000       0.31250000000000000        0.0000000000000000     
   1.2500000000000000       0.34375000000000000        0.0000000000000000     
   1.2812500000000000       0.34375000000000000        0.0000000000000000     
   1.3125000000000000       0.34375000000000000        0.0000000000000000     
   1.3437500000000000       0.34375000000000000        0.0000000000000000     
   1.3750000000000000       0.34375000000000000        0.0000000000000000     
   1.2500000000000000       0.37500000000000000        0.0000000000000000     
   1.2812500000000000       0.37500000000000000        0.0000000000000000     
   1.3125000000000000       0.37500000000000000        0.0000000000000000     
   1.3437500000000000       0.37500000000000000        0.0000000000000000     
   1.3750000000000000       0.37500000000000000        0.0000000000000000     
   1.3750000000000000       0.25000000000000000        0.0000000000000000     
   1.4062500000000000       0.25000000000000000        0.0000000000000000     
   1.4375000000000000       0.25000000000000000        0.0000000000000000     
   1.4687500000000000       0.25000000000000000        0.0000000000000000     
   1.5000000000000000       0.25000000000000000        0.0000000000000000     
   1.3750000000000000       0.28125000000000000        0.0000000000000000     
   1.4062500000000000       0.28125000000000000        0.0000000000000000     
   1.4375000000000000       0.28125000000000000        0.0000000000000000     
   1.4687500000000000       0.28125000000000000        0.0000000000000000     
   1.5000000000000000       0.28125000000000000        0.0000000000000000     
   1.3750000000000000       0.31250000000000000        0.0000000000000000     
   1.4062500000000000       0.31250000000000000        0.0000000000000000     
   1.4375000000000000       0.31250000000000000        0.0000000000000000     
   1.4687500000000000       0.31250000000000000        0.0000000000000000     
   1.5000000000000000       0.31250000000000000        0.0000000000000000     
   1.3750000000000000       0.34375000000000000        0.0000000000000000     
   1.4062500000000000       0.34375000000000000        0.0000000000000000     
   1.4375000000000000       0.34375000000000000        0.0000000000000000     
   1.4687500000000000       0.34375000000000000        0.0000000000000000     
   1.5000000000000000       0.34375000000000000        0.0000000000000000     
   1.3750000000000000       0.37500000000000000        0.0000000000000000     
   1.4062500000000000       0.37500000000000000        0.0000000000000000     
   1.4375000000000000       0.37500000000000000        0.0000000000000000     
   1.4687500000000000       0.37500000000000000        0.0000000000000000     
   1.5000000000000000       0.37500000000000000        0.0000000000000000     
  0.50000000000000000       0.37500000000000000        0.0000000000000000     
  0.53125000000000000       0.37500000000000000        0.0000000000000000     
  0.56250000000000000       0.37500000000000000        0.0000000000000000     
  0.59375000000000000       0.37500000000000000        0.0000000000000000     
  0.62500000000000000       0.37500000000000000        0.0000000000000000     
  0.50000000000000000       0.40625000000000000        0.0000000000000000     
  0.53125000000000000       0.40625000000000000        0.0000000000000000     
  0.56250000000000000       0.40625000000000000        0.0000000000000000     
  0.59375000000000000       0.40625000000000000        0.0000000000000000     
  0.62500000000000000       0.40625000000000000        0.0000000000000000     
  0.50000000000000000       0.43750000000000000        0.0000000000000000     
  0.53125000000000000       0.43750000000000000        0.0000000000000000     
  0.56250000000000000       0.43750000000000000        0.0000000000000000     
  0.59375000000000000       0.43750000000000000        0.0000000000000000     
  0.62500000000000000       0.43750000000000000        0.0000000000000000     
  0.50000000000000000       0.46875000000000000        0.0000000000000000     
  0.53125000000000000       0.46875000000000000        0.0000000000000000     
  0.56250000000000000       0.46875000000000000        0.0000000000000000     
  0.59375000000000000       0.46875000000000000        0.0000000000000000     
  0.62500000000000000       0.46875000000000000        0.0000000000000000     
  0.50000000000000000       0.50000000000000000        0.0000000000000000     
  0.53125000000000000       0.50000000000000000        0.0000000000000000     
  0.56250000000000000       0.50000000000000000        0.0000000000000000     
  0.59375000000000000       0.50000000000000000        0.0000000000000000     
  0.62500000000000000       0.50000000000000000        0.0000000000000000     
  0.62500000000000000       0.37500000000000000        0.0000000000000000     
  0.65625000000000000       0.37500000000000000        0.0000000000000000     
  0.68750000000000000       0.37500000000000000        0.0000000000000000     
  0.71875000000000000       0.37500000000000000        0.0000000000000000     
  0.75000000000000000       0.37500000000000000        0.0000000000000000     
  0.62500000000000000       0.40625000000000000        0.0000000000000000     
  0.65625000000000000       0.40625000000000000        0.0000000000000000     
  0.68750000000000000       0.40625000000000000        0.0000000000000000     
  0.71875000000000000       0.40625000000000000        0.0000000000000000     
  0.75000000000000000       0.40625000000000000        0.0000000000000000     
  0.62500000000000000       0.43750000000000000        0.0000000000000000     
  0.65625000000000000       0.43750000000000000        0.0000000000000000     
  0.68750000000000000       0.43750000000000000        0.0000000000000000     
  0.71875000000000000       0.43750000000000000        0.0000000000000000     
  0.75000000000000000       0.43750000000000000        0.0000000000000000     
  0.62500000000000000       0.46875000000000000        0.0000000000000000     
  0.65625000000000000       0.46875000000000000        0.0000000000000000     
  0.68750000000000000       0.46875000000000000        0.0000000000000000     
  0.71875000000000000       0.46875000000000000        0.0000000000000000     
  0.75000000000000000       0.46875000000000000        0.0000000000000000     
  0.62500000000000000       0.50000000000000000        0.0000000000000000     
  0.65625000000000000       0.50000000000000000        0.0000000000000000     
  0.68750000000000000       0.50000000000000000        0.0000000000000000     
  0.71875000000000000       0.50000000000000000        0.0000000000000000     
  0.75000000000000000       0.50000000000000000        0.0000000000000000     
  0.75000000000000000       0.37500000000000000        0.0000000000000000     
  0.78125000000000000       0.37500000000000000        0.0000000000000000     
  0.81250000000000000       0.37500000000000000        0.0000000000000000     
  0.84375000000000000       0.37500000000000000        0.0000000000000000     
  0.87500000000000000       0.37500000000000000        0.0000000000000000     
  0.75000000000000000       0.40625000000000000        0.0000000000000000     
  0.78125000000000000       0.40625000000000000        0.0000000000000000     
  0.81250000000000000       0.40625000000000000        0.0000000000000000     
  0.84375000000000000       0.40625000000000000        0.0000000000000000     
  0.87500000000000000       0.40625000000000000        0.0000000000000000     
  0.75000000000000000       0.43750000000000000        0.0000000000000000     
  0.78125000000000000       0.43750000000000000        0.0000000000000000     
  0.81250000000000000       0.43750000000000000        0.0000000000000000     
  0.84375000000000000       0.43750000000000000        0.0000000000000000     
  0.87500000000000000       0.43750000000000000        0.0000000000000000     
  0.75000000000000000       0.46875000000000000        0.0000000000000000     
  0.78125000000000000       0.46875000000000000        0.0000000000000000     
  0.81250000000000000       0.46875000000000000        0.0000000000000000     
  0.84375000000000000       0.46875000000000000        0.0000000000000000     
  0.87500000000000000       0.46875000000000000        0.0000000000000000     
  0.75000000000000000       0.50000000000000000        0.0000000000000000     
  0.78125000000000000       0.50000000000000000        0.0000000000000000     
  0.81250000000000000       0.50000000000000000        0.0000000000000000     
  0.84375000000000000       0.50000000000000000        0.0000000000000000     
  0.87500000000000000       0.50000000000000000        0.0000000000000000     
  0.87500000000000000       0.37500000000000000        0.0000000000000000     
  0.90625000000000000       0.37500000000000000        0.0000000000000000     
  0.93750000000000000       0.37500000000000000        0.0000000000000000     
  0.96875000000000000       0.37500000000000000        0.0000000000000000     
   1.0000000000000000       0.37500000000000000        0.0000000000000000     
  0.87500000000000000       0.40625000000000000        0.0000000000000000     
  0.90625000000000000       0.40625000000000000        0.0000000000000000     
  0.93750000000000000       0.40625000000000000        0.0000000000000000     
  0.96875000000000000       0.40625000000000000        0.0000000000000000     
   1.0000000000000000       0.40625000000000000        0.0000000000000000     
  0.87500000000000000       0.43750000000000000        0.0000000000000000     
  0.90625000000000000       0.43750000000000000        0.0000000000000000     
  0.93750000000000000       0.43750000000000000        0.0000000000000000     
  0.96875000000000000       0.43750000000000000        0.0000000000000000     
   1.0000000000000000       0.43750000000000000        0.0000000000000000     
  0.87500000000000000       0.46875000000000000        0.0000000000000000     
  0.90625000000000000       0.46875000000000000        0.0000000000000000     
  0.93750000000000000       0.46875000000000000        0.0000000000000000     
  0.96875000000000000       0.46875000000000000        0.0000000000000000     
   1.0000000000000000       0.46875000000000000        0.0000000000000000     
  0.87500000000000000       0.50000000000000000        0.0000000000000000     
  0.90625000000000000       0.50000000000000000        0.0000000000000000     
  0.93750000000000000       0.50000000000000000        0.0000000000000000     
  0.96875000000000000       0.50000000000000000        0.0000000000000000     
   1.0000000000000000       0.50000000000000000        0.0000000000000000     
   1.0000000000000000       0.37500000000000000        0.0000000000000000     
   1.0312500000000000       0.37500000000000000        0.0000000000000000     
   1.0625000000000000       0.37500000000000000        0.0000000000000000     
   1.0937500000000000       0.37500000000000000        0.0000000000000000     
   1.1250000000000000       0.37500000000000000        0.0000000000000000     
   1.0000000000000000       0.40625000000000000        0.0000000000000000     
   1.0312500000000000       0.40625000000000000        0.0000000000000000     
   1.0625000000000000       0.40625000000000000        0.0000000000000000     
   1.0937500000000000       0.40625000000000000        0.0000000000000000     
   1.1250000000000000       0.40625000000000000        0.0000000000000000     
   1.0000000000000000       0.43750000000000000        0.0000000000000000     
   1.0312500000000000       0.43750000000000000        0.0000000000000000     
   1.0625000000000000       0.43750000000000000        0.0000000000000000     
   1.0937500000000000       0.43750000000000000        0.0000000000000000     
   1.1250000000000000       0.43750000000000000        0.0000000000000000     
   1.0000000000000000       0.46875000000000000        0.0000000000000000     
   1.0312500000000000       0.46875000000000000        0.0000000000000000     
   1.0625000000000000       0.46875000000000000        0.0000000000000000     
   1.0937500000000000       0.46875000000000000        0.0000000000000000     
   1.1250000000000000       0.46875000000000000        0.0000000000000000     
   1.0000000000000000       0.50000000000000000        0.0000000000000000     
   1.0312500000000000       0.50000000000000000        0.0000000000000000     
   1.0625000000000000       0.50000000000000000        0.0000000000000000     
   1.0937500000000000       0.50000000000000000        0.0000000000000000     
   1.1250000000000000       0.50000000000000000        0.0000000000000000     
   1.1250000000000000       0.37500000000000000        0.0000000000000000     
   1.1562500000000000       0.37500000000000000        0.0000000000000000     
   1.1875000000000000       0.37500000000000000        0.0000000000000000     
   1.2187500000000000       0.37500000000000000        0.0000000000000000     
   1.2500000000000000       0.37500000000000000        0.0000000000000000     
   1.1250000000000000       0.40625000000000000        0.0000000000000000     
   1.1562500000000000       0.40625000000000000        0.0000000000000000     
   1.1875000000000000       0.40625000000000000        0.0000000000000000     
   1.2187500000000000       0.40625000000000000        0.0000000000000000     
   1.2500000000000000       0.40625000000000000        0.0000000000000000     
   1.1250000000000000       0.43750000000000000        0.0000000000000000     
   1.1562500000000000       0.43750000000000000        0.0000000000000000     
   1.1875000000000000       0.43750000000000000        0.0000000000000000     
   1.2187500000000000       0.43750000000000000        0.0000000000000000     
   1.2500000000000000       0.43750000000000000        0.0000000000000000     
   1.1250000000000000       0.46875000000000000        0.0000000000000000     
   1.1562500000000000       0.46875000000000000        0.0000000000000000     
   1.1875000000000000       0.46875000000000000        0.0000000000000000     
   1.2187500000000000       0.46875000000000000        0.0000000000000000     
   1.2500000000000000       0.46875000000000000        0.0000000000000000     
   1.1250000000000000       0.50000000000000000        0.0000000000000000     
   1.1562500000000000       0.50000000000000000        0.0000000000000000     
   1.1875000000000000       0.50000000000000000        0.0000000000000000     
   1.2187500000000000       0.50000000000000000        0.0000000000000000     
   1.2500000000000000       0.50000000000000000        0.0000000000000000     
   1.2500000000000000       0.37500000000000000        0.0000000000000000     
   1.2812500000000000       0.37500000000000000        0.0000000000000000     
   1.3125000000000000       0.37500000000000000        0.0000000000000000     
   1.3437500000000000       0.37500000000000000        0.0000000000000000     
   1.3750000000000000       0.37500000000000000        0.0000000000000000     
   1.2500000000000000       0.40625000000000000        0.0000000000000000     
   1.2812500000000000       0.40625000000000000        0.0000000000000000     
   1.3125000000000000       0.40625000000000000        0.0000000000000000     
   1.3437500000000000       0.40625000000000000        0.0000000000000000     
   1.3750000000000000       0.40625000000000000        0.0000000000000000     
   1.2500000000000000       0.43750000000000000        0.0000000000000000     
   1.2812500000000000       0.43750000000000000        0.0000000000000000     
   1.3125000000000000       0.43750000000000000        0.0000000000000000     
   1.3437500000000000       0.43750000000000000        0.0000000000000000     
   1.3750000000000000       0.43750000000000000        0.0000000000000000     
   1.2500000000000000       0.46875000000000000        0.0000000000000000     
   1.2812500000000000       0.46875000000000000        0.0000000000000000     
   1.3125000000000000       0.46875000000000000        0.0000000000000000     
   1.3437500000000000       0.46875000000000000        0.0000000000000000     
   1.3750000000000000       0.46875000000000000        0.0000000000000000     
   1.2500000000000000       0.50000000000000000        0.0000000000000000     
   1.2812500000000000       0.50000000000000000        0.0000000000000000     
   1.3125000000000000       0.50000000000000000        0.0000000000000000     
   1.3437500000000000       0.50000000000000000        0.0000000000000000     
   1.3750000000000000       0.50000000000000000        0.0000000000000000     
   1.3750000000000000       0.37500000000000000        0.0000000000000000     
   1.4062500000000000       0.37500000000000000        0.0000000000000000     
   1.4375000000000000       0.37500000000000000        0.0000000000000000     
   1.4687500000000000       0.37500000000000000        0.0000000000000000     
   1.5000000000000000       0.37500000000000000        0.0000000000000000     
   1.3750000000000000       0.40625000000000000        0.0000000000000000     
   1.4062500000000000       0.40625000000000000        0.0000000000000000     
   1.4375000000000000       0.40625000000000000        0.0000000000000000     
   1.4687500000000000       0.40625000000000000        0.0000000000000000     
   1.5000000000000000       0.40625000000000000        0.0000000000000000     
   1.3750000000000000       0.43750000000000000        0.0000000000000000     
   1.4062500000000000       0.43750000000000000        0.0000000000000000     
   1.4375000000000000       0.43750000000000000        0.0000000000000000     
   1.4687500000000000       0.43750000000000000        0.0000000000000000     
   1.5000000000000000       0.43750000000000000        0.0000000000000000     
   1.3750000000000000       0.46875000000000000        0.0000000000000000     
   1.4062500000000000       0.46875000000000000        0.0000000000000000     
   1.4375000000000000       0.46875000000000000        0.0000000000000000     
   1.4687500000000000       0.46875000000000000        0.0000000000000000     
   1.5000000000000000       0.46875000000000000        0.0000000000000000     
   1.3750000000000000       0.50000000000000000        0.0000000000000000     
   1.4062500000000000       0.50000000000000000        0.0000000000000000     
   1.4375000000000000       0.50000000000000000        0.0000000000000000     
   1.4687500000000000       0.50000000000000000        0.0000000000000000     
   1.5000000000000000       0.50000000000000000        0.0000000000000000     
  0.50000000000000000       0.50000000000000000        0.0000000000000000     
  0.53125000000000000       0.50000000000000000        0.0000000000000000     
  0.56250000000000000       0.50000000000000000        0.0000000000000000     
  0.59375000000000000       0.50000000000000000        0.0000000000000000     
  0.62500000000000000       0.50000000000000000        0.0000000000000000     
  0.50000000000000000       0.53125000000000000        0.0000000000000000     
  0.53125000000000000       0.53125000000000000        0.0000000000000000     
  0.56250000000000000       0.53125000000000000        0.0000000000000000     
  0.59375000000000000       0.53125000000000000        0.0000000000000000     
  0.62500000000000000       0.53125000000000000        0.0000000000000000     
  0.50000000000000000       0.56250000000000000        0.0000000000000000     
  0.53125000000000000       0.56250000000000000        0.0000000000000000     
  0.56250000000000000       0.56250000000000000        0.0000000000000000     
  0.59375000000000000       0.56250000000000000        0.0000000000000000     
  0.62500000000000000       0.56250000000000000        0.0000000000000000     
  0.50000000000000000       0.59375000000000000        0.0000000000000000     
  0.53125000000000000       0.59375000000000000        0.0000000000000000     
  0.56250000000000000       0.59375000000000000        0.0000000000000000     
  0.59375000000000000       0.59375000000000000        0.0000000000000000     
  0.62500000000000000       0.59375000000000000        0.0000000000000000     
  0.50000000000000000       0.62500000000000000        0.0000000000000000     
  0.53125000000000000       0.62500000000000000        0.0000000000000000     
  0.56250000000000000       0.62500000000000000        0.0000000000000000     
  0.59375000000000000       0.62500000000000000        0.0000000000000000     
  0.62500000000000000       0.62500000000000000        0.0000000000000000     
  0.62500000000000000       0.50000000000000000        0.0000000000000000     
  0.65625000000000000       0.50000000000000000        0.0000000000000000     
  0.68750000000000000       0.50000000000000000        0.0000000000000000     
  0.71875000000000000       0.50000000000000000        0.0000000000000000     
  0.75000000000000000       0.50000000000000000        0.0000000000000000     
  0.62500000000000000       0.53125000000000000        0.0000000000000000     
  0.65625000000000000       0.53125000000000000        0.0000000000000000     
  0.68750000000000000       0.53125000000000000        0.0000000000000000     
  0.71875000000000000       0.53125000000000000        0.0000000000000000     
  0.75000000000000000       0.53125000000000000        0.0000000000000000     
  0.62500000000000000       0.56250000000000000        0.0000000000000000     
  0.65625000000000000       0.56250000000000000        0.0000000000000000     
  0.68750000000000000       0.56250000000000000        0.0000000000000000     
  0.71875000000000000       0.56250000000000000        0.0000000000000000     
  0.75000000000000000       0.56250000000000000        0.0000000000000000     
  0.62500000000000000       0.59375000000000000        0.0000000000000000     
  0.65625000000000000       0.59375000000000000        0.0000000000000000     
  0.68750000000000000       0.59375000000000000        0.0000000000000000     
  0.71875000000000000       0.59375000000000000        0.0000000000000000     
  0.75000000000000000       0.59375000000000000        0.0000000000000000     
  0.62500000000000000       0.62500000000000000        0.0000000000000000     
  0.65625000000000000       0.62500000000000000        0.0000000000000000     
  0.68750000000000000       0.62500000000000000        0.0000000000000000     
  0.71875000000000000       0.62500000000000000        0.0000000000000000     
  0.75000000000000000       0.62500000000000000        0.0000000000000000     
  0.75000000000000000       0.50000000000000000        0.0000000000000000     
  0.78125000000000000       0.50000000000000000        0.0000000000000000     
  0.81250000000000000       0.50000000000000000        0.0000000000000000     
  0.84375000000000000       0.50000000000000000        0.0000000000000000     
  0.87500000000000000       0.50000000000000000        0.0000000000000000     
  0.75000000000000000       0.53125000000000000        0.0000000000000000     
  0.78125000000000000       0.53125000000000000        0.0000000000000000     
  0.81250000000000000       0.53125000000000000        0.0000000000000000     
  0.84375000000000000       0.53125000000000000        0.0000000000000000     
  0.87500000000000000       0.53125000000000000        0.0000000000000000     
  0.75000000000000000       0.56250000000000000        0.0000000000000000     
  0.78125000000000000       0.56250000000000000        0.0000000000000000     
  0.81250000000000000       0.56250000000000000        0.0000000000000000     
  0.84375000000000000       0.56250000000000000        0.0000000000000000     
  0.87500000000000000       0.56250000000000000        0.0000000000000000     
  0.75000000000000000       0.59375000000000000        0.0000000000000000     
  0.78125000000000000       0.59375000000000000        0.0000000000000000     
  0.81250000000000000       0.59375000000000000        0.0000000000000000     
  0.84375000000000000       0.59375000000000000        0.0000000000000000     
  0.87500000000000000       0.59375000000000000        0.0000000000000000     
  0.75000000000000000       0.62500000000000000        0.0000000000000000     
  0.78125000000000000       0.62500000000000000        0.0000000000000000     
  0.81250000000000000       0.62500000000000000        0.0000000000000000     
  0.84375000000000000       0.62500000000000000        0.0000000000000000     
  0.87500000000000000       0.62500000000000000        0.0000000000000000     
  0.87500000000000000       0.50000000000000000        0.0000000000000000     
  0.90625000000000000       0.50000000000000000        0.0000000000000000     
  0.93750000000000000       0.50000000000000000        0.0000000000000000     
  0.96875000000000000       0.50000000000000000        0.0000000000000000     
   1.0000000000000000       0.50000000000000000        0.0000000000000000     
  0.87500000000000000       0.53125000000000000        0.0000000000000000     
  0.90625000000000000       0.53125000000000000        0.0000000000000000     
  0.93750000000000000       0.53125000000000000        0.0000000000000000     
  0.96875000000000000       0.53125000000000000        0.0000000000000000     
   1.0000000000000000       0.53125000000000000        0.0000000000000000     
  0.87500000000000000       0.56250000000000000        0.0000000000000000     
  0.90625000000000000       0.56250000000000000        0.0000000000000000     
  0.93750000000000000       0.56250000000000000        0.0000000000000000     
  0.96875000000000000       0.56250000000000000        0.0000000000000000     
   1.0000000000000000       0.56250000000000000        0.0000000000000000     
  0.87500000000000000       0.59375000000000000        0.0000000000000000     
  0.90625000000000000       0.59375000000000000        0.0000000000000000     
  0.93750000000000000       0.59375000000000000        0.0000000000000000     
  0.96875000000000000       0.59375000000000000        0.0000000000000000     
   1.0000000000000000       0.59375000000000000        0.0000000000000000     
  0.87500000000000000       0.62500000000000000        0.0000000000000000     
  0.90625000000000000       0.62500000000000000        0.0000000000000000     
  0.93750000000000000       0.62500000000000000        0.0000000000000000     
  0.96875000000000000       0.62500000000000000        0.0000000000000000     
   1.0000000000000000       0.62500000000000000        0.0000000000000000     
   1.0000000000000000       0.50000000000000000        0.0000000000000000     
   1.0312500000000000       0.50000000000000000        0.0000000000000000     
   1.0625000000000000       0.50000000000000000        0.0000000000000000     
   1.0937500000000000       0.50000000000000000        0.0000000000000000     
   1.1250000000000000       0.50000000000000000        0.0000000000000000     
   1.0000000000000000       0.53125000000000000        0.0000000000000000     
   1.0312500000000000       0.53125000000000000        0.0000000000000000     
   1.0625000000000000       0.53125000000000000        0.0000000000000000     
   1.0937500000000000       0.53125000000000000        0.0000000000000000     
   1.1250000000000000       0.53125000000000000        0.0000000000000000     
   1.0000000000000000       0.56250000000000000        0.0000000000000000     
   1.0312500000000000       0.56250000000000000        0.0000000000000000     
   1.0625000000000000       0.56250000000000000        0.0000000000000000     
   1.0937500000000000       0.56250000000000000        0.0000000000000000     
   1.1250000000000000       0.56250000000000000        0.0000000000000000     
   1.0000000000000000       0.59375000000000000        0.0000000000000000     
   1.0312500000000000       0.59375000000000000        0.0000000000000000     
   1.0625000000000000       0.59375000000000000        0.0000000000000000     
   1.0937500000000000       0.59375000000000000        0.0000000000000000     
   1.1250000000000000       0.59375000000000000        0.0000000000000000     
   1.0000000000000000       0.62500000000000000        0.0000000000000000     
   1.0312500000000000       0.62500000000000000        0.0000000000000000     
   1.0625000000000000       0.62500000000000000        0.0000000000000000     
   1.0937500000000000       0.62500000000000000        0.0000000000000000     
   1.1250000000000000       0.62500000000000000        0.0000000000000000     
   1.1250000000000000       0.50000000000000000        0.0000000000000000     
   1.1562500000000000       0.50000000000000000        0.0000000000000000     
   1.1875000000000000       0.50000000000000000        0.0000000000000000     
   1.2187500000000000       0.50000000000000000        0.0000000000000000     
   1.2500000000000000       0.50000000000000000        0.0000000000000000     
   1.1250000000000000       0.53125000000000000        0.0000000000000000     
   1.1562500000000000       0.53125000000000000        0.0000000000000000     
   1.1875000000000000       0.53125000000000000        0.0000000000000000     
   1.2187500000000000       0.53125000000000000        0.0000000000000000     
   1.2500000000000000       0.53125000000000000        0.0000000000000000     
   1.1250000000000000       0.56250000000000000        0.0000000000000000     
   1.1562500000000000       0.56250000000000000        0.0000000000000000     
   1.1875000000000000       0.56250000000000000        0.0000000000000000     
   1.2187500000000000       0.56250000000000000        0.0000000000000000     
   1.2500000000000000       0.56250000000000000        0.0000000000000000     
   1.1250000000000000       0.59375000000000000        0.0000000000000000     
   1.1562500000000000       0.59375000000000000        0.0000000000000000     
   1.1875000000000000       0.59375000000000000        0.0000000000000000     
   1.2187500000000000       0.59375000000000000        0.0000000000000000     
   1.2500000000000000       0.59375000000000000        0.0000000000000000     
   1.1250000000000000       0.62500000000000000        0.0000000000000000     
   1.1562500000000000       0.62500000000000000        0.0000000000000000     
   1.1875000000000000       0.62500000000000000        0.0000000000000000     
   1.2187500000000000       0.62500000000000000        0.0000000000000000     
   1.2500000000000000       0.62500000000000000        0.0000000000000000     
   1.2500000000000000       0.50000000000000000        0.0000000000000000     
   1.2812500000000000       0.50000000000000000        0.0000000000000000     
   1.3125000000000000       0.50000000000000000        0.0000000000000000     
   1.3437500000000000       0.50000000000000000        0.0000000000000000     
   1.3750000000000000       0.50000000000000000        0.0000000000000000     
   1.2500000000000000       0.53125000000000000        0.0000000000000000     
   1.2812500000000000       0.53125000000000000        0.0000000000000000     
   1.3125000000000000       0.53125000000000000        0.0000000000000000     
   1.3437500000000000       0.53125000000000000        0.0000000000000000     
   1.3750000000000000       0.53125000000000000        0.0000000000000000     
   1.2500000000000000       0.56250000000000000        0.0000000000000000     
   1.2812500000000000       0.56250000000000000        0.0000000000000000     
   1.3125000000000000       0.56250000000000000        0.0000000000000000     
   1.3437500000000000       0.56250000000000000        0.0000000000000000     
   1.3750000000000000       0.56250000000000000        0.0000000000000000     
   1.2500000000000000       0.59375000000000000        0.0000000000000000     
   1.2812500000000000       0.59375000000000000        0.0000000000000000     
   1.3125000000000000       0.59375000000000000        0.0000000000000000     
   1.3437500000000000       0.59375000000000000        0.0000000000000000     
   1.3750000000000000       0.59375000000000000        0.0000000000000000     
   1.2500000000000000       0.62500000000000000        0.0000000000000000     
   1.2812500000000000       0.62500000000000000        0.0000000000000000     
   1.3125000000000000       0.62500000000000000        0.0000000000000000     
   1.3437500000000000       0.62500000000000000        0.0000000000000000     
   1.3750000000000000       0.62500000000000000        0.0000000000000000     
   1.3750000000000000       0.50000000000000000        0.0000000000000000     
   1.4062500000000000       0.50000000000000000        0.0000000000000000     
   1.4375000000000000       0.50000000000000000        0.0000000000000000     
   1.4687500000000000       0.50000000000000000        0.0000000000000000     
   1.5000000000000000       0.50000000000000000        0.0000000000000000     
   1.3750000000000000       0.53125000000000000        0.0000000000000000     
   1.4062500000000000       0.53125000000000000        0.0000000000000000     
   1.4375000000000000       0.53125000000000000        0.0000000000000000     
   1.4687500000000000       0.53125000000000000        0.0000000000000000     
   1.5000000000000000       0.53125000000000000        0.0000000000000000     
   1.3750000000000000       0.56250000000000000        0.0000000000000000     
   1.4062500000000000       0.56250000000000000        0.0000000000000000     
   1.4375000000000000       0.56250000000000000        0.0000000000000000     
   1.4687500000000000       0.56250000000000000        0.0000000000000000     
   1.5000000000000000       0.56250000000000000        0.0000000000000000     
   1.3750000000000000       0.59375000000000000        0.0000000000000000     
   1.4062500000000000       0.59375000000000000        0.0000000000000000     
   1.4375000000000000       0.59375000000000000        0.0000000000000000     
   1.4687500000000000       0.59375000000000000        0.0000000000000000     
   1.5000000000000000       0.59375000000000000        0.0000000000000000     
   1.3750000000000000       0.62500000000000000        0.0000000000000000     
   1.4062500000000000       0.62500000000000000        0.0000000000000000     
   1.4375000000000000       0.62500000000000000        0.0000000000000000     
   1.4687500000000000       0.62500000000000000        0.0000000000000000     
   1.5000000000000000       0.62500000000000000        0.0000000000000000     
  0.50000000000000000       0.62500000000000000        0.0000000000000000     
  0.53125000000000000       0.62500000000000000        0.0000000000000000     
  0.56250000000000000       0.62500000000000000        0.0000000000000000     
  0.59375000000000000       0.62500000000000000        0.0000000000000000     
  0.62500000000000000       0.62500000000000000        0.0000000000000000     
  0.50000000000000000       0.65625000000000000        0.0000000000000000     
  0.53125000000000000       0.65625000000000000        0.0000000000000000     
  0.56250000000000000       0.65625000000000000        0.0000000000000000     
  0.59375000000000000       0.65625000000000000        0.0000000000000000     
  0.62500000000000000       0.65625000000000000        0.0000000000000000     
  0.50000000000000000       0.68750000000000000        0.0000000000000000     
  0.53125000000000000       0.68750000000000000        0.0000000000000000     
  0.56250000000000000       0.68750000000000000        0.0000000000000000     
  0.59375000000000000       0.68750000000000000        0.0000000000000000     
  0.62500000000000000       0.68750000000000000        0.0000000000000000     
  0.50000000000000000       0.71875000000000000        0.0000000000000000     
  0.53125000000000000       0.71875000000000000        0.0000000000000000     
  0.56250000000000000       0.71875000000000000        0.0000000000000000     
  0.59375000000000000       0.71875000000000000        0.0000000000000000     
  0.62500000000000000       0.71875000000000000        0.0000000000000000     
  0.50000000000000000       0.75000000000000000        0.0000000000000000     
  0.53125000000000000       0.75000000000000000        0.0000000000000000     
  0.56250000000000000       0.75000000000000000        0.0000000000000000     
  0.59375000000000000       0.75000000000000000        0.0000000000000000     
  0.62500000000000000       0.75000000000000000        0.0000000000000000     
  0.62500000000000000       0.62500000000000000        0.0000000000000000     
  0.65625000000000000       0.62500000000000000        0.0000000000000000     
  0.68750000000000000       0.62500000000000000        0.0000000000000000     
  0.71875000000000000       0.62500000000000000        0.0000000000000000     
  0.75000000000000000       0.62500000000000000        0.0000000000000000     
  0.62500000000000000       0.65625000000000000        0.0000000000000000     
  0.65625000000000000       0.65625000000000000        0.0000000000000000     
  0.68750000000000000       0.65625000000000000        0.0000000000000000     
  0.71875000000000000       0.65625000000000000        0.0000000000000000     
  0.75000000000000000       0.65625000000000000        0.0000000000000000     
  0.62500000000000000       0.68750000000000000        0.0000000000000000     
  0.65625000000000000       0.68750000000000000        0.0000000000000000     
  0.68750000000000000       0.68750000000000000        0.0000000000000000     
  0.71875000000000000       0.68750000000000000        0.0000000000000000     
  0.75000000000000000       0.68750000000000000        0.0000000000000000     
  0.62500000000000000       0.71875000000000000        0.0000000000000000     
  0.65625000000000000       0.71875000000000000        0.0000000000000000     
  0.68750000000000000       0.71875000000000000        0.0000000000000000     
  0.71875000000000000       0.71875000000000000        0.0000000000000000     
  0.75000000000000000       0.71875000000000000        0.0000000000000000     
  0.62500000000000000       0.75000000000000000        0.0000000000000000     
  0.65625000000000000       0.75000000000000000        0.0000000000000000     
  0.68750000000000000       0.75000000000000000        0.0000000000000000     
  0.71875000000000000       0.75000000000000000        0.0000000000000000     
  0.75000000000000000       0.75000000000000000        0.0000000000000000     
  0.75000000000000000       0.62500000000000000        0.0000000000000000     
  0.78125000000000000       0.62500000000000000        0.0000000000000000     
  0.81250000000000000       0.62500000000000000        0.0000000000000000     
  0.84375000000000000       0.62500000000000000        0.0000000000000000     
  0.87500000000000000       0.62500000000000000        0.0000000000000000     
  0.75000000000000000       0.65625000000000000        0.0000000000000000     
  0.78125000000000000       0.65625000000000000        0.0000000000000000     
  0.81250000000000000       0.65625000000000000        0.0000000000000000     
  0.84375000000000000       0.65625000000000000        0.0000000000000000     
  0.87500000000000000       0.65625000000000000        0.0000000000000000     
  0.75000000000000000       0.68750000000000000        0.0000000000000000     
  0.78125000000000000       0.68750000000000000        0.0000000000000000     
  0.81250000000000000       0.68750000000000000        0.0000000000000000     
  0.84375000000000000       0.68750000000000000        0.0000000000000000     
  0.87500000000000000       0.68750000000000000        0.0000000000000000     
  0.75000000000000000       0.71875000000000000        0.0000000000000000     
  0.78125000000000000       0.71875000000000000        0.0000000000000000     
  0.81250000000000000       0.71875000000000000        0.0000000000000000     
  0.84375000000000000       0.71875000000000000        0.0000000000000000     
  0.87500000000000000       0.71875000000000000        0.0000000000000000     
  0.75000000000000000       0.75000000000000000        0.0000000000000000     
  0.78125000000000000       0.75000000000000000        0.0000000000000000     
  0.81250000000000000       0.75000000000000000        0.0000000000000000     
  0.84375000000000000       0.75000000000000000        0.0000000000000000     
  0.87500000000000000       0.75000000000000000        0.0000000000000000     
  0.87500000000000000       0.62500000000000000        0.0000000000000000     
  0.90625000000000000       0.62500000000000000        0.0000000000000000     
  0.93750000000000000       0.62500000000000000        0.0000000000000000     
  0.96875000000000000       0.62500000000000000        0.0000000000000000     
   1.0000000000000000       0.62500000000000000        0.0000000000000000     
  0.87500000000000000       0.65625000000000000        0.0000000000000000     
  0.90625000000000000       0.65625000000000000        0.0000000000000000     
  0.93750000000000000       0.65625000000000000        0.0000000000000000     
  0.96875000000000000       0.65625000000000000        0.0000000000000000     
   1.0000000000000000       0.65625000000000000        0.0000000000000000     
  0.87500000000000000       0.68750000000000000        0.0000000000000000     
  0.90625000000000000       0.68750000000000000        0.0000000000000000     
  0.93750000000000000       0.68750000000000000        0.0000000000000000     
  0.96875000000000000       0.68750000000000000        0.0000000000000000     
   1.0000000000000000       0.68750000000000000        0.0000000000000000     
  0.87500000000000000       0.71875000000000000        0.0000000000000000     
  0.90625000000000000       0.71875000000000000        0.0000000000000000     
  0.93750000000000000       0.71875000000000000        0.0000000000000000     
  0.96875000000000000       0.71875000000000000        0.0000000000000000     
   1.0000000000000000       0.71875000000000000        0.0000000000000000     
  0.87500000000000000       0.75000000000000000        0.0000000000000000     
  0.90625000000000000       0.75000000000000000        0.0000000000000000     
  0.93750000000000000       0.75000000000000000        0.0000000000000000     
  0.96875000000000000       0.75000000000000000        0.0000000000000000     
   1.0000000000000000       0.75000000000000000        0.0000000000000000     
   1.0000000000000000       0.62500000000000000        0.0000000000000000     
   1.0312500000000000       0.62500000000000000        0.0000000000000000     
   1.0625000000000000       0.62500000000000000        0.0000000000000000     
   1.0937500000000000       0.62500000000000000        0.0000000000000000     
   1.1250000000000000       0.62500000000000000        0.0000000000000000     
   1.0000000000000000       0.65625000000000000        0.0000000000000000     
   1.0312500000000000       0.65625000000000000        0.0000000000000000     
   1.0625000000000000       0.65625000000000000        0.0000000000000000     
   1.0937500000000000       0.65625000000000000        0.0000000000000000     
   1.1250000000000000       0.65625000000000000        0.0000000000000000     
   1.0000000000000000       0.68750000000000000        0.0000000000000000     
   1.0312500000000000       0.68750000000000000        0.0000000000000000     
   1.0625000000000000       0.68750000000000000        0.0000000000000000     
   1.0937500000000000       0.68750000000000000        0.0000000000000000     
   1.1250000000000000       0.68750000000000000        0.0000000000000000     
   1.0000000000000000       0.71875000000000000        0.0000000000000000     
   1.0312500000000000       0.71875000000000000        0.0000000000000000     
   1.0625000000000000       0.71875000000000000        0.0000000000000000     
   1.0937500000000000       0.71875000000000000        0.0000000000000000     
   1.1250000000000000       0.71875000000000000        0.0000000000000000     
   1.0000000000000000       0.75000000000000000        0.0000000000000000     
   1.0312500000000000       0.75000000000000000        0.0000000000000000     
   1.0625000000000000       0.75000000000000000        0.0000000000000000     
   1.0937500000000000       0.75000000000000000        0.0000000000000000     
   1.1250000000000000       0.75000000000000000        0.0000000000000000     
   1.1250000000000000       0.62500000000000000        0.0000000000000000     
   1.1562500000000000       0.62500000000000000        0.0000000000000000     
   1.1875000000000000       0.62500000000000000        0.0000000000000000     
   1.2187500000000000       0.62500000000000000        0.0000000000000000     
   1.2500000000000000       0.62500000000000000        0.0000000000000000     
   1.1250000000000000       0.65625000000000000        0.0000000000000000     
   1.1562500000000000       0.65625000000000000        0.0000000000000000     
   1.1875000000000000       0.65625000000000000        0.0000000000000000     
   1.2187500000000000       0.65625000000000000        0.0000000000000000     
   1.2500000000000000       0.65625000000000000        0.0000000000000000     
   1.1250000000000000       0.68750000000000000        0.0000000000000000     
   1.1562500000000000       0.68750000000000000        0.0000000000000000     
   1.1875000000000000       0.68750000000000000        0.0000000000000000     
   1.2187500000000000       0.68750000000000000        0.0000000000000000     
   1.2500000000000000       0.68750000000000000        0.0000000000000000     
   1.1250000000000000       0.71875000000000000        0.0000000000000000     
   1.1562500000000000       0.71875000000000000        0.0000000000000000     
   1.1875000000000000       0.71875000000000000        0.0000000000000000     
   1.2187500000000000       0.71875000000000000        0.0000000000000000     
   1.2500000000000000       0.71875000000000000        0.0000000000000000     
   1.1250000000000000       0.75000000000000000        0.0000000000000000     
   1.1562500000000000       0.75000000000000000        0.0000000000000000     
   1.1875000000000000       0.75000000000000000        0.0000000000000000     
   1.2187500000000000       0.75000000000000000        0.0000000000000000     
   1.2500000000000000       0.75000000000000000        0.0000000000000000     
   1.2500000000000000       0.62500000000000000        0.0000000000000000     
   1.2812500000000000       0.62500000000000000        0.0000000000000000     
   1.3125000000000000       0.62500000000000000        0.0000000000000000     
   1.3437500000000000       0.62500000000000000        0.0000000000000000     
   1.3750000000000000       0.62500000000000000        0.0000000000000000     
   1.2500000000000000       0.65625000000000000        0.0000000000000000     
   1.2812500000000000       0.65625000000000000        0.0000000000000000     
   1.3125000000000000       0.65625000000000000        0.0000000000000000     
   1.3437500000000000       0.65625000000000000        0.0000000000000000     
   1.3750000000000000       0.65625000000000000        0.0000000000000000     
   1.2500000000000000       0.68750000000000000        0.0000000000000000     
   1.2812500000000000       0.68750000000000000        0.0000000000000000     
   1.3125000000000000       0.68750000000000000        0.0000000000000000     
   1.3437500000000000       0.68750000000000000        0.0000000000000000     
   1.3750000000000000       0.68750000000000000        0.0000000000000000     
   1.2500000000000000       0.71875000000000000        0.0000000000000000     
   1.2812500000000000       0.71875000000000000        0.0000000000000000     
   1.3125000000000000       0.71875000000000000        0.0000000000000000     
   1.3437500000000000       0.71875000000000000        0.0000000000000000     
   1.3750000000000000       0.71875000000000000        0.0000000000000000     
   1.2500000000000000       0.75000000000000000        0.0000000000000000     
   1.2812500000000000       0.75000000000000000        0.0000000000000000     
   1.3125000000000000       0.75000000000000000        0.0000000000000000     
   1.3437500000000000       0.75000000000000000        0.0000000000000000     
   1.3750000000000000       0.75000000000000000        0.0000000000000000     
   1.3750000000000000       0.62500000000000000        0.0000000000000000     
   1.4062500000000000       0.62500000000000000        0.0000000000000000     
   1.4375000000000000       0.62500000000000000        0.0000000000000000     
   1.4687500000000000       0.62500000000000000        0.0000000000000000     
   1.5000000000000000       0.62500000000000000        0.0000000000000000     
   1.3750000000000000       0.65625000000000000        0.0000000000000000     
   1.4062500000000000       0.65625000000000000        0.0000000000000000     
   1.4375000000000000       0.65625000000000000        0.0000000000000000     
   1.4687500000000000       0.65625000000000000        0.0000000000000000     
   1.5000000000000000       0.65625000000000000        0.0000000000000000     
   1.3750000000000000       0.68750000000000000        0.0000000000000000     
   1.4062500000000000       0.68750000000000000        0.0000000000000000     
   1.4375000000000000       0.68750000000000000        0.0000000000000000     
   1.4687500000000000       0.68750000000000000        0.0000000000000000     
   1.5000000000000000       0.68750000000000000        0.0000000000000000     
   1.3750000000000000       0.71875000000000000        0.0000000000000000     
   1.4062500000000000       0.71875000000000000        0.0000000000000000     
   1.4375000000000000       0.71875000000000000        0.0000000000000000     
   1.4687500000000000       0.71875000000000000        0.0000000000000000     
   1.5000000000000000       0.71875000000000000        0.0000000000000000     
   1.3750000000000000       0.75000000000000000        0.0000000000000000     
   1.4062500000000000       0.75000000000000000        0.0000000000000000     
   1.4375000000000000       0.75000000000000000        0.0000000000000000     
   1.4687500000000000       0.75000000000000000        0.0000000000000000     
   1.5000000000000000       0.75000000000000000        0.0000000000000000     
  0.50000000000000000       0.75000000000000000        0.0000000000000000     
  0.53125000000000000       0.75000000000000000        0.0000000000000000     
  0.56250000000000000       0.75000000000000000        0.0000000000000000     
  0.59375000000000000       0.75000000000000000        0.0000000000000000     
  0.62500000000000000       0.75000000000000000        0.0000000000000000     
  0.50000000000000000       0.78125000000000000        0.0000000000000000     
  0.53125000000000000       0.78125000000000000        0.0000000000000000     
  0.56250000000000000       0.78125000000000000        0.0000000000000000     
  0.59375000000000000       0.78125000000000000        0.0000000000000000     
  0.62500000000000000       0.78125000000000000        0.0000000000000000     
  0.50000000000000000       0.81250000000000000        0.0000000000000000     
  0.53125000000000000       0.81250000000000000        0.0000000000000000     
  0.56250000000000000       0.81250000000000000        0.0000000000000000     
  0.59375000000000000       0.81250000000000000        0.0000000000000000     
  0.62500000000000000       0.81250000000000000        0.0000000000000000     
  0.50000000000000000       0.84375000000000000        0.0000000000000000     
  0.53125000000000000       0.84375000000000000        0.0000000000000000     
  0.56250000000000000       0.84375000000000000        0.0000000000000000     
  0.59375000000000000       0.84375000000000000        0.0000000000000000     
  0.62500000000000000       0.84375000000000000        0.0000000000000000     
  0.50000000000000000       0.87500000000000000        0.0000000000000000     
  0.53125000000000000       0.87500000000000000        0.0000000000000000     
  0.56250000000000000       0.87500000000000000        0.0000000000000000     
  0.59375000000000000       0.87500000000000000        0.0000000000000000     
  0.62500000000000000       0.87500000000000000        0.0000000000000000     
  0.62500000000000000       0.75000000000000000        0.0000000000000000     
  0.65625000000000000       0.75000000000000000        0.0000000000000000     
  0.68750000000000000       0.75000000000000000        0.0000000000000000     
  0.71875000000000000       0.75000000000000000        0.0000000000000000     
  0.75000000000000000       0.75000000000000000        0.0000000000000000     
  0.62500000000000000       0.78125000000000000        0.0000000000000000     
  0.65625000000000000       0.78125000000000000        0.0000000000000000     
  0.68750000000000000       0.78125000000000000        0.0000000000000000     
  0.71875000000000000       0.78125000000000000        0.0000000000000000     
  0.75000000000000000       0.78125000000000000        0.0000000000000000     
  0.62500000000000000       0.81250000000000000        0.0000000000000000     
  0.65625000000000000       0.81250000000000000        0.0000000000000000     
  0.68750000000000000       0.81250000000000000        0.0000000000000000     
  0.71875000000000000       0.81250000000000000        0.0000000000000000     
  0.75000000000000000       0.81250000000000000        0.0000000000000000     
  0.62500000000000000       0.84375000000000000        0.0000000000000000     
  0.65625000000000000       0.84375000000000000        0.0000000000000000     
  0.68750000000000000       0.84375000000000000        0.0000000000000000     
  0.71875000000000000       0.84375000000000000        0.0000000000000000     
  0.75000000000000000       0.84375000000000000        0.0000000000000000     
  0.62500000000000000       0.87500000000000000        0.0000000000000000     
  0.65625000000000000       0.87500000000000000        0.0000000000000000     
  0.68750000000000000       0.87500000000000000        0.0000000000000000     
  0.71875000000000000       0.87500000000000000        0.0000000000000000     
  0.75000000000000000       0.87500000000000000        0.0000000000000000     
  0.75000000000000000       0.75000000000000000        0.0000000000000000     
  0.78125000000000000       0.75000000000000000        0.0000000000000000     
  0.81250000000000000       0.75000000000000000        0.0000000000000000     
  0.84375000000000000       0.75000000000000000        0.0000000000000000     
  0.87500000000000000       0.75000000000000000        0.0000000000000000     
  0.75000000000000000       0.78125000000000000        0.0000000000000000     
  0.78125000000000000       0.78125000000000000        0.0000000000000000     
  0.81250000000000000       0.78125000000000000        0.0000000000000000     
  0.84375000000000000       0.78125000000000000        0.0000000000000000     
  0.87500000000000000       0.78125000000000000        0.0000000000000000     
  0.75000000000000000       0.81250000000000000        0.0000000000000000     
  0.78125000000000000       0.81250000000000000        0.0000000000000000     
  0.81250000000000000       0.81250000000000000        0.0000000000000000     
  0.84375000000000000       0.81250000000000000        0.0000000000000000     
  0.87500000000000000       0.81250000000000000        0.0000000000000000     
  0.75000000000000000       0.84375000000000000        0.0000000000000000     
  0.78125000000000000       0.84375000000000000        0.0000000000000000     
  0.81250000000000000       0.84375000000000000        0.0000000000000000     
  0.84375000000000000       0.84375000000000000        0.0000000000000000     
  0.87500000000000000       0.84375000000000000        0.0000000000000000     
  0.75000000000000000       0.87500000000000000        0.0000000000000000     
  0.78125000000000000       0.87500000000000000        0.0000000000000000     
  0.81250000000000000       0.87500000000000000        0.0000000000000000     
  0.84375000000000000       0.87500000000000000        0.0000000000000000     
  0.87500000000000000       0.87500000000000000        0.0000000000000000     
  0.87500000000000000       0.75000000000000000        0.0000000000000000     
  0.90625000000000000       0.75000000000000000        0.0000000000000000     
  0.93750000000000000       0.75000000000000000        0.0000000000000000     
  0.96875000000000000       0.75000000000000000        0.0000000000000000     
   1.0000000000000000       0.75000000000000000        0.0000000000000000     
  0.87500000000000000       0.78125000000000000        0.0000000000000000     
  0.90625000000000000       0.78125000000000000        0.0000000000000000     
  0.93750000000000000       0.78125000000000000        0.0000000000000000     
  0.96875000000000000       0.78125000000000000        0.0000000000000000     
   1.0000000000000000       0.78125000000000000        0.0000000000000000     
  0.87500000000000000       0.81250000000000000        0.0000000000000000     
  0.90625000000000000       0.81250000000000000        0.0000000000000000     
  0.93750000000000000       0.81250000000000000        0.0000000000000000     
  0.96875000000000000       0.81250000000000000        0.0000000000000000     
   1.0000000000000000       0.81250000000000000        0.0000000000000000     
  0.87500000000000000       0.84375000000000000        0.0000000000000000     
  0.90625000000000000       0.84375000000000000        0.0000000000000000     
  0.93750000000000000       0.84375000000000000        0.0000000000000000     
  0.96875000000000000       0.84375000000000000        0.0000000000000000     
   1.0000000000000000       0.84375000000000000        0.0000000000000000     
  0.87500000000000000       0.87500000000000000        0.0000000000000000     
  0.90625000000000000       0.87500000000000000        0.0000000000000000     
  0.93750000000000000       0.87500000000000000        0.0000000000000000     
  0.96875000000000000       0.87500000000000000        0.0000000000000000     
   1.0000000000000000       0.87500000000000000        0.0000000000000000     
   1.0000000000000000       0.75000000000000000        0.0000000000000000     
   1.0312500000000000       0.75000000000000000        0.0000000000000000     
   1.0625000000000000       0.75000000000000000        0.0000000000000000     
   1.0937500000000000       0.75000000000000000        0.0000000000000000     
   1.1250000000000000       0.75000000000000000        0.0000000000000000     
   1.0000000000000000       0.78125000000000000        0.0000000000000000     
   1.0312500000000000       0.78125000000000000        0.0000000000000000     
   1.0625000000000000       0.78125000000000000        0.0000000000000000     
   1.0937500000000000       0.78125000000000000        0.0000000000000000     
   1.1250000000000000       0.78125000000000000        0.0000000000000000     
   1.0000000000000000       0.81250000000000000        0.0000000000000000     
   1.0312500000000000       0.81250000000000000        0.0000000000000000     
   1.0625000000000000       0.81250000000000000        0.0000000000000000     
   1.0937500000000000       0.81250000000000000        0.0000000000000000     
   1.1250000000000000       0.81250000000000000        0.0000000000000000     
   1.0000000000000000       0.84375000000000000        0.0000000000000000     
   1.0312500000000000       0.84375000000000000        0.0000000000000000     
   1.0625000000000000       0.84375000000000000        0.0000000000000000     
   1.0937500000000000       0.84375000000000000        0.0000000000000000     
   1.1250000000000000       0.84375000000000000        0.0000000000000000     
   1.0000000000000000       0.87500000000000000        0.0000000000000000     
   1.0312500000000000       0.87500000000000000        0.0000000000000000     
   1.0625000000000000       0.87500000000000000        0.0000000000000000     
   1.0937500000000000       0.87500000000000000        0.0000000000000000     
   1.1250000000000000       0.87500000000000000        0.0000000000000000     
   1.1250000000000000       0.75000000000000000        0.0000000000000000     
   1.1562500000000000       0.75000000000000000        0.0000000000000000     
   1.1875000000000000       0.75000000000000000        0.0000000000000000     
   1.2187500000000000       0.75000000000000000        0.0000000000000000     
   1.2500000000000000       0.75000000000000000        0.0000000000000000     
   1.1250000000000000       0.78125000000000000        0.0000000000000000     
   1.1562500000000000       0.78125000000000000        0.0000000000000000     
   1.1875000000000000       0.78125000000000000        0.0000000000000000     
   1.2187500000000000       0.78125000000000000        0.0000000000000000     
   1.2500000000000000       0.78125000000000000        0.0000000000000000     
   1.1250000000000000       0.81250000000000000        0.0000000000000000     
   1.1562500000000000       0.81250000000000000        0.0000000000000000     
   1.1875000000000000       0.81250000000000000        0.0000000000000000     
   1.2187500000000000       0.81250000000000000        0.0000000000000000     
   1.2500000000000000       0.81250000000000000        0.0000000000000000     
   1.1250000000000000       0.84375000000000000        0.0000000000000000     
   1.1562500000000000       0.84375000000000000        0.0000000000000000     
   1.1875000000000000       0.84375000000000000        0.0000000000000000     
   1.2187500000000000       0.84375000000000000        0.0000000000000000     
   1.2500000000000000       0.84375000000000000        0.0000000000000000     
   1.1250000000000000       0.87500000000000000        0.0000000000000000     
   1.1562500000000000       0.87500000000000000        0.0000000000000000     
   1.1875000000000000       0.87500000000000000        0.0000000000000000     
   1.2187500000000000       0.87500000000000000        0.0000000000000000     
   1.2500000000000000       0.87500000000000000        0.0000000000000000     
   1.2500000000000000       0.75000000000000000        0.0000000000000000     
   1.2812500000000000       0.75000000000000000        0.0000000000000000     
   1.3125000000000000       0.75000000000000000        0.0000000000000000     
   1.3437500000000000       0.75000000000000000        0.0000000000000000     
   1.3750000000000000       0.75000000000000000        0.0000000000000000     
   1.2500000000000000       0.78125000000000000        0.0000000000000000     
   1.2812500000000000       0.78125000000000000        0.0000000000000000     
   1.3125000000000000       0.78125000000000000        0.0000000000000000     
   1.3437500000000000       0.78125000000000000        0.0000000000000000     
   1.3750000000000000       0.78125000000000000        0.0000000000000000     
   1.2500000000000000       0.81250000000000000        0.0000000000000000     
   1.2812500000000000       0.81250000000000000        0.0000000000000000     
   1.3125000000000000       0.81250000000000000        0.0000000000000000     
   1.3437500000000000       0.81250000000000000        0.0000000000000000     
   1.3750000000000000       0.81250000000000000        0.0000000000000000     
   1.2500000000000000       0.84375000000000000        0.0000000000000000     
   1.2812500000000000       0.84375000000000000        0.0000000000000000     
   1.3125000000000000       0.84375000000000000        0.0000000000000000     
   1.3437500000000000       0.84375000000000000        0.0000000000000000     
   1.3750000000000000       0.84375000000000000        0.0000000000000000     
   1.2500000000000000       0.87500000000000000        0.0000000000000000     
   1.2812500000000000       0.87500000000000000        0.0000000000000000     
   1.3125000000000000       0.87500000000000000        0.0000000000000000     
   1.3437500000000000       0.87500000000000000        0.0000000000000000     
   1.3750000000000000       0.87500000000000000        0.0000000000000000     
   1.3750000000000000       0.75000000000000000        0.0000000000000000     
   1.4062500000000000       0.75000000000000000        0.0000000000000000     
   1.4375000000000000       0.75000000000000000        0.0000000000000000     
   1.4687500000000000       0.75000000000000000        0.0000000000000000     
   1.5000000000000000       0.75000000000000000        0.0000000000000000     
   1.3750000000000000       0.78125000000000000        0.0000000000000000     
   1.4062500000000000       0.78125000000000000        0.0000000000000000     
   1.4375000000000000       0.78125000000000000        0.0000000000000000     
   1.4687500000000000       0.78125000000000000        0.0000000000000000     
   1.5000000000000000       0.78125000000000000        0.0000000000000000     
   1.3750000000000000       0.81250000000000000        0.0000000000000000     
   1.4062500000000000       0.81250000000000000        0.0000000000000000     
   1.4375000000000000       0.81250000000000000        0.0000000000000000     
   1.4687500000000000       0.81250000000000000        0.0000000000000000     
   1.5000000000000000       0.81250000000000000        0.0000000000000000     
   1.3750000000000000       0.84375000000000000        0.0000000000000000     
   1.4062500000000000       0.84375000000000000        0.0000000000000000     
   1.4375000000000000       0.84375000000000000        0.0000000000000000     
   1.4687500000000000       0.84375000000000000        0.0000000000000000     
   1.5000000000000000       0.84375000000000000        0.0000000000000000     
   1.3750000000000000       0.87500000000000000        0.0000000000000000     
   1.4062500000000000       0.87500000000000000        0.0000000000000000     
   1.4375000000000000       0.87500000000000000        0.0000000000000000     
   1.4687500000000000       0.87500000000000000        0.0000000000000000     
   1.5000000000000000       0.87500000000000000        0.0000000000000000     
  0.50000000000000000       0.87500000000000000        0.0000000000000000     
  0.53125000000000000       0.87500000000000000        0.0000000000000000     
  0.56250000000000000       0.87500000000000000        0.0000000000000000     
  0.59375000000000000       0.87500000000000000        0.0000000000000000     
  0.62500000000000000       0.87500000000000000        0.0000000000000000     
  0.50000000000000000       0.90625000000000000        0.0000000000000000     
  0.53125000000000000       0.90625000000000000        0.0000000000000000     
  0.56250000000000000       0.90625000000000000        0.0000000000000000     
  0.59375000000000000       0.90625000000000000        0.0000000000000000     
  0.62500000000000000       0.90625000000000000        0.0000000000000000     
  0.50000000000000000       0.93750000000000000        0.0000000000000000     
  0.53125000000000000       0.93750000000000000        0.0000000000000000     
  0.56250000000000000       0.93750000000000000        0.0000000000000000     
  0.59375000000000000       0.93750000000000000        0.0000000000000000     
  0.62500000000000000       0.93750000000000000        0.0000000000000000     
  0.50000000000000000       0.96875000000000000        0.0000000000000000     
  0.53125000000000000       0.96875000000000000        0.0000000000000000     
  0.56250000000000000       0.96875000000000000        0.0000000000000000     
  0.59375000000000000       0.96875000000000000        0.0000000000000000     
  0.62500000000000000       0.96875000000000000        0.0000000000000000     
  0.50000000000000000        1.0000000000000000        0.0000000000000000     
  0.53125000000000000        1.0000000000000000        0.0000000000000000     
  0.56250000000000000        1.0000000000000000        0.0000000000000000     
  0.59375000000000000        1.0000000000000000        0.0000000000000000     
  0.62500000000000000        1.0000000000000000        0.0000000000000000     
  0.62500000000000000       0.87500000000000000        0.0000000000000000     
  0.65625000000000000       0.87500000000000000        0.0000000000000000     
  0.68750000000000000       0.87500000000000000        0.0000000000000000     
  0.71875000000000000       0.87500000000000000        0.0000000000000000     
  0.75000000000000000       0.87500000000000000        0.0000000000000000     
  0.62500000000000000       0.90625000000000000        0.0000000000000000     
  0.65625000000000000       0.90625000000000000        0.0000000000000000     
  0.68750000000000000       0.90625000000000000        0.0000000000000000     
  0.71875000000000000       0.90625000000000000        0.0000000000000000     
  0.75000000000000000       0.90625000000000000        0.0000000000000000     
  0.62500000000000000       0.93750000000000000        0.0000000000000000     
  0.65625000000000000       0.93750000000000000        0.0000000000000000     
  0.68750000000000000       0.93750000000000000        0.0000000000000000     
  0.71875000000000000       0.93750000000000000        0.0000000000000000     
  0.75000000000000000       0.93750000000000000        0.0000000000000000     
  0.62500000000000000       0.96875000000000000        0.0000000000000000     
  0.65625000000000000       0.96875000000000000        0.0000000000000000     
  0.68750000000000000       0.96875000000000000        0.0000000000000000     
  0.71875000000000000       0.96875000000000000        0.0000000000000000     
  0.75000000000000000       0.96875000000000000        0.0000000000000000     
  0.62500000000000000        1.0000000000000000        0.0000000000000000     
  0.65625000000000000        1.0000000000000000        0.0000000000000000     
  0.68750000000000000        1.0000000000000000        0.0000000000000000     
  0.71875000000000000        1.0000000000000000        0.0000000000000000     
  0.75000000000000000        1.0000000000000000        0.0000000000000000     
  0.75000000000000000       0.87500000000000000        0.0000000000000000     
  0.78125000000000000       0.87500000000000000        0.0000000000000000     
  0.81250000000000000       0.87500000000000000        0.0000000000000000     
  0.84375000000000000       0.87500000000000000        0.0000000000000000     
  0.87500000000000000       0.87500000000000000        0.0000000000000000     
  0.75000000000000000       0.90625000000000000        0.0000000000000000     
  0.78125000000000000       0.90625000000000000        0.0000000000000000     
  0.81250000000000000       0.90625000000000000        0.0000000000000000     
  0.84375000000000000       0.90625000000000000        0.0000000000000000     
  0.87500000000000000       0.90625000000000000        0.0000000000000000     
  0.75000000000000000       0.93750000000000000        0.0000000000000000     
  0.78125000000000000       0.93750000000000000        0.0000000000000000     
  0.81250000000000000       0.93750000000000000        0.0000000000000000     
  0.84375000000000000       0.93750000000000000        0.0000000000000000     
  0.87500000000000000       0.93750000000000000        0.0000000000000000     
  0.75000000000000000       0.96875000000000000        0.0000000000000000     
  0.78125000000000000       0.96875000000000000        0.0000000000000000     
  0.81250000000000000       0.96875000000000000        0.0000000000000000     
  0.84375000000000000       0.96875000000000000        0.0000000000000000     
  0.87500000000000000       0.96875000000000000        0.0000000000000000     
  0.75000000000000000        1.0000000000000000        0.0000000000000000     
  0.78125000000000000        1.0000000000000000        0.0000000000000000     
  0.81250000000000000        1.0000000000000000        0.0000000000000000     
  0.84375000000000000        1.0000000000000000        0.0000000000000000     
  0.87500000000000000        1.0000000000000000        0.0000000000000000     
  0.87500000000000000       0.87500000000000000        0.0000000000000000     
  0.90625000000000000       0.87500000000000000        0.0000000000000000     
  0.93750000000000000       0.87500000000000000        0.0000000000000000     
  0.96875000000000000       0.87500000000000000        0.0000000000000000     
   1.0000000000000000       0.87500000000000000        0.0000000000000000     
  0.87500000000000000       0.90625000000000000        0.0000000000000000     
  0.90625000000000000       0.90625000000000000        0.0000000000000000     
  0.93750000000000000       0.90625000000000000        0.0000000000000000     
  0.96875000000000000       0.90625000000000000        0.0000000000000000     
   1.0000000000000000       0.90625000000000000        0.0000000000000000     
  0.87500000000000000       0.93750000000000000        0.0000000000000000     
  0.90625000000000000       0.93750000000000000        0.0000000000000000     
  0.93750000000000000       0.93750000000000000        0.0000000000000000     
  0.96875000000000000       0.93750000000000000        0.0000000000000000     
   1.0000000000000000       0.93750000000000000        0.0000000000000000     
  0.87500000000000000       0.96875000000000000        0.0000000000000000     
  0.90625000000000000       0.96875000000000000        0.0000000000000000     
  0.93750000000000000       0.96875000000000000        0.0000000000000000     
  0.96875000000000000       0.96875000000000000        0.0000000000000000     
   1.0000000000000000       0.96875000000000000        0.0000000000000000     
  0.87500000000000000        1.0000000000000000        0.0000000000000000     
  0.90625000000000000        1.0000000000000000        0.0000000000000000     
  0.93750000000000000        1.0000000000000000        0.0000000000000000     
  0.96875000000000000        1.0000000000000000        0.0000000000000000     
   1.0000000000000000        1.0000000000000000        0.0000000000000000     
   1.0000000000000000       0.87500000000000000        0.0000000000000000     
   1.0312500000000000       0.87500000000000000        0.0000000000000000     
   1.0625000000000000       0.87500000000000000        0.0000000000000000     
   1.0937500000000000       0.87500000000000000        0.0000000000000000     
   1.1250000000000000       0.87500000000000000        0.0000000000000000     
   1.0000000000000000       0.90625000000000000        0.0000000000000000     
   1.0312500000000000       0.90625000000000000        0.0000000000000000     
   1.0625000000000000       0.90625000000000000        0.0000000000000000     
   1.0937500000000000       0.90625000000000000        0.0000000000000000     
   1.1250000000000000       0.90625000000000000        0.0000000000000000     
   1.0000000000000000       0.93750000000000000        0.0000000000000000     
   1.0312500000000000       0.93750000000000000        0.0000000000000000     
   1.0625000000000000       0.93750000000000000        0.0000000000000000     
   1.0937500000000000       0.93750000000000000        0.0000000000000000     
   1.1250000000000000       0.93750000000000000        0.0000000000000000     
   1.0000000000000000       0.96875000000000000        0.0000000000000000     
   1.0312500000000000       0.96875000000000000        0.0000000000000000     
   1.0625000000000000       0.96875000000000000        0.0000000000000000     
   1.0937500000000000       0.96875000000000000        0.0000000000000000     
   1.1250000000000000       0.96875000000000000        0.0000000000000000     
   1.0000000000000000        1.0000000000000000        0.0000000000000000     
   1.0312500000000000        1.0000000000000000        0.0000000000000000     
   1.0625000000000000        1.0000000000000000        0.0000000000000000     
   1.0937500000000000        1.0000000000000000        0.0000000000000000     
   1.1250000000000000        1.0000000000000000        0.0000000000000000     
   1.1250000000000000       0.87500000000000000        0.0000000000000000     
   1.1562500000000000       0.87500000000000000        0.0000000000000000     
   1.1875000000000000       0.87500000000000000        0.0000000000000000     
   1.2187500000000000       0.87500000000000000        0.0000000000000000     
   1.2500000000000000       0.87500000000000000        0.0000000000000000     
   1.1250000000000000       0.90625000000000000        0.0000000000000000     
   1.1562500000000000       0.90625000000000000        0.0000000000000000     
   1.1875000000000000       0.90625000000000000        0.0000000000000000     
   1.2187500000000000       0.90625000000000000        0.0000000000000000     
   1.2500000000000000       0.90625000000000000        0.0000000000000000     
   1.1250000000000000       0.93750000000000000        0.0000000000000000     
   1.1562500000000000       0.93750000000000000        0.0000000000000000     
   1.1875000000000000       0.93750000000000000        0.0000000000000000     
   1.2187500000000000       0.93750000000000000        0.0000000000000000     
   1.2500000000000000       0.93750000000000000        0.0000000000000000     
   1.1250000000000000       0.96875000000000000        0.0000000000000000     
   1.1562500000000000       0.96875000000000000        0.0000000000000000     
   1.1875000000000000       0.96875000000000000        0.0000000000000000     
   1.2187500000000000       0.96875000000000000        0.0000000000000000     
   1.2500000000000000       0.96875000000000000        0.0000000000000000     
   1.1250000000000000        1.0000000000000000        0.0000000000000000     
   1.1562500000000000        1.0000000000000000        0.0000000000000000     
   1.1875000000000000        1.0000000000000000        0.0000000000000000     
   1.2187500000000000        1.0000000000000000        0.0000000000000000     
   1.2500000000000000        1.0000000000000000        0.0000000000000000     
   1.2500000000000000       0.87500000000000000        0.0000000000000000     
   1.2812500000000000       0.87500000000000000        0.0000000000000000     
   1.3125000000000000       0.87500000000000000        0.0000000000000000     
   1.3437500000000000       0.87500000000000000        0.0000000000000000     
   1.3750000000000000       0.87500000000000000        0.0000000000000000     
   1.2500000000000000       0.90625000000000000        0.0000000000000000     
   1.2812500000000000       0.90625000000000000        0.0000000000000000     
   1.3125000000000000       0.90625000000000000        0.0000000000000000     
   1.3437500000000000       0.90625000000000000        0.0000000000000000     
   1.3750000000000000       0.90625000000000000        0.0000000000000000     
   1.2500000000000000       0.93750000000000000        0.0000000000000000     
   1.2812500000000000       0.93750000000000000        0.0000000000000000     
   1.3125000000000000       0.93750000000000000        0.0000000000000000     
   1.3437500000000000       0.93750000000000000        0.0000000000000000     
   1.3750000000000000       0.93750000000000000        0.0000000000000000     
   1.2500000000000000       0.96875000000000000        0.0000000000000000     
   1.2812500000000000       0.96875000000000000        0.0000000000000000     
   1.3125000000000000       0.96875000000000000        0.0000000000000000     
   1.3437500000000000       0.96875000000000000        0.0000000000000000     
   1.3750000000000000       0.96875000000000000        0.0000000000000000     
   1.2500000000000000        1.0000000000000000        0.0000000000000000     
   1.2812500000000000        1.0000000000000000        0.0000000000000000     
   1.3125000000000000        1.0000000000000000        0.0000000000000000     
   1.3437500000000000        1.0000000000000000        0.0000000000000000     
   1.3750000000000000        1.0000000000000000        0.0000000000000000     
   1.3750000000000000       0.87500000000000000        0.0000000000000000     
   1.4062500000000000       0.87500000000000000        0.0000000000000000     
   1.4375000000000000       0.87500000000000000        0.0000000000000000     
   1.4687500000000000       0.87500000000000000        0.0000000000000000     
   1.5000000000000000       0.87500000000000000        0.0000000000000000     
   1.3750000000000000       0.90625000000000000        0.0000000000000000     
   1.4062500000000000       0.90625000000000000        0.0000000000000000     
   1.4375000000000000       0.90625000000000000        0.0000000000000000     
   1.4687500000000000       0.90625000000000000        0.0000000000000000     
   1.5000000000000000       0.90625000000000000        0.0000000000000000     
   1.3750000000000000       0.93750000000000000        0.0000000000000000     
   1.4062500000000000       0.93750000000000000        0.0000000000000000     
   1.4375000000000000       0.93750000000000000        0.0000000000000000     
   1.4687500000000000       0.93750000000000000        0.0000000000000000     
   1.5000000000000000       0.93750000000000000        0.0000000000000000     
   1.3750000000000000       0.96875000000000000        0.0000000000000000     
   1.4062500000000000       0.96875000000000000        0.0000000000000000     
   1.4375000000000000       0.96875000000000000        0.0000000000000000     
   1.4687500000000000       0.96875000000000000        0.0000000000000000     
   1.5000000000000000       0.96875000000000000        0.0000000000000000     
   1.3750000000000000        1.0000000000000000        0.0000000000000000     
   1.4062500000000000        1.0000000000000000        0.0000000000000000     
   1.4375000000000000        1.0000000000000000        0.0000000000000000     
   1.4687500000000000        1.0000000000000000        0.0000000000000000     
   1.5000000000000000        1.0000000000000000        0.0000000000000000     
 </DataArray>
 </Points>
 <Cells>
 <DataArray  type="Int32"  Name="connectivity"  format="ascii">
           0           1           6           5
           1           2           7           6
           2           3           8           7
           3           4           9           8
           5           6          11          10
           6           7          12          11
           7           8          13          12
           8           9          14          13
          10          11          16          15
          11          12          17          16
          12          13          18          17
          13          14          19          18
          15          16          21          20
          16          17          22          21
          17          18          23          22
          18          19          24          23
          25          26          31          30
          26          27          32          31
          27          28          33          32
          28          29          34          33
          30          31          36          35
          31          32          37          36
          32          33          38          37
          33          34          39          38
          35          36          41          40
          36          37          42          41
          37          38          43          42
          38          39          44          43
          40          41          46          45
          41          42          47          46
          42          43          48          47
          43          44          49          48
          50          51          56          55
          51          52          57          56
          52          53          58          57
          53          54          59          58
          55          56          61          60
          56          57          62          61
          57          58          63          62
          58          59          64          63
          60          61          66          65
          61          62          67          66
          62          63          68          67
          63          64          69          68
          65          66          71          70
          66          67          72          71
          67          68          73          72
          68          69          74          73
          75          76          81          80
          76          77          82          81
          77          78          83          82
          78          79          84          83
          80          81          86          85
          81          82          87          86
          82          83          88          87
          83          84          89          88
          85          86          91          90
          86          87          92          91
          87          88          93          92
          88          89          94          93
          90          91          96          95
          91          92          97          96
          92          93          98          97
          93          94          99          98
         100         101         106         105
         101         102         107         106
         102         103         108         107
         103         104         109         108
         105         106         111         110
         106         107         112         111
         107         108         113         112
         108         109         114         113
         110         111         116         115
         111         112         117         116
         112         113         118         117
         113         114         119         118
         115         116         121         120
         116         117         122         121
         117         118         123         122
         118         119         124         123
         125         126         131         130
         126         127         132         131
         127         128         133         132
         128         129         134         133
         130         131         136         135
         131         132         137         136
         132         133         138         137
         133         134         139         138
         135         136         141         140
         136         137         142         141
         137         138         143         142
         138         139         144         143
         140         141         146         145
         141         142         147         146
         142         143         148         147
         143         144         149         148
         150         151         156         155
         151         152         157         156
         152         153         158         157
         153         154         159         158
         155         156         161         160
         156         157         162         161
         157         158         163         162
         158         159         164         163
         160         161         166         165
         161         162         167         166
         162         163         168         167
         163         164         169         168
         165         166         171         170
         166         167         172         171
         167         168         173         172
         168         169         174         173
         175         176         181         180
         176         177         182         181
         177         178         183         182
         178         179         184         183
         180         181         186         185
         181         182         187         186
         182         183         188         187
         183         184         189         188
         185         186         191         190
         186         187         192         191
         187         188         193         192
         188         189         194         193
         190         191         196         195
         191         192         197         196
         192         193         198         197
         193         194         199         198
         200         201         206         205
         201         202         207         206
         202         203         208         207
         203         204         209         208
         205         206         211         210
         206         207         212         211
         207         208         213         212
         208         209         214         213
         210         211         216         215
         211         212         217         216
         212         213         218         217
         213         214         219         218
         215         216         221         220
         216         217         222         221
         217         218         223         222
         218         219         224         223
         225         226         231         230
         226         227         232         231
         227         228         233         232
         228         229         234         233
         230         231         236         235
         231         232         237         236
         232         233         238         237
         233         234         239         238
         235         236         241         240
         236         237         242         241
         237         238         243         242
         238         239         244         243
         240         241         246         245
         241         242         247         246
         242         243         248         247
         243         244         249         248
         250         251         256         255
         251         252         257         256
         252         253         258         257
         253         254         259         258
         255         256         261         260
         256         257         262         261
         257         258         263         262
         258         259         264         263
         260         261         266         265
         261         262         267         266
         262         263         268         267
         263         264         269         268
         265         266         271         270
         266         267         272         271
         267         268         273         272
         268         269         274         273
         275         276         281         280
         276         277         282         281
         277         278         283         282
         278         279         284         283
         280         281         286         285
         281         282         287         286
         282         283         288         287
         283         284         289         288
         285         286         291         290
         286         287         292         291
         287         288         293         292
         288         289         294         293
         290         291         296         295
         291         292         297         296
         292         293         298         297
         293         294         299         298
         300         301         306         305
         301         302         307         306
         302         303         308         307
         303         304         309         308
         305         306         311         310
         306         307         312         311
         307         308         313         312
         308         309         314         313
         310         311         316         315
         311         312         317         316
         312         313         318         317
         313         314         319         318
         315         316         321         320
         316         317         322         321
         317         318         323         322
         318         319         324         323
         325         326         331         330
         326         327         332         331
         327         328         333         332
         328         329         334         333
         330         331         336         335
         331         332         337         336
         332         333         338         337
         333         334         339         338
         335         336         341         340
         336         337         342         341
         337         338         343         342
         338         339         344         343
         340         341         346         345
         341         342         347         346
         342         343         348         347
         343         344         349         348
         350         351         356         355
         351         352         357         356
         352         353         358         357
         353         354         359         358
         355         356         361         360
         356         357         362         361
         357         358         363         362
         358         359         364         363
         360         361         366         365
         361         362         367         366
         362         363         368         367
         363         364         369         368
         365         366         371         370
         366         367         372         371
         367         368         373         372
         368         369         374         373
         375         376         381         380
         376         377         382         381
         377         378         383         382
         378         379         384         383
         380         381         386         385
         381         382         387         386
         382         383         388         387
         383         384         389         388
         385         386         391         390
         386         387         392         391
         387         388         393         392
         388         389         394         393
         390         391         396         395
         391         392         397         396
         392         393         398         397
         393         394         399         398
         400         401         406         405
         401         402         407         406
         402         403         408         407
         403         404         409         408
         405         406         411         410
         406         407         412         411
         407         408         413         412
         408         409         414         413
         410         411         416         415
         411         412         417         416
         412         413         418         417
         413         414         419         418
         415         416         421         420
         416         417         422         421
         417         418         423         422
         418         419         424         423
         425         426         431         430
         426         427         432         431
         427         428         433         432
         428         429         434         433
         430         431         436         435
         431         432         437         436
         432         433         438         437
         433         434         439         438
         435         436         441         440
         436         437         442         441
         437         438         443         442
         438         439         444         443
         440         441         446         445
         441         442         447         446
         442         443         448         447
         443         444         449         448
         450         451         456         455
         451         452         457         456
         452         453         458         457
         453         454         459         458
         455         456         461         460
         456         457         462         461
         457         458         463         462
         458         459         464         463
         460         461         466         465
         461         462         467         466
         462         463         468         467
         463         464         469         468
         465         466         471         470
         466         467         472         471
         467         468         473         472
         468         469         474         473
         475         476         481         480
         476         477         482         481
         477         478         483         482
         478         479         484         483
         480         481         486         485
         481         482         487         486
         482         483         488         487
         483         484         489         488
         485         486         491         490
         486         487         492         491
         487         488         493         492
         488         489         494         493
         490         491         496         495
         491         492         497         496
         492         493         498         497
         493         494         499         498
         500         501         506         505
         501         502         507         506
         502         503         508         507
         503         504         509         508
         505         506         511         510
         506         507         512         511
         507         508         513         512
         508         509         514         513
         510         511         516         515
         511         512         517         516
         512         513         518         517
         513         514         519         518
         515         516         521         520
         516         517         522         521
         517         518         523         522
         518         519         524         523
         525         526         531         530
         526         527         532         531
         527         528         533         532
         528         529         534         533
         530         531         536         535
         531         532         537         536
         532         533         538         537
         533         534         539         538
         535         536         541         540
         536         537         542         541
         537         538         543         542
         538         539         544         543
         540         541         546         545
         541         542         547         546
         542         543         548         547
         543         544         549         548
         550         551         556         555
         551         552         557         556
         552         553         558         557
         553         554         559         558
         555         556         561         560
         556         557         562         561
         557         558         563         562
         558         559         564         563
         560         561         566         565
         561         562         567         566
         562         563         568         567
         563         564         569         568
         565         566         571         570
         566         567         572         571
         567         568         573         572
         568         569         574         573
         575         576         581         580
         576         577         582         581
         577         578         583         582
         578         579         584         583
         580         581         586         585
         581         582         587         586
         582         583         588         587
         583         584         589         588
         585         586         591         590
         586         587         592         591
         587         588         593         592
         588         589         594         593
         590         591         596         595
         591         592         597         596
         592         593         598         597
         593         594         599         598
         600         601         606         605
         601         602         607         606
         602         603         608         607
         603         604         609         608
         605         606         611         610
         606         607         612         611
         607         608         613         612
         608         609         614         613
         610         611         616         615
         611         612         617         616
         612         613         618         617
         613         614         619         618
         615         616         621         620
         616         617         622         621
         617         618         623         622
         618         619         624         623
         625         626         631         630
         626         627         632         631
         627         628         633         632
         628         629         634         633
         630         631         636         635
         631         632         637         636
         632         633         638         637
         633         634         639         638
         635         636         641         640
         636         637         642         641
         637         638         643         642
         638         639         644         643
         640         641         646         645
         641         642         647         646
         642         643         648         647
         643         644         649         648
         650         651         656         655
         651         652         657         656
         652         653         658         657
         653         654         659         658
         655         656         661         660
         656         657         662         661
         657         658         663         662
         658         659         664         663
         660         661         666         665
         661         662         667         666
         662         663         668         667
         663         664         669         668
         665         666         671         670
         666         667         672         671
         667         668         673         672
         668         669         674         673
         675         676         681         680
         676         677         682         681
         677         678         683         682
         678         679         684         683
         680         681         686         685
         681         682         687         686
         682         683         688         687
         683         684         689         688
         685         686         691         690
         686         687         692         691
         687         688         693         692
         688         689         694         693
         690         691         696         695
         691         692         697         696
         692         693         698         697
         693         694         699         698
         700         701         706         705
         701         702         707         706
         702         703         708         707
         703         704         709         708
         705         706         711         710
         706         707         712         711
         707         708         713         712
         708         709         714         713
         710         711         716         715
         711         712         717         716
         712         713         718         717
         713         714         719         718
         715         716         721         720
         716         717         722         721
         717         718         723         722
         718         719         724         723
         725         726         731         730
         726         727         732         731
         727         728         733         732
         728         729         734         733
         730         731         736         735
         731         732         737         736
         732         733         738         737
         733         734         739         738
         735         736         741         740
         736         737         742         741
         737         738         743         742
         738         739         744         743
         740         741         746         745
         741         742         747         746
         742         743         748         747
         743         744         749         748
         750         751         756         755
         751         752         757         756
         752         753         758         757
         753         754         759         758
         755         756         761         760
         756         757         762         761
         757         758         763         762
         758         759         764         763
         760         761         766         765
         761         762         767         766
         762         763         768         767
         763         764         769         768
         765         766         771         770
         766         767         772         771
         767         768         773         772
         768         769         774         773
         775         776         781         780
         776         777         782         781
         777         778         783         782
         778         779         784         783
         780         781         786         785
         781         782         787         786
         782         783         788         787
         783         784         789         788
         785         786         791         790
         786         787         792         791
         787         788         793         792
         788         789         794         793
         790         791         796         795
         791         792         797         796
         792         793         798         797
         793         794         799         798
         800         801         806         805
         801         802         807         806
         802         803         808         807
         803         804         809         808
         805         806         811         810
         806         807         812         811
         807         808         813         812
         808         809         814         813
         810         811         816         815
         811         812         817         816
         812         813         818         817
         813         814         819         818
         815         816         821         820
         816         817         822         821
         817         818         823         822
         818         819         824         823
         825         826         831         830
         826         827         832         831
         827         828         833         832
         828         829         834         833
         830         831         836         835
         831         832         837         836
         832         833         838         837
         833         834         839         838
         835         836         841         840
         836         837         842         841
         837         838         843         842
         838         839         844         843
         840         841         846         845
         841         842         847         846
         842         843         848         847
         843         844         849         848
         850         851         856         855
         851         852         857         856
         852         853         858         857
         853         854         859         858
         855         856         861         860
         856         857         862         861
         857         858         863         862
         858         859         864         863
         860         861         866         865
         861         862         867         866
         862         863         868         867
         863         864         869         868
         865         866         871         870
         866         867         872         871
         867         868         873         872
         868         869         874         873
         875         876         881         880
         876         877         882         881
         877         878         883         882
         878         879         884         883
         880         881         886         885
         881         882         887         886
         882         883         888         887
         883         884         889         888
         885         886         891         890
         886         887         892         891
         887         888         893         892
         888         889         894         893
         890         891         896         895
         891         892         897         896
         892         893         898         897
         893         894         899         898
         900         901         906         905
         901         902         907         906
         902         903         908         907
         903         904         909         908
         905         906         911         910
         906         907         912         911
         907         908         913         912
         908         909         914         913
         910         911         916         915
         911         912         917         916
         912         913         918         917
         913         914         919         918
         915         916         921         920
         916         917         922         921
         917         918         923         922
         918         919         924         923
         925         926         931         930
         926         927         932         931
         927         928         933         932
         928         929         934         933
         930         931         936         935
         931         932         937         936
         932         933         938         937
         933         934         939         938
         935         936         941         940
         936         937         942         941
         937         938         943         942
         938         939         944         943
         940         941         946         945
         941         942         947         946
         942         943         948         947
         943         944         949         948
         950         951         956         955
         951         952         957         956
         952         953         958         957
         953         954         959         958
         955         956         961         960
         956         957         962         961
         957         958         963         962
         958         959         964         963
         960         961         966         965
         961         962         967         966
         962         963         968         967
         963         964         969         968
         965         966         971         970
         966         967         972         971
         967         968         973         972
         968         969         974         973
         975         976         981         980
         976         977         982         981
         977         978         983         982
         978         979         984         983
         980         981         986         985
         981         982         987         986
         982         983         988         987
         983         984         989         988
         985         986         991         990
         986         987         992         991
         987         988         993         992
         988         989         994         993
         990         991         996         995
         991         992         997         996
         992         993         998         997
         993         994         999         998
        1000        1001        1006        1005
        1001        1002        1007        1006
        1002        1003        1008        1007
        1003        1004        1009        1008
        1005        1006        1011        1010
        1006        1007        1012        1011
        1007        1008        1013        1012
        1008        1009        1014        1013
        1010        1011        1016        1015
        1011        1012        1017        1016
        1012        1013        1018        1017
        1013        1014        1019        1018
        1015        1016        1021        1020
        1016        1017        1022        1021
        1017        1018        1023        1022
        1018        1019        1024        1023
        1025        1026        1031        1030
        1026        1027        1032        1031
        1027        1028        1033        1032
        1028        1029        1034        1033
        1030        1031        1036        1035
        1031        1032        1037        1036
        1032        1033        1038        1037
        1033        1034        1039        1038
        1035        1036        1041        1040
        1036        1037        1042        1041
        1037        1038        1043        1042
        1038        1039        1044        1043
        1040        1041        1046        1045
        1041        1042        1047        1046
        1042        1043        1048        1047
        1043        1044        1049        1048
        1050        1051        1056        1055
        1051        1052        1057        1056
        1052        1053        1058        1057
        1053        1054        1059        1058
        1055        1056        1061        1060
        1056        1057        1062        1061
        1057        1058        1063        1062
        1058        1059        1064        1063
        1060        1061        1066        1065
        1061        1062        1067        1066
        1062        1063        1068        1067
        1063        1064        1069        1068
        1065        1066        1071        1070
        1066        1067        1072        1071
        1067        1068        1073        1072
        1068        1069        1074        1073
        1075        1076        1081        1080
        1076        1077        1082        1081
        1077        1078        1083        1082
        1078        1079        1084        1083
        1080        1081        1086        1085
        1081        1082        1087        1086
        1082        1083        1088        1087
        1083        1084        1089        1088
        1085        1086        1091        1090
        1086        1087        1092        1091
        1087        1088        1093        1092
        1088        1089        1094        1093
        1090        1091        1096        1095
        1091        1092        1097        1096
        1092        1093        1098        1097
        1093        1094        1099        1098
        1100        1101        1106        1105
        1101        1102        1107        1106
        1102        1103        1108        1107
        1103        1104        1109        1108
        1105        1106        1111        1110
        1106        1107        1112        1111
        1107        1108        1113        1112
        1108        1109        1114        1113
        1110        1111        1116        1115
        1111        1112        1117        1116
        1112        1113        1118        1117
        1113        1114        1119        1118
        1115        1116        1121        1120
        1116        1117        1122        1121
        1117        1118        1123        1122
        1118        1119        1124        1123
        1125        1126        1131        1130
        1126        1127        1132        1131
        1127        1128        1133        1132
        1128        1129        1134        1133
        1130        1131        1136        1135
        1131        1132        1137        1136
        1132        1133        1138        1137
        1133        1134        1139        1138
        1135        1136        1141        1140
        1136        1137        1142        1141
        1137        1138        1143        1142
        1138        1139        1144        1143
        1140        1141        1146        1145
        1141        1142        1147        1146
        1142        1143        1148        1147
        1143        1144        1149        1148
        1150        1151        1156        1155
        1151        1152        1157        1156
        1152        1153        1158        1157
        1153        1154        1159        1158
        1155        1156        1161        1160
        1156        1157        1162        1161
        1157        1158        1163        1162
        1158        1159        1164        1163
        1160        1161        1166        1165
        1161        1162        1167        1166
        1162        1163        1168        1167
        1163        1164        1169        1168
        1165        1166        1171        1170
        1166        1167        1172        1171
        1167        1168        1173        1172
        1168        1169        1174        1173
        1175        1176        1181        1180
        1176        1177        1182        1181
        1177        1178        1183        1182
        1178        1179        1184        1183
        1180        1181        1186        1185
        1181        1182        1187        1186
        1182        1183        1188        1187
        1183        1184        1189        1188
        1185        1186        1191        1190
        1186        1187        1192        1191
        1187        1188        1193        1192
        1188        1189        1194        1193
        1190        1191        1196        1195
        1191        1192        1197        1196
        1192        1193        1198        1197
        1193        1194        1199        1198
        1200        1201        1206        1205
        1201        1202        1207        1206
        1202        1203        1208        1207
        1203        1204        1209        1208
        1205        1206        1211        1210
        1206        1207        1212        1211
        1207        1208        1213        1212
        1208        1209        1214        1213
        1210        1211        1216        1215
        1211        1212        1217        1216
        1212        1213        1218        1217
        1213        1214        1219        1218
        1215        1216        1221        1220
        1216        1217        1222        1221
        1217        1218        1223        1222
        1218        1219        1224        1223
        1225        1226        1231        1230
        1226        1227        1232        1231
        1227        1228        1233        1232
        1228        1229        1234        1233
        1230        1231        1236        1235
        1231        1232        1237        1236
        1232        1233        1238        1237
        1233        1234        1239        1238
        1235        1236        1241        1240
        1236        1237        1242        1241
        1237        1238        1243        1242
        1238        1239        1244        1243
        1240        1241        1246        1245
        1241        1242        1247        1246
        1242        1243        1248        1247
        1243        1244        1249        1248
        1250        1251        1256        1255
        1251        1252        1257        1256
        1252        1253        1258        1257
        1253        1254        1259        1258
        1255        1256        1261        1260
        1256        1257        1262        1261
        1257        1258        1263        1262
        1258        1259        1264        1263
        1260        1261        1266        1265
        1261        1262        1267        1266
        1262        1263        1268        1267
        1263        1264        1269        1268
        1265        1266        1271        1270
        1266        1267        1272        1271
        1267        1268        1273        1272
        1268        1269        1274        1273
        1275        1276        1281        1280
        1276        1277        1282        1281
        1277        1278        1283        1282
        1278        1279        1284        1283
        1280        1281        1286        1285
        1281        1282        1287        1286
        1282        1283        1288        1287
        1283        1284        1289        1288
        1285        1286        1291        1290
        1286        1287        1292        1291
        1287        1288        1293        1292
        1288        1289        1294        1293
        1290        1291        1296        1295
        1291        1292        1297        1296
        1292        1293        1298        1297
        1293        1294        1299        1298
        1300        1301        1306        1305
        1301        1302        1307        1306
        1302        1303        1308        1307
        1303        1304        1309        1308
        1305        1306        1311        1310
        1306        1307        1312        1311
        1307        1308        1313        1312
        1308        1309        1314        1313
        1310        1311        1316        1315
        1311        1312        1317        1316
        1312        1313        1318        1317
        1313        1314        1319        1318
        1315        1316        1321        1320
        1316        1317        1322        1321
        1317        1318        1323        1322
        1318        1319        1324        1323
        1325        1326        1331        1330
        1326        1327        1332        1331
        1327        1328        1333        1332
        1328        1329        1334        1333
        1330        1331        1336        1335
        1331        1332        1337        1336
        1332        1333        1338        1337
        1333        1334        1339        1338
        1335        1336        1341        1340
        1336        1337        1342        1341
        1337        1338        1343        1342
        1338        1339        1344        1343
        1340        1341        1346        1345
        1341        1342        1347        1346
        1342        1343        1348        1347
        1343        1344        1349        1348
        1350        1351        1356        1355
        1351        1352        1357        1356
        1352        1353        1358        1357
        1353        1354        1359        1358
        1355        1356        1361        1360
        1356        1357        1362        1361
        1357        1358        1363        1362
        1358        1359        1364        1363
        1360        1361        1366        1365
        1361        1362        1367        1366
        1362        1363        1368        1367
        1363        1364        1369        1368
        1365        1366        1371        1370
        1366        1367        1372        1371
        1367        1368        1373        1372
        1368        1369        1374        1373
        1375        1376        1381        1380
        1376        1377        1382        1381
        1377        1378        1383        1382
        1378        1379        1384        1383
        1380        1381        1386        1385
        1381        1382        1387        1386
        1382        1383        1388        1387
        1383        1384        1389        1388
        1385        1386        1391        1390
        1386        1387        1392        1391
        1387        1388        1393        1392
        1388        1389        1394        1393
        1390        1391        1396        1395
        1391        1392        1397        1396
        1392        1393        1398        1397
        1393        1394        1399        1398
        1400        1401        1406        1405
        1401        1402        1407        1406
        1402        1403        1408        1407
        1403        1404        1409        1408
        1405        1406        1411        1410
        1406        1407        1412        1411
        1407        1408        1413        1412
        1408        1409        1414        1413
        1410        1411        1416        1415
        1411        1412        1417        1416
        1412        1413        1418        1417
        1413        1414        1419        1418
        1415        1416        1421        1420
        1416        1417        1422        1421
        1417        1418        1423        1422
        1418        1419        1424        1423
        1425        1426        1431        1430
        1426        1427        1432        1431
        1427        1428        1433        1432
        1428        1429        1434        1433
        1430        1431        1436        1435
        1431        1432        1437        1436
        1432        1433        1438        1437
        1433        1434        1439        1438
        1435        1436        1441        1440
        1436        1437        1442        1441
        1437        1438        1443        1442
        1438        1439        1444        1443
        1440        1441        1446        1445
        1441        1442        1447        1446
        1442        1443        1448        1447
        1443        1444        1449        1448
        1450        1451        1456        1455
        1451        1452        1457        1456
        1452        1453        1458        1457
        1453        1454        1459        1458
        1455        1456        1461        1460
        1456        1457        1462        1461
        1457        1458        1463        1462
        1458        1459        1464        1463
        1460        1461        1466        1465
        1461        1462        1467        1466
        1462        1463        1468        1467
        1463        1464        1469        1468
        1465        1466        1471        1470
        1466        1467        1472        1471
        1467        1468        1473        1472
        1468        1469        1474        1473
        1475        1476        1481        1480
        1476        1477        1482        1481
        1477        1478        1483        1482
        1478        1479        1484        1483
        1480        1481        1486        1485
        1481        1482        1487        1486
        1482        1483        1488        1487
        1483        1484        1489        1488
        1485        1486        1491        1490
        1486        1487        1492        1491
        1487        1488        1493        1492
        1488        1489        1494        1493
        1490        1491        1496        1495
        1491        1492        1497        1496
        1492        1493        1498        1497
        1493        1494        1499        1498
        1500        1501        1506        1505
        1501        1502        1507        1506
        1502        1503        1508        1507
        1503        1504        1509        1508
        1505        1506        1511        1510
        1506        1507        1512        1511
        1507        1508        1513        1512
        1508        1509        1514        1513
        1510        1511        1516        1515
        1511        1512        1517        1516
        1512        1513        1518        1517
        1513        1514        1519        1518
        1515        1516        1521        1520
        1516        1517        1522        1521
        1517        1518        1523        1522
        1518        1519        1524        1523
        1525        1526        1531        1530
        1526        1527        1532        1531
        1527        1528        1533        1532
        1528        1529        1534        1533
        1530        1531        1536        1535
        1531        1532        1537        1536
        1532        1533        1538        1537
        1533        1534        1539        1538
        1535        1536        1541        1540
        1536        1537        1542        1541
        1537        1538        1543        1542
        1538        1539        1544        1543
        1540        1541        1546        1545
        1541        1542        1547        1546
        1542        1543        1548        1547
        1543        1544        1549        1548
        1550        1551        1556        1555
        1551        1552        1557        1556
        1552        1553        1558        1557
        1553        1554        1559        1558
        1555        1556        1561        1560
        1556        1557        1562        1561
        1557        1558        1563        1562
        1558        1559        1564        1563
        1560        1561        1566        1565
        1561        1562        1567        1566
        1562        1563        1568        1567
        1563        1564        1569        1568
        1565        1566        1571        1570
        1566        1567        1572        1571
        1567        1568        1573        1572
        1568        1569        1574        1573
        1575        1576        1581        1580
        1576        1577        1582        1581
        1577        1578        1583        1582
        1578        1579        1584        1583
        1580        1581        1586        1585
        1581        1582        1587        1586
        1582        1583        1588        1587
        1583        1584        1589        1588
        1585        1586        1591        1590
        1586        1587        1592        1591
        1587        1588        1593        1592
        1588        1589        1594        1593
        1590        1591        1596        1595
        1591        1592        1597        1596
        1592        1593        1598        1597
        1593        1594        1599        1598
 </DataArray>
 <DataArray  type="Int32"  Name="offsets"  format="ascii"> 
           4
           8
          12
          16
          20
          24
          28
          32
          36
          40
          44
          48
          52
          56
          60
          64
          68
          72
          76
          80
          84
          88
          92
          96
         100
         104
         108
         112
         116
         120
         124
         128
         132
         136
         140
         144
         148
         152
         156
         160
         164
         168
         172
         176
         180
         184
         188
         192
         196
         200
         204
         208
         212
         216
         220
         224
         228
         232
         236
         240
         244
         248
         252
         256
         260
         264
         268
         272
         276
         280
         284
         288
         292
         296
         300
         304
         308
         312
         316
         320
         324
         328
         332
         336
         340
         344
         348
         352
         356
         360
         364
         368
         372
         376
         380
         384
         388
         392
         396
         400
         404
         408
         412
         416
         420
         424
         428
         432
         436
         440
         444
         448
         452
         456
         460
         464
         468
         472
         476
         480
         484
         488
         492
         496
         500
         504
         508
         512
         516
         520
         524
         528
         532
         536
         540
         544
         548
         552
         556
         560
         564
         568
         572
         576
         580
         584
         588
         592
         596
         600
         604
         608
         612
         616
         620
         624
         628
         632
         636
         640
         644
         648
         652
         656
         660
         664
         668
         672
         676
         680
         684
         688
         692
         696
         700
         704
         708
         712
         716
         720
         724
         728
         732
         736
         740
         744
         748
         752
         756
         760
         764
         768
         772
         776
         780
         784
         788
         792
         796
         800
         804
         808
         812
         816
         820
         824
         828
         832
         836
         840
         844
         848
         852
         856
         860
         864
         868
         872
         876
         880
         884
         888
         892
         896
         900
         904
         908
         912
         916
         920
         924
         928
         932
         936
         940
         944
         948
         952
         956
         960
         964
         968
         972
         976
         980
         984
         988
         992
         996
        1000
        1004
        1008
        1012
        1016
        1020
        1024
        1028
        1032
        1036
        1040
        1044
        1048
        1052
        1056
        1060
        1064
        1068
        1072
        1076
        1080
        1084
        1088
        1092
        1096
        1100
        1104
        1108
        1112
        1116
        1120
        1124
        1128
        1132
        1136
        1140
        1144
        1148
        1152
        1156
        1160
        1164
        1168
        1172
        1176
        1180
        1184
        1188
        1192
        1196
        1200
        1204
        1208
        1212
        1216
        1220
        1224
        1228
        1232
        1236
        1240
        1244
        1248
        1252
        1256
        1260
        1264
        1268
        1272
        1276
        1280
        1284
        1288
        1292
        1296
        1300
        1304
        1308
        1312
        1316
        1320
        1324
        1328
        1332
        1336
        1340
        1344
        1348
        1352
        1356
        1360
        1364
        1368
        1372
        1376
        1380
        1384
        1388
        1392
        1396
        1400
        1404
        1408
        1412
        1416
        1420
        1424
        1428
        1432
        1436
        1440
        1444
        1448
        1452
        1456
        1460
        1464
        1468
        1472
        1476
        1480
        1484
        1488
        1492
        1496
        1500
        1504
        1508
        1512
        1516
        1520
        1524
        1528
        1532
        1536
        1540
        1544
        1548
        1552
        1556
        1560
        1564
        1568
        1572
        1576
        1580
        1584
        1588
        1592
        1596
        1600
        1604
        1608
        1612
        1616
        1620
        1624
        1628
        1632
        1636
        1640
        1644
        1648
        1652
        1656
        1660
        1664
        1668
        1672
        1676
        1680
        1684
        1688
        1692
        1696
        1700
        1704
        1708
        1712
        1716
        1720
        1724
        1728
        1732
        1736
        1740
        1744
        1748
        1752
        1756
        1760
        1764
        1768
        1772
        1776
        1780
        1784
        1788
        1792
        1796
        1800
        1804
        1808
        1812
        1816
        1820
        1824
        1828
        1832
        1836
        1840
        1844
        1848
        1852
        1856
        1860
        1864
        1868
        1872
        1876
        1880
        1884
        1888
        1892
        1896
        1900
        1904
        1908
        1912
        1916
        1920
        1924
        1928
        1932
        1936
        1940
        1944
        1948
        1952
        1956
        1960
        1964
        1968
        1972
        1976
        1980
        1984
        1988
        1992
        1996
        2000
        2004
        2008
        2012
        2016
        2020
        2024
        2028
        2032
        2036
        2040
        2044
        2048
        2052
        2056
        2060
        2064
        2068
        2072
        2076
        2080
        2084
        2088
        2092
        2096
        2100
        2104
        2108
        2112
        2116
        2120
        2124
        2128
        2132
        2136
        2140
        2144
        2148
        2152
        2156
        2160
        2164
        2168
        2172
        2176
        2180
        2184
        2188
        2192
        2196
        2200
        2204
        2208
        2212
        2216
        2220
        2224
        2228
        2232
        2236
        2240
        2244
        2248
        2252
        2256
        2260
        2264
        2268
        2272
        2276
        2280
        2284
        2288
        2292
        2296
        2300
        2304
        2308
        2312
        2316
        2320
        2324
        2328
        2332
        2336
        2340
        2344
        2348
        2352
        2356
        2360
        2364
        2368
        2372
        2376
        2380
        2384
        2388
        2392
        2396
        2400
        2404
        2408
        2412
        2416
        2420
        2424
        2428
        2432
        2436
        2440
        2444
        2448
        2452
        2456
        2460
        2464
        2468
        2472
        2476
        2480
        2484
        2488
        2492
        2496
        2500
        2504
        2508
        2512
        2516
        2520
        2524
        2528
        2532
        2536
        2540
        2544
        2548
        2552
        2556
        2560
        2564
        2568
        2572
        2576
        2580
        2584
        2588
        2592
        2596
        2600
        2604
        2608
        2612
        2616
        2620
        2624
        2628
        2632
        2636
        2640
        2644
        2648
        2652
        2656
        2660
        2664
        2668
        2672
        2676
        2680
        2684
        2688
        2692
        2696
        2700
        2704
        2708
        2712
        2716
        2720
        2724
        2728
        2732
        2736
        2740
        2744
        2748
        2752
        2756
        2760
        2764
        2768
        2772
        2776
        2780
        2784
        2788
        2792
        2796
        2800
        2804
        2808
        2812
        2816
        2820
        2824
        2828
        2832
        2836
        2840
        2844
        2848
        2852
        2856
        2860
        2864
        2868
        2872
        2876
        2880
        2884
        2888
        2892
        2896
        2900
        2904
        2908
        2912
        2916
        2920
        2924
        2928
        2932
        2936
        2940
        2944
        2948
        2952
        2956
        2960
        2964
        2968
        2972
        2976
        2980
        2984
        2988
        2992
        2996
        3000
        3004
        3008
        3012
        3016
        3020
        3024
        3028
        3032
        3036
        3040
        3044
        3048
        3052
        3056
        3060
        3064
        3068
        3072
        3076
        3080
        3084
        3088
        3092
        3096
        3100
        3104
        3108
        3112
        3116
        3120
        3124
        3128
        3132
        3136
        3140
        3144
        3148
        3152
        3156
        3160
        3164
        3168
        3172
        3176
        3180
        3184
        3188
        3192
        3196
        3200
        3204
        3208
        3212
        3216
        3220
        3224
        3228
        3232
        3236
        3240
        3244
        3248
        3252
        3256
        3260
        3264
        3268
        3272
        3276
        3280
        3284
        3288
        3292
        3296
        3300
        3304
        3308
        3312
        3316
        3320
        3324
        3328
        3332
        3336
        3340
        3344
        3348
        3352
        3356
        3360
        3364
        3368
        3372
        3376
        3380
        3384
        3388
        3392
        3396
        3400
        3404
        3408
        3412
        3416
        3420
        3424
        3428
        3432
        3436
        3440
        3444
        3448
        3452
        3456
        3460
        3464
        3468
        3472
        3476
        3480
        3484
        3488
        3492
        3496
        3500
        3504
        3508
        3512
        3516
        3520
        3524
        3528
        3532
        3536
        3540
        3544
        3548
        3552
        3556
        3560
        3564
        3568
        3572
        3576
        3580
        3584
        3588
        3592
        3596
        3600
        3604
        3608
        3612
        3616
        3620
        3624
        3628
        3632
        3636
        3640
        3644
        3648
        3652
        3656
        3660
        3664
        3668
        3672
        3676
        3680
        3684
        3688
        3692
        3696
        3700
        3704
        3708
        3712
        3716
        3720
        3724
        3728
        3732
        3736
        3740
        3744
        3748
        3752
        3756
        3760
        3764
        3768
        3772
        3776
        3780
        3784
        3788
        3792
        3796
        3800
        3804
        3808
        3812
        3816
        3820
        3824
        3828
        3832
        3836
        3840
        3844
        3848
        3852
        3856
        3860
        3864
        3868
        3872
        3876
        3880
        3884
        3888
        3892
        3896
        3900
        3904
        3908
        3912
        3916
        3920
        3924
        3928
        3932
        3936
        3940
        3944
        3948
        3952
        3956
        3960
        3964
        3968
        3972
        3976
        3980
        3984
        3988
        3992
        3996
        4000
        4004
        4008
        4012
        4016
        4020
        4024
        4028
        4032
        4036
        4040
        4044
        4048
        4052
        4056
        4060
        4064
        4068
        4072
        4076
        4080
        4084
        4088
        4092
        4096
 </DataArray>
 <DataArray  type="UInt8"  Name="types"  format="ascii">
 9
 9
 9
 9
 9
 9
 9
 9
 9
 9
 9
 9
 9
 9
 9
 9
 9
 9
 9
 9
 9
 9
 9
 9
 9
 9
 9
 9
 9
 9
 9
 9
 9
 9
 9
 9
 9
 9
 9
 9
 9
 9
 9
 9
 9
 9
 9
 9
 9
 9
 9
 9
 9
 9
 9
 9
 9
 9
 9
 9
 9
 9
 9
 9
 9
 9
 9
 9
 9
 9
 9
 9
 9
 9
 9
 9
 9
 9
 9
 9
 9
 9
 9
 9
 9
 9
 9
 9
 9
 9
 9
 9
 9
 9
 9
 9
 9
 9
 9
 9
 9
 9
 9
 9
 9
 9
 9
 9
 9
 9
 9
 9
 9
 9
 9
 9
 9
 9
 9
 9
 9
 9
 9
 9
 9
 9
 9
 9
 9
 9
 9
 9
 9
 9
 9
 9
 9
 9
 9
 9
 9
 9
 9
 9
 9
 9
 9
 9
 9
 9
 9
 9
 9
 9
 9
 9
 9
 9
 9
 9
 9
 9
 9
 9
 9
 9
 9
 9
 9
 9
 9
 9
 9
 9
 9
 9
 9
 9
 9
 9
 9
 9
 9
 9
 9
 9
 9
 9
 9
 9
 9
 9
 9
 9
 9
 9
 9
 9
 9
 9
 9
 9
 9
 9
 9
 9
 9
 9
 9
 9
 9
 9
 9
 9
 9
 9
 9
 9
 9
 9
 9
 9
 9
 9
 9
 9
 9
 9
 9
 9
 9
 9
 9
 9
 9
 9
 9
 9
 9
 9
 9
 9
 9
 9
 9
 9
 9
 9
 9
 9
 9
 9
 9
 9
 9
 9
 9
 9
 9
 9
 9
 9
 9
 9
 9
 9
 9
 9
 9
 9
 9
 9
 9
 9
 9
 9
 9
 9
 9
 9
 9
 9
 9
 9
 9
 9
 9
 9
 9
 9
 9
 9
 9
 9
 9
 9
 9
 9
 9
 9
 9
 9
 9
 9
 9
 9
 9
 9
 9
 9
 9
 9
 9
 9
 9
 9
 9
 9
 9
 9
 9
 9
 9
 9
 9
 9
 9
 9
 9
 9
 9
 9
 9
 9
 9
 9
 9
 9
 9
 9
 9
 9
 9
 9
 9
 9
 9
 9
 9
 9
 9
 9
 9
 9
 9
 9
 9
 9
 9
 9
 9
 9
 9
 9
 9
 9
 9
 9
 9
 9
 9
 9
 9
 9
 9
 9
 9
 9
 9
 9
 9
 9
 9
 9
 9
 9
 9
 9
 9
 9
 9
 9
 9
 9
 9
 9
 9
 9
 9
 9
 9
 9
 9
 9
 9
 9
 9
 9
 9
 9
 9
 9
 9
 9
 9
 9
 9
 9
 9
 9
 9
 9
 9
 9
 9
 9
 9
 9
 9
 9
 9
 9
 9
 9
 9
 9
 9
 9
 9
 9
 9
 9
 9
 9
 9
 9
 9
 9
 9
 9
 9
 9
 9
 9
 9
 9
 9
 9
 9
 9
 9
 9
 9
 9
 9
 9
 9
 9
 9
 9
 9
 9
 9
 9
 9
 9
 9
 9
 9
 9
 9
 9
 9
 9
 9
 9
 9
 9
 9
 9
 9
 9
 9
 9
 9
 9
 9
 9
 9
 9
 9
 9
 9
 9
 9
 9
 9
 9
 9
 9
 9
 9
 9
 9
 9
 9
 9
 9
 9
 9
 9
 9
 9
 9
 9
 9
 9
 9
 9
 9
 9
 9
 9
 9
 9
 9
 9
 9
 9
 9
 9
 9
 9
 9
 9
 9
 9
 9
 9
 9
 9
 9
 9
 9
 9
 9
 9
 9
 9
 9
 9
 9
 9
 9
 9
 9
 9
 9
 9
 9
 9
 9
 9
 9
 9
 9
 9
 9
 9
 9
 9
 9
 9
 9
 9
 9
 9
 9
 9
 9
 9
 9
 9
 9
 9
 9
 9
 9
 9
 9
 9
 9
 9
 9
 9
 9
 9
 9
 9
 9
 9
 9
 9
 9
 9
 9
 9
 9
 9
 9
 9
 9
 9
 9
 9
 9
 9
 9
 9
 9
 9
 9
 9
 9
 9
 9
 9
 9
 9
 9
 9
 9
 9
 9
 9
 9
 9
 9
 9
 9
 9
 9
 9
 9
 9
 9
 9
 9
 9
 9
 9
 9
 9
 9
 9
 9
 9
 9
 9
 9
 9
 9
 9
 9
 9
 9
 9
 9
 9
 9
 9
 9
 9
 9
 9
 9
 9
 9
 9
 9
 9
 9
 9
 9
 9
 9
 9
 9
 9
 9
 9
 9
 9
 9
 9
 9
 9
 9
 9
 9
 9
 9
 9
 9
 9
 9
 9
 9
 9
 9
 9
 9
 9
 9
 9
 9
 9
 9
 9
 9
 9
 9
 9
 9
 9
 9
 9
 9
 9
 9
 9
 9
 9
 9
 9
 9
 9
 9
 9
 9
 9
 9
 9
 9
 9
 9
 9
 9
 9
 9
 9
 9
 9
 9
 9
 9
 9
 9
 9
 9
 9
 9
 9
 9
 9
 9
 9
 9
 9
 9
 9
 9
 9
 9
 9
 9
 9
 9
 9
 9
 9
 9
 9
 9
 9
 9
 9
 9
 9
 9
 9
 9
 9
 9
 9
 9
 9
 9
 9
 9
 9
 9
 9
 9
 9
 9
 9
 9
 9
 9
 9
 9
 9
 9
 9
 9
 9
 9
 9
 9
 9
 9
 9
 9
 9
 9
 9
 9
 9
 9
 9
 9
 9
 9
 9
 9
 9
 9
 9
 9
 9
 9
 9
 9
 9
 9
 9
 9
 9
 9
 9
 9
 9
 9
 9
 9
 9
 9
 9
 9
 9
 9
 9
 9
 9
 9
 9
 9
 9
 9
 9
 9
 9
 9
 9
 9
 9
 9
 9
 9
 9
 9
 9
 9
 9
 9
 9
 9
 9
 9
 9
 9
 9
 9
 9
 9
 9
 9
 9
 9
 9
 9
 9
 9
 9
 9
 9
 9
 9
 9
 9
 9
 9
 9
 9
 9
 9
 9
 9
 9
 9
 9
 9
 9
 9
 9
 9
 9
 9
 9
 9
 9
 9
 9
 9
 9
 9
 9
 9
 9
 9
 9
 9
 9
 9
 9
 9
 9
 9
 9
 9
 9
 9
 9
 9
 9
 9
 9
 9
 9
 9
 9
 9
 9
 9
 9
 9
 9
 9
 9
 9
 9
 9
 9
 9
 9
 9
 9
 9
 9
 9
 9
 9
 9
 9
 9
 9
 9
 9
 9
 9
 9
 9
 9
 9
 9
 9
 9
 9
 9
 9
 9
 9
 9
 9
 9
 9
 9
 9
 9
 9
 9
 9
 9
 </DataArray>
 </Cells> 
 <PointData>
 <DataArray  type="Float64" Name="disp" NumberOfComponents="3" format="ascii">
   6.5438868766857311E-002   6.2883588904790441E-002   0.0000000000000000     
   6.8363383047751580E-002   6.8179558791854250E-002   0.0000000000000000     
   7.1248225268352880E-002   7.3689871244744187E-002   0.0000000000000000     
   7.4093395428661238E-002   7.9414526263460253E-002   0.0000000000000000     
   7.6898893528676654E-002   8.5353523848002433E-002   0.0000000000000000     
   6.0238866254270072E-002   6.1917273951844147E-002   0.0000000000000000     
   6.3066984598386347E-002   6.7310788295333296E-002   0.0000000000000000     
   6.5820296265447123E-002   7.2889238325482761E-002   0.0000000000000000     
   6.8498801255452435E-002   7.8652624042292577E-002   0.0000000000000000     
   7.1102499568402283E-002   8.4600945445762743E-002   0.0000000000000000     
   5.5226699433106957E-002   6.1039384760661050E-002   0.0000000000000000     
   5.7924772783316016E-002   6.6492853078528438E-002   0.0000000000000000     
   6.0528329127137258E-002   7.2117253066975209E-002   0.0000000000000000     
   6.3037368464570698E-002   7.7912584726001322E-002   0.0000000000000000     
   6.5451890795616335E-002   8.3878848055606831E-002   0.0000000000000000     
   5.0402368303367952E-002   6.0249921331241164E-002   0.0000000000000000     
   5.2936747602540593E-002   6.5725753141439691E-002   0.0000000000000000     
   5.5372323853423298E-002   7.1373915469221463E-002   0.0000000000000000     
   5.7709097056016040E-002   7.7194408314586488E-002   0.0000000000000000     
   5.9947067210318845E-002   8.3187231677534737E-002   0.0000000000000000     
   4.5765872865053070E-002   5.9548883663584476E-002   0.0000000000000000     
   4.8102909056060086E-002   6.5009488484067082E-002   0.0000000000000000     
   5.0352280444305210E-002   7.0659225532221620E-002   0.0000000000000000     
   5.2513987029788455E-002   7.6498094808048062E-002   0.0000000000000000     
   5.4588028812509806E-002   8.2526096311546421E-002   0.0000000000000000     
   7.6898893528676654E-002   8.5353523848002433E-002   0.0000000000000000     
   7.9628920736539072E-002   9.1475122503061335E-002   0.0000000000000000     
   8.2247678220388448E-002   9.7747580733327621E-002   0.0000000000000000     
   8.4755165980224784E-002  0.10417089853880125        0.0000000000000000     
   8.7151384016048078E-002  0.11074507591948224        0.0000000000000000     
   7.1102499568402283E-002   8.4600945445762743E-002   0.0000000000000000     
   7.3622850616642851E-002   9.0722243860606205E-002   0.0000000000000000     
   7.6051313812520421E-002   9.7004560611536020E-002   0.0000000000000000     
   7.8387889156034965E-002  0.10344789569855216        0.0000000000000000     
   8.0632576647186482E-002  0.11005224912165462        0.0000000000000000     
   6.5451890795616335E-002   8.3878848055606831E-002   0.0000000000000000     
   6.7780250375022555E-002   9.0013361344083012E-002   0.0000000000000000     
   7.0030801457537734E-002   9.6313442879721170E-002   0.0000000000000000     
   7.2203544043161899E-002  0.10277909266252123        0.0000000000000000     
   7.4298478131895024E-002  0.10941031069248330        0.0000000000000000     
   5.9947067210318845E-002   8.3187231677534737E-002   0.0000000000000000     
   6.2101120011678154E-002   8.9348474953491713E-002   0.0000000000000000     
   6.4186141155440385E-002   9.5674227537883003E-002   0.0000000000000000     
   6.6202130641605600E-002  0.10216448943070852        0.0000000000000000     
   6.8149088470173716E-002  0.10881926063196833        0.0000000000000000     
   5.4588028812509806E-002   8.2526096311546421E-002   0.0000000000000000     
   5.6585459526609656E-002   8.8727584688832364E-002   0.0000000000000000     
   5.8517332906228396E-002   9.5086914586021559E-002   0.0000000000000000     
   6.0383648951366047E-002  0.10160408600311398        0.0000000000000000     
   6.2184407662022573E-002  0.10827909894010967        0.0000000000000000     
   8.7151384016048078E-002  0.11074507591948224        0.0000000000000000     
   8.9443480205489034E-002  0.11746016811120366        0.0000000000000000     
   9.1638602426178370E-002  0.12430623034979857        0.0000000000000000     
   9.3736750678116071E-002  0.13128326263526702        0.0000000000000000     
   9.5737924961302123E-002  0.13839126496760895        0.0000000000000000     
   8.0632576647186482E-002  0.11005224912165462        0.0000000000000000     
   8.2785498740394217E-002  0.11680193563677785        0.0000000000000000     
   8.4846777890077454E-002  0.12368126999985636        0.0000000000000000     
   8.6816414096236152E-002  0.13069025221089012        0.0000000000000000     
   8.8694407358870339E-002  0.13782888226987919        0.0000000000000000     
   7.4298478131895024E-002  0.10941031069248330        0.0000000000000000     
   7.6311308410637060E-002  0.11618894666655713        0.0000000000000000     
   7.8237739566287934E-002  0.12309685028169254        0.0000000000000000     
   8.0077771598847630E-002  0.13013402153788953        0.0000000000000000     
   8.1831404508316177E-002  0.13730046043514810        0.0000000000000000     
   6.8149088470173716E-002  0.10881926063196833        0.0000000000000000     
   7.0020909216217550E-002  0.11562120120054151        0.0000000000000000     
   7.1811487454809794E-002  0.12255297119530711        0.0000000000000000     
   7.3520823185950518E-002  0.12961457061626516        0.0000000000000000     
   7.5148916409639638E-002  0.13680599946341571        0.0000000000000000     
   6.2184407662022573E-002  0.10827909894010967        0.0000000000000000     
   6.3914301157135700E-002  0.11509869923873092        0.0000000000000000     
   6.5568021555643105E-002  0.12204963274070005        0.0000000000000000     
   6.7145568857544802E-002  0.12913189944601708        0.0000000000000000     
   6.8646943062840748E-002  0.13634549935468196        0.0000000000000000     
   9.5737924961302123E-002  0.13839126496760895        0.0000000000000000     
   9.7645697412079305E-002  0.14562141106607870        0.0000000000000000     
   9.9463640166790351E-002  0.15296487464993058        0.0000000000000000     
  0.10119175322543522       0.16042165571916461        0.0000000000000000     
  0.10283003658801398       0.16799175427378074        0.0000000000000000     
   8.8694407358870339E-002  0.13782888226987919        0.0000000000000000     
   9.0483437459373275E-002  0.14508793835709424        0.0000000000000000     
   9.2186184179138236E-002  0.15245819865280613        0.0000000000000000     
   9.3802647518165222E-002  0.15993966315701486        0.0000000000000000     
   9.5332827476454246E-002  0.16753233186972036        0.0000000000000000     
   8.1831404508316177E-002  0.13730046043514810        0.0000000000000000     
   8.3500716725550733E-002  0.14458659044402838        0.0000000000000000     
   8.5087786681408470E-002  0.15198283503509044        0.0000000000000000     
   8.6592614375889401E-002  0.15948919420833438        0.0000000000000000     
   8.8015199808993513E-002  0.16710566796376011        0.0000000000000000     
   7.5148916409639638E-002  0.13680599946341571        0.0000000000000000     
   7.6697535210611664E-002  0.14411736732688102        0.0000000000000000     
   7.8168447673601038E-002  0.15153878379678351        0.0000000000000000     
   7.9561653798607745E-002  0.15907024887312318        0.0000000000000000     
   8.0877153585631786E-002  0.16671176255590001        0.0000000000000000     
   6.8646943062840748E-002  0.13634549935468196        0.0000000000000000     
   7.0073892914556096E-002  0.14368026900565220        0.0000000000000000     
   7.1428167155715927E-002  0.15112604493788531        0.0000000000000000     
   7.2709765786320268E-002  0.15868282715138124        0.0000000000000000     
   7.3918688806369065E-002  0.16635061564614004        0.0000000000000000     
  0.10283003658801398       0.16799175427378074        0.0000000000000000     
  0.10437963207675664       0.17566255056013691        0.0000000000000000     
  0.10584168151389328       0.18342142482459095        0.0000000000000000     
  0.10721618489942389       0.19126837706714295        0.0000000000000000     
  0.10850314223334848       0.19920340728779282        0.0000000000000000     
   9.5332827476454246E-002  0.16753233186972036        0.0000000000000000     
   9.6778045870802562E-002  0.17522554266126572        0.0000000000000000     
   9.8139624518007423E-002  0.18300863340199394        0.0000000000000000     
   9.9417563418068886E-002  0.19088160409190513        0.0000000000000000     
  0.10061186257098688       0.19884445473099921        0.0000000000000000     
   8.8015199808993513E-002  0.16710566796376011        0.0000000000000000     
   8.9356646007963947E-002  0.17482250219399192        0.0000000000000000     
   9.0618056000043815E-002  0.18262994279165420        0.0000000000000000     
   9.1799429785233130E-002  0.19052798975674687        0.0000000000000000     
   9.2900767363531908E-002  0.19851664308926997        0.0000000000000000     
   8.0877153585631786E-002  0.16671176255590001        0.0000000000000000     
   8.2115432488240825E-002  0.17445342915831560        0.0000000000000000     
   8.3276975960002428E-002  0.18228535299357168        0.0000000000000000     
   8.4361784000916679E-002  0.19020753406166815        0.0000000000000000     
   8.5369856610983494E-002  0.19821997236260511        0.0000000000000000     
   7.3918688806369065E-002  0.16635061564614004        0.0000000000000000     
   7.5054405311633168E-002  0.17411832355423670        0.0000000000000000     
   7.6116384397883291E-002  0.18197486400774635        0.0000000000000000     
   7.7104626065119475E-002  0.18992023700666896        0.0000000000000000     
   7.8019130313341692E-002  0.19795444255100453        0.0000000000000000     
  0.10850314223334848       0.19920340728779282        0.0000000000000000     
  0.10970889348395996       0.20722327870824767        0.0000000000000000     
  0.11083977861955123       0.21532475455021458        0.0000000000000000     
  0.11189579764012229       0.22350783481369352        0.0000000000000000     
  0.11287695054567315       0.23177251949868449        0.0000000000000000     
  0.10061186257098688       0.19884445473099921        0.0000000000000000     
  0.10172784087854589       0.20689075015675967        0.0000000000000000     
  0.10277081724253033       0.21501405520667002        0.0000000000000000     
  0.10374079166294019       0.22321436988073023        0.0000000000000000     
  0.10463776413977545       0.23149169417894033        0.0000000000000000     
   9.2900767363531908E-002  0.19851664308926997        0.0000000000000000     
   9.3926009467625721E-002  0.20658781395127707        0.0000000000000000     
   9.4879096830200252E-002  0.21473341350482178        0.0000000000000000     
   9.5760029451255460E-002  0.22295344174990403        0.0000000000000000     
   9.6568807330791373E-002  0.23124789868652398        0.0000000000000000     
   8.5369856610983494E-002  0.19821997236260511        0.0000000000000000     
   8.6303399251199411E-002  0.20631447009179982        0.0000000000000000     
   8.7164617382560955E-002  0.21448282944466979        0.0000000000000000     
   8.7953511005068125E-002  0.22272505042121502        0.0000000000000000     
   8.8670080118720879E-002  0.23104113302143550        0.0000000000000000     
   7.8019130313341692E-002  0.19795444255100453        0.0000000000000000     
   7.8860010229267030E-002  0.20607071857832798        0.0000000000000000     
   7.9627378899612522E-002  0.21426230302621416        0.0000000000000000     
   8.0321236324378195E-002  0.22252919589466316        0.0000000000000000     
   8.0941582503564022E-002  0.23087139718367483        0.0000000000000000     
  0.11287695054567315       0.23177251949868449        0.0000000000000000     
  0.11381123269951608       0.24013545073028841        0.0000000000000000     
  0.11472663946496338       0.24861327063360600        0.0000000000000000     
  0.11562317084201501       0.25720597920863730        0.0000000000000000     
  0.11650082683067101       0.26591357645538244        0.0000000000000000     
  0.10463776413977545       0.23149169417894033        0.0000000000000000     
  0.10546672664457832       0.23986987873415169        0.0000000000000000     
  0.10623267114889093       0.24837277417921572        0.0000000000000000     
  0.10693559765271331       0.25700038051413243        0.0000000000000000     
  0.10757550615604539       0.26575269773890176        0.0000000000000000     
   9.6568807330791373E-002  0.23124789868652398        0.0000000000000000     
   9.7296342995961377E-002  0.23964369974905764        0.0000000000000000     
   9.7933548973918816E-002  0.24816776037188112        0.0000000000000000     
   9.8480425264663746E-002  0.25682008055499439        0.0000000000000000     
   9.8936971868196125E-002  0.26560066029839752        0.0000000000000000     
   8.8670080118720879E-002  0.23104113302143550        0.0000000000000000     
   8.9300081753665217E-002  0.23945691377500616        0.0000000000000000     
   8.9829272940047028E-002  0.24799822921160211        0.0000000000000000     
   9.0257653677866354E-002  0.25666507933122323        0.0000000000000000     
   9.0585223967123180E-002  0.26545746413386967        0.0000000000000000     
   8.0941582503564022E-002  0.23087139718367483        0.0000000000000000     
   8.1477942917689866E-002  0.23930952081199738        0.0000000000000000     
   8.1919843047275578E-002  0.24786418069837879        0.0000000000000000     
   8.2267282892321145E-002  0.25653537684281902        0.0000000000000000     
   8.2520262452826565E-002  0.26532310924531827        0.0000000000000000     
  0.11650082683067101       0.26591357645538244        0.0000000000000000     
  0.11729985336625523       0.27490069491485442        0.0000000000000000     
  0.11796049638409156       0.28433196712806647        0.0000000000000000     
  0.11848275588418003       0.29420739309501864        0.0000000000000000     
  0.11886663186652059       0.30452697281571089        0.0000000000000000     
  0.10757550615604539       0.26575269773890176        0.0000000000000000     
  0.10813336277947377       0.27476175407689507        0.0000000000000000     
  0.10859013364358494       0.28415957775148359        0.0000000000000000     
  0.10894581874837887       0.29394616876266733        0.0000000000000000     
  0.10920041809385558       0.30412152711044627        0.0000000000000000     
   9.8936971868196125E-002  0.26560066029839752        0.0000000000000000     
   9.9314185588095016E-002  0.27460762668737504        0.0000000000000000     
   9.9623063227939429E-002  0.28393910680721157        0.0000000000000000     
   9.9863604787729363E-002  0.29359510065790712        0.0000000000000000     
  0.10003581026746484       0.30357560823946156        0.0000000000000000     
   9.0585223967123180E-002  0.26545746413386967        0.0000000000000000     
   9.0842321792118930E-002  0.27443831274629438        0.0000000000000000     
   9.1059285137155055E-002  0.28367055429525045        0.0000000000000000     
   9.1236114002231528E-002  0.29315418878073801        0.0000000000000000     
   9.1372808387348375E-002  0.30288921620275683        0.0000000000000000     
   8.2520262452826565E-002  0.26532310924531827        0.0000000000000000     
   8.2717771391545555E-002  0.27425381225365308        0.0000000000000000     
   8.2898799371231832E-002  0.28335392021560030        0.0000000000000000     
   8.3063346391885368E-002  0.29262343313115996        0.0000000000000000     
   8.3211412453506189E-002  0.30206235100033202        0.0000000000000000     
   4.5765872865053070E-002   5.9548883663584476E-002   0.0000000000000000     
   4.8102909056060086E-002   6.5009488484067082E-002   0.0000000000000000     
   5.0352280444305210E-002   7.0659225532221620E-002   0.0000000000000000     
   5.2513987029788455E-002   7.6498094808048062E-002   0.0000000000000000     
   5.4588028812509806E-002   8.2526096311546421E-002   0.0000000000000000     
   4.1304966314637773E-002   5.8904398828384580E-002   0.0000000000000000     
   4.3433522731643012E-002   6.4349004907596208E-002   0.0000000000000000     
   4.5490177500531193E-002   6.9999214958948161E-002   0.0000000000000000     
   4.7474930621302314E-002   7.5855028982440453E-002   0.0000000000000000     
   4.9387782093956382E-002   8.1916446978073085E-002   0.0000000000000000     
   3.7007401848597542E-002   5.8284593896335085E-002   0.0000000000000000     
   3.8938854217057881E-002   6.3749248213212706E-002   0.0000000000000000     
   4.0807993622849370E-002   6.9419915452373707E-002   0.0000000000000000     
   4.2614820065971996E-002   7.5296595613818088E-002   0.0000000000000000     
   4.4359333546425767E-002   8.1379288697545862E-002   0.0000000000000000     
   3.2873179466932377E-002   5.7689468867435964E-002   0.0000000000000000     
   3.4618903512304719E-002   6.3210218400916562E-002   0.0000000000000000     
   3.6305728811259756E-002   6.8921327012498243E-002   0.0000000000000000     
   3.7933655363797496E-002   7.4822794702180978E-002   0.0000000000000000     
   3.9502683169917965E-002   8.0914621469964795E-002   0.0000000000000000     
   2.8902299169642279E-002   5.7119023741687251E-002   0.0000000000000000     
   3.0473670617383500E-002   6.2731915470707791E-002   0.0000000000000000     
   3.1983383065762351E-002   6.8503449639321742E-002   0.0000000000000000     
   3.3431436514778833E-002   7.4433626247529097E-002   0.0000000000000000     
   3.4817830964432958E-002   8.0522445295329870E-002   0.0000000000000000     
   5.4588028812509806E-002   8.2526096311546421E-002   0.0000000000000000     
   5.6585459526609656E-002   8.8727584688832364E-002   0.0000000000000000     
   5.8517332906228396E-002   9.5086914586021559E-002   0.0000000000000000     
   6.0383648951366047E-002  0.10160408600311398        0.0000000000000000     
   6.2184407662022573E-002  0.10827909894010967        0.0000000000000000     
   4.9387782093956382E-002   8.1916446978073085E-002   0.0000000000000000     
   5.1232919324356710E-002   8.8156264724487260E-002   0.0000000000000000     
   5.3014529718366593E-002   9.4547278000324281E-002   0.0000000000000000     
   5.4732613275986039E-002  0.10108948680558411        0.0000000000000000     
   5.6387169997215048E-002  0.10778289114026679        0.0000000000000000     
   4.4359333546425767E-002   8.1379288697545862E-002   0.0000000000000000     
   4.6043149809458950E-002   8.7640089234838792E-002   0.0000000000000000     
   4.7667884600319822E-002   9.4051091756978650E-002   0.0000000000000000     
   4.9233537919008363E-002  0.10061229626396542        0.0000000000000000     
   5.0740109765524580E-002  0.10732370275579912        0.0000000000000000     
   3.9502683169917965E-002   8.0914621469964795E-002   0.0000000000000000     
   4.1016150981916397E-002   8.7179058219886932E-002   0.0000000000000000     
   4.2477397552088077E-002   9.3598355855984625E-002   0.0000000000000000     
   4.3886422880433006E-002  0.10017251437825787        0.0000000000000000     
   4.5243226966951190E-002  0.10690153378670668        0.0000000000000000     
   3.4817830964432958E-002   8.0522445295329870E-002   0.0000000000000000     
   3.6151922841729030E-002   8.6773171679631694E-002   0.0000000000000000     
   3.7443068573671377E-002   9.3189070297342233E-002   0.0000000000000000     
   3.8691268160259994E-002   9.9770141148461500E-002   0.0000000000000000     
   3.9896521601494872E-002  0.10651638423298947        0.0000000000000000     
   6.2184407662022573E-002  0.10827909894010967        0.0000000000000000     
   6.3914301157135700E-002  0.11509869923873092        0.0000000000000000     
   6.5568021555643105E-002  0.12204963274070005        0.0000000000000000     
   6.7145568857544802E-002  0.12913189944601708        0.0000000000000000     
   6.8646943062840748E-002  0.13634549935468196        0.0000000000000000     
   5.6387169997215048E-002  0.10778289114026679        0.0000000000000000     
   5.7974441137687342E-002  0.11461840562277892        0.0000000000000000     
   5.9490667953036674E-002  0.12158694487152712        0.0000000000000000     
   6.0935850443263023E-002  0.12868850888651143        0.0000000000000000     
   6.2309988608366423E-002  0.13592309766773178        0.0000000000000000     
   5.0740109765524580E-002  0.10732370275579912        0.0000000000000000     
   5.2184286062168309E-002  0.11417728519433892        0.0000000000000000     
   5.3562752731239394E-002  0.12116501754144403        0.0000000000000000     
   5.4875509772737814E-002  0.12828689979711441        0.0000000000000000     
   5.6122557186663598E-002  0.13554293196135006        0.0000000000000000     
   4.5243226966951190E-002  0.10690153378670668        0.0000000000000000     
   4.6543835930578620E-002  0.11377533795341101        0.0000000000000000     
   4.7784275890251270E-002  0.12078385075045078        0.0000000000000000     
   4.8964546845969154E-002  0.12792707217782603        0.0000000000000000     
   5.0084648797732265E-002  0.13520500223553675        0.0000000000000000     
   3.9896521601494872E-002  0.10651638423298947        0.0000000000000000     
   4.1053090742918248E-002  0.11341256389999511        0.0000000000000000     
   4.2155237430072295E-002  0.12044344449854738        0.0000000000000000     
   4.3202961662957028E-002  0.12760902602864629        0.0000000000000000     
   4.4196263441572445E-002  0.13490930849029181        0.0000000000000000     
   6.8646943062840748E-002  0.13634549935468196        0.0000000000000000     
   7.0073892914556096E-002  0.14368026900565220        0.0000000000000000     
   7.1428167155715927E-002  0.15112604493788531        0.0000000000000000     
   7.2709765786320268E-002  0.15868282715138124        0.0000000000000000     
   7.3918688806369065E-002  0.16635061564614004        0.0000000000000000     
   6.2309988608366423E-002  0.13592309766773178        0.0000000000000000     
   6.3614896464040158E-002  0.14328018977723100        0.0000000000000000     
   6.4852388025977592E-002  0.15074926377705175        0.0000000000000000     
   6.6022463294178727E-002  0.15833031966719407        0.0000000000000000     
   6.7125122268643533E-002  0.16602335744765789        0.0000000000000000     
   5.6122557186663598E-002  0.13554293196135006        0.0000000000000000     
   5.7305652485720039E-002  0.14292202393850634        0.0000000000000000     
   5.8426553182610468E-002  0.15041308563293868        0.0000000000000000     
   5.9485259277334883E-002  0.15801611704464696        0.0000000000000000     
   6.0481770769893299E-002  0.16573111817363129        0.0000000000000000     
   5.0084648797732265E-002  0.13520500223553675        0.0000000000000000     
   5.1146160979595706E-002  0.14260577148947828        0.0000000000000000     
   5.2150662625614533E-002  0.15011751050554603        0.0000000000000000     
   5.3098153735788765E-002  0.15774021928373994        0.0000000000000000     
   5.3988634310118397E-002  0.16547389782406013        0.0000000000000000     
   4.4196263441572445E-002  0.13490930849029181        0.0000000000000000     
   4.5136421945667159E-002  0.14233143243014679        0.0000000000000000     
   4.6024716354989795E-002  0.14986253839487385        0.0000000000000000     
   4.6861146669540360E-002  0.15750262638447307        0.0000000000000000     
   4.7645712889318820E-002  0.16525169639894446        0.0000000000000000     
   7.3918688806369065E-002  0.16635061564614004        0.0000000000000000     
   7.5054405311633168E-002  0.17411832355423670        0.0000000000000000     
   7.6116384397883291E-002  0.18197486400774635        0.0000000000000000     
   7.7104626065119475E-002  0.18992023700666896        0.0000000000000000     
   7.8019130313341692E-002  0.19795444255100453        0.0000000000000000     
   6.7125122268643533E-002  0.16602335744765789        0.0000000000000000     
   6.8158825624229896E-002  0.17381608887179423        0.0000000000000000     
   6.9122034035795726E-002  0.18169622569295396        0.0000000000000000     
   7.0014747503341010E-002  0.18966376791113718        0.0000000000000000     
   7.0836966026865747E-002  0.19771871552634379        0.0000000000000000     
   6.0481770769893299E-002  0.16573111817363129        0.0000000000000000     
   6.1413954572119948E-002  0.17354562860102715        0.0000000000000000     
   6.2279677595849119E-002  0.18144718790797032        0.0000000000000000     
   6.3078939841080761E-002  0.18943579609446065        0.0000000000000000     
   6.3811741307814918E-002  0.19751145316049826        0.0000000000000000     
   5.3988634310118397E-002  0.16547389782406013        0.0000000000000000     
   5.4819792155303332E-002  0.17330694274193559        0.0000000000000000     
   5.5589315078043426E-002  0.18122775065279534        0.0000000000000000     
   5.6297203078338721E-002  0.18923632155663947        0.0000000000000000     
   5.6943456156189190E-002  0.19733265545346798        0.0000000000000000     
   4.7645712889318820E-002  0.16525169639894446        0.0000000000000000     
   4.8376338373780012E-002  0.17310003129451937        0.0000000000000000     
   4.9050946482378691E-002  0.18103791392742907        0.0000000000000000     
   4.9669537215114877E-002  0.18906534429767358        0.0000000000000000     
   5.0232110571988578E-002  0.19718232240525291        0.0000000000000000     
   7.8019130313341692E-002  0.19795444255100453        0.0000000000000000     
   7.8860010229267030E-002  0.20607071857832798        0.0000000000000000     
   7.9627378899612522E-002  0.21426230302621416        0.0000000000000000     
   8.0321236324378195E-002  0.22252919589466316        0.0000000000000000     
   8.0941582503564022E-002  0.23087139718367483        0.0000000000000000     
   7.0836966026865747E-002  0.19771871552634379        0.0000000000000000     
   7.1586936174759391E-002  0.20585581688218982        0.0000000000000000     
   7.2262904515411369E-002  0.21406982032229130        0.0000000000000000     
   7.2864871048821708E-002  0.22236072584664826        0.0000000000000000     
   7.3392835774990395E-002  0.23072853345526065        0.0000000000000000     
   6.3811741307814918E-002  0.19751145316049826        0.0000000000000000     
   6.4475270860607392E-002  0.20566902247471372        0.0000000000000000     
   6.5066717364014010E-002  0.21390336740573779        0.0000000000000000     
   6.5586080818034742E-002  0.22221448795357041        0.0000000000000000     
   6.6033361222669659E-002  0.23060238411821160        0.0000000000000000     
   5.6943456156189190E-002  0.19733265545346798        0.0000000000000000     
   5.7525014286811019E-002  0.20551033535589969        0.0000000000000000     
   5.8038817445420401E-002  0.21376294427655354        0.0000000000000000     
   5.8484865632017331E-002  0.22209048221542954        0.0000000000000000     
   5.8863158846601815E-002  0.23049294917252766        0.0000000000000000     
   5.0232110571988578E-002  0.19718232240525291        0.0000000000000000     
   5.0736166453370299E-002  0.20537975552574766        0.0000000000000000     
   5.1179204759630587E-002  0.21364855093473861        0.0000000000000000     
   5.1561225490769427E-002  0.22198870863222570        0.0000000000000000     
   5.1882228646786835E-002  0.23040022861820891        0.0000000000000000     
   8.0941582503564022E-002  0.23087139718367483        0.0000000000000000     
   8.1477942917689866E-002  0.23930952081199738        0.0000000000000000     
   8.1919843047275578E-002  0.24786418069837879        0.0000000000000000     
   8.2267282892321145E-002  0.25653537684281902        0.0000000000000000     
   8.2520262452826565E-002  0.26532310924531827        0.0000000000000000     
   7.3392835774990395E-002  0.23072853345526065        0.0000000000000000     
   7.3843671072077829E-002  0.23918658326598330        0.0000000000000000     
   7.4214249318244427E-002  0.24774821539667086        0.0000000000000000     
   7.4504570513490145E-002  0.25641342984732340        0.0000000000000000     
   7.4714634657815027E-002  0.26518222661794100        0.0000000000000000     
   6.6033361222669659E-002  0.23060238411821160        0.0000000000000000     
   6.6411010800871625E-002  0.23907316354291597        0.0000000000000000     
   6.6721481775593547E-002  0.24763293387093813        0.0000000000000000     
   6.6964774146835451E-002  0.25628169510227800        0.0000000000000000     
   6.7140887914597325E-002  0.26501944723693566        0.0000000000000000     
   5.8863158846601815E-002  0.23049294917252766        0.0000000000000000     
   5.9179962104071206E-002  0.23896926164279553        0.0000000000000000     
   5.9441540419322959E-002  0.24751833612118054        0.0000000000000000     
   5.9647893792357035E-002  0.25614017260768279        0.0000000000000000     
   5.9799022223173438E-002  0.26483477110230230        0.0000000000000000     
   5.1882228646786835E-002  0.23040022861820891        0.0000000000000000     
   5.2150524981676639E-002  0.23887487756562184        0.0000000000000000     
   5.2374425249432657E-002  0.24740442214739816        0.0000000000000000     
   5.2553929450054902E-002  0.25598886236353785        0.0000000000000000     
   5.2689037583543381E-002  0.26462819821404082        0.0000000000000000     
   8.2520262452826565E-002  0.26532310924531827        0.0000000000000000     
   8.2717771391545555E-002  0.27425381225365308        0.0000000000000000     
   8.2898799371231832E-002  0.28335392021560030        0.0000000000000000     
   8.3063346391885368E-002  0.29262343313115996        0.0000000000000000     
   8.3211412453506189E-002  0.30206235100033202        0.0000000000000000     
   7.4714634657815027E-002  0.26518222661794100        0.0000000000000000     
   7.4885397891490568E-002  0.27404845514507636        0.0000000000000000     
   7.5057816354788295E-002  0.28300596486528251        0.0000000000000000     
   7.5231890047708194E-002  0.29205475577855933        0.0000000000000000     
   7.5407618970250279E-002  0.30119482788490681        0.0000000000000000     
   6.7140887914597325E-002  0.26501944723693566        0.0000000000000000     
   6.7290064797069657E-002  0.27381657135618964        0.0000000000000000     
   6.7452546512443007E-002  0.28264344854131856        0.0000000000000000     
   6.7628333060717319E-002  0.29150007879232231        0.0000000000000000     
   6.7817424441892621E-002  0.30038646210920100        0.0000000000000000     
   5.9799022223173438E-002  0.26483477110230230        0.0000000000000000     
   5.9931772108282842E-002  0.27355816088699286        0.0000000000000000     
   6.0082989844195953E-002  0.28226637124370835        0.0000000000000000     
   6.0252675430912742E-002  0.29095940217244892        0.0000000000000000     
   6.0440828868433230E-002  0.29963725367321437        0.0000000000000000     
   5.2689037583543381E-002  0.26462819821404082        0.0000000000000000     
   5.2810519825130117E-002  0.27327322373748603        0.0000000000000000     
   5.2949146350047153E-002  0.28187473297245214        0.0000000000000000     
   5.3104917158294476E-002  0.29043272591893915        0.0000000000000000     
   5.3277832249872099E-002  0.29894720257694707        0.0000000000000000     
   2.8902299169642279E-002   5.7119023741687251E-002   0.0000000000000000     
   3.0473670617383500E-002   6.2731915470707791E-002   0.0000000000000000     
   3.1983383065762351E-002   6.8503449639321742E-002   0.0000000000000000     
   3.3431436514778833E-002   7.4433626247529097E-002   0.0000000000000000     
   3.4817830964432958E-002   8.0522445295329870E-002   0.0000000000000000     
   2.5053197520742670E-002   5.6611843580195470E-002   0.0000000000000000     
   2.6449653523749422E-002   6.2311177977018101E-002   0.0000000000000000     
   2.7781868928451948E-002   6.8138877546511697E-002   0.0000000000000000     
   2.9049843734850249E-002   7.4094942288676191E-002   0.0000000000000000     
   3.0253577942944310E-002   8.0179372203511637E-002   0.0000000000000000     
   2.1284311084248997E-002   5.6206513444067192E-002   0.0000000000000000     
   2.2493350222857707E-002   6.1944844474279254E-002   0.0000000000000000     
   2.3642098941423377E-002   6.7800204947735532E-002   0.0000000000000000     
   2.4730557239946004E-002   7.3772594864436006E-002   0.0000000000000000     
   2.5758725118425592E-002   7.9862014224380676E-002   0.0000000000000000     
   1.7595639860161244E-002   5.5903033333302397E-002   0.0000000000000000     
   1.8604760714708332E-002   6.1632914962491195E-002   0.0000000000000000     
   1.9564073104676619E-002   6.7487431842993217E-002   0.0000000000000000     
   2.0473577030066095E-002   7.3466583974808500E-002   0.0000000000000000     
   2.1333272490876784E-002   7.9570371357936986E-002   0.0000000000000000     
   1.3987183848479428E-002   5.5701403247901099E-002   0.0000000000000000     
   1.4783884999301306E-002   6.1375389441653980E-002   0.0000000000000000     
   1.5547791418211677E-002   6.7200558232284838E-002   0.0000000000000000     
   1.6278903105210542E-002   7.3176909619793687E-002   0.0000000000000000     
   1.6977220060297900E-002   7.9304443604180541E-002   0.0000000000000000     
   3.4817830964432958E-002   8.0522445295329870E-002   0.0000000000000000     
   3.6151922841729030E-002   8.6773171679631694E-002   0.0000000000000000     
   3.7443068573671377E-002   9.3189070297342233E-002   0.0000000000000000     
   3.8691268160259994E-002   9.9770141148461500E-002   0.0000000000000000     
   3.9896521601494872E-002  0.10651638423298947        0.0000000000000000     
   3.0253577942944310E-002   8.0179372203511637E-002   0.0000000000000000     
   3.1408184496675796E-002   8.6415620472991686E-002   0.0000000000000000     
   3.2528776339986340E-002   9.2827140279090017E-002   0.0000000000000000     
   3.3615353472875940E-002   9.9413931621806603E-002   0.0000000000000000     
   3.4667915895344591E-002  0.10617599450114149        0.0000000000000000     
   2.5758725118425592E-002   7.9862014224380676E-002   0.0000000000000000     
   2.6742655054535620E-002   8.6099595458885514E-002   0.0000000000000000     
   2.7698399525949581E-002   9.2516470999266479E-002   0.0000000000000000     
   2.8625958532667466E-002   9.9112640845523556E-002   0.0000000000000000     
   2.9525332074689277E-002  0.10588810499765673        0.0000000000000000     
   2.1333272490876784E-002   7.9570371357936986E-002   0.0000000000000000     
   2.2155334515308506E-002   8.5825096637313192E-002   0.0000000000000000     
   2.2951938131561107E-002   9.2257062457871630E-002   0.0000000000000000     
   2.3723083339634587E-002   9.8866268819612316E-002   0.0000000000000000     
   2.4468770139528938E-002  0.10565271572253523        0.0000000000000000     
   1.6977220060297900E-002   7.9304443604180541E-002   0.0000000000000000     
   1.7646222878994457E-002   8.5592124008274706E-002   0.0000000000000000     
   1.8289392156820922E-002   9.2048914654905473E-002   0.0000000000000000     
   1.8906727893777293E-002   9.8674815544072911E-002   0.0000000000000000     
   1.9498230089863577E-002  0.10546982667577694        0.0000000000000000     
   3.9896521601494872E-002  0.10651638423298947        0.0000000000000000     
   4.1053090742918248E-002  0.11341256389999511        0.0000000000000000     
   4.2155237430072295E-002  0.12044344449854738        0.0000000000000000     
   4.3202961662957028E-002  0.12760902602864629        0.0000000000000000     
   4.4196263441572445E-002  0.13490930849029181        0.0000000000000000     
   3.4667915895344591E-002  0.10617599450114149        0.0000000000000000     
   3.5679399656701138E-002  0.11309296926629955        0.0000000000000000     
   3.6642740806254417E-002  0.12014449626648584        0.0000000000000000     
   3.7557939344004435E-002  0.12733057550170024        0.0000000000000000     
   3.8424995269951176E-002  0.13465120697194286        0.0000000000000000     
   2.9525332074689277E-002  0.10588810499765673        0.0000000000000000     
   3.0390111829441246E-002  0.11282056028453269        0.0000000000000000     
   3.1213889474349606E-002  0.11988770353501811        0.0000000000000000     
   3.1996665009414359E-002  0.12708953474911297        0.0000000000000000     
   3.2738438434635503E-002  0.13442605392681728        0.0000000000000000     
   2.4468770139528938E-002  0.10565271572253523        0.0000000000000000     
   2.5185227261138560E-002  0.11259533695469448        0.0000000000000000     
   2.5868683434357848E-002  0.11967306630414420        0.0000000000000000     
   2.6519138659186800E-002  0.12688590377088441        0.0000000000000000     
   2.7136592935625425E-002  0.13423384935491503        0.0000000000000000     
   1.9498230089863577E-002  0.10546982667577694        0.0000000000000000     
   2.0064745951793087E-002  0.11241729927678493        0.0000000000000000     
   2.0607122686279150E-002  0.11950058457386414        0.0000000000000000     
   2.1125360293321772E-002  0.12671968256701457        0.0000000000000000     
   2.1619458772920947E-002  0.13407459325623627        0.0000000000000000     
   4.4196263441572445E-002  0.13490930849029181        0.0000000000000000     
   4.5136421945667159E-002  0.14233143243014679        0.0000000000000000     
   4.6024716354989795E-002  0.14986253839487385        0.0000000000000000     
   4.6861146669540360E-002  0.15750262638447307        0.0000000000000000     
   4.7645712889318820E-002  0.16525169639894446        0.0000000000000000     
   3.8424995269951176E-002  0.13465120697194286        0.0000000000000000     
   3.9244696316998062E-002  0.14209268234564371        0.0000000000000000     
   4.0017830218048507E-002  0.14964129329123291        0.0000000000000000     
   4.0744396973102517E-002  0.15729703980871049        0.0000000000000000     
   4.1424396582160086E-002  0.16505992189807642        0.0000000000000000     
   3.2738438434635503E-002  0.13442605392681728        0.0000000000000000     
   3.3439245026652013E-002  0.14188319682110093        0.0000000000000000     
   3.4099120062102889E-002  0.14944689918493395        0.0000000000000000     
   3.4718063540988116E-002  0.15711716101831630        0.0000000000000000     
   3.5296075463307701E-002  0.16489398232124797        0.0000000000000000     
   2.7136592935625425E-002  0.13423384935491503        0.0000000000000000     
   2.7720068074629026E-002  0.14170297585651848        0.0000000000000000     
   2.8268585887152937E-002  0.14927935607597698        0.0000000000000000     
   2.8782146373197145E-002  0.15696299001329056        0.0000000000000000     
   2.9260749532761660E-002  0.16475387766845917        0.0000000000000000     
   2.1619458772920947E-002  0.13407459325623627        0.0000000000000000     
   2.2087165460929099E-002  0.14155201945189633        0.0000000000000000     
   2.2526227693198654E-002  0.14913866396436201        0.0000000000000000     
   2.2936645469729608E-002  0.15683452679363322        0.0000000000000000     
   2.3318418790521964E-002  0.16463960793971000        0.0000000000000000     
   4.7645712889318820E-002  0.16525169639894446        0.0000000000000000     
   4.8376338373780012E-002  0.17310003129451937        0.0000000000000000     
   4.9050946482378691E-002  0.18103791392742907        0.0000000000000000     
   4.9669537215114877E-002  0.18906534429767358        0.0000000000000000     
   5.0232110571988578E-002  0.19718232240525291        0.0000000000000000     
   4.1424396582160086E-002  0.16505992189807642        0.0000000000000000     
   4.2056164608568522E-002  0.17292201768401577        0.0000000000000000     
   4.2638036615675140E-002  0.18087540529121374        0.0000000000000000     
   4.3170012603479926E-002  0.18892008471967017        0.0000000000000000     
   4.3652092571982895E-002  0.19705605596938516        0.0000000000000000     
   3.5296075463307701E-002  0.16489398232124797        0.0000000000000000     
   3.5831842240687410E-002  0.17277002533566205        0.0000000000000000     
   3.6324050284753016E-002  0.18073795230349154        0.0000000000000000     
   3.6772699595504540E-002  0.18879776322473654        0.0000000000000000     
   3.7177790172941948E-002  0.19694945809939696        0.0000000000000000     
   2.9260749532761660E-002  0.16475387766845917        0.0000000000000000     
   2.9703371270136662E-002  0.17264405424945814        0.0000000000000000     
   3.0108987489612347E-002  0.18062555496426264        0.0000000000000000     
   3.0477598191188705E-002  0.18869837981287260        0.0000000000000000     
   3.0809203374865743E-002  0.19686252879528821        0.0000000000000000     
   2.3318418790521964E-002  0.16463960793971000        0.0000000000000000     
   2.3670751696916278E-002  0.17254410442540399        0.0000000000000000     
   2.3992848230253102E-002  0.18053821327352682        0.0000000000000000     
   2.4284708390532438E-002  0.18862193448407849        0.0000000000000000     
   2.4546332177754288E-002  0.19679526805705894        0.0000000000000000     
   5.0232110571988578E-002  0.19718232240525291        0.0000000000000000     
   5.0736166453370299E-002  0.20537975552574766        0.0000000000000000     
   5.1179204759630587E-002  0.21364855093473861        0.0000000000000000     
   5.1561225490769427E-002  0.22198870863222570        0.0000000000000000     
   5.1882228646786835E-002  0.23040022861820891        0.0000000000000000     
   4.3652092571982895E-002  0.19705605596938516        0.0000000000000000     
   4.4082694623516702E-002  0.20527124178544801        0.0000000000000000     
   4.4460236860414032E-002  0.21355356491294791        0.0000000000000000     
   4.4784719282674863E-002  0.22190302535188497        0.0000000000000000     
   4.5056141890299231E-002  0.23031962310225904        0.0000000000000000     
   3.7177790172941948E-002  0.19694945809939696        0.0000000000000000     
   3.7538566060481685E-002  0.20517875293619089        0.0000000000000000     
   3.7854271301540177E-002  0.21347136374383635        0.0000000000000000     
   3.8124905896117438E-002  0.22182729052233335        0.0000000000000000     
   3.8350469844213454E-002  0.23024653327168193        0.0000000000000000     
   3.0809203374865743E-002  0.19686252879528821        0.0000000000000000     
   3.1103780764265260E-002  0.20510228897797633        0.0000000000000000     
   3.1361308083009062E-002  0.21340194742740390        0.0000000000000000     
   3.1581785331097137E-002  0.22176150414357101        0.0000000000000000     
   3.1765212508529497E-002  0.23018095912647757        0.0000000000000000     
   2.4546332177754288E-002  0.19679526805705894        0.0000000000000000     
   2.4778338734867435E-002  0.20504184991080429        0.0000000000000000     
   2.4981347204820661E-002  0.21334531596365056        0.0000000000000000     
   2.5155357587613978E-002  0.22170566621559781        0.0000000000000000     
   2.5300369883247374E-002  0.23012290066664598        0.0000000000000000     
   5.1882228646786835E-002  0.23040022861820891        0.0000000000000000     
   5.2150524981676639E-002  0.23887487756562184        0.0000000000000000     
   5.2374425249432657E-002  0.24740442214739816        0.0000000000000000     
   5.2553929450054902E-002  0.25598886236353785        0.0000000000000000     
   5.2689037583543381E-002  0.26462819821404082        0.0000000000000000     
   4.5056141890299231E-002  0.23031962310225904        0.0000000000000000     
   4.5283551295782307E-002  0.23878859466499214        0.0000000000000000     
   4.5475994111619310E-002  0.24729517654100619        0.0000000000000000     
   4.5633470337810220E-002  0.25583936873030111        0.0000000000000000     
   4.5755979974355057E-002  0.26442117123287695        0.0000000000000000     
   3.8350469844213454E-002  0.23024653327168193        0.0000000000000000     
   3.8539892908482677E-002  0.23870899629450359        0.0000000000000000     
   3.8702104851579565E-002  0.24719458389341983        0.0000000000000000     
   3.8837105673504131E-002  0.25570329606843067        0.0000000000000000     
   3.8944895374256355E-002  0.26423513281953620        0.0000000000000000     
   3.1765212508529497E-002  0.23018095912647757        0.0000000000000000     
   3.1919549819777737E-002  0.23863608245415616        0.0000000000000000     
   3.2052757469313437E-002  0.24710264420463915        0.0000000000000000     
   3.2164835457136623E-002  0.25558064437792660        0.0000000000000000     
   3.2255783783247283E-002  0.26407008297401857        0.0000000000000000     
   2.5300369883247374E-002  0.23012290066664598        0.0000000000000000     
   2.5422522029667480E-002  0.23856985314394985        0.0000000000000000     
   2.5527951964820928E-002  0.24701935747466414        0.0000000000000000     
   2.5616659688707709E-002  0.25547141365878889        0.0000000000000000     
   2.5688645201327825E-002  0.26392602169632406        0.0000000000000000     
   5.2689037583543381E-002  0.26462819821404082        0.0000000000000000     
   5.2810519825130117E-002  0.27327322373748603        0.0000000000000000     
   5.2949146350047153E-002  0.28187473297245214        0.0000000000000000     
   5.3104917158294476E-002  0.29043272591893915        0.0000000000000000     
   5.3277832249872099E-002  0.29894720257694707        0.0000000000000000     
   4.5755979974355057E-002  0.26442117123287695        0.0000000000000000     
   4.5867575449027025E-002  0.27299049143564702        0.0000000000000000     
   4.5992309189599338E-002  0.28149723672552479        0.0000000000000000     
   4.6130181196071970E-002  0.28994140710251021        0.0000000000000000     
   4.6281191468444956E-002  0.29832300256660316        0.0000000000000000     
   3.8944895374256355E-002  0.26423513281953620        0.0000000000000000     
   3.9044206481389107E-002  0.27273869550945390        0.0000000000000000     
   3.9153771522455215E-002  0.28116258550090156        0.0000000000000000     
   3.9273590497454693E-002  0.28950680279387903        0.0000000000000000     
   3.9403663406387519E-002  0.29777134738838651        0.0000000000000000     
   3.2255783783247283E-002  0.26407008297401857        0.0000000000000000     
   3.2340412922216358E-002  0.27251783595890661        0.0000000000000000     
   3.2433533348614804E-002  0.28087077929858234        0.0000000000000000     
   3.2535145062442608E-002  0.28912891299304594        0.0000000000000000     
   3.2645248063699790E-002  0.29729223704229724        0.0000000000000000     
   2.5688645201327825E-002  0.26392602169632406        0.0000000000000000     
   2.5756194771508790E-002  0.27232791278400509        0.0000000000000000     
   2.5831594668078099E-002  0.28062181811856723        0.0000000000000000     
   2.5914844891035762E-002  0.28880773770001072        0.0000000000000000     
   2.6005945440381775E-002  0.29688567152833534        0.0000000000000000     
   1.3987183848479428E-002   5.5701403247901099E-002   0.0000000000000000     
   1.4783884999301306E-002   6.1375389441653980E-002   0.0000000000000000     
   1.5547791418211677E-002   6.7200558232284838E-002   0.0000000000000000     
   1.6278903105210542E-002   7.3176909619793687E-002   0.0000000000000000     
   1.6977220060297900E-002   7.9304443604180541E-002   0.0000000000000000     
   1.0436723561759433E-002   5.5569536308322412E-002   0.0000000000000000     
   1.1019628076726741E-002   6.1173856356412398E-002   0.0000000000000000     
   1.1586997247671585E-002   6.6960874851268934E-002   0.0000000000000000     
   1.2138831074593964E-002   7.2930591792891991E-002   0.0000000000000000     
   1.2675129557493878E-002   7.9083007181281598E-002   0.0000000000000000     
   6.9220395125571561E-003   5.5475345635025444E-002   0.0000000000000000     
   7.3008949470747524E-003   6.1029904151411317E-002   0.0000000000000000     
   7.6754339586993696E-003   6.6789672435604103E-002   0.0000000000000000     
   8.0456565474310085E-003   7.2754650487603781E-002   0.0000000000000000     
   8.4115627132696665E-003   7.8924838307410372E-002   0.0000000000000000     
   3.4431317008725986E-003   5.5418831228010182E-002   0.0000000000000000     
   3.6276856103453392E-003   6.0943532826650743E-002   0.0000000000000000     
   3.8131015512950311E-003   6.6686950985290372E-002   0.0000000000000000     
   3.9993795237216736E-003   7.2649085703929098E-002   0.0000000000000000     
   4.1865195276252669E-003   7.8829936982566892E-002   0.0000000000000000     
   1.2670576003334655E-010   5.5399993087276653E-002   0.0000000000000000     
   6.6538502138668854E-011   6.0914742382130661E-002   0.0000000000000000     
   2.5458568521548319E-011   6.6652710500327728E-002   0.0000000000000000     
   3.4659612690741276E-012   7.2613897441867886E-002   0.0000000000000000     
   5.6067693890438086E-013   7.8798303206751130E-002   0.0000000000000000     
   1.6977220060297900E-002   7.9304443604180541E-002   0.0000000000000000     
   1.7646222878994457E-002   8.5592124008274706E-002   0.0000000000000000     
   1.8289392156820922E-002   9.2048914654905473E-002   0.0000000000000000     
   1.8906727893777293E-002   9.8674815544072911E-002   0.0000000000000000     
   1.9498230089863577E-002  0.10546982667577694        0.0000000000000000     
   1.2675129557493878E-002   7.9083007181281598E-002   0.0000000000000000     
   1.3190828560791869E-002   8.5406440666886824E-002   0.0000000000000000     
   1.3680863948908484E-002   9.1889211900156739E-002   0.0000000000000000     
   1.4145235721843721E-002   9.8531320881091372E-002   0.0000000000000000     
   1.4583943879597581E-002  0.10533276760969072        0.0000000000000000     
   8.4115627132696665E-003   7.8924838307410372E-002   0.0000000000000000     
   8.7646599758991507E-003   8.5273809708266340E-002   0.0000000000000000     
   9.0964558550032572E-003   9.1775138503414178E-002   0.0000000000000000     
   9.4069503505819895E-003   9.8428824692853842E-002   0.0000000000000000     
   9.6961434626353492E-003  0.10523486827658539        0.0000000000000000     
   4.1865195276252669E-003   7.8829936982566892E-002   0.0000000000000000     
   4.3677171243162926E-003   8.5194231132413284E-002   0.0000000000000000     
   4.5361678751052363E-003   9.1706694464677746E-002   0.0000000000000000     
   4.6918717799920955E-003   9.8367326979360306E-002   0.0000000000000000     
   4.8348288389768717E-003  0.10517612867646095        0.0000000000000000     
   5.6067693890438086E-013   7.8798303206751130E-002   0.0000000000000000     
   6.0433038781559922E-012   8.5167704939327599E-002   0.0000000000000000     
   9.2144253381956642E-012   9.1683879783947472E-002   0.0000000000000000     
   1.0074042864011493E-011   9.8346827740610737E-002   0.0000000000000000     
   8.6221550732457075E-012  0.10515654880931739        0.0000000000000000     
   1.9498230089863577E-002  0.10546982667577694        0.0000000000000000     
   2.0064745951793087E-002  0.11241729927678493        0.0000000000000000     
   2.0607122686279150E-002  0.11950058457386414        0.0000000000000000     
   2.1125360293321772E-002  0.12671968256701457        0.0000000000000000     
   2.1619458772920947E-002  0.13407459325623627        0.0000000000000000     
   1.4583943879597581E-002  0.10533276760969072        0.0000000000000000     
   1.5001989570293018E-002  0.11228216003134930        0.0000000000000000     
   1.5404373942052981E-002  0.11936810609146166        0.0000000000000000     
   1.5791096994877473E-002  0.12659060579002782        0.0000000000000000     
   1.6162158728766494E-002  0.13394965912704773        0.0000000000000000     
   9.6961434626353492E-003  0.10523486827658539        0.0000000000000000     
   9.9702797855265469E-003  0.11218563199893293        0.0000000000000000     
   1.0235603913618805E-002  0.11927347860422062        0.0000000000000000     
   1.0492115846912122E-002  0.12649840809244842        0.0000000000000000     
   1.0739815585406494E-002  0.13386042046361643        0.0000000000000000     
   4.8348288389768717E-003  0.10517612867646095        0.0000000000000000     
   4.9696165974936774E-003  0.11212771517953578        0.0000000000000000     
   5.1008126009766258E-003  0.11921670211214096        0.0000000000000000     
   5.2284168494257160E-003  0.12644308947427643        0.0000000000000000     
   5.3524293428409480E-003  0.13380687726594223        0.0000000000000000     
   8.6221550732457075E-012  0.10515654880931739        0.0000000000000000     
   6.1944067496905175E-012  0.11210840957315787        0.0000000000000000     
   4.1264405087337863E-012  0.11919777661522270        0.0000000000000000     
   2.4182567840563829E-012  0.12642464993551178        0.0000000000000000     
   1.0698560093391762E-012  0.13378902953402519        0.0000000000000000     
   2.1619458772920947E-002  0.13407459325623627        0.0000000000000000     
   2.2087165460929099E-002  0.14155201945189633        0.0000000000000000     
   2.2526227693198654E-002  0.14913866396436201        0.0000000000000000     
   2.2936645469729608E-002  0.15683452679363322        0.0000000000000000     
   2.3318418790521964E-002  0.16463960793971000        0.0000000000000000     
   1.6162158728766494E-002  0.13394965912704773        0.0000000000000000     
   1.6514393536222131E-002  0.14143273584294216        0.0000000000000000     
   1.6844635809746475E-002  0.14902730567813191        0.0000000000000000     
   1.7152885549339528E-002  0.15673336863261689        0.0000000000000000     
   1.7439142755001285E-002  0.16455092470639718        0.0000000000000000     
   1.0739815585406494E-002  0.13386042046361643        0.0000000000000000     
   1.0975608651178033E-002  0.14134753326536373        0.0000000000000000     
   1.1196400566302845E-002  0.14894776404532967        0.0000000000000000     
   1.1402191330780931E-002  0.15666111280351419        0.0000000000000000     
   1.1592980944612294E-002  0.16448757953991730        0.0000000000000000     
   5.3524293428409480E-003  0.13380687726594223        0.0000000000000000     
   5.4708108057968038E-003  0.14129641171916091        0.0000000000000000     
   5.5815219628677611E-003  0.14890003906595523        0.0000000000000000     
   5.6845628140538215E-003  0.15661775930632504        0.0000000000000000     
   5.7799333593549869E-003  0.16444957244027045        0.0000000000000000     
   1.0698560093391762E-012  0.13378902953402519        0.0000000000000000     
   7.8442460860195240E-014  0.14127937120433384        0.0000000000000000     
  -5.5877654933644827E-013  0.14888413074000861        0.0000000000000000     
  -8.4180243071357852E-013  0.15660330814104953        0.0000000000000000     
  -7.7063442432967477E-013  0.16443690340745654        0.0000000000000000     
   2.3318418790521964E-002  0.16463960793971000        0.0000000000000000     
   2.3670751696916278E-002  0.17254410442540399        0.0000000000000000     
   2.3992848230253102E-002  0.18053821327352682        0.0000000000000000     
   2.4284708390532438E-002  0.18862193448407849        0.0000000000000000     
   2.4546332177754288E-002  0.19679526805705894        0.0000000000000000     
   1.7439142755001285E-002  0.16455092470639718        0.0000000000000000     
   1.7702809309901583E-002  0.17246803263161475        0.0000000000000000     
   1.7943287097210259E-002  0.18047275114041178        0.0000000000000000     
   1.8160576116927313E-002  0.18856508023278820        0.0000000000000000     
   1.8354676369052740E-002  0.19674501990874407        0.0000000000000000     
   1.1592980944612294E-002  0.16448757953991730        0.0000000000000000     
   1.1768369897967916E-002  0.17241369563620546        0.0000000000000000     
   1.1927958681018784E-002  0.18042599247404506        0.0000000000000000     
   1.2071747293764899E-002  0.18852447005343609        0.0000000000000000     
   1.2199735736206262E-002  0.19670912837437862        0.0000000000000000     
   5.7799333593549869E-003  0.16444957244027045        0.0000000000000000     
   5.8674334611152649E-003  0.17238109343917604        0.0000000000000000     
   5.9468629816786713E-003  0.18039793727442660        0.0000000000000000     
   6.0182219210452043E-003  0.18850010394602212        0.0000000000000000     
   6.0815102792148639E-003  0.19668759345396253        0.0000000000000000     
  -7.7063442432967477E-013  0.16443690340745654        0.0000000000000000     
  -6.5636255111578556E-013  0.17237022604052654        0.0000000000000000     
  -8.1007769936469742E-013  0.18038858554155648        0.0000000000000000     
  -1.2317755322677204E-012  0.18849198191054622        0.0000000000000000     
  -1.9214603866335445E-012  0.19668041514749582        0.0000000000000000     
   2.4546332177754288E-002  0.19679526805705894        0.0000000000000000     
   2.4778338734867435E-002  0.20504184991080429        0.0000000000000000     
   2.4981347204820661E-002  0.21334531596365056        0.0000000000000000     
   2.5155357587613978E-002  0.22170566621559781        0.0000000000000000     
   2.5300369883247374E-002  0.23012290066664598        0.0000000000000000     
   1.8354676369052740E-002  0.19674501990874407        0.0000000000000000     
   1.8526614766779623E-002  0.20499597661692559        0.0000000000000000     
   1.8677418223301042E-002  0.21330135680597886        0.0000000000000000     
   1.8807086738616998E-002  0.22166116047590398        0.0000000000000000     
   1.8915620312727491E-002  0.23007538762670091        0.0000000000000000     
   1.2199735736206262E-002  0.19670912837437862        0.0000000000000000     
   1.2312983654493256E-002  0.20496320997859088        0.0000000000000000     
   1.2412550694776252E-002  0.21326995740779123        0.0000000000000000     
   1.2498436857055255E-002  0.22162937066197963        0.0000000000000000     
   1.2570642141330265E-002  0.23004144974115615        0.0000000000000000     
   6.0815102792148639E-003  0.19668759345396253        0.0000000000000000     
   6.1374453980083347E-003  0.20494354999580028        0.0000000000000000     
   6.1867446192462950E-003  0.21325111776908770        0.0000000000000000     
   6.2294079429287474E-003  0.22161029677382485        0.0000000000000000     
   6.2654353690556911E-003  0.23002108701001170        0.0000000000000000     
  -1.9214603866335445E-012  0.19668041514749582        0.0000000000000000     
  -2.6751404910707599E-012  0.20493699666855372        0.0000000000000000     
  -3.2888286278370815E-012  0.21324483788986834        0.0000000000000000     
  -3.7625237669404454E-012  0.22160393881143958        0.0000000000000000     
  -4.0962268299526983E-012  0.23001429943326754        0.0000000000000000     
   2.5300369883247374E-002  0.23012290066664598        0.0000000000000000     
   2.5422522029667480E-002  0.23856985314394985        0.0000000000000000     
   2.5527951964820928E-002  0.24701935747466414        0.0000000000000000     
   2.5616659688707709E-002  0.25547141365878889        0.0000000000000000     
   2.5688645201327825E-002  0.26392602169632406        0.0000000000000000     
   1.8915620312727491E-002  0.23007538762670091        0.0000000000000000     
   1.9007086796931881E-002  0.23851482697950716        0.0000000000000000     
   1.9085554042529533E-002  0.24695026725546027        0.0000000000000000     
   1.9151022049520440E-002  0.25538170845456026        0.0000000000000000     
   1.9203490817904602E-002  0.26380915057680709        0.0000000000000000     
   1.2570642141330265E-002  0.23004144974115615        0.0000000000000000     
   1.2631521380350896E-002  0.23847552257645063        0.0000000000000000     
   1.2683429406866764E-002  0.24690091709899317        0.0000000000000000     
   1.2726366220877866E-002  0.25531763330878371        0.0000000000000000     
   1.2760331822384206E-002  0.26372567120582219        0.0000000000000000     
   6.2654353690556911E-003  0.23002108701001170        0.0000000000000000     
   6.2958257799245188E-003  0.23845193993478031        0.0000000000000000     
   6.3215780578326193E-003  0.24687130700526272        0.0000000000000000     
   6.3426922027799947E-003  0.25527918822145901        0.0000000000000000     
   6.3591682147666447E-003  0.26367558358336929        0.0000000000000000     
  -4.0962268299526983E-012  0.23001429943326754        0.0000000000000000     
  -4.3472473884587082E-012  0.23844407905449611        0.0000000000000000     
  -4.5728971824476883E-012  0.24686143697426907        0.0000000000000000     
  -4.7731758866589868E-012  0.25526637319258644        0.0000000000000000     
  -4.9480849105554281E-012  0.26365888770944823        0.0000000000000000     
   2.5688645201327825E-002  0.26392602169632406        0.0000000000000000     
   2.5756194771508790E-002  0.27232791278400509        0.0000000000000000     
   2.5831594668078099E-002  0.28062181811856723        0.0000000000000000     
   2.5914844891035762E-002  0.28880773770001072        0.0000000000000000     
   2.6005945440381775E-002  0.29688567152833534        0.0000000000000000     
   1.9203490817904602E-002  0.26380915057680709        0.0000000000000000     
   1.9253109763114291E-002  0.27217526467035497        0.0000000000000000     
   1.9310028300581789E-002  0.28042272178335792        0.0000000000000000     
   1.9374246430307090E-002  0.28855152191581607        0.0000000000000000     
   1.9445764152290199E-002  0.29656166506772935        0.0000000000000000     
   1.2760331822384206E-002  0.26372567120582219        0.0000000000000000     
   1.2792715630880774E-002  0.27206623030356192        0.0000000000000000     
   1.2830907065862559E-002  0.28028051011545613        0.0000000000000000     
   1.2874906127329567E-002  0.28836851064150487        0.0000000000000000     
   1.2924712815281791E-002  0.29633023188170809        0.0000000000000000     
   6.3591682147666447E-003  0.26367558358336929        0.0000000000000000     
   6.3750123748082289E-003  0.27200080968362589        0.0000000000000000     
   6.3942309639204095E-003  0.28019518311486186        0.0000000000000000     
   6.4168239821031847E-003  0.28825870387707703        0.0000000000000000     
   6.4427914293565570E-003  0.29619137197027140        0.0000000000000000     
  -4.9480849105554281E-012  0.26365888770944823        0.0000000000000000     
  -5.1033396258892694E-012  0.27197900281054688        0.0000000000000000     
  -5.2446627769875409E-012  0.28016674078157505        0.0000000000000000     
  -5.3720516533448115E-012  0.28822210162253253        0.0000000000000000     
  -5.4855070139026019E-012  0.29614508533341938        0.0000000000000000     
   1.2670576003334655E-010   5.5399993087276653E-002   0.0000000000000000     
   6.6538502138668854E-011   6.0914742382130661E-002   0.0000000000000000     
   2.5458568521548319E-011   6.6652710500327728E-002   0.0000000000000000     
   3.4659612690741276E-012   7.2613897441867886E-002   0.0000000000000000     
   5.6067693890438086E-013   7.8798303206751130E-002   0.0000000000000000     
  -3.4431314526158687E-003   5.5418831215971485E-002   0.0000000000000000     
  -3.6276854800673104E-003   6.0943532819190557E-002   0.0000000000000000     
  -3.8131015015938820E-003   6.6686950980880053E-002   0.0000000000000000     
  -3.9993795171955875E-003   7.2649085701040006E-002   0.0000000000000000     
  -4.1865195268724238E-003   7.8829936979670362E-002   0.0000000000000000     
  -6.9220392797647969E-003   5.5475345617241330E-002   0.0000000000000000     
  -7.3008948251936474E-003   6.1029904139169935E-002   0.0000000000000000     
  -7.6754339126461884E-003   6.6789672427111230E-002   0.0000000000000000     
  -8.0456565421224251E-003   7.2754650481065192E-002   0.0000000000000000     
  -8.4115627136223566E-003   7.8924838301031891E-002   0.0000000000000000     
  -1.0436723354741025E-002   5.5569536291086172E-002   0.0000000000000000     
  -1.1019627968840507E-002   6.1173856342068789E-002   0.0000000000000000     
  -1.1586997207698350E-002   6.6960874839021231E-002   0.0000000000000000     
  -1.2138831071314556E-002   7.2930591781943513E-002   0.0000000000000000     
  -1.2675129559689120E-002   7.9083007170835648E-002   0.0000000000000000     
  -1.3987183677544552E-002   5.5701403237506018E-002   0.0000000000000000     
  -1.4783884911007891E-002   6.1375389427887103E-002   0.0000000000000000     
  -1.5547791386750364E-002   6.7200558216610085E-002   0.0000000000000000     
  -1.6278903104771970E-002   7.3176909603674942E-002   0.0000000000000000     
  -1.6977220065072716E-002   7.9304443589081702E-002   0.0000000000000000     
   5.6067693890438086E-013   7.8798303206751130E-002   0.0000000000000000     
   6.0433038781559922E-012   8.5167704939327599E-002   0.0000000000000000     
   9.2144253381956642E-012   9.1683879783947472E-002   0.0000000000000000     
   1.0074042864011493E-011   9.8346827740610737E-002   0.0000000000000000     
   8.6221550732457075E-012  0.10515654880931739        0.0000000000000000     
  -4.1865195268724238E-003   7.8829936979670362E-002   0.0000000000000000     
  -4.3677171128793423E-003   8.5194231129041786E-002   0.0000000000000000     
  -4.5361678574712960E-003   9.1706694461424862E-002   0.0000000000000000     
  -4.6918717606482833E-003   9.8367326976819588E-002   0.0000000000000000     
  -4.8348288224103067E-003  0.10517612867522597        0.0000000000000000     
  -8.4115627136223566E-003   7.8924838301031891E-002   0.0000000000000000     
  -8.7646599664111674E-003   8.5273809701588266E-002   0.0000000000000000     
  -9.0964558397540491E-003   9.1775138497311420E-002   0.0000000000000000     
  -9.4069503336510017E-003   9.8428824688201300E-002   0.0000000000000000     
  -9.6961434481020181E-003  0.10523486827425796        0.0000000000000000     
  -1.2675129559689120E-002   7.9083007170835648E-002   0.0000000000000000     
  -1.3190828554552170E-002   8.5406440656967050E-002   0.0000000000000000     
  -1.3680863937633831E-002   9.1889211891607120E-002   0.0000000000000000     
  -1.4145235708934105E-002   9.8531320874755898E-002   0.0000000000000000     
  -1.4583943868452985E-002  0.10533276760641333        0.0000000000000000     
  -1.6977220065072716E-002   7.9304443589081702E-002   0.0000000000000000     
  -1.7646222877302355E-002   8.5592123995178127E-002   0.0000000000000000     
  -1.8289392151110646E-002   9.2048914644312002E-002   0.0000000000000000     
  -1.8906727886497596E-002   9.8674815536483343E-002   0.0000000000000000     
  -1.9498230083463200E-002  0.10546982667169214        0.0000000000000000     
   8.6221550732457075E-012  0.10515654880931739        0.0000000000000000     
   6.1944067496905175E-012  0.11210840957315787        0.0000000000000000     
   4.1264405087337863E-012  0.11919777661522270        0.0000000000000000     
   2.4182567840563829E-012  0.12642464993551178        0.0000000000000000     
   1.0698560093391762E-012  0.13378902953402519        0.0000000000000000     
  -4.8348288224103067E-003  0.10517612867522597        0.0000000000000000     
  -4.9696165856049452E-003  0.11212771517968972        0.0000000000000000     
  -5.1008125930797777E-003  0.11921670211325656        0.0000000000000000     
  -5.2284168448348094E-003  0.12644308947592650        0.0000000000000000     
  -5.3524293408700394E-003  0.13380687726769952        0.0000000000000000     
  -9.6961434481020181E-003  0.10523486827425796        0.0000000000000000     
  -9.9702797751380582E-003  0.11218563199902180        0.0000000000000000     
  -1.0235603906790066E-002  0.11927347860603332        0.0000000000000000     
  -1.0492115843058042E-002  0.12649840809529247        0.0000000000000000     
  -1.0739815583941987E-002  0.13386042046679930        0.0000000000000000     
  -1.4583943868452985E-002  0.10533276760641333        0.0000000000000000     
  -1.5001989562404934E-002  0.11228216003115414        0.0000000000000000     
  -1.5404373937004419E-002  0.11936810609355293        0.0000000000000000     
  -1.5791096992251438E-002  0.12659060579360973        0.0000000000000000     
  -1.6162158728145994E-002  0.13394965913132456        0.0000000000000000     
  -1.9498230083463200E-002  0.10546982667169214        0.0000000000000000     
  -2.0064745947405576E-002  0.11241729927608671        0.0000000000000000     
  -2.0607122683722841E-002  0.11950058457581544        0.0000000000000000     
  -2.1125360292415005E-002  0.12671968257087829        0.0000000000000000     
  -2.1619458773482061E-002  0.13407459326127527        0.0000000000000000     
   1.0698560093391762E-012  0.13378902953402519        0.0000000000000000     
   7.8442460860195240E-014  0.14127937120433384        0.0000000000000000     
  -5.5877654933644827E-013  0.14888413074000861        0.0000000000000000     
  -8.4180243071357852E-013  0.15660330814104953        0.0000000000000000     
  -7.7063442432967477E-013  0.16443690340745654        0.0000000000000000     
  -5.3524293408700394E-003  0.13380687726769952        0.0000000000000000     
  -5.4708108057600633E-003  0.14129641172080626        0.0000000000000000     
  -5.5815219640794941E-003  0.14890003906747726        0.0000000000000000     
  -5.6845628158283248E-003  0.15661775930771257        0.0000000000000000     
  -5.7799333610065607E-003  0.16444957244151223        0.0000000000000000     
  -1.0739815583941987E-002  0.13386042046679930        0.0000000000000000     
  -1.0975608651501736E-002  0.14134753326850197        0.0000000000000000     
  -1.1196400567797117E-002  0.14894776404834867        0.0000000000000000     
  -1.1402191332828129E-002  0.15666111280633935        0.0000000000000000     
  -1.1592980946594778E-002  0.16448757954247406        0.0000000000000000     
  -1.6162158728145994E-002  0.13394965913132456        0.0000000000000000     
  -1.6514393537146566E-002  0.14143273584742097        0.0000000000000000     
  -1.6844635811711636E-002  0.14902730568262276        0.0000000000000000     
  -1.7152885551841211E-002  0.15673336863692974        0.0000000000000000     
  -1.7439142757535289E-002  0.16455092471034205        0.0000000000000000     
  -2.1619458773482061E-002  0.13407459326127527        0.0000000000000000     
  -2.2087165462694559E-002  0.14155201945756338        0.0000000000000000     
  -2.2526227695823065E-002  0.14913866397029954        0.0000000000000000     
  -2.2936645472867580E-002  0.15683452679948381        0.0000000000000000     
  -2.3318418793828094E-002  0.16463960794511615        0.0000000000000000     
  -7.7063442432967477E-013  0.16443690340745654        0.0000000000000000     
  -6.5636255111578556E-013  0.17237022604052654        0.0000000000000000     
  -8.1007769936469742E-013  0.18038858554155648        0.0000000000000000     
  -1.2317755322677204E-012  0.18849198191054622        0.0000000000000000     
  -1.9214603866335445E-012  0.19668041514749582        0.0000000000000000     
  -5.7799333610065607E-003  0.16444957244151223        0.0000000000000000     
  -5.8674334625631033E-003  0.17238109344029051        0.0000000000000000     
  -5.9468629834468637E-003  0.18039793727546186        0.0000000000000000     
  -6.0182219236578410E-003  0.18850010394702618        0.0000000000000000     
  -6.0815102831960352E-003  0.19668759345498357        0.0000000000000000     
  -1.1592980946594778E-002  0.16448757954247406        0.0000000000000000     
  -1.1768369899821086E-002  0.17241369563850140        0.0000000000000000     
  -1.1927958683231097E-002  0.18042599247616994        0.0000000000000000     
  -1.2071747296824793E-002  0.18852447005547970        0.0000000000000000     
  -1.2199735740602185E-002  0.19670912837643073        0.0000000000000000     
  -1.7439142757535289E-002  0.16455092471034205        0.0000000000000000     
  -1.7702809312430321E-002  0.17246803263515920        0.0000000000000000     
  -1.7943287100162766E-002  0.18047275114368075        0.0000000000000000     
  -1.8160576120732633E-002  0.18856508023590679        0.0000000000000000     
  -1.8354676374139910E-002  0.19674501991183732        0.0000000000000000     
  -2.3318418793828094E-002  0.16463960794511615        0.0000000000000000     
  -2.3670751700390801E-002  0.17254410443026388        0.0000000000000000     
  -2.3992848234241890E-002  0.18053821327799430        0.0000000000000000     
  -2.4284708395381362E-002  0.18862193448830747        0.0000000000000000     
  -2.4546332183809208E-002  0.19679526806120334        0.0000000000000000     
  -1.9214603866335445E-012  0.19668041514749582        0.0000000000000000     
  -2.6751404910707599E-012  0.20493699666855372        0.0000000000000000     
  -3.2888286278370815E-012  0.21324483788986834        0.0000000000000000     
  -3.7625237669404454E-012  0.22160393881143958        0.0000000000000000     
  -4.0962268299526983E-012  0.23001429943326754        0.0000000000000000     
  -6.0815102831960352E-003  0.19668759345498357        0.0000000000000000     
  -6.1374454034811687E-003  0.20494354999684419        0.0000000000000000     
  -6.1867446259329687E-003  0.21325111777011835        0.0000000000000000     
  -6.2294079505514303E-003  0.22161029677480609        0.0000000000000000     
  -6.2654353773365593E-003  0.23002108701090737        0.0000000000000000     
  -1.2199735740602185E-002  0.19670912837643073        0.0000000000000000     
  -1.2312983660333751E-002  0.20496320998066464        0.0000000000000000     
  -1.2412550701789966E-002  0.21326995740982332        0.0000000000000000     
  -1.2498436864970843E-002  0.22162937066390667        0.0000000000000000     
  -1.2570642149876375E-002  0.23004144974291474        0.0000000000000000     
  -1.8354676374139910E-002  0.19674501991183732        0.0000000000000000     
  -1.8526614773232884E-002  0.20499597662001512        0.0000000000000000     
  -1.8677418230859836E-002  0.21330135680898307        0.0000000000000000     
  -1.8807086747020765E-002  0.22166116047874132        0.0000000000000000     
  -1.8915620321715666E-002  0.23007538762928967        0.0000000000000000     
  -2.4546332183809208E-002  0.19679526806120334        0.0000000000000000     
  -2.4778338742178573E-002  0.20504184991489557        0.0000000000000000     
  -2.4981347213142560E-002  0.21334531596759779        0.0000000000000000     
  -2.5155357596701185E-002  0.22170566621930998        0.0000000000000000     
  -2.5300369892854450E-002  0.23012290067003213        0.0000000000000000     
  -4.0962268299526983E-012  0.23001429943326754        0.0000000000000000     
  -4.3472473884587082E-012  0.23844407905449611        0.0000000000000000     
  -4.5728971824476883E-012  0.24686143697426907        0.0000000000000000     
  -4.7731758866589868E-012  0.25526637319258644        0.0000000000000000     
  -4.9480849105554281E-012  0.26365888770944823        0.0000000000000000     
  -6.2654353773365593E-003  0.23002108701090737        0.0000000000000000     
  -6.2958257886998733E-003  0.23845193993558469        0.0000000000000000     
  -6.3215780670528941E-003  0.24687130700600055        0.0000000000000000     
  -6.3426922123956241E-003  0.25527918822215506        0.0000000000000000     
  -6.3591682247280575E-003  0.26367558358404802        0.0000000000000000     
  -1.2570642149876375E-002  0.23004144974291474        0.0000000000000000     
  -1.2631521389368825E-002  0.23847552257803270        0.0000000000000000     
  -1.2683429416310477E-002  0.24690091710044584        0.0000000000000000     
  -1.2726366230701315E-002  0.25531763331015406        0.0000000000000000     
  -1.2760331832541353E-002  0.26372567120715751        0.0000000000000000     
  -1.8915620321715666E-002  0.23007538762928967        0.0000000000000000     
  -1.9007086806354111E-002  0.23851482698184015        0.0000000000000000     
  -1.9085554052345639E-002  0.24695026725760486        0.0000000000000000     
  -1.9151022059690256E-002  0.25538170845658370        0.0000000000000000     
  -1.9203490828387966E-002  0.26380915057877657        0.0000000000000000     
  -2.5300369892854450E-002  0.23012290067003213        0.0000000000000000     
  -2.5422522039655723E-002  0.23856985314700707        0.0000000000000000     
  -2.5527951975158388E-002  0.24701935747747761        0.0000000000000000     
  -2.5616659699362446E-002  0.25547141366144360        0.0000000000000000     
  -2.5688645212267901E-002  0.26392602169890533        0.0000000000000000     
  -4.9480849105554281E-012  0.26365888770944823        0.0000000000000000     
  -5.1033396258892694E-012  0.27197900281054688        0.0000000000000000     
  -5.2446627769875409E-012  0.28016674078157505        0.0000000000000000     
  -5.3720516533448115E-012  0.28822210162253253        0.0000000000000000     
  -5.4855070139026019E-012  0.29614508533341938        0.0000000000000000     
  -6.3591682247280575E-003  0.26367558358404802        0.0000000000000000     
  -6.3750123850768560E-003  0.27200080968431251        0.0000000000000000     
  -6.3942309744686758E-003  0.28019518311558134        0.0000000000000000     
  -6.4168239929035106E-003  0.28825870387785441        0.0000000000000000     
  -6.4427914403813666E-003  0.29619137197113193        0.0000000000000000     
  -1.2760331832541353E-002  0.26372567120715751        0.0000000000000000     
  -1.2792715641335241E-002  0.27206623030491023        0.0000000000000000     
  -1.2830907076587642E-002  0.28028051011686633        0.0000000000000000     
  -1.2874906138298557E-002  0.28836851064302588        0.0000000000000000     
  -1.2924712826467986E-002  0.29633023188338886        0.0000000000000000     
  -1.9203490828387966E-002  0.26380915057877657        0.0000000000000000     
  -1.9253109773878493E-002  0.27217526467233993        0.0000000000000000     
  -1.9310028311601571E-002  0.28042272178543010        0.0000000000000000     
  -1.9374246441557188E-002  0.28855152191804684        0.0000000000000000     
  -1.9445764163745365E-002  0.29656166507019027        0.0000000000000000     
  -2.5688645212267901E-002  0.26392602169890533        0.0000000000000000     
  -2.5756194782706614E-002  0.27232791278660184        0.0000000000000000     
  -2.5831594679510451E-002  0.28062181812127251        0.0000000000000000     
  -2.5914844902679417E-002  0.28880773770291729        0.0000000000000000     
  -2.6005945452213505E-002  0.29688567153153611        0.0000000000000000     
  -1.3987183677544552E-002   5.5701403237506018E-002   0.0000000000000000     
  -1.4783884911007891E-002   6.1375389427887103E-002   0.0000000000000000     
  -1.5547791386750364E-002   6.7200558216610085E-002   0.0000000000000000     
  -1.6278903104771970E-002   7.3176909603674942E-002   0.0000000000000000     
  -1.6977220065072716E-002   7.9304443589081702E-002   0.0000000000000000     
  -1.7595639723875636E-002   5.5903033329958635E-002   0.0000000000000000     
  -1.8604760646040192E-002   6.1632914949111987E-002   0.0000000000000000     
  -1.9564073082656785E-002   6.7487431823483851E-002   0.0000000000000000     
  -2.0473577033725415E-002   7.3466583953074233E-002   0.0000000000000000     
  -2.1333272499246096E-002   7.9570371337883125E-002   0.0000000000000000     
  -2.1284310969434530E-002   5.6206513441901806E-002   0.0000000000000000     
  -2.2493350168281797E-002   6.1944844458230543E-002   0.0000000000000000     
  -2.3642098928272171E-002   6.7800204923248647E-002   0.0000000000000000     
  -2.4730557249405635E-002   7.3772594836956168E-002   0.0000000000000000     
  -2.5758725131682196E-002   7.9862014199353043E-002   0.0000000000000000     
  -2.5053197414221230E-002   5.6611843573335513E-002   0.0000000000000000     
  -2.6449653477732718E-002   6.2311177955242734E-002   0.0000000000000000     
  -2.7781868923596516E-002   6.8138877515904472E-002   0.0000000000000000     
  -2.9049843751812618E-002   7.4094942255320720E-002   0.0000000000000000     
  -3.0253577962381026E-002   8.0179372173491470E-002   0.0000000000000000     
  -2.8902299058235749E-002   5.7119023724259761E-002   0.0000000000000000     
  -3.0473670574392951E-002   6.2731915440148583E-002   0.0000000000000000     
  -3.1983383068629821E-002   6.8503449601451286E-002   0.0000000000000000     
  -3.3431436540946366E-002   7.4433626208167888E-002   0.0000000000000000     
  -3.4817830991342585E-002   8.0522445260298378E-002   0.0000000000000000     
  -1.6977220065072716E-002   7.9304443589081702E-002   0.0000000000000000     
  -1.7646222877302355E-002   8.5592123995178127E-002   0.0000000000000000     
  -1.8289392151110646E-002   9.2048914644312002E-002   0.0000000000000000     
  -1.8906727886497596E-002   9.8674815536483343E-002   0.0000000000000000     
  -1.9498230083463200E-002  0.10546982667169214        0.0000000000000000     
  -2.1333272499246096E-002   7.9570371337883125E-002   0.0000000000000000     
  -2.2155334518733326E-002   8.5825096620926244E-002   0.0000000000000000     
  -2.2951938131701641E-002   9.2257062445219307E-002   0.0000000000000000     
  -2.3723083338151041E-002   9.8866268810762284E-002   0.0000000000000000     
  -2.4468770138081519E-002  0.10565271571755522        0.0000000000000000     
  -2.5758725131682196E-002   7.9862014199353043E-002   0.0000000000000000     
  -2.6742655062916693E-002   8.6099595438916141E-002   0.0000000000000000     
  -2.7698399530923956E-002   9.2516470984122259E-002   0.0000000000000000     
  -2.8625958535703998E-002   9.9112640834971372E-002   0.0000000000000000     
  -2.9525332077256813E-002  0.10588810499146349        0.0000000000000000     
  -3.0253577962381026E-002   8.0179372173491470E-002   0.0000000000000000     
  -3.1408184509852451E-002   8.6415620449147815E-002   0.0000000000000000     
  -3.2528776348777606E-002   9.2827140261020860E-002   0.0000000000000000     
  -3.3615353479156465E-002   9.9413931609110565E-002   0.0000000000000000     
  -3.4667915900989069E-002  0.10617599449341693        0.0000000000000000     
  -3.4817830991342585E-002   8.0522445260298378E-002   0.0000000000000000     
  -3.6151922859540608E-002   8.6773171651621295E-002   0.0000000000000000     
  -3.7443068585262571E-002   9.3189070275915123E-002   0.0000000000000000     
  -3.8691268168508465E-002   9.9770141133179877E-002   0.0000000000000000     
  -3.9896521609278292E-002  0.10651638422341556        0.0000000000000000     
  -1.9498230083463200E-002  0.10546982667169214        0.0000000000000000     
  -2.0064745947405576E-002  0.11241729927608671        0.0000000000000000     
  -2.0607122683722841E-002  0.11950058457581544        0.0000000000000000     
  -2.1125360292415005E-002  0.12671968257087829        0.0000000000000000     
  -2.1619458773482061E-002  0.13407459326127527        0.0000000000000000     
  -2.4468770138081519E-002  0.10565271571755522        0.0000000000000000     
  -2.5185227260569050E-002  0.11259533695330370        0.0000000000000000     
  -2.5868683434689600E-002  0.11967306630571332        0.0000000000000000     
  -2.6519138660443156E-002  0.12688590377478412        0.0000000000000000     
  -2.7136592937829728E-002  0.13423384936051608        0.0000000000000000     
  -2.9525332077256813E-002  0.10588810499146349        0.0000000000000000     
  -3.0390111832324446E-002  0.11282056028228921        0.0000000000000000     
  -3.1213889477648946E-002  0.11988770353613910        0.0000000000000000     
  -3.1996665013230313E-002  0.12708953475301321        0.0000000000000000     
  -3.2738438439068540E-002  0.13442605393291152        0.0000000000000000     
  -3.4667915900989069E-002  0.10617599449341693        0.0000000000000000     
  -3.5679399662671751E-002  0.11309296926304327        0.0000000000000000     
  -3.6642740812600896E-002  0.12014449626709282        0.0000000000000000     
  -3.7557939350776476E-002  0.12733057550556559        0.0000000000000000     
  -3.8424995277198504E-002  0.13465120697846159        0.0000000000000000     
  -3.9896521609278292E-002  0.10651638422341556        0.0000000000000000     
  -4.1053090751610975E-002  0.11341256389556584        0.0000000000000000     
  -4.2155237439545433E-002  0.12044344449857440        0.0000000000000000     
  -4.3202961673081644E-002  0.12760902603244120        0.0000000000000000     
  -4.4196263452219629E-002  0.13490930849716629        0.0000000000000000     
  -2.1619458773482061E-002  0.13407459326127527        0.0000000000000000     
  -2.2087165462694559E-002  0.14155201945756338        0.0000000000000000     
  -2.2526227695823065E-002  0.14913866397029954        0.0000000000000000     
  -2.2936645472867580E-002  0.15683452679948381        0.0000000000000000     
  -2.3318418793828094E-002  0.16463960794511615        0.0000000000000000     
  -2.7136592937829728E-002  0.13423384936051608        0.0000000000000000     
  -2.7720068077694976E-002  0.14170297586323702        0.0000000000000000     
  -2.8268585890884552E-002  0.14927935608327472        0.0000000000000000     
  -2.8782146377398472E-002  0.15696299002062924        0.0000000000000000     
  -2.9260749537236723E-002  0.16475387767530059        0.0000000000000000     
  -3.2738438439068540E-002  0.13442605393291152        0.0000000000000000     
  -3.3439245031697054E-002  0.14188319682874978        0.0000000000000000     
  -3.4099120067649244E-002  0.14944689919344387        0.0000000000000000     
  -3.4718063546925131E-002  0.15711716102699380        0.0000000000000000     
  -3.5296075469524721E-002  0.16489398232939950        0.0000000000000000     
  -3.8424995277198504E-002  0.13465120697846159        0.0000000000000000     
  -3.9244696324700803E-002  0.14209268235410175        0.0000000000000000     
  -4.0017830226117157E-002  0.14964129330080705        0.0000000000000000     
  -4.0744396981447578E-002  0.15729703981857746        0.0000000000000000     
  -4.1424396590692074E-002  0.16505992190741300        0.0000000000000000     
  -4.4196263452219629E-002  0.13490930849716629        0.0000000000000000     
  -4.5136421956706224E-002  0.14233143243929289        0.0000000000000000     
  -4.6024716366288278E-002  0.14986253840536420        0.0000000000000000     
  -4.6861146680965811E-002  0.15750262639538024        0.0000000000000000     
  -4.7645712900738789E-002  0.16525169640934101        0.0000000000000000     
  -2.3318418793828094E-002  0.16463960794511615        0.0000000000000000     
  -2.3670751700390801E-002  0.17254410443026388        0.0000000000000000     
  -2.3992848234241890E-002  0.18053821327799430        0.0000000000000000     
  -2.4284708395381362E-002  0.18862193448830747        0.0000000000000000     
  -2.4546332183809208E-002  0.19679526806120334        0.0000000000000000     
  -2.9260749537236723E-002  0.16475387767530059        0.0000000000000000     
  -2.9703371274917928E-002  0.17264405425561921        0.0000000000000000     
  -3.0108987494960701E-002  0.18062555496991572        0.0000000000000000     
  -3.0477598197365046E-002  0.18869837981819002        0.0000000000000000     
  -3.0809203382130959E-002  0.19686252880044222        0.0000000000000000     
  -3.5296075469524721E-002  0.16489398232939950        0.0000000000000000     
  -3.5831842247227109E-002  0.17277002534302899        0.0000000000000000     
  -3.6324050291811461E-002  0.18073795231025011        0.0000000000000000     
  -3.6772699603277760E-002  0.18879776323106284        0.0000000000000000     
  -3.7177790181626015E-002  0.19694945810546724        0.0000000000000000     
  -4.1424396590692074E-002  0.16505992190741300        0.0000000000000000     
  -4.2056164617318356E-002  0.17292201769249319        0.0000000000000000     
  -4.2638036624794172E-002  0.18087540529899751        0.0000000000000000     
  -4.3170012613119507E-002  0.18892008472692587        0.0000000000000000     
  -4.3652092582294383E-002  0.19705605597627845        0.0000000000000000     
  -4.7645712900738789E-002  0.16525169640934101        0.0000000000000000     
  -4.8376338385191661E-002  0.17310003130401180        0.0000000000000000     
  -4.9050946493908829E-002  0.18103791393615787        0.0000000000000000     
  -4.9669537226890298E-002  0.18906534430577923        0.0000000000000000     
  -5.0232110584136069E-002  0.19718232241287584        0.0000000000000000     
  -2.4546332183809208E-002  0.19679526806120334        0.0000000000000000     
  -2.4778338742178573E-002  0.20504184991489557        0.0000000000000000     
  -2.4981347213142560E-002  0.21334531596759779        0.0000000000000000     
  -2.5155357596701185E-002  0.22170566621930998        0.0000000000000000     
  -2.5300369892854450E-002  0.23012290067003213        0.0000000000000000     
  -3.0809203382130959E-002  0.19686252880044222        0.0000000000000000     
  -3.1103780772638100E-002  0.20510228898300770        0.0000000000000000     
  -3.1361308092266144E-002  0.21340194743222185        0.0000000000000000     
  -3.1581785341015085E-002  0.22176150414808476        0.0000000000000000     
  -3.1765212518884936E-002  0.23018095913059641        0.0000000000000000     
  -3.7177790181626015E-002  0.19694945810546724        0.0000000000000000     
  -3.7538566070078772E-002  0.20517875294205301        0.0000000000000000     
  -3.7854271311858569E-002  0.21347136374940981        0.0000000000000000     
  -3.8124905906965441E-002  0.22182729052753772        0.0000000000000000     
  -3.8350469855399354E-002  0.23024653327643671        0.0000000000000000     
  -4.3652092582294383E-002  0.19705605597627845        0.0000000000000000     
  -4.4082694634500562E-002  0.20527124179203160        0.0000000000000000     
  -4.4460236871919849E-002  0.21355356491916166        0.0000000000000000     
  -4.4784719294552237E-002  0.22190302535766887        0.0000000000000000     
  -4.5056141902397706E-002  0.23031962310755297        0.0000000000000000     
  -5.0232110584136069E-002  0.19718232241287584        0.0000000000000000     
  -5.0736166465903502E-002  0.20537975553294338        0.0000000000000000     
  -5.1179204772449978E-002  0.21364855094147747        0.0000000000000000     
  -5.1561225503775468E-002  0.22198870863847808        0.0000000000000000     
  -5.1882228659880000E-002  0.23040022862394527        0.0000000000000000     
  -2.5300369892854450E-002  0.23012290067003213        0.0000000000000000     
  -2.5422522039655723E-002  0.23856985314700707        0.0000000000000000     
  -2.5527951975158388E-002  0.24701935747747761        0.0000000000000000     
  -2.5616659699362446E-002  0.25547141366144360        0.0000000000000000     
  -2.5688645212267901E-002  0.26392602169890533        0.0000000000000000     
  -3.1765212518884936E-002  0.23018095913059641        0.0000000000000000     
  -3.1919549830448174E-002  0.23863608245788434        0.0000000000000000     
  -3.2052757480277298E-002  0.24710264420807615        0.0000000000000000     
  -3.2164835468372309E-002  0.25558064438117178        0.0000000000000000     
  -3.2255783794733213E-002  0.26407008297717133        0.0000000000000000     
  -3.8350469855399354E-002  0.23024653327643671        0.0000000000000000     
  -3.8539892919905977E-002  0.23870899629882292        0.0000000000000000     
  -3.8702104863230946E-002  0.24719458389741256        0.0000000000000000     
  -3.8837105685374275E-002  0.25570329607220560        0.0000000000000000     
  -3.8944895386335963E-002  0.26423513282320210        0.0000000000000000     
  -4.5056141902397706E-002  0.23031962310755297        0.0000000000000000     
  -4.5283551308029135E-002  0.23878859466982277        0.0000000000000000     
  -4.5475994124019335E-002  0.24729517654548683        0.0000000000000000     
  -4.5633470350368348E-002  0.25583936873454510        0.0000000000000000     
  -4.5755979987076145E-002  0.26442117123699771        0.0000000000000000     
  -5.1882228659880000E-002  0.23040022862394527        0.0000000000000000     
  -5.2150524994817642E-002  0.23887487757088394        0.0000000000000000     
  -5.2374425262642479E-002  0.24740442215229894        0.0000000000000000     
  -5.2553929463354528E-002  0.25598886236819035        0.0000000000000000     
  -5.2689037596953758E-002  0.26462819821855810        0.0000000000000000     
  -2.5688645212267901E-002  0.26392602169890533        0.0000000000000000     
  -2.5756194782706614E-002  0.27232791278660184        0.0000000000000000     
  -2.5831594679510451E-002  0.28062181812127251        0.0000000000000000     
  -2.5914844902679417E-002  0.28880773770291729        0.0000000000000000     
  -2.6005945452213505E-002  0.29688567153153611        0.0000000000000000     
  -3.2255783794733213E-002  0.26407008297717133        0.0000000000000000     
  -3.2340412933931417E-002  0.27251783596207213        0.0000000000000000     
  -3.2433533360538343E-002  0.28087077930187171        0.0000000000000000     
  -3.2535145074553982E-002  0.28912891299657001        0.0000000000000000     
  -3.2645248075978343E-002  0.29729223704616714        0.0000000000000000     
  -3.8944895386335963E-002  0.26423513282320210        0.0000000000000000     
  -3.9044206493664711E-002  0.27273869551312707        0.0000000000000000     
  -3.9153771534909274E-002  0.28116258550470580        0.0000000000000000     
  -3.9273590510069636E-002  0.28950680279793800        0.0000000000000000     
  -3.9403663419145807E-002  0.29777134739282396        0.0000000000000000     
  -4.5755979987076145E-002  0.26442117123699771        0.0000000000000000     
  -4.5867575461906514E-002  0.27299049143976678        0.0000000000000000     
  -4.5992309202623267E-002  0.28149723672977461        0.0000000000000000     
  -4.6130181209226392E-002  0.28994140710702121        0.0000000000000000     
  -4.6281191481715889E-002  0.29832300257150651        0.0000000000000000     
  -5.2689037596953758E-002  0.26462819821855810        0.0000000000000000     
  -5.2810519838656804E-002  0.27327322374199120        0.0000000000000000     
  -5.2949146363680297E-002  0.28187473297707827        0.0000000000000000     
  -5.3104917172024230E-002  0.29043272592381958        0.0000000000000000     
  -5.3277832263688610E-002  0.29894720258221491        0.0000000000000000     
  -2.8902299058235749E-002   5.7119023724259761E-002   0.0000000000000000     
  -3.0473670574392951E-002   6.2731915440148583E-002   0.0000000000000000     
  -3.1983383068629821E-002   6.8503449601451286E-002   0.0000000000000000     
  -3.3431436540946366E-002   7.4433626208167888E-002   0.0000000000000000     
  -3.4817830991342585E-002   8.0522445260298378E-002   0.0000000000000000     
  -3.2873179354520395E-002   5.7689468836238711E-002   0.0000000000000000     
  -3.4618903474174852E-002   6.3210218360002721E-002   0.0000000000000000     
  -3.6305728822320533E-002   6.8921326966886645E-002   0.0000000000000000     
  -3.7933655398957447E-002   7.4822794656890471E-002   0.0000000000000000     
  -3.9502683204085565E-002   8.0914621430014225E-002   0.0000000000000000     
  -3.7007401756117497E-002   5.8284593850836564E-002   0.0000000000000000     
  -3.8938854192990806E-002   6.3749248161859798E-002   0.0000000000000000     
  -4.0807993643617098E-002   6.9419915399208026E-002   0.0000000000000000     
  -4.2614820107996387E-002   7.5296595562881236E-002   0.0000000000000000     
  -4.4359333586128681E-002   8.1379288652879425E-002   0.0000000000000000     
  -4.1304966263027050E-002   5.8904398768053277E-002   0.0000000000000000     
  -4.3433522730840786E-002   6.4349004845719801E-002   0.0000000000000000     
  -4.5490177532519514E-002   6.9999214898415429E-002   0.0000000000000000     
  -4.7474930668063214E-002   7.5855028926140169E-002   0.0000000000000000     
  -4.9387782137471907E-002   8.1916446928893979E-002   0.0000000000000000     
  -4.5765872875249060E-002   5.9548883587888873E-002   0.0000000000000000     
  -4.8102909087724813E-002   6.5009488411582758E-002   0.0000000000000000     
  -5.0352280489027769E-002   7.0659225464508882E-002   0.0000000000000000     
  -5.2513987079157914E-002   7.6498094746667258E-002   0.0000000000000000     
  -5.4588028858115242E-002   8.2526096258057902E-002   0.0000000000000000     
  -3.4817830991342585E-002   8.0522445260298378E-002   0.0000000000000000     
  -3.6151922859540608E-002   8.6773171651621295E-002   0.0000000000000000     
  -3.7443068585262571E-002   9.3189070275915123E-002   0.0000000000000000     
  -3.8691268168508465E-002   9.9770141133179877E-002   0.0000000000000000     
  -3.9896521609278292E-002  0.10651638422341556        0.0000000000000000     
  -3.9502683204085565E-002   8.0914621430014225E-002   0.0000000000000000     
  -4.1016151004442662E-002   8.7179058187600245E-002   0.0000000000000000     
  -4.2477397566766460E-002   9.3598355830990854E-002   0.0000000000000000     
  -4.3886422891056959E-002  0.10017251436018608        0.0000000000000000     
  -4.5243226977314158E-002  0.10690153377518589        0.0000000000000000     
  -4.4359333586128681E-002   8.1379288652879425E-002   0.0000000000000000     
  -4.6043149837020125E-002   8.7640089198348384E-002   0.0000000000000000     
  -4.7667884619676873E-002   9.4051091728433872E-002   0.0000000000000000     
  -4.9233537934098931E-002  0.10061229624313592        0.0000000000000000     
  -5.0740109780286327E-002  0.10732370274245448        0.0000000000000000     
  -4.9387782137471907E-002   8.1916446928893979E-002   0.0000000000000000     
  -5.1232919357272977E-002   8.8156264683865698E-002   0.0000000000000000     
  -5.3014529743993802E-002   9.4547277968244192E-002   0.0000000000000000     
  -5.4732613297634417E-002  0.10108948678202936        0.0000000000000000     
  -5.6387170018194793E-002  0.10778289112522127        0.0000000000000000     
  -5.4588028858115242E-002   8.2526096258057902E-002   0.0000000000000000     
  -5.6585459565201217E-002   8.8727584644152244E-002   0.0000000000000000     
  -5.8517332939717268E-002   9.5086914550421786E-002   0.0000000000000000     
  -6.0383648981663374E-002  0.10160408597686646        0.0000000000000000     
  -6.2184407691039563E-002  0.10827909892348633        0.0000000000000000     
  -3.9896521609278292E-002  0.10651638422341556        0.0000000000000000     
  -4.1053090751610975E-002  0.11341256389556584        0.0000000000000000     
  -4.2155237439545433E-002  0.12044344449857440        0.0000000000000000     
  -4.3202961673081644E-002  0.12760902603244120        0.0000000000000000     
  -4.4196263452219629E-002  0.13490930849716629        0.0000000000000000     
  -4.5243226977314158E-002  0.10690153377518589        0.0000000000000000     
  -4.6543835942428557E-002  0.11377533794784245        0.0000000000000000     
  -4.7784275903290659E-002  0.12078385075000780        0.0000000000000000     
  -4.8964546859900461E-002  0.12792707218168195        0.0000000000000000     
  -5.0084648812257965E-002  0.13520500224286491        0.0000000000000000     
  -5.0740109780286327E-002  0.10732370274245448        0.0000000000000000     
  -5.2184286078410927E-002  0.11417728518785851        0.0000000000000000     
  -5.3562752748644679E-002  0.12116501754081691        0.0000000000000000     
  -5.4875509790987584E-002  0.12828689980132965        0.0000000000000000     
  -5.6122557205439620E-002  0.13554293196939679        0.0000000000000000     
  -5.6387170018194793E-002  0.10778289112522127        0.0000000000000000     
  -5.7974441159558097E-002  0.11461840561561404        0.0000000000000000     
  -5.9490667975607502E-002  0.12158694487100172        0.0000000000000000     
  -6.0935850466342992E-002  0.12868850889138433        0.0000000000000000     
  -6.2309988631764589E-002  0.13592309767676186        0.0000000000000000     
  -6.2184407691039563E-002  0.10827909892348633        0.0000000000000000     
  -6.3914301185870062E-002  0.11509869923110903        0.0000000000000000     
  -6.5568021584179098E-002  0.12204963274056223        0.0000000000000000     
  -6.7145568885966705E-002  0.12913189945184592        0.0000000000000000     
  -6.8646943091232857E-002  0.13634549936496013        0.0000000000000000     
  -4.4196263452219629E-002  0.13490930849716629        0.0000000000000000     
  -4.5136421956706224E-002  0.14233143243929289        0.0000000000000000     
  -4.6024716366288278E-002  0.14986253840536420        0.0000000000000000     
  -4.6861146680965811E-002  0.15750262639538024        0.0000000000000000     
  -4.7645712900738789E-002  0.16525169640934101        0.0000000000000000     
  -5.0084648812257965E-002  0.13520500224286491        0.0000000000000000     
  -5.1146160994458269E-002  0.14260577149935225        0.0000000000000000     
  -5.2150662640596430E-002  0.15011751051693958        0.0000000000000000     
  -5.3098153750672492E-002  0.15774021929562676        0.0000000000000000     
  -5.3988634324686396E-002  0.16547389783541389        0.0000000000000000     
  -5.6122557205439620E-002  0.13554293196939679        0.0000000000000000     
  -5.7305652504701876E-002  0.14292202394930911        0.0000000000000000     
  -5.8426553201475440E-002  0.15041308564535744        0.0000000000000000     
  -5.9485259295760283E-002  0.15801611705754171        0.0000000000000000     
  -6.0481770787556420E-002  0.16573111818586206        0.0000000000000000     
  -6.2309988631764589E-002  0.13592309767676186        0.0000000000000000     
  -6.3614896487437095E-002  0.14328018978916329        0.0000000000000000     
  -6.4852388048925291E-002  0.15074926379061770        0.0000000000000000     
  -6.6022463316229213E-002  0.15833031968112507        0.0000000000000000     
  -6.7125122289348846E-002  0.16602335746068539        0.0000000000000000     
  -6.8646943091232857E-002  0.13634549936496013        0.0000000000000000     
  -7.0073892942663835E-002  0.14368026901891495        0.0000000000000000     
  -7.1428167182945979E-002  0.15112604495272056        0.0000000000000000     
  -7.2709765812079261E-002  0.15868282716637686        0.0000000000000000     
  -7.3918688830063681E-002  0.16635061565988402        0.0000000000000000     
  -4.7645712900738789E-002  0.16525169640934101        0.0000000000000000     
  -4.8376338385191661E-002  0.17310003130401180        0.0000000000000000     
  -4.9050946493908829E-002  0.18103791393615787        0.0000000000000000     
  -4.9669537226890298E-002  0.18906534430577923        0.0000000000000000     
  -5.0232110584136069E-002  0.19718232241287584        0.0000000000000000     
  -5.3988634324686396E-002  0.16547389783541389        0.0000000000000000     
  -5.4819792169515734E-002  0.17330694275230757        0.0000000000000000     
  -5.5589315092038002E-002  0.18122775066231436        0.0000000000000000     
  -5.6297203092253237E-002  0.18923632156543430        0.0000000000000000     
  -5.6943456170161402E-002  0.19733265546166737        0.0000000000000000     
  -6.0481770787556420E-002  0.16573111818586206        0.0000000000000000     
  -6.1413954588959270E-002  0.17354562861210318        0.0000000000000000     
  -6.2279677612064287E-002  0.18144718791805006        0.0000000000000000     
  -6.3078939856871435E-002  0.18943579610370267        0.0000000000000000     
  -6.3811741323380730E-002  0.19751145316906099        0.0000000000000000     
  -6.7125122289348846E-002  0.16602335746068539        0.0000000000000000     
  -6.8158825643522269E-002  0.17381608888339872        0.0000000000000000     
  -6.9122034053987647E-002  0.18169622570336499        0.0000000000000000     
  -7.0014747520744894E-002  0.18966376792058434        0.0000000000000000     
  -7.0836966043794067E-002  0.19771871553505665        0.0000000000000000     
  -7.3918688830063681E-002  0.16635061565988402        0.0000000000000000     
  -7.5054405333204774E-002  0.17411832356619406        0.0000000000000000     
  -7.6116384417808103E-002  0.18197486401825916        0.0000000000000000     
  -7.7104626083873626E-002  0.18992023701607932        0.0000000000000000     
  -7.8019130331401398E-002  0.19795444255965447        0.0000000000000000     
  -5.0232110584136069E-002  0.19718232241287584        0.0000000000000000     
  -5.0736166465903502E-002  0.20537975553294338        0.0000000000000000     
  -5.1179204772449978E-002  0.21364855094147747        0.0000000000000000     
  -5.1561225503775468E-002  0.22198870863847808        0.0000000000000000     
  -5.1882228659880000E-002  0.23040022862394527        0.0000000000000000     
  -5.6943456170161402E-002  0.19733265546166737        0.0000000000000000     
  -5.7525014300884976E-002  0.20551033536356852        0.0000000000000000     
  -5.8038817459546407E-002  0.21376294428369269        0.0000000000000000     
  -5.8484865646145689E-002  0.22209048222203992        0.0000000000000000     
  -5.8863158860682850E-002  0.23049294917861013        0.0000000000000000     
  -6.3811741323380730E-002  0.19751145316906099        0.0000000000000000     
  -6.4475270876042420E-002  0.20566902248268706        0.0000000000000000     
  -6.5066717379306652E-002  0.21390336741314298        0.0000000000000000     
  -6.5586080833173480E-002  0.22221448796042867        0.0000000000000000     
  -6.6033361237642890E-002  0.23060238412454426        0.0000000000000000     
  -7.0836966043794067E-002  0.19771871553505665        0.0000000000000000     
  -7.1586936191375780E-002  0.20585581689029903        0.0000000000000000     
  -7.2262904531730690E-002  0.21406982032982827        0.0000000000000000     
  -7.2864871064858838E-002  0.22236072585364441        0.0000000000000000     
  -7.3392835790760141E-002  0.23072853346174754        0.0000000000000000     
  -7.8019130331401398E-002  0.19795444255965447        0.0000000000000000     
  -7.8860010246885104E-002  0.20607071858640436        0.0000000000000000     
  -7.9627378916818550E-002  0.21426230303374857        0.0000000000000000     
  -8.0321236341201710E-002  0.22252919590168713        0.0000000000000000     
  -8.0941582520034569E-002  0.23087139719022001        0.0000000000000000     
  -5.1882228659880000E-002  0.23040022862394527        0.0000000000000000     
  -5.2150524994817642E-002  0.23887487757088394        0.0000000000000000     
  -5.2374425262642479E-002  0.24740442215229894        0.0000000000000000     
  -5.2553929463354528E-002  0.25598886236819035        0.0000000000000000     
  -5.2689037596953758E-002  0.26462819821855810        0.0000000000000000     
  -5.8863158860682850E-002  0.23049294917861013        0.0000000000000000     
  -5.9179962118098520E-002  0.23896926164840526        0.0000000000000000     
  -5.9441540433333370E-002  0.24751833612642710        0.0000000000000000     
  -5.9647893806387381E-002  0.25614017261267552        0.0000000000000000     
  -5.9799022237260586E-002  0.26483477110715070        0.0000000000000000     
  -6.6033361237642890E-002  0.23060238412454426        0.0000000000000000     
  -6.6411010815698779E-002  0.23907316354878574        0.0000000000000000     
  -6.6721481790324985E-002  0.24763293387644933        0.0000000000000000     
  -6.6964774161521523E-002  0.25628169510753507        0.0000000000000000     
  -6.7140887929288434E-002  0.26501944724204279        0.0000000000000000     
  -7.3392835790760141E-002  0.23072853346174754        0.0000000000000000     
  -7.3843671087618412E-002  0.23918658327202541        0.0000000000000000     
  -7.4214249333617352E-002  0.24774821540236580        0.0000000000000000     
  -7.4504570528756961E-002  0.25641342985276883        0.0000000000000000     
  -7.4714634673037267E-002  0.26518222662323443        0.0000000000000000     
  -8.0941582520034569E-002  0.23087139719022001        0.0000000000000000     
  -8.1477942933857406E-002  0.23930952081812415        0.0000000000000000     
  -8.1919843063210443E-002  0.24786418070417643        0.0000000000000000     
  -8.2267282908093681E-002  0.25653537684837691        0.0000000000000000     
  -8.2520262468507105E-002  0.26532310925072550        0.0000000000000000     
  -5.2689037596953758E-002  0.26462819821855810        0.0000000000000000     
  -5.2810519838656804E-002  0.27327322374199120        0.0000000000000000     
  -5.2949146363680297E-002  0.28187473297707827        0.0000000000000000     
  -5.3104917172024230E-002  0.29043272592381958        0.0000000000000000     
  -5.3277832263688610E-002  0.29894720258221491        0.0000000000000000     
  -5.9799022237260586E-002  0.26483477110715070        0.0000000000000000     
  -5.9931772122442904E-002  0.27355816089181761        0.0000000000000000     
  -6.0082989858424272E-002  0.28226637124864129        0.0000000000000000     
  -6.0252675445204691E-002  0.29095940217762162        0.0000000000000000     
  -6.0440828882784160E-002  0.29963725367875882        0.0000000000000000     
  -6.7140887929288434E-002  0.26501944724204279        0.0000000000000000     
  -6.7290064811792130E-002  0.27381657136126353        0.0000000000000000     
  -6.7452546527199064E-002  0.28264344854648793        0.0000000000000000     
  -6.7628333075509278E-002  0.29150007879771611        0.0000000000000000     
  -6.7817424456722758E-002  0.30038646211494802        0.0000000000000000     
  -7.4714634673037267E-002  0.26518222662323443        0.0000000000000000     
  -7.4885397906704440E-002  0.27404845515032877        0.0000000000000000     
  -7.5057816370004679E-002  0.28300596487061824        0.0000000000000000     
  -7.5231890062937984E-002  0.29205475578410284        0.0000000000000000     
  -7.5407618985504410E-002  0.30119482789078245        0.0000000000000000     
  -8.2520262468507105E-002  0.26532310925072550        0.0000000000000000     
  -8.2717771407179869E-002  0.27425381225901357        0.0000000000000000     
  -8.2898799386841124E-002  0.28335392022103234        0.0000000000000000     
  -8.3063346407490871E-002  0.29262343313678185        0.0000000000000000     
  -8.3211412469129095E-002  0.30206235100626211        0.0000000000000000     
  -4.5765872875249060E-002   5.9548883587888873E-002   0.0000000000000000     
  -4.8102909087724813E-002   6.5009488411582758E-002   0.0000000000000000     
  -5.0352280489027769E-002   7.0659225464508882E-002   0.0000000000000000     
  -5.2513987079157914E-002   7.6498094746667258E-002   0.0000000000000000     
  -5.4588028858115242E-002   8.2526096258057902E-002   0.0000000000000000     
  -5.0402368368530875E-002   6.0249921247236396E-002   0.0000000000000000     
  -5.2936747663660265E-002   6.5725753062076633E-002   0.0000000000000000     
  -5.5372323910575436E-002   7.1373915395785067E-002   0.0000000000000000     
  -5.7709097109276415E-002   7.7194408248361712E-002   0.0000000000000000     
  -5.9947067259763176E-002   8.3187231619806540E-002   0.0000000000000000     
  -5.5226699518619859E-002   6.1039384682988848E-002   0.0000000000000000     
  -5.7924772858664486E-002   6.6492852999829419E-002   0.0000000000000000     
  -6.0528329194596074E-002   7.2117252990540684E-002   0.0000000000000000     
  -6.3037368526414617E-002   7.7912584655122630E-002   0.0000000000000000     
  -6.5451890854120134E-002   8.3878847993575270E-002   0.0000000000000000     
  -6.0238866325516019E-002   6.1917273895146244E-002   0.0000000000000000     
  -6.3066984672737497E-002   6.7310788224841128E-002   0.0000000000000000     
  -6.5820296341089685E-002   7.2889238248775745E-002   0.0000000000000000     
  -6.8498801330572581E-002   7.8652623966950053E-002   0.0000000000000000     
  -7.1102499641186159E-002   8.4600945379364079E-002   0.0000000000000000     
  -6.5438868789219340E-002   6.2883588883708583E-002   0.0000000000000000     
  -6.8363383105879305E-002   6.8179558737111762E-002   0.0000000000000000     
  -7.1248225350056274E-002   7.3689871170490237E-002   0.0000000000000000     
  -7.4093395521750247E-002   7.9414526183843967E-002   0.0000000000000000     
  -7.6898893620961223E-002   8.5353523777172979E-002   0.0000000000000000     
  -5.4588028858115242E-002   8.2526096258057902E-002   0.0000000000000000     
  -5.6585459565201217E-002   8.8727584644152244E-002   0.0000000000000000     
  -5.8517332939717268E-002   9.5086914550421786E-002   0.0000000000000000     
  -6.0383648981663374E-002  0.10160408597686646        0.0000000000000000     
  -6.2184407691039563E-002  0.10827909892348633        0.0000000000000000     
  -5.9947067259763176E-002   8.3187231619806540E-002   0.0000000000000000     
  -6.2101120057609309E-002   8.9348474905104461E-002   0.0000000000000000     
  -6.4186141198388350E-002   9.5674227499240413E-002   0.0000000000000000     
  -6.6202130682100305E-002  0.10216448940221436        0.0000000000000000     
  -6.8149088508745195E-002  0.10881926061402629        0.0000000000000000     
  -6.5451890854120134E-002   8.3878847993575270E-002   0.0000000000000000     
  -6.7780250431301647E-002   9.0013361292618915E-002   0.0000000000000000     
  -7.0030801511548169E-002   9.6313442838973876E-002   0.0000000000000000     
  -7.2203544094859684E-002  0.10277909263264022        0.0000000000000000     
  -7.4298478181236194E-002  0.10941031067361784        0.0000000000000000     
  -7.1102499641186159E-002   8.4600945379364079E-002   0.0000000000000000     
  -7.3622850686278274E-002   9.0722243806695552E-002   0.0000000000000000     
  -7.6051313879196725E-002   9.7004560569622200E-002   0.0000000000000000     
  -7.8387889219941512E-002  0.10344789566814401        0.0000000000000000     
  -8.0632576708512621E-002  0.11005224910226100        0.0000000000000000     
  -7.6898893620961223E-002   8.5353523777172979E-002   0.0000000000000000     
  -7.9628920822539181E-002   9.1475122447334398E-002   0.0000000000000000     
  -8.2247678301334018E-002   9.7747580691185304E-002   0.0000000000000000     
  -8.4755166057345774E-002  0.10417089850872580        0.0000000000000000     
  -8.7151384090574435E-002  0.11074507589995576        0.0000000000000000     
  -6.2184407691039563E-002  0.10827909892348633        0.0000000000000000     
  -6.3914301185870062E-002  0.11509869923110903        0.0000000000000000     
  -6.5568021584179098E-002  0.12204963274056223        0.0000000000000000     
  -6.7145568885966705E-002  0.12913189945184592        0.0000000000000000     
  -6.8646943091232857E-002  0.13634549936496013        0.0000000000000000     
  -6.8149088508745195E-002  0.10881926061402629        0.0000000000000000     
  -7.0020909253251218E-002  0.11562120119249386        0.0000000000000000     
  -7.1811487490546638E-002  0.12255297119543468        0.0000000000000000     
  -7.3520823220631443E-002  0.12961457062284881        0.0000000000000000     
  -7.5148916443505631E-002  0.13680599947473615        0.0000000000000000     
  -7.4298478181236194E-002  0.10941031067361784        0.0000000000000000     
  -7.6311308457605989E-002  0.11618894665791887        0.0000000000000000     
  -7.8237739610897208E-002  0.12309685028155534        0.0000000000000000     
  -8.0077771641109949E-002  0.13013402154452725        0.0000000000000000     
  -8.1831404548244141E-002  0.13730046044683455        0.0000000000000000     
  -8.0632576708512621E-002  0.11005224910226100        0.0000000000000000     
  -8.2785498798934334E-002  0.11680193562738408        0.0000000000000000     
  -8.4846777945230850E-002  0.12368126999892418        0.0000000000000000     
  -8.6816414147402196E-002  0.13069025221688121        0.0000000000000000     
  -8.8694407405448400E-002  0.13782888228125531        0.0000000000000000     
  -8.7151384090574435E-002  0.11074507589995576        0.0000000000000000     
  -8.9443480277236254E-002  0.11746016810088948        0.0000000000000000     
  -9.1638602493547536E-002  0.12430623034754117        0.0000000000000000     
  -9.3736750739508240E-002  0.13128326263991080        0.0000000000000000     
  -9.5737925015118366E-002  0.13839126497799836        0.0000000000000000     
  -6.8646943091232857E-002  0.13634549936496013        0.0000000000000000     
  -7.0073892942663835E-002  0.14368026901891495        0.0000000000000000     
  -7.1428167182945979E-002  0.15112604495272056        0.0000000000000000     
  -7.2709765812079261E-002  0.15868282716637686        0.0000000000000000     
  -7.3918688830063681E-002  0.16635061565988402        0.0000000000000000     
  -7.5148916443505631E-002  0.13680599947473615        0.0000000000000000     
  -7.6697535243475223E-002  0.14411736734129377        0.0000000000000000     
  -7.8168447704846239E-002  0.15153878381271871        0.0000000000000000     
  -7.9561653827618664E-002  0.15907024888901089        0.0000000000000000     
  -8.0877153611792499E-002  0.16671176257017031        0.0000000000000000     
  -8.1831404548244141E-002  0.13730046044683455        0.0000000000000000     
  -8.3500716762964278E-002  0.14458659045902972        0.0000000000000000     
  -8.5087786715934768E-002  0.15198283505166518        0.0000000000000000     
  -8.6592614407155627E-002  0.15948919422474084        0.0000000000000000     
  -8.8015199836626812E-002  0.16710566797825679        0.0000000000000000     
  -8.8694407405448400E-002  0.13782888228125531        0.0000000000000000     
  -9.0483437501130998E-002  0.14508793837212272        0.0000000000000000     
  -9.2186184216211581E-002  0.15245819866955987        0.0000000000000000     
  -9.3802647550690149E-002  0.15993966317356681        0.0000000000000000     
  -9.5332827504566689E-002  0.16753233188414340        0.0000000000000000     
  -9.5737925015118366E-002  0.13839126497799836        0.0000000000000000     
  -9.7645697457975356E-002  0.14562141108057278        0.0000000000000000     
  -9.9463640205676648E-002  0.15296487466640288        0.0000000000000000     
 -0.10119175325822222       0.16042165573548867        0.0000000000000000     
 -0.10283003661561207       0.16799175428783014        0.0000000000000000     
  -7.3918688830063681E-002  0.16635061565988402        0.0000000000000000     
  -7.5054405333204774E-002  0.17411832356619406        0.0000000000000000     
  -7.6116384417808103E-002  0.18197486401825916        0.0000000000000000     
  -7.7104626083873626E-002  0.18992023701607932        0.0000000000000000     
  -7.8019130331401398E-002  0.19795444255965447        0.0000000000000000     
  -8.0877153611792499E-002  0.16671176257017031        0.0000000000000000     
  -8.2115432511575437E-002  0.17445342917042039        0.0000000000000000     
  -8.3276975981175200E-002  0.18228535300398438        0.0000000000000000     
  -8.4361784020591787E-002  0.19020753407086230        0.0000000000000000     
  -8.5369856629825158E-002  0.19821997237105415        0.0000000000000000     
  -8.8015199836626812E-002  0.16710566797825679        0.0000000000000000     
  -8.9356646032202919E-002  0.17482250220600876        0.0000000000000000     
  -9.0618056021738475E-002  0.18262994280179254        0.0000000000000000     
  -9.1799429805233465E-002  0.19052798976560817        0.0000000000000000     
  -9.2900767382687904E-002  0.19851664309745554        0.0000000000000000     
  -9.5332827504566689E-002  0.16753233188414340        0.0000000000000000     
  -9.6778045895087261E-002  0.17522554267295920        0.0000000000000000     
  -9.8139624539497941E-002  0.18300863341168369        0.0000000000000000     
  -9.9417563437798701E-002  0.19088160410031682        0.0000000000000000     
 -0.10061186258998955       0.19884445473885864        0.0000000000000000     
 -0.10283003661561207       0.16799175428783014        0.0000000000000000     
 -0.10437963210022846       0.17566255057127170        0.0000000000000000     
 -0.10584168153445360       0.18342142483365778        0.0000000000000000     
 -0.10721618491828748       0.19126837707498831        0.0000000000000000     
 -0.10850314225173013       0.19920340729526337        0.0000000000000000     
  -7.8019130331401398E-002  0.19795444255965447        0.0000000000000000     
  -7.8860010246885104E-002  0.20607071858640436        0.0000000000000000     
  -7.9627378916818550E-002  0.21426230303374857        0.0000000000000000     
  -8.0321236341201710E-002  0.22252919590168713        0.0000000000000000     
  -8.0941582520034569E-002  0.23087139719022001        0.0000000000000000     
  -8.5369856629825158E-002  0.19821997237105415        0.0000000000000000     
  -8.6303399269551023E-002  0.20631447009974874        0.0000000000000000     
  -8.7164617400444955E-002  0.21448282945213482        0.0000000000000000     
  -8.7953511022506980E-002  0.22272505042821242        0.0000000000000000     
  -8.8670080135737087E-002  0.23104113302798152        0.0000000000000000     
  -9.2900767382687904E-002  0.19851664309745554        0.0000000000000000     
  -9.3926009486354184E-002  0.20658781395907777        0.0000000000000000     
  -9.4879096848484709E-002  0.21473341351221792        0.0000000000000000     
  -9.5760029469079536E-002  0.22295344175687593        0.0000000000000000     
  -9.6568807348138594E-002  0.23124789869305182        0.0000000000000000     
 -0.10061186258998955       0.19884445473885864        0.0000000000000000     
 -0.10172784089729456       0.20689075016439148        0.0000000000000000     
 -0.10277081726093781       0.21501405521399786        0.0000000000000000     
 -0.10374079168091931       0.22321436988767762        0.0000000000000000     
 -0.10463776415723906       0.23149169418543097        0.0000000000000000     
 -0.10850314225173013       0.19920340729526337        0.0000000000000000     
 -0.10970889350237216       0.20722327871568982        0.0000000000000000     
 -0.11083977863780424       0.21532475455747457        0.0000000000000000     
 -0.11189579765802635       0.22350783482061759        0.0000000000000000     
 -0.11287695056303851       0.23177251950511890        0.0000000000000000     
  -8.0941582520034569E-002  0.23087139719022001        0.0000000000000000     
  -8.1477942933857406E-002  0.23930952081812415        0.0000000000000000     
  -8.1919843063210443E-002  0.24786418070417643        0.0000000000000000     
  -8.2267282908093681E-002  0.25653537684837691        0.0000000000000000     
  -8.2520262468507105E-002  0.26532310925072550        0.0000000000000000     
  -8.8670080135737087E-002  0.23104113302798152        0.0000000000000000     
  -8.9300081770311707E-002  0.23945691378115239        0.0000000000000000     
  -8.9829272956407233E-002  0.24799822921743528        0.0000000000000000     
  -9.0257653694023693E-002  0.25666507933683019        0.0000000000000000     
  -9.0585223983161031E-002  0.26545746413933724        0.0000000000000000     
  -9.6568807348138594E-002  0.23124789869305182        0.0000000000000000     
  -9.7296343012877207E-002  0.23964369975518038        0.0000000000000000     
  -9.7933548990510710E-002  0.24816776037769636        0.0000000000000000     
  -9.8480425281039022E-002  0.25682008056059979        0.0000000000000000     
  -9.8936971884462196E-002  0.26560066030389068        0.0000000000000000     
 -0.10463776415723906       0.23149169418543097        0.0000000000000000     
 -0.10546672666155395       0.23986987874020813        0.0000000000000000     
 -0.10623267116552082       0.24837277418495968        0.0000000000000000     
 -0.10693559766913965       0.25700038051968566        0.0000000000000000     
 -0.10757550617241057       0.26575269774438576        0.0000000000000000     
 -0.11287695056303851       0.23177251950511890        0.0000000000000000     
 -0.11381123271634186       0.24013545073623574        0.0000000000000000     
 -0.11472663948143760       0.24861327063922531        0.0000000000000000     
 -0.11562317085832569       0.25720597921408761        0.0000000000000000     
 -0.11650082684700613       0.26591357646082270        0.0000000000000000     
  -8.2520262468507105E-002  0.26532310925072550        0.0000000000000000     
  -8.2717771407179869E-002  0.27425381225901357        0.0000000000000000     
  -8.2898799386841124E-002  0.28335392022103234        0.0000000000000000     
  -8.3063346407490871E-002  0.29262343313678185        0.0000000000000000     
  -8.3211412469129095E-002  0.30206235100626211        0.0000000000000000     
  -9.0585223983161031E-002  0.26545746413933724        0.0000000000000000     
  -9.0842321808091875E-002  0.27443831275171926        0.0000000000000000     
  -9.1059285153088781E-002  0.28367055430073923        0.0000000000000000     
  -9.1236114018151696E-002  0.29315418878639732        0.0000000000000000     
  -9.1372808403280645E-002  0.30288921620869319        0.0000000000000000     
  -9.8936971884462196E-002  0.26560066030389068        0.0000000000000000     
  -9.9314185604313959E-002  0.27460762669284733        0.0000000000000000     
  -9.9623063244127993E-002  0.28393910681274809        0.0000000000000000     
  -9.9863604803904313E-002  0.29359510066359296        0.0000000000000000     
 -0.10003581028364290       0.30357560824538199        0.0000000000000000     
 -0.10757550617241057       0.26575269774438576        0.0000000000000000     
 -0.10813336279584604       0.27476175408239778        0.0000000000000000     
 -0.10859013365995876       0.28415957775705886        0.0000000000000000     
 -0.10894581876474871       0.29394616876836915        0.0000000000000000     
 -0.10920041811021584       0.30412152711632845        0.0000000000000000     
 -0.11650082684700613       0.26591357646082270        0.0000000000000000     
 -0.11729985338268820       0.27490069492037061        0.0000000000000000     
 -0.11796049640058114       0.28433196713367159        0.0000000000000000     
 -0.11848275590068487       0.29420739310072558        0.0000000000000000     
 -0.11886663188299948       0.30452697282153257        0.0000000000000000     
 </DataArray>
 <DataArray  type="Float64" Name="stress" NumberOfComponents="3" format="ascii">
   5572624796.6080675       -268426001.96713376       -77628372.294307873     
   5562560302.0675039       -48073131.227473497        21894944.096636847     
   5529007470.1995544        93985281.754230738        89777575.827171698     
   5471966301.0042171        157749236.97799325        126019522.89731590     
   5391436794.4814939        143218734.44379759        130620785.30705537     
   5462275645.2387075       -131753284.79259658        143971815.34803694     
   5354287434.3869610       -12951254.476704359        196930748.01343992     
   5232560390.7538300        60054666.567916632        229639239.04382262     
   5097094514.3393116        87264478.341236115        242097288.43917924     
   4947889805.1434050        68678180.843249798        234304896.19951046     
   5264658905.2747507       -21260844.196438074        332125666.80120975     
   5091290529.6129093        5753411.1460323334        349894637.71140736     
   4913932825.7156620        19469905.703865051        358803410.01196206     
   4732585793.5830336        19888639.477060556        358851983.70286101     
   4547249433.2150087        7009612.4656200409        350040358.78410882     
   4979774576.7162361        63051319.821354628        486833182.06521595     
   4773569587.7453432        8040865.6407070160        480786613.19054294     
   4573124775.0850582       -27769000.837915659        477270088.73159653     
   4378440138.7353735       -44378279.614526510        476283608.68836981     
   4189515678.6963053       -41786970.689106703        477827173.06087101     
   4607622659.5631218        121183207.26076388        608094361.14005983     
   4401124608.7842560       -6088890.9926829338        589606674.45084286     
   4210136238.8620028       -81662053.057439804        585039275.20272303     
   4034657549.7963471       -105536278.93352008        594392163.39570355     
   3874688541.5872955       -77711568.620925665        617665339.02978003     
   5391436794.4814939        143218734.44379759        130620785.30705537     
   5152202551.3415041        57897490.993951321        80657267.910235241     
   4921173577.4428968       -72854.984632730484        46964369.397606283     
   4698349872.7856464       -30692303.492016315        29542089.769184530     
   4483731437.3697662       -33960854.528174877        28390429.024973173     
   4947889805.1434050        68678180.843249798        234304896.19951046     
   4758103802.8216000        24140428.227265596        204902696.95635051     
   4572972852.7228117       -4880483.6453580856        187855412.34285730     
   4392496954.8470001       -18384554.774709702        183163042.35902673     
   4216676109.1941948       -16371785.160712957        190825587.00486353     
   4547249433.2150087        7009612.4656200409        350040358.78410882     
   4395723945.2698593       -100967.24895119667        337057557.83985442     
   4245303292.5293369       -3528762.9481079578        332513967.27072608     
   4095987474.9934397       -3273774.6318509579        336409587.07672250     
   3947776492.6621633        663997.69982171059        348744417.25784749     
   4189515678.6963053       -41786970.689106703        477827173.06087101     
   4065062978.6862631       -14826695.434747696        477121850.56075007     
   3938164896.8624797        3982307.1071279049        480940034.18121469     
   3808821433.2249489        14640036.936522007        489281723.92227173     
   3677032587.7736692        17146494.053412437        502146919.78391474     
   3874688541.5872955       -77711568.620925665        617665339.02978003     
   3766120903.0708275       -20036756.330079556        625095575.11903095     
   3651557665.7222352        17652726.520349264        633133613.07432663     
   3530998829.5415292        35356879.930403471        641779452.89567316     
   3404444394.5287042        33075703.900054932        651033094.58306921     
   4483731437.3697662       -33960854.528174877        28390429.024973173     
   4302810592.5766611       -16396937.161396265        22670903.922110513     
   4120754714.5088592       -2616464.0436177254        20920334.603117347     
   3937563803.1663446        7380564.8251092434        23138721.067991752     
   3753237858.5491343        13594149.444876671        29326063.316742051     
   4216676109.1941948       -16371785.160712957        190825587.00486353     
   4043430128.7001472       -7343548.2506086826        183451969.23684150     
   3869645364.8282566       -111255.93331575394        179982909.86652625     
   3695321817.5785317        5325091.7911913395        180418408.89392260     
   3520459486.9509606        8965494.9228882790        184758466.31903407     
   3947776492.6621633        663997.69982171059        348744417.25784749     
   3782021383.9352851        1101356.3936729431        340412331.70433640     
   3616323741.7274351        1730270.1509406567        335920407.16237551     
   3450683566.0386028        2550738.9716119766        335268643.63197219     
   3285100856.8687944        3562762.8556854725        338457041.11311710     
   3677032587.7736692        17146494.053412437        502146919.78391474     
   3518584358.2820797        8937776.7714455128        493551991.32458788     
   3360789845.2063799        2908114.2091269493        488732826.49065506     
   3203649048.5465608       -942493.63360130787        487689425.28211665     
   3047161968.3026295       -2614046.7566951513        490421787.69897848     
   3404444394.5287042        33075703.900054932        651033094.58306921     
   3253119051.7405224        16165712.882725954        642870948.09760261     
   3103043675.2650890        3422276.2412208319        638420167.85137403     
   2954218265.1024051       -5154606.0244390965        637680753.84438241     
   2806642821.2524700       -9564933.9142811298        640652706.07662416     
   3753237858.5491343        13594149.444876671        29326063.316742051     
   3582587226.0099926        19668762.471045732        25680206.040403262     
   3410274990.3387747        20204698.390292645        24470469.363456588     
   3236301151.5354724        15201957.202587366        25696853.285898827     
   3060665709.6000810        4660538.9079287052        29359357.807737026     
   3520459486.9509606        8965494.9228882790        184758466.31903407     
   3356129020.1172395        13410908.866838217        178831641.74709374     
   3190784887.2157316        14477435.918182373        175706331.52198404     
   3024427088.2464352        12165076.076894760        175382535.64371783     
   2857055623.2093577        6473829.3430041075        177860254.11225665     
   3285100856.8687944        3562762.8556854725        338457041.11311710     
   3128134537.8760314        6692172.3580840826        331005175.82058460     
   2970802489.8797855        8602485.1822001934        326720218.62232226     
   2813104712.8800464        9293701.3280030489        325602169.51834142     
   2655041206.8768120        8765820.7955058813        327651028.50861830     
   3047161968.3026295       -2614046.7566951513        490421787.69897848     
   2898603779.2863836       -487447.05517005920        482200808.26086390     
   2750327798.3309426        2579846.1823694706        477512130.66446990     
   2602334025.4363022        6587832.9559149742        476355754.90978616     
   2454622460.6024709        11536513.265482426        478731680.99680912     
   2806642821.2524700       -9564933.9142811298        640652706.07662416     
   2667536744.3482804       -8127949.3729809523        632418539.06794834     
   2529360812.5691924       -3590481.0813536644        628082067.64842653     
   2392115025.9152031        4047470.9606052637        627643291.81805789     
   2255799384.3863139        14785906.752914190        631102211.57684195     
   3060665709.6000810        4660538.9079287052        29359357.807737026     
   2889758196.4772067       -4736441.2230643034        17099739.982733116     
   2720331666.3896966       -9196811.2362208366        7836567.6229285290     
   2552386119.3375025       -8720571.1316349506        1569840.7283322338     
   2385921555.3206410       -3307720.9092754126       -1700440.7010877943     
   2857055623.2093577        6473829.3430041075        177860254.11225665     
   2695155198.2871542        2100127.9869804382        167378017.28526390     
   2534054966.9119558        393738.45428991318        159668646.19937819     
   2373754929.0837445        1354660.7448924780        154732140.85458222     
   2214255084.8025298        4982894.8588292599        152568501.25087920     
   2655041206.8768120        8765820.7955058813        327651028.50861830     
   2501509070.9435830        9223758.4509792328        318151918.27656853     
   2348096339.0690069        10079709.635291457        311202094.06151879     
   2194803011.2530737        11333674.348412752        306801555.86346203     
   2041629087.4957857        12985652.590357304        304950303.68240911     
   2454622460.6024709        11536513.265482426        478731680.99680912     
   2308819814.4464979        16634450.168919206        469421442.95664221     
   2162455782.8608265        19861102.306697011        462436911.20936215     
   2015530365.8454547        21216469.678815365        457778085.75498253     
   1868043563.4003937        20700552.285284400        455444966.59350580     
   2255799384.3863139        14785906.752914190        631102211.57684195     
   2117087428.7958856        24332203.140784144        621186591.32547116     
   1977133298.2874205        29737916.468543053        613373097.64290094     
   1835936992.8609083        31003046.736145020        607661730.52912831     
   1693498512.5163598        28127593.943625391        604052489.98416793     
   2385921555.3206410       -3307720.9092754126       -1700440.7010877943     
   2245177900.4923177        6689899.1256252527       -7376914.3016309505     
   2100888535.4127989        4868484.9898524284       -11301272.598194757     
   1953053460.0821087       -8771963.3164850473       -13473515.590784339     
   1801672674.5002248       -34231445.793458939       -13893643.279379202     
   2214255084.8025298        4982894.8588292599        152568501.25087920     
   2076464433.7078750        12893163.420586944        142787615.75503904     
   1936402782.3575547        13233431.130142450        134007852.78261299     
   1794070130.7516153        6003697.9876096249        126229212.33359273     
   1649466478.8900173       -8796036.0070967674        119451694.40798785     
   2041629087.4957857        12985652.590357304        304950303.68240911     
   1904645746.4760199        18164861.581354737        292552167.95274210     
   1766666115.1961427        20023103.038645267        280404161.96590471     
   1627690193.6561694        18560376.962284267        268506285.72190946     
   1487717981.8560710        13776683.352177143        256858539.22074324     
   1868043563.4003937        20700552.285284400        455444966.59350580     
   1729721838.7967436        22504993.607881308        441916742.29146248     
   1591678533.9285228        25237500.715247571        427887654.95169157     
   1453913648.7957394        28898073.607390821        413357704.57418638     
   1316427183.3983860        33486712.284312725        398326891.15894336     
   1693498512.5163598        28127593.943625391        604052489.98416793     
   1551692710.6700504        25913559.500189364        590881338.77121401     
   1411440038.5547168        28876624.160005510        576458331.73997068     
   1272740496.1703510        37016787.923046112        560783468.89040101     
   1135594083.5169621        50334050.789346635        543856750.22254205     
   1801672674.5002248       -34231445.793458939       -13893643.279379202     
   1770754621.4984534       -16489136.733866930       -8264633.0860969285     
   1748039183.2067590        28595221.359303355       -41447739.654000878     
   1733526359.6250594        101021628.48580122       -113442962.98307440     
   1727216150.7534101        200790084.64578950       -224250303.07334182     
   1649466478.8900173       -8796036.0070967674        119451694.40798785     
   1526908182.5894549       -14008487.204682112        135208724.94301963     
   1408581552.1239572       -5115385.6187252998        124582629.76104715     
   1294486587.4935410        17883268.750850558        87573408.862073660     
   1184623288.6981866        54987475.903944731        24181062.246092085     
   1487717981.8560710        13776683.352177143        256858539.22074324     
   1309030845.2400491       -3737107.2076761723        278110816.41008633     
   1130604425.5841384       -20381841.233819067        285408958.92659181     
   952438722.88832664       -36157518.726301968        278752966.77026349     
   774533737.15264833       -51064139.685001194        258142839.94112957     
   1316427183.3983860        33486712.284312725        398326891.15894336     
   1117122609.4502635        14325003.257230937        420441641.31512016     
   914107803.58729196       -17204145.486027837        441031247.84264582     
   707382765.80946934       -61100733.945447505        460095710.74152148     
   496947496.11679506       -117364762.12106499        477635030.01173633     
   1135594083.5169621        50334050.789346635        543856750.22254205     
   951183475.22010040        40177844.190031409        562201199.65812147     
   759091686.13341129        4417701.6246297956        591449496.50920546     
   559318716.25692761       -56946376.906750917        631601640.77581954     
   351864565.59062564       -143914391.40420359        682657632.45795882     
   1727216150.7534101        200790084.64578950       -224250303.07334182     
   1456732500.5149591        184832430.77075130       -96702977.088559419     
   1153997393.1763582        61369919.895190299        60066599.737777032     
   819010828.73764050       -169597447.98075432        246058427.40570214     
   451772807.19875771       -508069672.85723770        461272505.91518384     
   1184623288.6981866        54987475.903944731        24181062.246092085     
   977624987.38887906        11941997.836456001        155524517.32488981     
   732762590.92601883       -157317130.74290839        312731641.70588613     
   450036099.30955988       -452789909.83422971        495802435.38905162     
   129445512.53953701       -874476339.43747497        704736898.37441313     
   774533737.15264833       -51064139.685001194        258142839.94112957     
   621424837.51711416       -124076226.12150475        386734346.38494945     
   424839204.67455995       -342010756.58140779        537830940.59157085     
   184776838.62499797       -704867731.06466901        711432622.56098711     
  -98762260.631581247       -1212647149.5713348        907539392.29320300     
   496947496.11679506       -117364762.12106499        477635030.01173633     
   388132050.89963835       -223222241.10321200        596926510.09157372     
   230227234.42202941       -492710957.62022293        735364496.39482152     
   23233046.683975041       -925830911.67205012        892948988.92148495     
  -232850512.31454325       -1522582103.2587211        1069679987.6715598     
   351864565.59062564       -143914391.40420359        682657632.45795882     
   277746627.53646463       -285496047.10862869        786101008.44479501     
   148926680.16841385       -609417733.85935855        905332309.11565971     
  -34595276.513515294       -1115679451.6563470        1040351534.4705471     
  -272819242.50933760       -1804281200.4996569        1191158684.5094643     
   4607622659.5631218        121183207.26076388        608094361.14005983     
   4401124608.7842560       -6088890.9926829338        589606674.45084286     
   4210136238.8620028       -81662053.057439804        585039275.20272303     
   4034657549.7963471       -105536278.93352008        594392163.39570355     
   3874688541.5872955       -77711568.620925665        617665339.02978003     
   4166745549.3127508        36305488.234403372        710819878.09012043     
   4016322571.9248562       -4933888.4427542686        712896476.88420391     
   3871242056.1282821       -28365059.815507174        724333755.09725296     
   3731504001.9230285       -33988025.883857012        745131712.72927225     
   3597108409.3090968       -21802786.647805214        775290349.78025436     
   3756383695.4425907       -39417653.877890587        846095580.46761811     
   3649008339.9538622        1467455.5736982822        856874708.93550766     
   3536808226.7911730        26270039.445413113        872454908.80023074     
   3419783355.9545183        34990097.737254143        892836180.06178641     
   3297933727.4439077        27627630.449227929        918018522.72018254     
   3376537097.9526529       -105986219.07611966        1013921468.2725575     
   3299181912.8712807        13115141.056669116        1021541370.6047527     
   3206834750.8506742        82243244.725314498        1029402736.3116522     
   3099495611.8908176        101398091.92980874        1037505565.3932557     
   2977164495.9917226        70579682.670160413        1045849857.8495631     
   3027205756.8429232       -163400207.36028624        1214297541.5049376     
   2966843290.6771183        30009168.006169438        1206896461.8919392     
   2881321628.3067851        139554556.02419710        1195177237.6315229     
   2770640769.7319255        165235956.69379878        1179139868.7236710     
   2634800714.9525399        107053370.01499069        1158784355.1683958     
   3874688541.5872955       -77711568.620925665        617665339.02978003     
   3766120903.0708275       -20036756.330079556        625095575.11903095     
   3651557665.7222352        17652726.520349264        633133613.07432663     
   3530998829.5415292        35356879.930403471        641779452.89567316     
   3404444394.5287042        33075703.900054932        651033094.58306921     
   3597108409.3090968       -21802786.647805214        775290349.78025436     
   3481845086.4655471        557890.10583376884        771146328.03710926     
   3364163976.7030759        14859277.129730940        769393393.91566765     
   3244065080.0216775        21101374.423877835        770031547.41593575     
   3121548396.4213591        19284181.988279462        773060788.53790224     
   3297933727.4439077        27627630.449227929        918018522.72018254     
   3181069822.4322948        16202702.313371658        906474357.04336810     
   3065365942.4149518        8644524.1584165096        899104564.74392021     
   2950822087.3918848        4953095.9843729734        895909145.82183099     
   2837438257.3630877        5128417.7912298441        896888100.27710366     
   2977164495.9917226        70579682.670160413        1045849857.8495631     
   2863795110.9710646        26897680.292508364        1031079662.1378098     
   2755163562.8578758       -991532.39358198643        1022267125.5590774     
   2651269851.6521544       -13087955.388114691        1019412248.1133620     
   2552113977.3539004       -9391588.6910980940        1022515029.8006659     
   2634800714.9525399        107053370.01499069        1158784355.1683958     
   2530020952.0818586        32642824.043253899        1144962243.3204312     
   2433556838.0318432       -14048892.526262283        1138881076.3611426     
   2345408372.8024859       -33021779.693585038        1140540854.2905314     
   2265575556.3937917       -24275837.458699346        1149941577.1085947     
   3404444394.5287042        33075703.900054932        651033094.58306921     
   3253119051.7405224        16165712.882725954        642870948.09760261     
   3103043675.2650890        3422276.2412208319        638420167.85137403     
   2954218265.1024051       -5154606.0244390965        637680753.84438241     
   2806642821.2524700       -9564933.9142811298        640652706.07662416     
   3121548396.4213591        19284181.988279462        773060788.53790224     
   2982407464.6196427        10164756.769578457        765798881.09277797     
   2844157973.5900264        4016800.7912173271        762400408.36755395     
   2706799923.3325105        840314.05318677425        762865370.36223245     
   2570333313.8470955        635296.55549228191        767193767.07681513     
   2837438257.3630877        5128417.7912298441        896888100.27710366     
   2710916217.9211721        3929902.7831634283        890108152.07489419     
   2584927093.7107038        4507771.8799300194        887343707.07325304     
   2459470884.7316890        6862025.0815347433        888594765.27217948     
   2334547590.9841213        10992662.387969494        893861326.67166865     
   2552113977.3539004       -9391588.6910980940        1022515029.8006659     
   2438645311.6451130       -2538849.0765328407        1015798761.0439459     
   2325351035.6271253        4895189.5073670149        1013250063.9684601     
   2212231149.2999430        12910527.060612082        1014868938.5742135     
   2099285652.6635585        21507163.583184719        1020655384.8611909     
   2265575556.3937917       -24275837.458699346        1149941577.1085947     
   2165594745.7914634       -9241498.8095048666        1142870707.9999392     
   2065429799.3392901        5179053.6735297441        1140119479.0531902     
   1965080717.0372674        18985819.990400314        1141687890.2683372     
   1864547498.8853927        32178800.141102433        1147575941.6453791     
   2806642821.2524700       -9564933.9142811298        640652706.07662416     
   2667536744.3482804       -8127949.3729809523        632418539.06794834     
   2529360812.5691924       -3590481.0813536644        628082067.64842653     
   2392115025.9152031        4047470.9606052637        627643291.81805789     
   2255799384.3863139        14785906.752914190        631102211.57684195     
   2570333313.8470955        635296.55549228191        767193767.07681513     
   2442119628.0974913        4720623.9691923857        759849482.02482033     
   2314210853.9652400        9822323.4407626390        756375107.76279497     
   2186606991.4503393        15940394.970161557        756770644.29074264     
   2059308040.5528007        23074838.557419181        761036091.60865903     
   2334547590.9841213        10992662.387969494        893861326.67166865     
   2217146911.2485824        17702517.131953120        886677484.48398864     
   2099425909.6226456        23344632.241286278        883335768.28709102     
   1981384586.1063170        27919007.715973496        883836178.08097970     
   1863022940.6995940        31425643.556016326        888178713.86565840     
   2099285652.6635585        21507163.583184719        1020655384.8611909     
   1992618593.8015542        30817730.115269661        1012902546.4454474     
   1885005979.5414073        36976445.320213556        1008964049.2213056     
   1776447809.8831215        39983309.198031902        1008839893.1887671     
   1666944084.8266964        39838321.748709381        1012530078.3478330     
   1864547498.8853927        32178800.141102433        1147575941.6453791     
   1768534675.7564046        44066262.919139802        1138524667.9092004     
   1670951063.7215292        50717762.677552938        1133259950.5654433     
   1571796662.7807646        52133299.416338027        1131781789.6141052     
   1471071472.9341121        48312873.135496497        1134090185.0551870     
   2255799384.3863139        14785906.752914190        631102211.57684195     
   2117087428.7958856        24332203.140784144        621186591.32547116     
   1977133298.2874205        29737916.468543053        613373097.64290094     
   1835936992.8609083        31003046.736145020        607661730.52912831     
   1693498512.5163598        28127593.943625391        604052489.98416793     
   2059308040.5528007        23074838.557419181        761036091.60865903     
   1925383681.2547030        27827949.295264721        750431079.05829501     
   1790894821.1111794        30699390.548372746        742512826.08323538     
   1655841460.1222286        31689162.316727042        737281332.68347859     
   1520223598.2878580        30797264.600330591        734736598.85902297     
   1863022940.6995940        31425643.556016326        888178713.86565840     
   1735556557.7124012        31886682.649397969        877674928.76768148     
   1608203347.9524021        32724965.833420694        870442536.25151896     
   1480963311.4195986        33940493.108096898        866481536.31715858     
   1353836448.1139843        35533264.473407626        865791928.96460855     
   1666944084.8266964        39838321.748709381        1012530078.3478330     
   1547606058.1689978        36508403.203219771        1002918140.4536337     
   1429058878.8110991        35814642.323731244        997162228.14774954     
   1311302546.7530098        37757039.110286057        995262341.43017888     
   1194337061.9947357        42335593.562867105        997218480.30091405     
   1471071472.9341121        48312873.135496497        1134090185.0551870     
   1361532182.6244712        41693110.956668139        1126160714.1161530     
   1253461413.6872594        39968420.019265950        1122671901.7719369     
   1146859166.1224802        43138800.323300660        1123623748.0225298     
   1041725439.9301208        51204251.868736684        1129016252.8679409     
   1693498512.5163598        28127593.943625391        604052489.98416793     
   1551692710.6700504        25913559.500189364        590881338.77121401     
   1411440038.5547168        28876624.160005510        576458331.73997068     
   1272740496.1703510        37016787.923046112        560783468.89040101     
   1135594083.5169621        50334050.789346635        543856750.22254205     
   1520223598.2878580        30797264.600330591        734736598.85902297     
   1377156561.7174683        27518709.045564711        726042619.30630434     
   1234553868.5743151        25787964.914954901        717875973.73289335     
   1092415518.8584206        25605032.208520174        710236662.13879693     
   950741512.56977129        26969910.926243365        703124684.52402234     
   1353836448.1139843        35533264.473407626        865791928.96460855     
   1214591576.2412739        32715207.633846223        860304870.38443005     
   1074722261.4920845        27815674.539363146        857124335.58118594     
   934228503.86642027        20834665.189960122        856250324.55487657     
   793110303.36427975        11772179.585633248        857682837.30549860     
   1194337061.9947357        42335593.562867105        997218480.30091405     
   1063997754.2414795        41503055.265042901        993668092.00560069     
   931945217.30802202        34959753.033224702        994203417.28484857     
   798179451.19435787        22705686.867378056        998824456.13864350     
   662700455.90049946        4740856.7675414681        1007531208.5669953     
   1041725439.9301208        51204251.868736684        1129016252.8679409     
   925375095.71808755        53882251.939186811        1126132284.1698213     
   806222736.02212214        47220200.396518379        1129113218.8438690     
   684268360.84223950        31218097.240798324        1137959056.8900986     
   559511970.17842376        5875942.4719677567        1152669798.3084905     
   1135594083.5169621        50334050.789346635        543856750.22254205     
   951183475.22010040        40177844.190031409        562201199.65812147     
   759091686.13341129        4417701.6246297956        591449496.50920546     
   559318716.25692761       -56946376.906750917        631601640.77581954     
   351864565.59062564       -143914391.40420359        682657632.45795882     
   950741512.56977129        26969910.926243365        703124684.52402234     
   791742975.85540938        10619914.438489705        721015319.84933686     
   624026788.40979266       -34788917.820107758        748979191.25838733     
   447592950.23291892       -109256585.84955218        787016298.75116765     
   262441461.32480216       -212783089.64983189        835126642.32768905     
   793110303.36427975        11772179.585633248        857682837.30549860     
   657150662.99874592       -11483559.360620379        873910443.58888185     
   511436901.96051198       -67253033.882545590        899380674.62421083     
   355969020.24958313       -155536243.98012537        934093530.41148496     
   190747017.86595213       -276333189.65336478        978049010.95069921     
   662700455.90049946        4740856.7675414681        1007531208.5669953     
   547406536.65010965       -26132577.207337350        1020886570.8767568     
   421322026.78557897       -92974646.562684983        1042653946.6066685     
   284446926.30690163       -195785351.29851538        1072833335.7567455     
   136781235.21409076       -334564691.41480279        1111424738.3269773     
   559511970.17842376        5875942.4719677567        1152669798.3084905     
   462510596.80949485       -33327139.101637840        1161943701.7129531     
   353682162.88498610       -111953755.86052063        1178799007.2057807     
   233026668.40488416       -230003907.80470574        1203235714.7869720     
   100544113.36920911       -387477594.93414021        1235253824.4565375     
   351864565.59062564       -143914391.40420359        682657632.45795882     
   277746627.53646463       -285496047.10862869        786101008.44479501     
   148926680.16841385       -609417733.85935855        905332309.11565971     
  -34595276.513515294       -1115679451.6563470        1040351534.4705471     
  -272819242.50933760       -1804281200.4996569        1191158684.5094643     
   262441461.32480216       -212783089.64983189        835126642.32768905     
   223658297.38997644       -352653772.34787166        884688610.28884137     
   140677612.94041115       -639849523.42836583        945248409.11782146     
   13499407.976121724       -1074370342.8913031        1016806038.8146356     
  -157876317.50291717       -1656216230.7366910        1099361499.3792777     
   190747017.86595213       -276333189.65336478        978049010.95069921     
   173612645.71846515       -418598694.04463494        985984807.81851208     
   122785241.85539827       -673174304.15450871        1000128341.7379600     
   38264806.276749730       -1040060019.9829651        1020479612.7090518     
  -79948661.017460048       -1519255841.5300009        1047038620.7317644     
   136781235.21409076       -334564691.41480279        1111424738.3269773     
   127609672.52194583       -483330812.19890726        1089989601.0338044     
   95249566.913377345       -709392076.03775108        1069972106.9760710     
   39700918.388390720       -1012748482.9313216        1051372256.1537771     
  -39036273.053010166       -1393400032.8796127        1034190048.5669143     
   100544113.36920911       -387477594.93414021        1235253824.4565375     
   85649377.800419748       -546850126.81065500        1196702989.9347315     
   58070588.114359796       -748502839.07807732        1154779704.8321664     
   17807744.311037958       -992435731.73637271        1109483969.1488388     
  -35139153.609541595       -1278648804.7855325        1060815782.8847480     
   3027205756.8429232       -163400207.36028624        1214297541.5049376     
   2966843290.6771183        30009168.006169438        1206896461.8919392     
   2881321628.3067851        139554556.02419710        1195177237.6315229     
   2770640769.7319255        165235956.69379878        1179139868.7236710     
   2634800714.9525399        107053370.01499069        1158784355.1683958     
   2725344543.3301640       -58406522.716210723        1348547274.6760857     
   2629503411.4609771        33262866.866890311        1309555780.3533885     
   2520492452.1757765        81032831.729959011        1271069607.6255178     
   2398311665.4745641        84903371.872984409        1233088756.4924743     
   2262961051.3573413        44874487.295977950        1195613226.9542592     
   2390216042.0492754        36606975.597431183        1440766137.8209789     
   2272677576.5974240        30670779.033395886        1384171825.7085156     
   2153958652.5180788        20799720.377708554        1332906301.4331343     
   2034059269.8112411        6993799.6303751469        1286969564.9948356     
   1912979428.4769084       -10746983.208603501        1246361616.3936172     
   2021820253.0002363        121640287.58062619        1490954130.9396250     
   1896365786.0864563        22232904.505671382        1430744597.9573281     
   1781720229.3336957       -41144778.032541394        1380687319.0543735     
   1677883582.7419567       -68492760.034020782        1340782294.2307487     
   1584855846.3112392       -59811041.498761594        1311029523.4864631     
   1620157176.1830657        196693413.23338014        1499111254.0320177     
   1500568039.9280782        7949243.2837287188        1449274097.0998263     
   1403777182.6226254       -104800663.50080401        1414412660.4892299     
   1329784604.2667131       -141556307.12020391        1394526944.2002165     
   1278590304.8603370       -102317687.57447964        1389616948.2327991     
   2634800714.9525399        107053370.01499069        1158784355.1683958     
   2530020952.0818586        32642824.043253899        1144962243.3204312     
   2433556838.0318432       -14048892.526262283        1138881076.3611426     
   2345408372.8024859       -33021779.693585038        1140540854.2905314     
   2265575556.3937917       -24275837.458699346        1149941577.1085947     
   2262961051.3573413        44874487.295977950        1195613226.9542592     
   2187033527.0169683        9476886.1887639761        1195753952.6344469     
   2115575405.8311133       -11022704.403397441        1201344775.7882321     
   2048586687.7997751       -16624284.480492830        1212385696.4156086     
   1986067372.9229550       -7327854.0425356627        1228876714.5165851     
   1912979428.4769084       -10746983.208603501        1246361616.3936172     
   1859358864.3380439       -9095222.9499504566        1255977892.9914498     
   1806361457.6875546       -5366271.0633777380        1268753419.6478043     
   1753987208.5254381        439872.45110476017        1284688196.3626757     
   1702236116.8516958        8323207.5934978724        1303782223.1360617     
   1584855846.3112392       -59811041.498761594        1311029523.4864631     
   1546996964.0450907       -23073503.372864783        1325634064.3914452     
   1505914993.6011722        2920407.4937964678        1341107007.9398651     
   1461609934.9794803        18170691.101216316        1357448354.1317246     
   1414081788.1800225        22677347.449412107        1374658102.9670248     
   1278590304.8603370       -102317687.57447964        1389616948.2327991     
   1249947826.1381047       -32457955.079995513        1404722466.8344254     
   1214236013.5719590        13837331.268115520        1418405540.6644111     
   1171454867.1618993        36568171.469842672        1430666169.7227597     
   1121604386.9079270        35734565.525193036        1441504354.0094681     
   2265575556.3937917       -24275837.458699346        1149941577.1085947     
   2165594745.7914634       -9241498.8095048666        1142870707.9999392     
   2065429799.3392901        5179053.6735297441        1140119479.0531902     
   1965080717.0372674        18985819.990400314        1141687890.2683372     
   1864547498.8853927        32178800.141102433        1147575941.6453791     
   1986067372.9229550       -7327854.0425356627        1228876714.5165851     
   1895972388.1541357        468245.60232293606        1220500745.3048737     
   1805873299.2469521        8250664.7859696150        1217079980.1888001     
   1715770106.2014079        16019403.508415341        1218614419.1683726     
   1625662809.0175059        23774461.769659817        1225104062.2435923     
   1702236116.8516958        8323207.5934978724        1303782223.1360617     
   1623842854.8699434        9425837.3200904727        1294311190.8180172     
   1545625520.4613194        11114892.290438354        1290430926.5293646     
   1467584113.6258142        13390372.504520297        1292141430.2700994     
   1389718634.3634350        16252277.962356985        1299442702.0402296     
   1414081788.1800225        22677347.449412107        1374658102.9670248     
   1349206145.9388974        17631276.343807459        1364302044.5393825     
   1284686462.9823852        13771736.186904609        1360172318.0748794     
   1220522739.3104808        11098726.978698432        1362268923.5735140     
   1156714974.9231906        9612248.7192079425        1370591861.0352836     
   1121604386.9079270        35734565.525193036        1441504354.0094681     
   1072062261.3609881        25084562.673453629        1430473306.4689653     
   1023056126.8101537        16221196.475387692        1426304154.8253496     
   974585983.25540841        9144466.9309545159        1428996899.0786178     
   926651830.69676495        3854374.0401945710        1438551539.2287636     
   1864547498.8853927        32178800.141102433        1147575941.6453791     
   1768534675.7564046        44066262.919139802        1138524667.9092004     
   1670951063.7215292        50717762.677552938        1133259950.5654433     
   1571796662.7807646        52133299.416338027        1131781789.6141052     
   1471071472.9341121        48312873.135496497        1134090185.0551870     
   1625662809.0175059        23774461.769659817        1225104062.2435923     
   1538494170.0749967        31242066.338507891        1215843470.8707356     
   1450558832.3050439        36154008.149216354        1210619508.9894905     
   1361856795.7076452        38510287.201770186        1209432176.5998518     
   1272388060.2828074        38310903.496191740        1212281473.7018223     
   1389718634.3634350        16252277.962356985        1299442702.0402296     
   1312108674.1765192        19514372.692753255        1290910898.1222146     
   1234536105.2406027        22901104.926492691        1286665796.7949979     
   1157000927.5556879        26412474.663567603        1286707398.0585790     
   1079503141.1217775        30048481.903985977        1291035701.9129550     
   1156714974.9231906        9612248.7192079425        1370591861.0352836     
   1089378188.0609782        8883181.9818871617        1363726949.6636310     
   1022882882.5282061        10959053.009379148        1361398813.9819646     
   957229058.32488537        15839861.801706374        1363607453.9902844     
   892416715.45100975        23525608.358850479        1370352869.6885903     
   926651830.69676495        3854374.0401945710        1438551539.2287636     
   870302711.72836149       -651505.79411822557        1434291625.4949915     
   815599164.16785157        327852.39787912369        1434818560.5503905     
   762541188.01523423        6792448.6161858141        1440132344.3949654     
   711128783.27050924        18742282.860795289        1450232977.0287168     
   1471071472.9341121        48312873.135496497        1134090185.0551870     
   1361532182.6244712        41693110.956668139        1126160714.1161530     
   1253461413.6872594        39968420.019265950        1122671901.7719369     
   1146859166.1224802        43138800.323300660        1123623748.0225298     
   1041725439.9301208        51204251.868736684        1129016252.8679409     
   1272388060.2828074        38310903.496191740        1212281473.7018223     
   1175882105.5203788        35958911.153101921        1207749142.1703548     
   1080115524.6384010        36071498.411523402        1207816924.8106017     
   985088317.63689685        38648665.271523714        1212484821.6225650     
   890800484.51585746        43690411.733064234        1221752832.6062419     
   1079503141.1217775        30048481.903985977        1291035701.9129550     
   996486109.26911688        32100935.605356634        1289049837.7150972     
   913479303.80495989        34187477.268406898        1291823543.2658539     
   830482724.72930908        36308106.893142134        1299356818.5652289     
   747496372.04215705        38462824.479544163        1311649663.6132193     
   892416715.45100975        23525608.358850479        1370352869.6885903     
   823344193.87070107        30119184.313479394        1370062800.7503836     
   753552751.18693852        34316356.589922518        1374691757.1376956     
   683042387.39970827        36117125.188148230        1384239738.8505268     
   611813102.50903034        35521490.108204454        1398706745.8888707     
   711128783.27050924        18742282.860795289        1450232977.0287168     
   656456359.32512748        30013657.277451456        1450788031.2762094     
   600335866.78432918        36458136.376046807        1456421566.4261200     
   542767305.64810967        38075720.156574607        1467133582.4784527     
   483750675.91646773        34866408.619027317        1482924079.4332054     
   1041725439.9301208        51204251.868736684        1129016252.8679409     
   925375095.71808755        53882251.939186811        1126132284.1698213     
   806222736.02212214        47220200.396518379        1129113218.8438690     
   684268360.84223950        31218097.240798324        1137959056.8900986     
   559511970.17842376        5875942.4719677567        1152669798.3084905     
   890800484.51585746        43690411.733064234        1221752832.6062419     
   788933814.39728653        43717658.344653249        1218427772.5565963     
   684520617.37580729        35256481.946547806        1220990809.2356367     
   577560893.45143878        18306882.538802713        1229441942.6433690     
   468054642.62415910       -7131139.8786293268        1243781172.7797902     
   747496372.04215705        38462824.479544163        1311649663.6132193     
   660179642.74995625        35859197.652157605        1308181582.2232392     
   570571875.13587213        25618776.418499440        1310624790.9184737     
   478673069.19991308        7741560.7785900831        1318979289.6989079     
   384483224.94207728       -17772449.267578200        1333245078.5645468     
   611813102.50903034        35521490.108204454        1398706745.8888707     
   539112580.77609563        30306869.861701190        1395393713.1697612     
   464376509.30230486        18307083.812347308        1398015163.8923702     
   387604888.08766305       -477868.03985346854        1406571098.0566940     
   308797717.13217282       -26047985.694870532        1421061515.6627462     
   483750675.91646773        34866408.619027317        1482924079.4332054     
   425732628.47571170        27060674.973301157        1480064165.3961513     
   365934519.87512112        13321404.128131896        1483161928.1573355     
   304356350.11469918       -6351403.9164807051        1492217367.7167537     
   240998119.19445118       -31957749.160508022        1507230484.0744116     
   559511970.17842376        5875942.4719677567        1152669798.3084905     
   462510596.80949485       -33327139.101637840        1161943701.7129531     
   353682162.88498610       -111953755.86052063        1178799007.2057807     
   233026668.40488416       -230003907.80470574        1203235714.7869720     
   100544113.36920911       -387477594.93414021        1235253824.4565375     
   468054642.62415910       -7131139.8786293268        1243781172.7797902     
   390422336.68704957       -42119319.267414197        1242432504.2042451     
   302735014.50663745       -110624219.46720229        1247429046.4452379     
   204992676.08294091       -212645840.47794276        1258770799.5027637     
   97195321.415940121       -348184182.29969454        1276457763.3768165     
   384483224.94207728       -17772449.267578200        1333245078.5645468     
   322688011.37440181       -49605318.990239605        1323341223.0399957     
   252609825.87571251       -109048095.14961109        1318546387.0601535     
   174248668.44601315       -196100777.74568200        1318860570.6250048     
   87604539.085302085       -310763366.77846277        1324283773.7345524     
   308797717.13217282       -26047985.694870532        1421061515.6627462     
   259307620.87154338       -55785138.270140767        1404669858.2202044     
   203306596.99218881       -107225382.90782239        1392151029.0505276     
   140794645.49410945       -180368719.60792395        1383505028.1537018     
   71771766.377303809       -275215148.37044418        1378731855.5297527     
   240998119.19445118       -31957749.160508022        1507230484.0744116     
   200281165.17848450       -60658777.107085332        1486418409.7448709     
   154825327.85606995       -105156082.74182221        1468242972.4163513     
   104630607.22723259       -165449666.06463367        1452704172.0888627     
   49697003.291943356       -241539527.07562089        1439802008.7624004     
   100544113.36920911       -387477594.93414021        1235253824.4565375     
   85649377.800419748       -546850126.81065500        1196702989.9347315     
   58070588.114359796       -748502839.07807732        1154779704.8321664     
   17807744.311037958       -992435731.73637271        1109483969.1488388     
  -35139153.609541595       -1278648804.7855325        1060815782.8847480     
   97195321.415940121       -348184182.29969454        1276457763.3768165     
   80144963.693687439       -489103609.80270261        1222062331.9040580     
   51651698.194052666       -668166063.23032904        1165122771.4231954     
   11715524.917035878       -885371542.58254373        1105639081.9342287     
  -39663556.137357116       -1140720047.8593709        1043611263.4371771     
   87604539.085302085       -310763366.77846277        1324283773.7345524     
   70765192.274334013       -432519699.98854995        1255491749.3740408     
   43724084.025864094       -588281904.65697241        1184983917.5780833     
   6481214.3399086595       -778049980.78368282        1112760278.3466995     
  -40963416.783543766       -1001823928.3687208        1038820831.6798730     
   71771766.377303809       -275215148.37044418        1378731855.5297527     
   57510063.542370215       -377098397.36816704        1296991242.3446808     
   34287745.609820575       -508850363.35795206        1214363143.2968197     
   2104812.5796687305       -670471046.33974040        1130847558.3861926     
  -39038735.548098922       -861960446.31358099        1046444487.6128006     
   49697003.291943356       -241539527.07562089        1439802008.7624004     
   40379577.497792244       -322839701.94156843        1346560810.8159699     
   23342682.945907086       -429871439.33329594        1253260448.5794237     
  -1413680.3636948764       -562634739.25073934        1159900922.0527577     
  -33889512.431027174       -721129601.69395328        1066482231.2359836     
   1620157176.1830657        196693413.23338014        1499111254.0320177     
   1500568039.9280782        7949243.2837287188        1449274097.0998263     
   1403777182.6226254       -104800663.50080401        1414412660.4892299     
   1329784604.2667131       -141556307.12020391        1394526944.2002165     
   1278590304.8603370       -102317687.57447964        1389616948.2327991     
   1174709897.2424273        135397660.81208974        1462448238.8275084     
   1104135137.2371247       -425337.46180725098        1443082519.6504493     
   1050659086.2730601       -79252638.931581795        1434231868.4186883     
   1014281744.3502314       -101084243.59723234        1435896285.1322329     
   995003111.46864045       -65920151.458756864        1448075769.7910800     
   756201249.58365452        82183497.775362134        1443808764.5826557     
   721896144.75293207       -4541745.1453123391        1448264984.9343743     
   698990179.05514538       -53269857.622865915        1458775620.8551071     
   687483352.49029601       -64000839.657296747        1475340672.3448563     
   687375665.05838525       -36734691.248598367        1497960139.4036181     
   364631233.20674771        37050924.123192787        1443192831.2974608     
   353851062.47549778       -4399979.7667921036        1464821492.9516060     
   348770460.96888584       -26852319.574649364        1488043917.7984807     
   349389428.68690878       -30306095.300390184        1512860105.8380806     
   355707965.62956899       -14761306.944006518        1539270057.0704081     
  -151.88829214509556       -60.144416507585518        1460600438.9719241     
  -109.59517560870481       -41.326240232095770        1492752043.7021458     
  -67.985723461151139       -24.786945252729652        1522036759.2488077     
  -27.059936320072364       -10.526533628279861        1548454585.6119118     
   13.182191510524637        1.4550136278973689        1572005522.7914538     
   1278590304.8603370       -102317687.57447964        1389616948.2327991     
   1249947826.1381047       -32457955.079995513        1404722466.8344254     
   1214236013.5719590        13837331.268115520        1418405540.6644111     
   1171454867.1618993        36568171.469842672        1430666169.7227597     
   1121604386.9079270        35734565.525193036        1441504354.0094681     
   995003111.46864045       -65920151.458756864        1448075769.7910800     
   960253293.79738390       -17505739.868796468        1449098516.5956352     
   920201475.80250692        13235337.309097946        1451794675.3428538     
   874847657.48400819        26303080.074917704        1456164246.0327401     
   824191838.84189177        21697488.428681225        1462207228.6652908     
   687375665.05838525       -36734691.248598367        1497960139.4036181     
   655363813.33611381       -7112009.0937723517        1486962003.5181108     
   619817294.81052029        10728450.383313000        1480733136.2895732     
   580736109.48160017        16786687.182641000        1479273537.7180045     
   538120257.34935427        11062701.304218650        1482583207.8034074     
   355707965.62956899       -14761306.944006518        1539270057.0704081     
   335279384.75429988       -1276762.7549029738        1518312927.6018486     
   313083470.59600133        6316670.4907702059        1505220923.5045638     
   289120223.15467113        8018992.7930030078        1499994044.7785549     
   263389642.43031192        3830204.1518079787        1502632291.4238198     
   13.182191510524637        1.4550136278973689        1572005522.7914538     
   8.0519368645142997      -0.85220498240641085        1543151288.8468540     
   3.1589502991446778       -2.3685313783532518        1525258036.9878330     
  -1.4967769240154523       -3.0939929533237596        1518325767.2143931     
  -5.9152363410405595       -3.0285611472881344        1522354479.5265300     
   1121604386.9079270        35734565.525193036        1441504354.0094681     
   1072062261.3609881        25084562.673453629        1430473306.4689653     
   1023056126.8101537        16221196.475387692        1426304154.8253496     
   974585983.25540841        9144466.9309545159        1428996899.0786178     
   926651830.69676495        3854374.0401945710        1438551539.2287636     
   824191838.84189177        21697488.428681225        1462207228.6652908     
   792189762.56682169        15256342.032131791        1455091316.4939322     
   760589679.49861968        10155172.991809189        1453634579.4528613     
   729391589.63727617        6393981.3076812923        1457837017.5420656     
   698595492.98279619        3972766.9797658920        1467698630.7615435     
   538120257.34935427        11062701.304218650        1482583207.8034074     
   520221885.29870921        7799507.8486335874        1479226100.2470927     
   502591508.66569537        5429632.4518173635        1480325447.0544541     
   485229127.45030814        3953075.1137573421        1485881248.2254856     
   468134741.65254796        3369835.8344551623        1495893503.7601910     
   263389642.43031192        3830204.1518079787        1502632291.4238198     
   256158629.55664676        2714060.1229466349        1502877657.7284412     
   249061614.31137860        2044574.8554075956        1506376757.6301310     
   242098596.69450232        1821748.3491753489        1513129591.1288881     
   235269576.70602477        2045580.6042710692        1523136158.2247097     
  -5.9152363410405595       -3.0285611472881344        1522354479.5265300     
  -4.6593633713192570       -1.1449246312927079        1526045988.9379809     
  -3.5643296464510184       0.20258037463644629        1531788511.1798918     
  -2.6301364474624109        1.0139509881895532        1539582046.2522640     
  -1.8567852383837975        1.2891809414866244        1549426594.1551001     
   926651830.69676495        3854374.0401945710        1438551539.2287636     
   870302711.72836149       -651505.79411822557        1434291625.4949915     
   815599164.16785157        327852.39787912369        1434818560.5503905     
   762541188.01523423        6792448.6161858141        1440132344.3949654     
   711128783.27050924        18742282.860795289        1450232977.0287168     
   698595492.98279619        3972766.9797658920        1467698630.7615435     
   655259314.30702066        271055.22079154849        1464402366.0306811     
   613157314.18833756        683271.98545628786        1466143629.3337452     
   572289492.62673879        5209417.2737384140        1472922420.6707339     
   532655849.62223095        13849491.085653096        1484738740.0416420     
   468134741.65254796        3369835.8344551623        1495893503.7601910     
   438527729.68296361        687160.07488808036        1493080929.7063134     
   409743503.41966510        747103.33627215028        1495556562.9311018     
   381782062.86265421        3549665.6186142117        1503320403.4345577     
   354643408.01193088        9094846.9219177216        1516372451.2166877     
   235269576.70602477        2045580.6042710692        1523136158.2247097     
   220107957.85618967        596808.76816210151        1520327316.5218754     
   205357731.86184171        519346.45034292340        1523057361.3424535     
   191018898.72298145        1813193.6508169174        1531326292.6864479     
   177091458.43960124        4478350.3695568517        1545134110.5538642     
  -1.8567852383837975        1.2891809414866244        1549426594.1551001     
  -1.1732961214316273        1.3006391979914116        1546141526.4773686     
 -0.48513148626510699        1.3276804335425285        1548646024.5678043     
  0.20771649052801139        1.3703348895171437        1556940088.4264016     
  0.90525124026888903        1.4286098403161183        1571023718.0531626     
   711128783.27050924        18742282.860795289        1450232977.0287168     
   656456359.32512748        30013657.277451456        1450788031.2762094     
   600335866.78432918        36458136.376046807        1456421566.4261200     
   542767305.64810967        38075720.156574607        1467133582.4784527     
   483750675.91646773        34866408.619027317        1482924079.4332054     
   532655849.62223095        13849491.085653096        1484738740.0416420     
   490572348.60596406        21979266.951159060        1484102634.4860001     
   447402796.14719224        26488871.341651425        1488796819.1775310     
   403147192.24590898        27378304.257102817        1498821294.1162226     
   357805536.90212107        24647565.697541520        1514176059.3020804     
   354643408.01193088        9094846.9219177216        1516372451.2166877     
   325868285.19547415        14298860.817477107        1514967539.2029903     
   296369128.08942413        17089427.081060886        1519144726.7811952     
   266145936.69377896        17466545.712659121        1528904013.9513123     
   235198711.00853878        15430216.712275043        1544245400.7133398     
   177091458.43960124        4478350.3695568517        1545134110.5538642     
   162344169.09365344        6972438.8763850704        1543382745.4271622     
   147234862.61102536        8259803.5942807198        1547465289.2371199     
   131763538.99171124        8340444.5232207105        1557381741.9837210     
   115930198.23572427        7214361.6632538848        1573132103.6669855     
  0.90525124026888903        1.4286098403161183        1571023718.0531626     
  0.30050998319800476        1.1279128729902985        1569348253.1585286     
 -0.28800085027436623       0.88131731765952304        1573758506.5452979     
 -0.86027865234414147       0.68883186700406718        1584254478.2134621     
  -1.4163279523552537       0.55044142321082090        1600836168.1630180     
   483750675.91646773        34866408.619027317        1482924079.4332054     
   425732628.47571170        27060674.973301157        1480064165.3961513     
   365934519.87512112        13321404.128131896        1483161928.1573355     
   304356350.11469918       -6351403.9164807051        1492217367.7167537     
   240998119.19445118       -31957749.160508022        1507230484.0744116     
   357805536.90212107        24647565.697541520        1514176059.3020804     
   315586680.88012803        19181669.339192361        1510516363.1485307     
   272032778.98505157        9265620.0705652237        1512512251.9140921     
   227143831.21689123       -5100582.1083388329        1520163725.5987630     
   180919837.57564080       -23916937.197548732        1533470784.2025487     
   235198711.00853878        15430216.712275043        1544245400.7133398     
   207915926.75066930        12045221.744937755        1540305106.9444966     
   179743111.90645626        5693458.1564533263        1541718306.2156374     
   150680266.47589862       -3625074.0531792119        1548484998.5267620     
   120727390.45900171       -15910374.883944698        1560605183.8778634     
   115930198.23572427        7214361.6632538848        1573132103.6669855     
   102720366.08732361        5651332.1905020587        1569430396.7840507     
   89065518.639333040        2604918.3857867904        1570780091.0619721     
   74965655.891735449       -1924879.7509506606        1577181186.5007436     
   60420777.844542012       -7938062.2196768634        1588633683.1003797     
  -1.4163279523552537       0.55044142321082090        1600836168.1630180     
  -1.1098969728632544       0.67592387730864223        1597892232.6671889     
 -0.81632681383844918       0.75853762373853861        1599697606.4530890     
 -0.53560608329458348       0.79832063578802859        1606252289.5207157     
 -0.26774717973878620       0.79522880954245201        1617556281.8700745     
   240998119.19445118       -31957749.160508022        1507230484.0744116     
   200281165.17848450       -60658777.107085332        1486418409.7448709     
   154825327.85606995       -105156082.74182221        1468242972.4163513     
   104630607.22723259       -165449666.06463367        1452704172.0888627     
   49697003.291943356       -241539527.07562089        1439802008.7624004     
   180919837.57564080       -23916937.197548732        1533470784.2025487     
   149416678.20900148       -45732341.336522065        1507893777.0250390     
   114359356.36458507       -79394953.734756574        1485178677.0826883     
   75747872.042383701       -124904774.39227295        1465325484.3755035     
   33582225.242393486       -182261803.30908403        1448334198.9034781     
   120727390.45900171       -15910374.883944698        1560605183.8778634     
   99081654.982082963       -30647066.443184435        1531645418.1524897     
   75066477.856041193       -53281896.832836956        1505772829.8964090     
   48681859.080869898       -83814866.052918762        1482987419.1096277     
   19927798.656570718       -122245974.10342902        1463289185.7921419     
   60420777.844542012       -7938062.2196768634        1588633683.1003797     
   49276095.497731410       -15402952.427065887        1557673333.1272299     
   36946692.330453835       -26816912.036012873        1530025430.8575108     
   23432568.342698026       -42179941.046551824        1505689976.2912340     
   8733723.5344734304       -61492039.458656341        1484666969.4283791     
 -0.26774717973878620       0.79522880954245201        1617556281.8700745     
 -0.24406410958178365       0.71179948382346980        1585977521.9492548     
 -0.21218548895940192       0.65568727187697085        1557936479.9660027     
 -0.17213597763305324       0.62681275005580905        1533433155.9203196     
 -0.12389503342671890       0.62524161672248546        1512467549.8122132     
   49697003.291943356       -241539527.07562089        1439802008.7624004     
   40379577.497792244       -322839701.94156843        1346560810.8159699     
   23342682.945907086       -429871439.33329594        1253260448.5794237     
  -1413680.3636948764       -562634739.25073934        1159900922.0527577     
  -33889512.431027174       -721129601.69395328        1066482231.2359836     
   33582225.242393486       -182261803.30908403        1448334198.9034781     
   29572998.903828874       -242343281.55424842        1347726301.2638116     
   19774170.998993903       -321723431.68697798        1246364175.9676013     
   4185741.5279149711       -420402253.70718801        1144247823.0148416     
  -17192289.509439558       -538379747.61498487        1041377242.4055645     
   19927798.656570718       -122245974.10342902        1463289185.7921419     
   19240876.440931715       -161704524.32762861        1357566100.1826124     
   14694219.850505486       -214028855.80111751        1250393723.5501173     
   6287828.8852776140       -279218968.52395046        1141772055.8946540     
  -5978296.4547367841       -357274862.49606842        1031701097.2162217     
   8733723.5344734304       -61492039.458656341        1484666969.4283791     
   9383210.1091154702       -80923430.261661172        1376080207.5723734     
   8102829.5004290193       -106787711.67576097        1265349091.3269699     
   4892581.7084200531       -139084883.70093921        1152473620.6921635     
  -247533.26692335308       -177814946.33722547        1037453795.6679637     
 -0.12389503342671890       0.62524161672248546        1512467549.8122132     
  -9.1628810765959717E-002  0.64362119114167604        1403268623.4330986     
  -5.1217134928775943E-002  0.68915297003833897        1291230279.2981625     
  -2.6816918649067434E-003  0.76176258524517260        1176352517.4073951     
   5.4007714051867078E-002  0.86155277051774526        1058635337.7608049     
  -151.88829214509556       -60.144416507585518        1460600438.9719241     
  -109.59517560870481       -41.326240232095770        1492752043.7021458     
  -67.985723461151139       -24.786945252729652        1522036759.2488077     
  -27.059936320072364       -10.526533628279861        1548454585.6119118     
   13.182191510524637        1.4550136278973689        1572005522.7914538     
  -364631527.21408331       -37051029.398141667        1443192827.6297150     
  -353851275.81492603        4399904.0132252872        1464821491.6343744     
  -348770594.20824260        26852271.449679211        1488043917.6903431     
  -349389482.39403743        30306072.911205813        1512860105.7976341     
  -355707940.37230563        14761308.397822037        1539270055.9562397     
  -756201522.25012743       -82183584.564944446        1443808754.1117682     
  -721896343.93099809        4541678.7837951779        1448264980.0972464     
  -698990304.51315355        53269812.461581528        1458775619.3689141     
  -687483403.99659860        64000816.468404025        1475340671.9267750     
  -687375642.38133013        36734690.804273933        1497960137.7708313     
  -1174710136.9964249       -135397725.64482391        1462448218.4180818     
  -1104135313.9433904        425282.98547273874        1443082509.0907636     
  -1050659198.9004560        79252598.248767018        1434231864.2845163     
  -1014281791.8676200        101084220.14506572        1435896283.9993377     
  -995003092.84488356        65920148.674367964        1448075768.2352245     
  -1620157371.4529748       -196693452.63777590        1499111220.5486529     
  -1500568185.8521075       -7949283.3817555308        1449274078.6149321     
  -1403777277.3701475        104800628.81123924        1414412652.4371543     
  -1329784646.0071032        141556283.94118232        1394526942.0153213     
  -1278590291.7629662        102317682.00809991        1389616947.3494313     
   13.182191510524637        1.4550136278973689        1572005522.7914538     
   8.0519368645142997      -0.85220498240641085        1543151288.8468540     
   3.1589502991446778       -2.3685313783532518        1525258036.9878330     
  -1.4967769240154523       -3.0939929533237596        1518325767.2143931     
  -5.9152363410405595       -3.0285611472881344        1522354479.5265300     
  -355707940.37230563        14761308.397822037        1539270055.9562397     
  -335279369.05917329        1276761.0524825007        1518312926.5107765     
  -313083464.18611974       -6316674.4264524281        1505220922.6372886     
  -289120225.75314999       -8018998.0390000790        1499994044.3357797     
  -263389653.76025522       -3830209.7851303369        1502632291.6062424     
  -687375642.38133013        36734690.804273933        1497960137.7708313     
  -655363798.94939494        7112007.1234349012        1486962001.7009380     
  -619817288.63488448       -10728453.615485638        1480733134.6894166     
  -580736111.43779778       -16786691.412486404        1479273536.7362678     
  -538120267.35813320       -11062706.267560571        1482583207.8414915     
  -995003092.84488356        65920148.674367964        1448075768.2352245     
  -960253281.61872876        17505737.360651135        1449098514.4173362     
  -920201470.18734324       -13235339.935628474        1451794673.1442130     
  -874847658.55072188       -26303083.214457244        1456164244.4158604     
  -824191846.70886862       -21697492.475843042        1462207228.2322769     
  -1278590291.7629662        102317682.00809991        1389616947.3494313     
  -1249947817.0671713        32457951.764139712        1404722464.6599751     
  -1214236008.8434932       -13837333.386871994        1418405538.0016820     
  -1171454867.0919244       -36568173.444919944        1430666167.3745570     
  -1121604391.8124638       -35734568.409990191        1441504352.7785912     
  -5.9152363410405595       -3.0285611472881344        1522354479.5265300     
  -4.6593633713192570       -1.1449246312927079        1526045988.9379809     
  -3.5643296464510184       0.20258037463644629        1531788511.1798918     
  -2.6301364474624109        1.0139509881895532        1539582046.2522640     
  -1.8567852383837975        1.2891809414866244        1549426594.1551001     
  -263389653.76025522       -3830209.7851303369        1502632291.6062424     
  -256158638.67459881       -2714062.7730192393        1502877657.8577719     
  -249061621.43649411       -2044575.2527453005        1506376757.6567132     
  -242098602.04594749       -1821747.2243323326        1513129591.0030746     
  -235269580.50295481       -2045578.6877651364        1523136157.8968453     
  -538120267.35813320       -11062706.267560571        1482583207.8414915     
  -520221893.53711456       -7799510.6552979052        1479226100.2985990     
  -502591515.25036132       -5429633.4905884862        1480325447.0200725     
  -485229132.49787891       -3953074.7734484375        1485881248.0059142     
  -468134745.27966368       -3369834.5038663149        1495893503.2561252     
  -824191846.70886862       -21697492.475843042        1462207228.2322769     
  -792189769.24690437       -15256344.791747183        1455091316.2604611     
  -760589685.00592613       -10155174.510937572        1453634579.2699695     
  -729391593.98592842       -6393981.6333949566        1457837017.2607965     
  -698595496.18691313       -3972766.1591296792        1467698630.2329428     
  -1121604391.8124638       -35734568.409990191        1441504352.7785912     
  -1072062265.8039818       -25084565.182409286        1430473305.7433584     
  -1023056130.7031920       -16221198.313798666        1426304154.4063995     
  -974585986.51010334       -9144467.8041929007        1428996898.7677109     
  -926651833.22470951       -3854373.6535704732        1438551538.8272963     
  -1.8567852383837975        1.2891809414866244        1549426594.1551001     
  -1.1732961214316273        1.3006391979914116        1546141526.4773686     
 -0.48513148626510699        1.3276804335425285        1548646024.5678043     
  0.20771649052801139        1.3703348895171437        1556940088.4264016     
  0.90525124026888903        1.4286098403161183        1571023718.0531626     
  -235269580.50295481       -2045578.6877651364        1523136157.8968453     
  -220107960.22050589       -596806.46475771070        1520327316.2575636     
  -205357732.81714201       -519343.83870448172        1523057361.1081910     
  -191018898.29286915       -1813190.8096193522        1531326292.4487298     
  -177091456.64768505       -4478347.3774953783        1545134110.2791770     
  -468134745.27966368       -3369834.5038663149        1495893503.2561252     
  -438527731.90754747       -687158.02208581567        1493080929.2908933     
  -409743504.29829007       -747100.74983650446        1495556562.5373158     
  -381782062.45188779       -3549662.6871032864        1503320402.9953947     
  -354643406.36834365       -9094843.8338972926        1516372450.6651282     
  -698595496.18691313       -3972766.1591296792        1467698630.2329428     
  -655259316.23442972       -271053.37137198448        1464402365.5773642     
  -613157314.92857063       -683269.40569865704        1466143628.8551829     
  -572289492.26933849       -5209414.2621136010        1472922420.0664015     
  -532655848.25673860       -13849487.940636814        1484738739.2110243     
  -926651833.22470951       -3854373.6535704732        1438551538.8272963     
  -870302713.20115089        651507.48739016056        1434291625.1169658     
  -815599164.70798934       -327849.80631059408        1434818560.0617833     
  -762541187.74522400       -6792445.5346631110        1440132343.6617484     
  -711128782.31285584       -18742279.697672993        1450232975.9168601     
  0.90525124026888903        1.4286098403161183        1571023718.0531626     
  0.30050998319800476        1.1279128729902985        1569348253.1585286     
 -0.28800085027436623       0.88131731765952304        1573758506.5452979     
 -0.86027865234414147       0.68883186700406718        1584254478.2134621     
  -1.4163279523552537       0.55044142321082090        1600836168.1630180     
  -177091456.64768505       -4478347.3774953783        1545134110.2791770     
  -162344168.49004838       -6972436.4911874980        1543382745.1513457     
  -147234863.16732928       -8259801.7212723941        1547465288.9777122     
  -131763540.67951560       -8340443.0677068681        1557381741.7582800     
  -115930201.02661182       -7214360.5305076577        1573132103.4930477     
  -354643406.36834365       -9094843.8338972926        1516372450.6651282     
  -325868284.66889560       -14298858.326769546        1514967538.6444321     
  -296369128.65550357       -17089425.106495053        1519144726.2507389     
  -266145938.32816234       -17466544.173054993        1528904013.4840500     
  -235198713.68687358       -15430215.526456766        1544245400.3443627     
  -532655848.25673860       -13849487.940636814        1484738739.2110243     
  -490572348.23603594       -21979264.378845334        1484102633.6377945     
  -447402796.75253326       -26488869.274381384        1488796818.3643725     
  -403147193.80622053       -27378302.627220005        1498821293.3907609     
  -357805539.39710504       -24647564.437383488        1514176058.7169516     
  -711128782.31285584       -18742279.697672993        1450232975.9168601     
  -656456359.19146883       -30013654.647408932        1450788030.1314352     
  -600335867.45841694       -36458134.224930644        1456421565.3186202     
  -542767307.11369812       -38075718.430230856        1467133581.4784155     
  -483750678.15731871       -34866407.263324812        1482924078.6108222     
  -1.4163279523552537       0.55044142321082090        1600836168.1630180     
  -1.1098969728632544       0.67592387730864223        1597892232.6671889     
 -0.81632681383844918       0.75853762373853861        1599697606.4530890     
 -0.53560608329458348       0.79832063578802859        1606252289.5207157     
 -0.26774717973878620       0.79522880954245201        1617556281.8700745     
  -115930201.02661182       -7214360.5305076577        1573132103.4930477     
  -102720368.28517392       -5651330.8590612933        1569430396.6066029     
  -89065520.264192462       -2604916.9224696606        1570780090.8778226     
  -74965656.963656604        1924881.2793025412        1577181186.3067098     
  -60420778.383584484        7938063.7461970039        1588633682.8932700     
  -235198713.68687358       -15430215.526456766        1544245400.3443627     
  -207915928.86488745       -12045220.415380768        1540305106.5750971     
  -179743113.47094947       -5693456.7311301976        1541718305.8394363     
  -150680267.50506848        3625075.5262629315        1548484998.1373863     
  -120727390.96723694        15910376.356827319        1560605183.4689386     
  -357805539.39710504       -24647564.437383488        1514176058.7169516     
  -315586682.84902823       -19181667.993003428        1510516362.5726714     
  -272032780.43660665       -9265618.6674745232        1512512251.3379362     
  -227143832.15983060        5100583.5392381251        1520163725.0127463     
  -180919838.01870134        23916938.627124034        1533470783.5971060     
  -483750678.15731871       -34866407.263324812        1482924078.6108222     
  -425732630.23762006       -27060673.592008024        1480064164.5993297     
  -365934521.16115510       -13321402.731471255        1483161927.3733203     
  -304356350.92795342        6351405.3181888759        1492217366.9327943     
  -240998119.53799236        31957750.557046130        1507230483.2777567     
 -0.26774717973878620       0.79522880954245201        1617556281.8700745     
 -0.24406410958178365       0.71179948382346980        1585977521.9492548     
 -0.21218548895940192       0.65568727187697085        1557936479.9660027     
 -0.17213597763305324       0.62681275005580905        1533433155.9203196     
 -0.12389503342671890       0.62524161672248546        1512467549.8122132     
  -60420778.383584484        7938063.7461970039        1588633682.8932700     
  -49276095.988058209        15402953.798743784        1557673332.9495270     
  -36946692.757143773        26816913.302586183        1530025430.7074840     
  -23432568.690842513        42179942.257715888        1505689976.1671362     
  -8733723.7891448028        61492040.664169505        1484666969.3284988     
  -120727390.96723694        15910376.356827319        1560605183.4689386     
  -99081655.445227683        30647067.771698840        1531645417.8006864     
  -75066478.260614216        53281898.061918959        1505772829.5982671     
  -48681859.413407311        83814867.227448434        1482987418.8616741     
  -19927798.903595351        122245975.26833384        1463289185.5909088     
  -180919838.01870134        23916938.627124034        1533470783.5971060     
  -149416678.61555257        45732342.630725585        1507893776.5027568     
  -114359356.72258937        79394954.933709890        1485178676.6383629     
  -75747872.339815885        124904775.53606103        1465325484.0039241     
  -33582225.467243962        182261804.43774042        1448334198.5994527     
  -240998119.53799236        31957750.557046130        1507230483.2777567     
  -200281165.49904275        60658778.375799417        1486418409.0557146     
  -154825328.14307311        105156083.91794658        1468242971.8277643     
  -104630607.47009411        165449667.18346071        1452704171.5938926     
  -49697003.480089650        241539528.17239451        1439802008.3541143     
 -0.12389503342671890       0.62524161672248546        1512467549.8122132     
  -9.1628810765959717E-002  0.64362119114167604        1403268623.4330986     
  -5.1217134928775943E-002  0.68915297003833897        1291230279.2981625     
  -2.6816918649067434E-003  0.76176258524517260        1176352517.4073951     
   5.4007714051867078E-002  0.86155277051774526        1058635337.7608049     
  -8733723.7891448028        61492040.664169505        1484666969.3284988     
  -9383210.3015059009        80923431.498285338        1376080207.4958911     
  -8102829.6150454581        106787712.99514066        1265349091.2734551     
  -4892581.7297722027        139084885.15470740        1152473620.6612070     
   247533.35431521386        177814947.97698563        1037453795.6591157     
  -19927798.903595351        122245975.26833384        1463289185.5909088     
  -19240876.629153036        161704525.51762179        1357566100.0272675     
  -14694219.965216741        214028857.06522459        1250393723.4397950     
  -6287828.9117855579        279218969.91114855        1141772055.8284860     
   5978296.5311436951        357274864.05538815        1031701097.1933861     
  -33582225.467243962        182261804.43774042        1448334198.5994527     
  -29572999.074571878        242343282.70162508        1347726301.0272334     
  -19774171.101726040        321723432.89942086        1246364175.7971809     
  -4185741.5487112403        420402255.03111607        1144247822.9093006     
   17192289.584484786        538379749.09674442        1041377242.3636007     
  -49697003.480089650        241539528.17239451        1439802008.3541143     
  -40379577.637760043        322839703.05029756        1346560810.4957697     
  -23342683.024581760        429871440.49769825        1253260448.3456042     
   1413680.3594603240        562634740.51463902        1159900921.9036045     
   33889512.514337808        721129603.10104096        1066482231.1697904     
  -1620157371.4529748       -196693452.63777590        1499111220.5486529     
  -1500568185.8521075       -7949283.3817555308        1449274078.6149321     
  -1403777277.3701475        104800628.81123924        1414412652.4371543     
  -1329784646.0071032        141556283.94118232        1394526942.0153213     
  -1278590291.7629662        102317682.00809991        1389616947.3494313     
  -2021820415.1824250       -121640328.33477110        1490954101.3654940     
  -1896365907.3527460       -22232943.076130271        1430744579.5389442     
  -1781720308.4240797        41144745.845800996        1380687309.2087760     
  -1677883618.3964221        68492738.431034803        1340782290.3749938     
  -1584855837.2697749        59811034.679564536        1311029523.0375953     
  -2390216190.1064367       -36607023.390134454        1440766114.5682991     
  -2272677686.5038309       -30670820.065640450        1384171809.1031327     
  -2153958723.5843382       -20799752.351521730        1332906290.8747933     
  -2034059301.3479562       -6993820.2477757931        1286969559.8832746     
  -1912979419.7946851        10746976.245602131        1246361616.1285827     
  -2725344696.2250061        58406462.196134925        1348547260.1570592     
  -2629503523.3053603       -33262914.350284815        1309555767.3074963     
  -2520492522.8509274       -81032865.780750155        1271069597.4351983     
  -2398311694.8617034       -84903392.095244408        1233088750.5401623     
  -2262961039.3376956       -44874493.293792009        1195613226.6223924     
  -3027205933.5381312        163400128.42403722        1214297538.1317794     
  -2966843417.7573295       -30009225.930061102        1206896454.1520357     
  -2881321706.2238460       -139554594.44187248        1195177228.8899961     
  -2770640798.9376736       -165235977.11139762        1179139862.3456595     
  -2634800695.8988090       -107053373.93861711        1158784354.5190268     
  -1278590291.7629662        102317682.00809991        1389616947.3494313     
  -1249947817.0671713        32457951.764139712        1404722464.6599751     
  -1214236008.8434932       -13837333.386871994        1418405538.0016820     
  -1171454867.0919244       -36568173.444919944        1430666167.3745570     
  -1121604391.8124638       -35734568.409990191        1441504352.7785912     
  -1584855837.2697749        59811034.679564536        1311029523.0375953     
  -1546996957.5393143        23073498.726702511        1325634063.4049852     
  -1505914989.8633554       -2920410.7411646247        1341107006.7776241     
  -1461609934.2419112       -18170693.724075317        1357448353.1555145     
  -1414081790.6749675       -22677350.221994817        1374658102.5386510     
  -1912979419.7946851        10746976.245602131        1246361616.1285827     
  -1859358857.9607415        9095217.7044975758        1255977893.0400255     
  -1806361453.7637000        5366267.0403846502        1268753419.9308031     
  -1753987207.2035587       -439875.74672889709        1284688196.8009107     
  -1702236118.2803192       -8323210.6568472385        1303782223.6503544     
  -2262961039.3376956       -44874493.293792009        1195613226.6223924     
  -2187033518.3314590       -9476891.3024951220        1195753953.5650942     
  -2115575400.5445220        11022699.957794189        1201344777.4612138     
  -2048586685.9768775        16624280.487114310        1212385698.3107519     
  -1986067374.6285298        7327850.2854393721        1228876716.1137035     
  -2634800695.8988090       -107053373.93861711        1158784354.5190268     
  -2530020938.6514678       -32642828.294288397        1144962244.9801941     
  -2433556830.2058187        14048888.011071086        1138881079.3688612     
  -2345408370.5618606        33021774.977459192        1140540857.6850278     
  -2265575559.7195945        24275832.604869485        1149941579.9286952     
  -1121604391.8124638       -35734568.409990191        1441504352.7785912     
  -1072062265.8039818       -25084565.182409286        1430473305.7433584     
  -1023056130.7031920       -16221198.313798666        1426304154.4063995     
  -974585986.51010334       -9144467.8041929007        1428996898.7677109     
  -926651833.22470951       -3854373.6535704732        1438551538.8272963     
  -1414081790.6749675       -22677350.221994817        1374658102.5386510     
  -1349206148.3048739       -17631278.537073314        1364302044.2729487     
  -1284686465.1713393       -13771737.640670240        1360172317.8662126     
  -1220522741.2743568       -11098727.532782257        1362268923.3184371     
  -1156714976.6139312       -9612248.2134112716        1370591860.6296282     
  -1702236118.2803192       -8323210.6568472385        1303782223.6503544     
  -1623842856.2323668       -9425839.5197291374        1294311191.1038513     
  -1545625521.7498238       -11114893.600648761        1290430926.5769997     
  -1467584114.8326945       -13390372.899610102        1292141430.0698056     
  -1389718635.4809780       -16252277.416609585        1299442701.5822661     
  -1986067374.6285298        7327850.2854393721        1228876716.1137035     
  -1895972389.5864530       -468248.13035547733        1220500746.2360640     
  -1805873300.4386480       -8250666.1937228441        1217079980.5387697     
  -1715770107.1851103       -16019403.904651284        1218614419.0218203     
  -1625662809.8258462       -23774461.263152719        1225104061.6852152     
  -2265575559.7195945        24275832.604869485        1149941579.9286952     
  -2165594748.3671370        9241495.6310323477        1142870709.6695881     
  -2065429801.2378109       -5179055.4199069738        1140119479.7515142     
  -1965080718.3316081       -18985820.547924280        1141687890.1744776     
  -1864547499.6485343       -32178799.753041744        1147575940.9384739     
  -926651833.22470951       -3854373.6535704732        1438551538.8272963     
  -870302713.20115089        651507.48739016056        1434291625.1169658     
  -815599164.70798934       -327849.80631059408        1434818560.0617833     
  -762541187.74522400       -6792445.5346631110        1440132343.6617484     
  -711128782.31285584       -18742279.697672993        1450232975.9168601     
  -1156714976.6139312       -9612248.2134112716        1370591860.6296282     
  -1089378189.0449996       -8883180.3745563626        1363726949.0791974     
  -1022882882.9118578       -10959050.654997408        1361398813.1320863     
  -957229058.21451461       -15839859.054771960        1363607452.7882903     
  -892416714.95295918       -23525605.573831916        1370352868.0478101     
  -1389718635.4809780       -16252277.416609585        1299442701.5822661     
  -1312108674.8004742       -19514371.209987342        1290910897.3021116     
  -1234536105.4611633       -22901102.807327569        1286665795.5734401     
  -1157000927.4630382       -26412472.208630443        1286707396.3962569     
  -1079503140.8061028       -30048479.413892865        1291035699.7705529     
  -1625662809.8258462       -23774461.263152719        1225104061.6852152     
  -1538494170.4675796       -31242065.018915772        1215843469.7857060     
  -1450558832.3558960       -36154006.263283253        1210619507.3858502     
  -1361856795.4907961       -38510284.996262729        1209432174.4856498     
  -1272388059.8722823       -38310901.217863142        1212281471.0851002     
  -1864547499.6485343       -32178799.753041744        1147575940.9384739     
  -1768534676.0463114       -44066261.801332235        1138524666.5299830     
  -1670951063.5960596       -50717761.022863030        1133259948.5693152     
  -1571796662.2977943       -52133297.417677522        1131781787.0564702     
  -1471071472.1515059       -48312870.985753119        1134090181.9914453     
  -711128782.31285584       -18742279.697672993        1450232975.9168601     
  -656456359.19146883       -30013654.647408932        1450788030.1314352     
  -600335867.45841694       -36458134.224930644        1456421565.3186202     
  -542767307.11369812       -38075718.430230856        1467133581.4784155     
  -483750678.15731871       -34866407.263324812        1482924078.6108222     
  -892416714.95295918       -23525605.573831916        1370352868.0478101     
  -823344193.99853194       -30119181.945032984        1370062799.1798706     
  -753552751.93359089       -34316354.614529639        1374691755.6927657     
  -683042388.75812519       -36117123.582273513        1384239737.5865009     
  -611813104.47214746       -35521488.848310173        1398706744.8610680     
  -1079503140.8061028       -30048479.413892865        1291035699.7705529     
  -996486109.42370915       -32100933.428101420        1289049835.7354345     
  -913479304.43194509       -34187475.411076128        1291823541.4893746     
  -830482725.83080482       -36308105.362792045        1299356817.0323741     
  -747496373.62029910       -38462823.283292413        1311649662.3644431     
  -1272388059.8722823       -38310901.217863142        1212281471.0851002     
  -1175882105.4669948       -35958909.096590638        1207749139.7981277     
  -1080115524.9534812       -36071496.614573836        1207816922.7084396     
  -985088318.33174193       -38648663.771801054        1212484819.8160384     
  -890800485.60177767       -43690410.568275988        1221752831.1209233     
  -1471071472.1515059       -48312870.985753119        1134090181.9914453     
  -1361532182.1283939       -41693108.950530529        1126160711.3679500     
  -1253461413.4982035       -39968418.225040674        1122671899.3499653     
  -1146859166.2609262       -43138798.809260905        1123623745.9374952     
  -1041725440.4165797       -51204250.703256667        1129016251.1305332     
  -483750678.15731871       -34866407.263324812        1482924078.6108222     
  -425732630.23762006       -27060673.592008024        1480064164.5993297     
  -365934521.16115510       -13321402.731471255        1483161927.3733203     
  -304356350.92795342        6351405.3181888759        1492217366.9327943     
  -240998119.53799236        31957750.557046130        1507230483.2777567     
  -611813104.47214746       -35521488.848310173        1398706744.8610680     
  -539112582.31697512       -30306868.623973250        1395393712.2016432     
  -464376510.41763043       -18307082.585736334        1398015162.9640937     
  -387604888.77411515        477869.26640298963        1406571097.1484196     
  -308797717.38643128        26047986.932445362        1421061514.7546184     
  -747496373.62029910       -38462823.283292413        1311649662.3644431     
  -660179643.98283052       -35859196.531908542        1308181581.0757391     
  -570571876.01376998       -25618775.341888219        1310624789.8453004     
  -478673069.71312469       -7741559.7132441103        1318979288.6731279     
  -384483225.08088541        17772450.354040027        1333245077.5592203     
  -890800485.60177767       -43690410.568275988        1221752831.1209233     
  -788933815.23518419       -43717657.315789938        1218427771.2215979     
  -684520617.94958138       -35256480.999951154        1220990808.0169332     
  -577560893.74496710       -18306881.620734245        1229441941.5069282     
  -468054642.62135088        7131140.8218213320        1243781171.6915658     
  -1041725440.4165797       -51204250.703256667        1129016251.1305332     
  -925375096.07402635       -53882250.975607932        1126132282.6392429     
  -806222736.22506070       -47220199.559912860        1129113217.4789979     
  -684268360.86965168       -31218096.456078351        1137959055.6498022     
  -559511970.00782514       -5875941.6641800106        1152669797.1516492     
  -240998119.53799236        31957750.557046130        1507230483.2777567     
  -200281165.49904275        60658778.375799417        1486418409.0557146     
  -154825328.14307311        105156083.91794658        1468242971.8277643     
  -104630607.47009411        165449667.18346071        1452704171.5938926     
  -49697003.480089650        241539528.17239451        1439802008.3541143     
  -308797717.38643128        26047986.932445362        1421061514.7546184     
  -259307621.11396596        55785139.409012303        1404669857.4385705     
  -203306597.21528274        107225383.97296904        1392151028.3870339     
  -140794645.69037208        180368720.62434596        1383505027.6000056     
  -71771766.539246798        275215149.36311668        1378731855.0774777     
  -384483225.08088541        17772450.354040027        1333245077.5592203     
  -322688011.51655686        49605320.005919859        1323341222.1765730     
  -252609826.01680869        109048096.10920408        1318546386.3288550     
  -174248668.58163506        196100778.66390920        1318860570.0160661     
  -87604539.211036593        310763367.67001915        1324283773.2382045     
  -468054642.62135088        7131140.8218213320        1243781171.6915658     
  -390422336.70681781        42119320.166515633        1242432503.2697186     
  -302735014.54765493        110624220.32663931        1247429045.6532295     
  -204992676.14386511        212645841.30218232        1258770798.8420937     
  -97195321.495455846        348184183.09313434        1276457762.8362978     
  -559511970.00782514       -5875941.6641800106        1152669797.1516492     
  -462510596.68473601        33327139.890840828        1161943700.7180130     
  -353682162.80782127        111953756.62527519        1178799006.3601534     
  -233026668.37706560        230003908.53918338        1203235714.0780578     
  -100544113.39249340        387477595.63247740        1235253823.8717411     
  -49697003.480089650        241539528.17239451        1439802008.3541143     
  -40379577.637760043        322839703.05029756        1346560810.4957697     
  -23342683.024581760        429871440.49769825        1253260448.3456042     
   1413680.3594603240        562634740.51463902        1159900921.9036045     
   33889512.514337808        721129603.10104096        1066482231.1697904     
  -71771766.539246798        275215149.36311668        1378731855.0774777     
  -57510063.663349941        377098398.36523986        1296991241.9971564     
  -34287745.680095673        508850364.39188772        1214363143.0519655     
  -2104812.5894744396        670471047.44309604        1130847558.2419243     
   39038735.608505607        861960447.51883340        1046444487.5669955     
  -87604539.211036593        310763367.67001915        1324283773.2382045     
  -70765192.367389232        432519700.87664735        1255491748.9951599     
  -43724084.079879373        588281905.56281698        1184983917.3142142     
  -6481214.3484946191        778049981.72856402        1112760278.1953564     
   40963416.826745272        1001823929.3738341        1038820831.6386137     
  -97195321.495455846        348184183.09313434        1276457762.8362978     
  -80144963.749882787        489103610.58451855        1222062331.4897811     
  -51651698.223943323        668166064.01045179        1165122771.1323252     
  -11715524.917631567        885371543.37097883        1105639081.7639301     
   39663556.169057786        1140720048.6660700        1043611263.3845755     
  -100544113.39249340        387477595.63247740        1235253823.8717411     
  -85649377.810831904        546850127.48883307        1196702989.4810202     
  -58070588.112284839        748502839.73480999        1154779704.5063155     
  -17807744.296857715        992435732.37038159        1109483968.9476323     
   35139153.635434449        1278648805.3955119        1060815782.8049555     
  -3027205933.5381312        163400128.42403722        1214297538.1317794     
  -2966843417.7573295       -30009225.930061102        1206896454.1520357     
  -2881321706.2238460       -139554594.44187248        1195177228.8899961     
  -2770640798.9376736       -165235977.11139762        1179139862.3456595     
  -2634800695.8988090       -107053373.93861711        1158784354.5190268     
  -3376537290.0339170        105986134.50355196        1013921452.2558802     
  -3299182049.7091241       -13115202.069969773        1021541358.2954108     
  -3206834833.0080714       -82243284.055956841        1029402728.0863318     
  -3099495639.9307613       -101398111.45442772        1037505561.6286404     
  -2977164470.4771929       -70579684.265362740        1045849858.9223375     
  -3756383873.8805189        39417572.377819777        846095552.20240164     
  -3649008466.0583477       -1467513.5290987492        856874692.32204008     
  -3536808301.2363420       -26270076.103253841        872454901.22675395     
  -3419783379.4145145       -34990115.344655752        892836178.91653967     
  -3297933700.5928521       -27627631.253287792        918018525.39139903     
  -4166745685.0779314       -36305557.953153610        710819837.97135150     
  -4016322666.8049917        4933839.6925401688        712896456.23193085     
  -3871242110.9086595        28365029.416231394        724333748.31126583     
  -3731504017.3889203        33988011.217924356        745131714.20936441     
  -3597108386.2457891        21802785.097600460        775290353.92621398     
  -4607622723.6261587       -121183256.48937345        608094309.56272125     
  -4401124651.9490767        6088857.5949468613        589606650.02507246     
  -4210136262.0250158        81662032.502511501        585039269.33986926     
  -4034657553.8539944        105536268.23329210        594392167.50710523     
  -3874688527.4359999        77711564.787310123        617665344.52678418     
  -2634800695.8988090       -107053373.93861711        1158784354.5190268     
  -2530020938.6514678       -32642828.294288397        1144962244.9801941     
  -2433556830.2058187        14048888.011071086        1138881079.3688612     
  -2345408370.5618606        33021774.977459192        1140540857.6850278     
  -2265575559.7195945        24275832.604869485        1149941579.9286952     
  -2977164470.4771929       -70579684.265362740        1045849858.9223375     
  -2863795093.0947809       -26897683.070428848        1031079664.0604759     
  -2755163552.5541968        991528.65174591541        1022267127.9402595     
  -2651269848.8554430        13087950.901148319        1019412250.5616912     
  -2552113981.9985180        9391583.6777985096        1022515031.9247653     
  -3297933700.5928521       -27627631.253287792        918018525.39139903     
  -3181069803.6063876       -16202704.667059183        906474359.15968382     
  -3065365931.5018821       -8644527.6873712540        899104566.48376024     
  -2950822084.2793446       -4953100.3142447472        895909147.36362600     
  -2837438261.9387741       -5128422.5476657152        896888101.79928350     
  -3597108386.2457891        21802785.097600460        775290353.92621398     
  -3481845070.1862788       -557893.08417081833        771146330.27781808     
  -3364163967.0488691       -14859281.006277561        769393394.99935770     
  -3244065076.8335662       -21101378.668740749        770031548.09083557     
  -3121548399.5403628       -19284186.071531177        773060789.55224216     
  -3874688527.4359999        77711564.787310123        617665344.52678418     
  -3766120892.8344655        20036751.678220987        625095577.41488028     
  -3651557659.1951652       -17652731.304977179        633133613.48705864     
  -3530998826.5181108       -35356884.162332773        641779452.74331748     
  -3404444394.8032904       -33075706.893801928        651033095.18365288     
  -2265575559.7195945        24275832.604869485        1149941579.9286952     
  -2165594748.3671370        9241495.6310323477        1142870709.6695881     
  -2065429801.2378109       -5179055.4199069738        1140119479.7515142     
  -1965080718.3316081       -18985820.547924280        1141687890.1744776     
  -1864547499.6485343       -32178799.753041744        1147575940.9384739     
  -2552113981.9985180        9391583.6777985096        1022515031.9247653     
  -2438645315.1177583        2538846.0656210184        1015798762.3465600     
  -2325351038.0298800       -4895190.8561615944        1013250064.5194786     
  -2212231150.7348905       -12910527.087570429        1014868938.4435209     
  -2099285653.2327738       -21507162.628561020        1020655384.1186819     
  -2837438261.9387741       -5128422.5476657152        896888101.79928350     
  -2710916221.2151785       -3929905.3038280010        890108153.07060122     
  -2584927095.8542194       -4507772.6021096706        887343707.50313067     
  -2459470885.8558960       -6862024.4425066710        888594765.09686720     
  -2334547591.2202101       -10992660.825029492        893861325.85181797     
  -3121548399.5403628       -19284186.071531177        773060789.55224216     
  -2982407466.6593971       -10164758.477317333        765798881.84170747     
  -2844157974.7108202       -4016800.6577301025        762400408.70246994     
  -2706799923.6946335       -840312.61277580261        762865370.13452792     
  -2570333313.6108370       -635294.34245681763        767193766.13787818     
  -3404444394.8032904       -33075706.893801928        651033095.18365288     
  -3253119051.4504204       -16165713.454849839        642870948.65988111     
  -3103043674.5996914       -3422275.0230337381        638420168.11749709     
  -2954218264.2511072        5154608.4016300440        637680753.55649340     
  -2806642820.4046631        9564936.8191530704        640652704.97687185     
  -1864547499.6485343       -32178799.753041744        1147575940.9384739     
  -1768534676.0463114       -44066261.801332235        1138524666.5299830     
  -1670951063.5960596       -50717761.022863030        1133259948.5693152     
  -1571796662.2977943       -52133297.417677522        1131781787.0564702     
  -1471071472.1515059       -48312870.985753119        1134090181.9914453     
  -2099285653.2327738       -21507162.628561020        1020655384.1186819     
  -1992618593.7585192       -30817728.511974573        1012902545.0137671     
  -1885005978.9534016       -36976443.292522669        1008964047.1707056     
  -1776447808.8174274       -39983306.970209956        1008839890.5894911     
  -1666944083.3505850       -39838319.544994593        1012530075.2701217     
  -2334547591.2202101       -10992660.825029492        893861325.85181797     
  -2217146910.6909952       -17702514.988707423        886677482.94712889     
  -2099425908.3480718       -23344629.773373365        883335766.11831367     
  -1981384584.1914544       -27919005.179044008        883836175.36537516     
  -1863022938.2211249       -31425641.205690861        888178710.68831217     
  -2570333313.6108370       -635294.34245681763        767193766.13787818     
  -2442119626.8437257       -4720621.2315115929        759849480.33006346     
  -2314210851.7800679       -9822320.4654188156        756375105.41214907     
  -2186606988.4198737       -15940392.044200659        756770641.38413453     
  -2059308036.7631338       -23074835.967829585        761036088.24602067     
  -2806642820.4046631        9564936.8191530704        640652704.97687185     
  -2667536742.2167201        8127952.7596114874        632418537.16257119     
  -2529360809.2494001        3590484.6313173771        628082065.05220008     
  -2392115021.5026937       -4047467.5656818151        627643288.64575803     
  -2255799378.9765983       -14785903.831391573        631102207.94324338     
  -1471071472.1515059       -48312870.985753119        1134090181.9914453     
  -1361532182.1283939       -41693108.950530529        1126160711.3679500     
  -1253461413.4982035       -39968418.225040674        1122671899.3499653     
  -1146859166.2609262       -43138798.809260905        1123623745.9374952     
  -1041725440.4165797       -51204250.703256667        1129016251.1305332     
  -1666944083.3505850       -39838319.544994593        1012530075.2701217     
  -1547606057.0628836       -36508401.351132452        1002918137.7721310     
  -1429058878.0692828       -35814640.804268420        997162225.83555233     
  -1311302546.3697853       -37757037.904412508        995262339.46038032     
  -1194337061.9644015       -42335592.651600122        997218478.64661729     
  -1863022938.2211249       -31425641.205690861        888178710.68831217     
  -1735556555.7948380       -31886680.890972018        877674926.09778309     
  -1608203346.5638363       -32724964.560538352        870442534.02455676     
  -1480963310.5281210       -33940492.214400232        866481534.46864355     
  -1353836447.6877024       -35533263.852570653        865791927.43003225     
  -2059308036.7631338       -23074835.967829585        761036088.24602067     
  -1925383678.3242633       -27827947.570060492        750431076.34489763     
  -1790894818.9818625       -30699389.493850231        742512823.91698062     
  -1655841458.7359378       -31689161.739235640        737281330.96226990     
  -1520223597.5864861       -30797264.306187689        734736597.48076284     
  -2255799378.9765983       -14785903.831391573        631102207.94324338     
  -2117087424.6511497       -24332201.388370514        621186588.51348078     
  -1977133295.3233666       -29737915.604220271        613373095.51282287     
  -1835936990.9932344       -31003046.478908777        607661728.94126904     
  -1693498511.6607590       -28127594.012464881        604052488.79881358     
  -1041725440.4165797       -51204250.703256667        1129016251.1305332     
  -925375096.07402635       -53882250.975607932        1126132282.6392429     
  -806222736.22506070       -47220199.559912860        1129113217.4789979     
  -684268360.86965168       -31218096.456078351        1137959055.6498022     
  -559511970.00782514       -5875941.6641800106        1152669797.1516492     
  -1194337061.9644015       -42335592.651600122        997218478.64661729     
  -1063997754.1576169       -41503054.493366182        993668090.54268074     
  -931945217.15454137       -34959752.347489297        994203415.98081446     
  -798179450.95517540       -22705686.213985354        998824454.96102583     
  -662700455.55952132       -4740856.0928342342        1007531207.4833083     
  -1353836447.6877024       -35533263.852570653        865791927.43003225     
  -1214591575.8137343       -32715207.082847416        860304869.01828194     
  -1074722261.0536246       -27815674.025960624        857124334.35963356     
  -934228503.40735519       -20834664.681876004        856250323.45409071     
  -793110302.87492156       -11772179.050599664        857682836.30165040     
  -1520223597.5864861       -30797264.306187689        734736597.48076284     
  -1377156561.0424075       -27518708.744113147        726042618.06604421     
  -1234553867.9223077       -25787964.595304847        717875972.61545777     
  -1092415518.2261858       -25605031.859755218        710236661.12900877     
  -950741511.95404983       -26969910.537480175        703124683.60669112     
  -1693498511.6607590       -28127594.012464881        604052488.79881358     
  -1551692709.8436122       -25913559.477138102        590881337.68596923     
  -1411440037.7605910       -28876624.055535734        576458330.74828959     
  -1272740495.4116807       -37016787.747648716        560783467.98576820     
  -1135594082.7968843       -50334050.553479195        543856749.39841151     
  -559511970.00782514       -5875941.6641800106        1152669797.1516492     
  -462510596.68473601        33327139.890840828        1161943700.7180130     
  -353682162.80782127        111953756.62527519        1178799006.3601534     
  -233026668.37706560        230003908.53918338        1203235714.0780578     
  -100544113.39249340        387477595.63247740        1235253823.8717411     
  -662700455.55952132       -4740856.0928342342        1007531207.4833083     
  -547406536.38325572        26132577.870795190        1020886569.9455155     
  -421322026.59559262        92974647.205742896        1042653945.8170266     
  -284446926.19654554        195785351.91196567        1072833335.0978360     
  -136781235.18612027        334564691.98946595        1111424737.7879429     
  -793110302.87492156       -11772179.050599664        857682836.30165040     
  -657150662.60681593        11483559.893277407        873910442.72684956     
  -511436901.66977179        67253034.400269955        899380673.89487946     
  -355969020.06377923        155536244.47043562        934093529.80574095     
  -190747017.78885752        276333190.10368812        978049010.45942998     
  -950741511.95404983       -26969910.537480175        703124683.60669112     
  -791742975.35544825       -10619914.041788697        721015319.06202495     
  -624026788.03035331        34788918.208885491        748979190.59371841     
  -447592949.97876018        109256586.21454778        787016298.20176792     
  -262441461.20067656        212783089.97519577        835126641.88617814     
  -1135594082.7968843       -50334050.553479195        543856749.39841151     
  -951183474.62913060       -40177843.934349835        562201198.95102549     
  -759091685.67733181       -4417701.3683981299        591449495.91353059     
  -559318715.94147980        56946377.144400001        631601640.28592432     
  -351864565.42159164        143914391.60397458        682657632.06820655     
  -100544113.39249340        387477595.63247740        1235253823.8717411     
  -85649377.810831904        546850127.48883307        1196702989.4810202     
  -58070588.112284839        748502839.73480999        1154779704.5063155     
  -17807744.296857715        992435732.37038159        1109483968.9476323     
   35139153.635434449        1278648805.3955119        1060815782.8049555     
  -136781235.18612027        334564691.98946595        1111424737.7879429     
  -127609672.49088272        483330812.75418621        1089989600.6234674     
  -95249566.880601943        709392076.56903946        1069972106.6899499     
  -39700918.355268598        1012748483.4340832        1051372255.9873812     
   39036273.085119843        1393400033.3492911        1034190048.5157912     
  -190747017.78885752        276333190.10368812        978049010.45942998     
  -173612645.65164116        418598694.47526371        985984807.45240045     
  -122785241.80120528        673174304.55758297        1000128341.4912698     
  -38264806.237547815        1040060020.3506341        1020479612.5760428     
   79948661.039336383        1519255841.8544426        1047038620.7067126     
  -262441461.20067656        212783089.97519577        835126641.88617814     
  -223658297.29308525        352653772.65215391        884688609.96779740     
  -140677612.87409747        639849523.70043325        945248408.91025639     
  -13499407.943714142        1074370343.1200473        1016806038.7135559     
   157876317.49806279        1656216230.9109409        1099361499.3777027     
  -351864565.42159164        143914391.60397458        682657632.06820655     
  -277746627.41520780        285496047.28486717        786101008.16967404     
  -148926680.09927484        609417733.99760127        905332308.94692421     
   34595276.526224136        1115679451.7422361        1040351534.3999530     
   272819242.46130860        1804281200.5187948        1191158684.5287616     
  -4607622723.6261587       -121183256.48937345        608094309.56272125     
  -4401124651.9490767        6088857.5949468613        589606650.02507246     
  -4210136262.0250158        81662032.502511501        585039269.33986926     
  -4034657553.8539944        105536268.23329210        594392167.50710523     
  -3874688527.4359999        77711564.787310123        617665344.52678418     
  -4979774568.7310562       -63051319.323351145        486833157.20915872     
  -4773569581.2612486       -8040869.6615755558        480786600.96332628     
  -4573124769.5542240        27768994.124264956        477270085.18772602     
  -4378440133.6099806        44378272.034157038        476283609.88236833     
  -4189515673.4285221        41786964.068117142        477827175.04724860     
  -5264658872.7869835        21260880.157365561        332125662.58166450     
  -5091290507.7593288       -5753396.0738787651        349894633.28292960     
  -4913932812.5042000       -19469904.880211353        358803406.07223147     
  -4732585787.0216103       -19888646.261663914        358851980.94956970     
  -4547249431.3115530       -7009620.2182285786        350040357.91493547     
  -5462275635.7939453        131753341.95276475        143971825.68022287     
  -5354287431.4432993        12951278.358065367        196930746.98388296     
  -5232560390.8749504       -60054664.510919809        229639231.99337345     
  -5097094514.0888758       -87264486.654189587        242097280.70869946     
  -4947889801.0850887       -68678188.071725607        234304893.12985006     
  -5572624857.7519379        268426066.06286168       -77628353.495153338     
  -5562560352.3131914        48073153.634219408        21894942.066191804     
  -5529007504.6664600       -93985284.767854929        89777562.951160550     
  -5471966314.8117781       -157749249.14339137        126019509.15975979     
  -5391436782.7491302       -143218739.49237466        130620780.69198678     
  -3874688527.4359999        77711564.787310123        617665344.52678418     
  -3766120892.8344655        20036751.678220987        625095577.41488028     
  -3651557659.1951652       -17652731.304977179        633133613.48705864     
  -3530998826.5181108       -35356884.162332773        641779452.74331748     
  -3404444394.8032904       -33075706.893801928        651033095.18365288     
  -4189515673.4285221        41786964.068117142        477827175.04724860     
  -4065062973.9799581        14826690.334009647        477121851.07695818     
  -3938164892.7564330       -3982310.8168990612        480940033.94915825     
  -3808821429.7579451       -14640039.384594202        489281723.66383839     
  -3677032584.9844990       -17146495.369097710        502146920.22100866     
  -4547249431.3115530       -7009620.2182285786        350040357.91493547     
  -4395723942.2776537        100962.84413671494        337057556.94633073     
  -4245303288.7316051        3528760.9470117092        332513966.47861451     
  -4095987470.6733789        3273774.0904679298        336409586.51178408     
  -3947776488.1030045       -663997.72557258606        348744417.04585677     
  -4947889801.0850887       -68678188.071725607        234304893.12985006     
  -4758103797.7275620       -24140430.791412354        204902695.02298725     
  -4572972847.1206617        4880483.9867866039        187855411.07542422     
  -4392496949.2644129        18384556.262833357        183163041.28715688     
  -4216676104.1588001        16371786.036751986        190825585.65819052     
  -5391436782.7491302       -143218739.49237466        130620780.69198678     
  -5152202540.3296595       -57897490.572598934        80657265.306927919     
  -4921173567.9236412        72858.302324771881        46964367.739595696     
  -4698349865.5310345        30692307.132553101        29542087.989952400     
  -4483731433.1518879        33960855.917905807        28390426.058018286     
  -3404444394.8032904       -33075706.893801928        651033095.18365288     
  -3253119051.4504204       -16165713.454849839        642870948.65988111     
  -3103043674.5996914       -3422275.0230337381        638420168.11749709     
  -2954218264.2511072        5154608.4016300440        637680753.55649340     
  -2806642820.4046631        9564936.8191530704        640652704.97687185     
  -3677032584.9844990       -17146495.369097710        502146920.22100866     
  -3518584355.6133647       -8937776.9465632439        493551991.26369011     
  -3360789842.7241778       -2908113.4638683796        488732825.95821029     
  -3203649046.3169503        942495.07897448540        487689424.30457646     
  -3047161966.3916802        2614048.6819535494        490421786.30277914     
  -3947776488.1030045       -663997.72557258606        348744417.04585677     
  -3782021379.3694410       -1101356.3162114620        340412330.67854285     
  -3616323737.0976353       -1730269.7794013023        335920405.63353038     
  -3450683561.2875948       -2550738.1151349545        335268641.91081285     
  -3285100851.9393277       -3562761.3234367371        338457039.51039815     
  -4216676104.1588001        16371786.036751986        190825585.65819052     
  -4043430122.7186408        7343548.4361903667        183451966.90443912     
  -3869645357.7200589        111256.03036928177        179982907.14344332     
  -3695321809.1630516       -5325091.1806912422        180418406.37520787     
  -3520459477.0476217       -8965493.1970231533        184758464.59972435     
  -4483731433.1518879        33960855.917905807        28390426.058018286     
  -4302810585.6609812        16396937.310650587        22670899.941384509     
  -4120754704.5914464        2616463.9654674530        20920330.487957854     
  -3937563789.9433022       -7380564.1176667213        23138717.697745360     
  -3753237841.7165551       -13594146.938801527        29326061.570754081     
  -2806642820.4046631        9564936.8191530704        640652704.97687185     
  -2667536742.2167201        8127952.7596114874        632418537.16257119     
  -2529360809.2494001        3590484.6313173771        628082065.05220008     
  -2392115021.5026937       -4047467.5656818151        627643288.64575803     
  -2255799378.9765983       -14785903.831391573        631102207.94324338     
  -3047161966.3916802        2614048.6819535494        490421786.30277914     
  -2898603775.9713449        487449.71878159046        482200806.52877682     
  -2750327793.7160816       -2579843.1279832125        477512128.51506525     
  -2602334019.6259093       -6587829.8583794832        476355752.26164067     
  -2454622453.7008209       -11536510.472378850        478731677.76850307     
  -3285100851.9393277       -3562761.3234367371        338457039.51039815     
  -3128134531.9826999       -6692169.9990441799        331005174.34147865     
  -2970802483.1356277       -8602482.3731626272        326720216.98921406     
  -2813104705.3981013       -9293698.4457666874        325602167.45359683     
  -2655041198.7701316       -8765818.2169022560        327651025.73462635     
  -3520459477.0476217       -8965493.1970231533        184758464.59972435     
  -3356129010.2508197       -13410906.393910885        178831640.60068032     
  -3190784877.5080395       -14477433.104198813        175706330.47464928     
  -3024427078.8192687       -12165073.327867985        175382534.22163045     
  -2857055614.1845312       -6473827.0649542809        177860251.84161976     
  -3753237841.7165551       -13594146.938801527        29326061.570754081     
  -3582587210.7756796       -19668759.465786695        25680205.306377601     
  -3410274976.8333054       -20204695.321072817        24470468.971365742     
  -3236301139.8894119       -15201954.504647732        25696852.565734997     
  -3060665699.9440026       -4660537.0165010691        29359356.089473035     
  -2255799378.9765983       -14785903.831391573        631102207.94324338     
  -2117087424.6511497       -24332201.388370514        621186588.51348078     
  -1977133295.3233666       -29737915.604220271        613373095.51282287     
  -1835936990.9932344       -31003046.478908777        607661728.94126904     
  -1693498511.6607590       -28127594.012464881        604052488.79881358     
  -2454622453.7008209       -11536510.472378850        478731677.76850307     
  -2308819809.1656704       -16634448.527571440        469421440.54740942     
  -2162455779.1187563       -19861101.543550134        462436909.48118591     
  -2015530363.5600753       -21216469.520313621        457778084.56983149     
  -1868043562.4896400       -20700552.457881570        455444965.81335551     
  -2655041198.7701316       -8765818.2169022560        327651025.73462635     
  -2501509064.8087993       -9223757.0053766966        318151916.31652743     
  -2348096334.8262768       -10079709.056538105        311202092.77906066     
  -2194803008.8225770       -11333674.370449901        306801555.12223828     
  -2041629086.7976837       -12985652.947033882        304950303.34605062     
  -2857055614.1845312       -6473827.0649542809        177860251.84161976     
  -2695155191.5805273       -2100126.8217407465        167378015.82083210     
  -2534054962.4459138       -393738.14313828945        159668645.40645868     
  -2373754926.7807002       -1354661.0292159319        154732140.59848952     
  -2214255084.5848804       -4982895.4799319506        152568501.39692873     
  -3060665699.9440026       -4660537.0165010691        29359356.089473035     
  -2889758189.4808674        4736442.0232982635        17099739.060337622     
  -2720331661.9776831        9196811.1965953112        7836567.3633726900     
  -2552386117.4344954        8720570.5032297373        1569840.9985828828     
  -2385921555.8512535        3307719.9433901310       -1700440.0340265164     
  -1693498511.6607590       -28127594.012464881        604052488.79881358     
  -1551692709.8436122       -25913559.477138102        590881337.68596923     
  -1411440037.7605910       -28876624.055535734        576458330.74828959     
  -1272740495.4116807       -37016787.747648716        560783467.98576820     
  -1135594082.7968843       -50334050.553479195        543856749.39841151     
  -1868043562.4896400       -20700552.457881570        455444965.81335551     
  -1729721837.8736858       -22504993.595620632        441916741.51813012     
  -1591678533.0094028       -25237500.572268665        427887654.20215237     
  -1453913647.8967855       -28898073.387793779        413357703.86542189     
  -1316427182.5358329       -33486712.042223394        398326890.50793207     
  -2041629086.7976837       -12985652.947033882        304950303.34605062     
  -1904645745.6569719       -18164861.640060186        292552167.51464826     
  -1766666114.2854834       -20023102.897162199        280404161.46656984     
  -1627690192.6832180       -18560376.718337119        268506285.20181298     
  -1487717980.8501751       -13776683.103585839        256858538.72038323     
  -2214255084.5848804       -4982895.4799319506        152568501.39692873     
  -2076464433.1934772       -12893163.610465527        142787615.67552844     
  -1936402781.5888481       -13233431.030264258        134007852.54152907     
  -1794070129.7709882       -6003697.7392852306        126229211.99493910     
  -1649466477.7399056        8796036.2624386549        119451694.03574747     
  -2385921555.8512535        3307719.9433901310       -1700440.0340265164     
  -2245177900.4832063       -6689899.5068579912       -7376913.9992369432     
  -2100888534.9194865       -4868484.9715451002       -11301272.572959816     
  -1953053459.1600919        8771963.5493642092       -13473515.755196093     
  -1801672673.2050238        34231446.055840135       -13893643.545950582     
  -1135594082.7968843       -50334050.553479195        543856749.39841151     
  -951183474.62913060       -40177843.934349835        562201198.95102549     
  -759091685.67733181       -4417701.3683981299        591449495.91353059     
  -559318715.94147980        56946377.144400001        631601640.28592432     
  -351864565.42159164        143914391.60397458        682657632.06820655     
  -1316427182.5358329       -33486712.042223394        398326890.50793207     
  -1117122608.7594974       -14325003.053872943        420441640.77561551     
  -914107803.06566918        17204145.659419477        441031247.40096194     
  -707382765.45435536        61100734.097679764        460095710.38398099     
  -496947495.92555100        117364762.26088893        477635029.72466564     
  -1487717980.8501751       -13776683.103585839        256858538.72038323     
  -1309030844.4715924        3737107.3520753384        278110816.02547538     
  -1130604425.0420802        20381841.310841680        285408958.63600695     
  -952438722.56165206        36157518.772646487        278752966.55199194     
  -774533737.03029394        51064139.737561524        258142839.77341500     
  -1649466477.7399056        8796036.2624386549        119451694.03574747     
  -1526908181.7654262        14008487.283520401        135208724.70058870     
  -1408581551.6065760        5115385.5858184099        124582629.61865593     
  -1294486587.2633643       -17883268.830671430        87573408.789955795     
  -1184623288.7358034       -54987475.965992510        24181062.214473464     
  -1801672673.2050238        34231446.055840135       -13893643.545950582     
  -1770754620.6409926        16489136.740438938       -8264633.1990091717     
  -1748039182.7591500       -28595221.515621543       -41447739.651075013     
  -1733526359.5595272       -101021628.71239960       -113442962.90212248     
  -1727216151.0420847       -200790084.84977800       -224250302.95217466     
  -351864565.42159164        143914391.60397458        682657632.06820655     
  -277746627.41520780        285496047.28486717        786101008.16967404     
  -148926680.09927484        609417733.99760127        905332308.94692421     
   34595276.526224136        1115679451.7422361        1040351534.3999530     
   272819242.46130860        1804281200.5187948        1191158684.5287616     
  -496947495.92555100        117364762.26088893        477635029.72466564     
  -388132050.75439191        223222241.25406682        596926509.88354754     
  -230227234.33327743        492710957.74712086        735364496.26749408     
  -23233046.662202001        925830911.74002266        892948988.87650204     
   232850512.25881746        1522582103.2327573        1069679987.7105581     
  -774533737.03029394        51064139.737561524        258142839.77341500     
  -621424837.41069508        124076226.22819734        386734346.25351548     
  -424839204.60075676        342010756.68660903        537830940.50794291     
  -184776838.60046881        704867731.11285341        711432622.53670180     
   98762260.590147376        1212647149.5068796        907539392.33980668     
  -1184623288.7358034       -54987475.965992510        24181062.214473464     
  -977624987.38412833       -11941997.792851150        155524517.27955636     
  -732762590.90170443        157317130.81609079        312731641.66825837     
  -450036099.28858709        452789909.86069727        495802435.38054937     
  -129445512.54471606        874476339.34113705        704736898.41648018     
  -1727216151.0420847       -200790084.84977800       -224250302.95217466     
  -1456732500.6746910       -184832430.80905175       -96702977.038321406     
  -1153997393.2361715       -61369919.864563167        60066599.748426206     
  -819010828.72652650        169597447.98362803        246058427.40806723     
  -451772807.14579505        508069672.73552990        461272505.94056869     
 </DataArray>
 <DataArray  type="Float64" Name="VM" NumberOfComponents="1" format="ascii">
   5713152853.6767483     
   5586880703.6821852     
   5484823748.5962267     
   5399235526.7013502     
   5326080447.0931444     
   5534949915.0550776     
   5371615358.7789764     
   5217974480.2581320     
   5071392863.3706818     
   4930640374.0979795     
   5306593905.7705889     
   5124378873.9205008     
   4943446241.7660475     
   4763398303.4787054     
   4584019725.5861492     
   5019877347.6893854     
   4841705787.7524500     
   4660964776.1390696     
   4477449424.4668465     
   4291131711.3058648     
   4668601686.4859352     
   4521022114.1130180     
   4370644926.1172915     
   4216077362.5011926     
   4057695148.7027712     
   5326080447.0931444     
   5125403441.0276642     
   4921882248.9606628     
   4714048677.0937729     
   4501076575.9501162     
   4930640374.0979795     
   4759330545.4664974     
   4586969786.0263176     
   4413135811.5649700     
   4237794612.1205225     
   4584019725.5861492     
   4434372134.7286587     
   4285940944.7612414     
   4138846177.8160930     
   3993392839.1912465     
   4291131711.3058648     
   4155498054.7629600     
   4023355015.5345016     
   3894838067.3015504     
   3770181563.7383842     
   4057695148.7027712     
   3928328195.1863294     
   3804247569.7588081     
   3685105200.6705012     
   3570751113.3676047     
   4501076575.9501162     
   4311211277.5525169     
   4122222828.8599200     
   3934082857.9325395     
   3746803597.9169374     
   4237794612.1205225     
   4059561322.6898913     
   3882237412.4277134     
   3705861056.6238627     
   3530518345.8432026     
   3993392839.1912465     
   3827161255.3989177     
   3661976343.6748567     
   3497947537.6792116     
   3335244489.3600168     
   3770181563.7383842     
   3616607271.0589552     
   3464350243.1388884     
   3313594794.1738567     
   3164602488.1049995     
   3570751113.3676047     
   3430787821.2198043     
   3292569395.1821489     
   3156353939.3682323     
   3022497053.1937633     
   3746803597.9169374     
   3573070311.9241519     
   3400481814.9156485     
   3229033774.3880410     
   3058760839.0643382     
   3530518345.8432026     
   3363735331.4411459     
   3198084044.1915288     
   3033610376.5981035     
   2870403362.6006427     
   3335244489.3600168     
   3176952901.1298022     
   3020003883.4409900     
   2864533236.3042235     
   2710740235.4065943     
   3164602488.1049995     
   3016764803.7652102     
   2870760828.7704206     
   2726863849.4318910     
   2585447504.3643904     
   3022497053.1937633     
   2887448627.2985663     
   2755035732.0668449     
   2625710754.9045219     
   2500073089.0629787     
   3058760839.0643382     
   2892280975.4848461     
   2724975517.0847836     
   2556759004.7668619     
   2387578950.7937617     
   2870403362.6006427     
   2709659016.2863097     
   2548905491.6204314     
   2388163472.6448288     
   2227498249.6645541     
   2710740235.4065943     
   2556994588.1070719     
   2404273303.6921825     
   2252730590.1576562     
   2102591290.5701537     
   2585447504.3643904     
   2439997779.8521142     
   2296781315.4983926     
   2156091993.1045480     
   2018325069.6944921     
   2500073089.0629787     
   2364055028.8896980     
   2231551986.5638981     
   2102965650.3416216     
   1978821004.2599120     
   2387578950.7937617     
   2241876848.2077394     
   2098549821.2723081     
   1957593289.0805545     
   1819189154.0978739     
   2227498249.6645541     
   2084769409.9048340     
   1943728355.5536330     
   1804370822.5722611     
   1666772907.0460989     
   2102591290.5701537     
   1962184514.3463855     
   1822639687.8487737     
   1683982240.6907668     
   1546262493.4016080     
   2018325069.6944921     
   1881326116.5397780     
   1744468696.8968265     
   1607880116.4774663     
   1471737750.8976102     
   1978821004.2599120     
   1848143438.4410660     
   1717309477.9444330     
   1586682118.4769602     
   1456807771.5332394     
   1819189154.0978739     
   1779114090.9858809     
   1735403944.5297699     
   1696703648.4358680     
   1681561479.0097909     
   1666772907.0460989     
   1551734096.8777723     
   1427548979.5040433     
   1294555132.3843036     
   1158866120.5695415     
   1546262493.4016080     
   1396604663.8114274     
   1243422859.6940432     
   1084432735.3163729     
   917591484.66664672     
   1471737750.8976102     
   1327583845.3745363     
   1197973784.1726089     
   1087386533.0932157     
   1001729051.0092185     
   1456807771.5332394     
   1347723387.0209098     
   1273704747.6681607     
   1242856946.1193805     
   1262229269.5245655     
   1681561479.0097909     
   1383848110.8133316     
   1129371290.6566448     
   1009989320.4711173     
   1153292026.4618998     
   1158866120.5695415     
   1008356116.7874117     
   985073114.94030249     
   1161371242.4419341     
   1544222890.2285886     
   917591484.66664672     
   962994367.19557273     
   1144790656.5110195     
   1476358140.3966384     
   1957392797.9177260     
   1001729051.0092185     
   1164507681.1489139     
   1425302415.6455412     
   1808669736.2165847     
   2334649315.7515612     
   1262229269.5245655     
   1446309487.1830566     
   1715577879.3554580     
   2110529359.8290503     
   2663493081.3149581     
   4668601686.4859352     
   4521022114.1130180     
   4370644926.1172915     
   4216077362.5011926     
   4057695148.7027712     
   4327540355.3221073     
   4204206416.5297570     
   4083026550.5574307     
   3964563981.6780243     
   3849846313.3496885     
   4050638621.8748503     
   3938605344.6990218     
   3834100045.6574388     
   3737372511.2731400     
   3648875180.9948883     
   3854116303.9714780     
   3737933169.6211653     
   3633981639.4605446     
   3540074162.3379636     
   3455396992.8081145     
   3756178367.4811707     
   3617156946.0038905     
   3493527461.9375553     
   3378913465.6106191     
   3271072374.7788754     
   4057695148.7027712     
   3928328195.1863294     
   3804247569.7588081     
   3685105200.6705012     
   3570751113.3676047     
   3849846313.3496885     
   3728981497.4329400     
   3611610388.6254115     
   3497827187.2059388     
   3387788173.9917612     
   3648875180.9948883     
   3540199584.1071348     
   3434415745.6257243     
   3331774213.8790827     
   3232608140.4080138     
   3455396992.8081145     
   3363687305.1060205     
   3275476958.1169147     
   3190878690.4560900     
   3110297946.9202251     
   3271072374.7788754     
   3201921323.0587387     
   3138110156.1397367     
   3079282506.1435390     
   3025808578.5885043     
   3570751113.3676047     
   3430787821.2198043     
   3292569395.1821489     
   3156353939.3682323     
   3022497053.1937633     
   3387788173.9917612     
   3259430309.0697260     
   3133941519.1516728     
   3011707603.4966555     
   2893223056.1603255     
   3232608140.4080138     
   3116938580.5153003     
   3005387279.8010240     
   2898442536.9394717     
   2796700665.7233644     
   3110297946.9202251     
   3008110723.1908922     
   2911344267.5468965     
   2820540578.8559070     
   2736334294.9214420     
   3025808578.5885043     
   2937406971.3231411     
   2855686850.1913095     
   2781177400.5676503     
   2714473351.3129029     
   3022497053.1937633     
   2887448627.2985663     
   2755035732.0668449     
   2625710754.9045219     
   2500073089.0629787     
   2893223056.1603255     
   2772103161.8209701     
   2655041871.2442312     
   2542588105.9156542     
   2435424326.8221383     
   2796700665.7233644     
   2689869069.0187993     
   2588430032.7954435     
   2492959130.5430803     
   2404138023.7138901     
   2736334294.9214420     
   2643479774.1979628     
   2557134986.2194901     
   2477823846.5362325     
   2406144820.6014614     
   2714473351.3129029     
   2634471347.1947722     
   2561783986.9852934     
   2496819925.8057742     
   2440040033.7415686     
   2500073089.0629787     
   2364055028.8896980     
   2231551986.5638981     
   2102965650.3416216     
   1978821004.2599120     
   2435424326.8221383     
   2311652579.5624647     
   2192542639.0410004     
   2078724177.4314477     
   1970970101.4979355     
   2404138023.7138901     
   2295380584.1592174     
   2192663029.0327582     
   2096785735.3850851     
   2008685267.8660803     
   2406144820.6014614     
   2314616844.7860599     
   2230539903.8894582     
   2154778514.4620733     
   2088301808.6626880     
   2440040033.7415686     
   2367161918.7368608     
   2303006885.5794063     
   2248391370.6930056     
   2204201917.5934601     
   1978821004.2599120     
   1848143438.4410660     
   1717309477.9444330     
   1586682118.4769602     
   1456807771.5332394     
   1970970101.4979355     
   1854948398.0004396     
   1743269738.9350550     
   1636876384.3704977     
   1536928219.4923599     
   2008685267.8660803     
   1912312938.9044166     
   1824799689.3871219     
   1747354141.9878478     
   1681274947.4186509     
   2088301808.6626880     
   2012904219.8379018     
   1949996103.2218678     
   1900640327.4644632     
   1865853694.8919177     
   2204201917.5934601     
   2147995073.3537970     
   2106856623.3014476     
   2081511145.4162562     
   2072617548.6860421     
   1456807771.5332394     
   1347723387.0209098     
   1273704747.6681607     
   1242856946.1193805     
   1262229269.5245655     
   1536928219.4923599     
   1475855939.4841101     
   1447493835.8866584     
   1455803177.5423653     
   1504096005.9227250     
   1681274947.4186509     
   1652478043.6979628     
   1651406416.4257717     
   1680435574.9690537     
   1742180757.5155470     
   1865853694.8919177     
   1855066075.1927640     
   1867273562.9283171     
   1904690683.0228746     
   1970329834.7470868     
   2072617548.6860421     
   2069004689.0253358     
   2084687521.0635593     
   2122293294.0962465     
   2185580616.0024710     
   1262229269.5245655     
   1446309487.1830566     
   1715577879.3554580     
   2110529359.8290503     
   2663493081.3149581     
   1504096005.9227250     
   1612849488.0051422     
   1788768786.5765095     
   2066552876.8908741     
   2476345479.5401678     
   1742180757.5155470     
   1787327157.4961722     
   1884586381.4058540     
   2060854836.1327281     
   2341353721.6874909     
   1970329834.7470868     
   1968705813.5465488     
   2003596719.5713694     
   2093703312.4344645     
   2257729281.3248720     
   2185580616.0024710     
   2156272800.1294317     
   2146542148.0742507     
   2166975512.6754990     
   2228729966.8160772     
   3756178367.4811707     
   3617156946.0038905     
   3493527461.9375553     
   3378913465.6106191     
   3271072374.7788754     
   3611901349.1295285     
   3460164564.4198160     
   3316935290.7205334     
   3180724182.3632154     
   3051217820.4815044     
   3443021261.8691378     
   3293037230.4826770     
   3150410511.7664013     
   3015309637.0087652     
   2887977906.0231919     
   3244295202.3037534     
   3113780032.5335135     
   2994732170.1148748     
   2885827253.0728240     
   2786849929.1179609     
   3014453015.9359307     
   2922503289.6615791     
   2851382096.4796929     
   2794766694.0152211     
   2751216143.5753117     
   3271072374.7788754     
   3201921323.0587387     
   3138110156.1397367     
   3079282506.1435390     
   3025808578.5885043     
   3051217820.4815044     
   3008647825.4465532     
   2971327644.5138884     
   2939502900.6220350     
   2913672057.3023672     
   2887977906.0231919     
   2864725256.6237159     
   2846378340.5423484     
   2833190970.6418953     
   2825429748.6970210     
   2786849929.1179609     
   2775129483.6485157     
   2767506934.3249469     
   2763706463.3950582     
   2763535532.9497766     
   2751216143.5753117     
   2742941753.6281476     
   2737404174.7240715     
   2733353771.8484173     
   2730017897.8043056     
   3025808578.5885043     
   2937406971.3231411     
   2855686850.1913095     
   2781177400.5676503     
   2714473351.3129029     
   2913672057.3023672     
   2839487619.8062949     
   2773120593.4278398     
   2715087728.3762765     
   2665958631.5862136     
   2825429748.6970210     
   2765388356.3015556     
   2714320956.9947648     
   2672680183.2880950     
   2640956253.5864983     
   2763535532.9497766     
   2716770153.3151474     
   2680134849.2955132     
   2653974858.7094846     
   2638660539.9538016     
   2730017897.8043056     
   2694775715.3601413     
   2670831780.1008573     
   2658399105.3765850     
   2657709239.5190082     
   2714473351.3129029     
   2634471347.1947722     
   2561783986.9852934     
   2496819925.8057742     
   2440040033.7415686     
   2665958631.5862136     
   2598980699.8356018     
   2539642358.4979868     
   2488346850.2783608     
   2445520778.7977848     
   2640956253.5864983     
   2587616247.9358659     
   2542215221.5723500     
   2505122211.0216141     
   2476713964.7518554     
   2638660539.9538016     
   2599307635.2309885     
   2568154951.8310924     
   2545516030.4073119     
   2531712338.4215069     
   2657709239.5190082     
   2632407955.2106018     
   2615539640.8841705     
   2607350990.3843379     
   2608113169.6574907     
   2440040033.7415686     
   2367161918.7368608     
   2303006885.5794063     
   2248391370.6930056     
   2204201917.5934601     
   2445520778.7977848     
   2391167560.0959272     
   2346370491.9956908     
   2311747973.3344712     
   2287914960.6781077     
   2476713964.7518554     
   2438642112.3132677     
   2410561733.2804022     
   2392875050.0210958     
   2385949268.8437848     
   2531712338.4215069     
   2507034224.9988604     
   2492487203.1083603     
   2488280688.7770815     
   2494591393.1097994     
   2608113169.6574907     
   2593547927.1102896     
   2589080253.5275707     
   2594768332.4362755     
   2610661833.7601395     
   2204201917.5934601     
   2147995073.3537970     
   2106856623.3014476     
   2081511145.4162562     
   2072617548.6860421     
   2287914960.6781077     
   2245781861.4032650     
   2217686491.6071744     
   2204069159.3390160     
   2205320516.8523245     
   2385949268.8437848     
   2355306070.6979690     
   2337691866.0960722     
   2333366936.9060183     
   2342563496.9780650     
   2494591393.1097994     
   2473174662.3614292     
   2463903104.3148298     
   2466931244.1332173     
   2482403186.4458227     
   2610661833.7601395     
   2596580393.4913235     
   2593938836.2925301     
   2602833885.5654097     
   2623363174.4380331     
   2072617548.6860421     
   2069004689.0253358     
   2084687521.0635593     
   2122293294.0962465     
   2185580616.0024710     
   2205320516.8523245     
   2191247029.3413916     
   2192171003.6792469     
   2210054946.7513647     
   2247788756.5058808     
   2342563496.9780650     
   2318683087.4197569     
   2306283494.2826719     
   2306765707.0320392     
   2322209130.7720199     
   2482403186.4458227     
   2450328583.5078950     
   2426702277.9669070     
   2412469574.0937257     
   2409014701.0824504     
   2623363174.4380331     
   2585393569.5379343     
   2553139594.1115155     
   2527188257.6904883     
   2508366878.9188423     
   2185580616.0024710     
   2156272800.1294317     
   2146542148.0742507     
   2166975512.6754990     
   2228729966.8160772     
   2247788756.5058808     
   2182923218.1993799     
   2134516084.5697858     
   2112275065.6124613     
   2127191533.2515996     
   2322209130.7720199     
   2225189192.2456403     
   2141557876.1866226     
   2079700170.3678591     
   2049813946.3964558     
   2409014701.0824504     
   2283365150.3114986     
   2168313908.3153996     
   2070602731.3399792     
   1998996794.6275940     
   2508366878.9188423     
   2357662012.6448622     
   2215254825.9371753     
   2086114788.2026098     
   1977091479.8049557     
   3014453015.9359307     
   2922503289.6615791     
   2851382096.4796929     
   2794766694.0152211     
   2751216143.5753117     
   2766855155.3636317     
   2732589557.1403389     
   2713760519.7794499     
   2706826150.5160499     
   2711224394.8405776     
   2601960499.2241278     
   2610909370.1869187     
   2629208814.7327447     
   2655300223.6400399     
   2689003349.3860931     
   2523734421.0472918     
   2562009541.4325166     
   2602796819.0541263     
   2645716757.5389624     
   2690734786.8637519     
   2529834169.8567810     
   2585522382.7943954     
   2636244998.0064149     
   2682002015.4928432     
   2722793435.2536726     
   2751216143.5753117     
   2742941753.6281476     
   2737404174.7240715     
   2733353771.8484173     
   2730017897.8043056     
   2711224394.8405776     
   2690513392.6344728     
   2675423348.0628457     
   2665385904.9133625     
   2660080828.4739199     
   2689003349.3860931     
   2658454675.4879537     
   2637299899.9388814     
   2625364390.8027477     
   2622575382.1842761     
   2690734786.8637519     
   2651162840.4464302     
   2625481594.0003200     
   2613672274.3699179     
   2615739158.9740424     
   2722793435.2536726     
   2672816436.0481472     
   2641824414.7156968     
   2629817371.2563248     
   2636795305.6700244     
   2730017897.8043056     
   2694775715.3601413     
   2670831780.1008573     
   2658399105.3765850     
   2657709239.5190082     
   2660080828.4739199     
   2639618092.8164477     
   2628694797.8170657     
   2627404720.8201995     
   2635847852.3626027     
   2622575382.1842761     
   2613611243.9583802     
   2612276613.5914607     
   2618601542.2788610     
   2632617723.6134562     
   2615739158.9740424     
   2615502464.5362196     
   2620885241.7991257     
   2631892377.2105989     
   2648529019.0434275     
   2636795305.6700244     
   2643189187.5272756     
   2653135527.8138599     
   2666634326.5297785     
   2683685583.6750364     
   2657709239.5190082     
   2632407955.2106018     
   2615539640.8841705     
   2607350990.3843379     
   2608113169.6574907     
   2635847852.3626027     
   2619658393.7429123     
   2612331301.9400082     
   2614012715.8402343     
   2624858934.9982934     
   2632617723.6134562     
   2622952094.7017508     
   2622527878.7457089     
   2631412482.1348791     
   2649676483.6496229     
   2648529019.0434275     
   2642442422.2716675     
   2645973657.0429783     
   2659140048.4187870     
   2681959474.2402787     
   2683685583.6750364     
   2677995679.5509028     
   2682333597.4909968     
   2696699337.4953079     
   2721092899.5638404     
   2608113169.6574907     
   2593547927.1102896     
   2589080253.5275707     
   2594768332.4362755     
   2610661833.7601395     
   2624858934.9982934     
   2614965350.7930984     
   2615065512.2921190     
   2625192480.3257256     
   2645373449.0513096     
   2649676483.6496229     
   2643315150.7110095     
   2646972616.5414362     
   2660663928.6647129     
   2684401037.6691980     
   2681959474.2402787     
   2677940105.0048718     
   2684115620.1358533     
   2700489936.5722637     
   2727066068.5547323     
   2721092899.5638404     
   2718190909.2400365     
   2725829692.1801734     
   2744009248.3842373     
   2772729577.8522224     
   2610661833.7601395     
   2596580393.4913235     
   2593938836.2925301     
   2602833885.5654097     
   2623363174.4380331     
   2645373449.0513096     
   2634176998.6554565     
   2633371806.0219908     
   2643004381.3127117     
   2663123916.3649020     
   2684401037.6691980     
   2675535309.7949109     
   2676191818.4274998     
   2686388148.2352366     
   2706143876.5735149     
   2727066068.5547323     
   2720172460.5808325     
   2722087016.8371215     
   2732813447.6678162     
   2752356126.0062747     
   2772729577.8522224     
   2767630531.9992409     
   2770757531.1230731     
   2782110575.2237139     
   2801689664.3011732     
   2623363174.4380331     
   2585393569.5379343     
   2553139594.1115155     
   2527188257.6904883     
   2508366878.9188423     
   2663123916.3649020     
   2617724373.1288576     
   2577931008.6690879     
   2544078721.0961056     
   2516641361.5908127     
   2706143876.5735149     
   2655486027.0657883     
   2610465296.9766264     
   2571231256.4966640     
   2537995865.2982459     
   2752356126.0062747     
   2698603902.0376439     
   2650661890.5955720     
   2608567333.0678625     
   2572372957.7280793     
   2801689664.3011732     
   2746993647.6782937     
   2698425138.2661290     
   2655984136.0646815     
   2619670641.0739651     
   2508366878.9188423     
   2357662012.6448622     
   2215254825.9371753     
   2086114788.2026098     
   1977091479.8049557     
   2516641361.5908127     
   2348588979.6499310     
   2184154247.2760248     
   2026431472.3050973     
   1879971284.3482981     
   2537995865.2982459     
   2357665593.4168968     
   2177067442.6748075     
   1997670827.0225568     
   1821748235.7196686     
   2572372957.7280793     
   2384991861.7813854     
   2194461100.7254772     
   2001158505.8564713     
   1805686942.8936594     
   2619670641.0739651     
   2430532552.4533653     
   2236476448.0157695     
   2037502327.7611604     
   1833610191.6895533     
   2529834169.8567810     
   2585522382.7943954     
   2636244998.0064149     
   2682002015.4928432     
   2722793435.2536726     
   2523734449.0158219     
   2562009563.4602108     
   2602796833.6889834     
   2645716763.1348600     
   2690734781.6474757     
   2601960546.8612895     
   2610909408.0922608     
   2629208839.9654446     
   2655300233.3385348     
   2689003340.6427975     
   2766855208.3355174     
   2732589600.8102365     
   2713760549.4105916     
   2706826162.1360402     
   2711224384.7077713     
   3014453056.5429225     
   2922503326.7030277     
   2851382123.0698309     
   2794766704.9737964     
   2751216134.4059324     
   2722793435.2536726     
   2672816436.0481472     
   2641824414.7156968     
   2629817371.2563248     
   2636795305.6700244     
   2690734781.6474757     
   2651162836.4747372     
   2625481591.5268140     
   2613672273.6169848     
   2615739160.1456161     
   2689003340.6427975     
   2658454668.6247363     
   2637299895.4381208     
   2625364389.1289372     
   2622575383.7931614     
   2711224384.7077713     
   2690513384.2646818     
   2675423342.1275039     
   2665385902.1239448     
   2660080829.5712838     
   2751216134.4059324     
   2742941745.3053851     
   2737404168.0402703     
   2733353767.7348599     
   2730017897.2825732     
   2636795305.6700244     
   2643189187.5272756     
   2653135527.8138599     
   2666634326.5297785     
   2683685583.6750364     
   2615739160.1456161     
   2615502465.5204077     
   2620885242.5007091     
   2631892377.5349660     
   2648529018.8972330     
   2622575383.7931614     
   2613611245.4023924     
   2612276614.6952624     
   2618601542.8676100     
   2632617723.5134587     
   2660080829.5712838     
   2639618094.0176830     
   2628694798.8826032     
   2627404721.5095224     
   2635847852.4338980     
   2730017897.2825732     
   2694775715.4757781     
   2670831780.5681248     
   2658399105.9057407     
   2657709239.8135104     
   2683685583.6750364     
   2677995679.5509028     
   2682333597.4909968     
   2696699337.4953079     
   2721092899.5638404     
   2648529018.8972330     
   2642442422.1075397     
   2645973656.8133273     
   2659140048.0774612     
   2681959473.7424817     
   2632617723.5134587     
   2622952094.5350318     
   2622527878.4104791     
   2631412481.5315876     
   2649676482.6815677     
   2635847852.4338980     
   2619658393.6958070     
   2612331301.6099734     
   2614012715.0644393     
   2624858933.6178064     
   2657709239.8135104     
   2632407955.3601184     
   2615539640.6521916     
   2607350989.5333581     
   2608113167.9535828     
   2721092899.5638404     
   2718190909.2400365     
   2725829692.1801734     
   2744009248.3842373     
   2772729577.8522224     
   2681959473.7424817     
   2677940104.5582685     
   2684115619.7624531     
   2700489936.2929854     
   2727066068.3897514     
   2649676482.6815677     
   2643315149.8271894     
   2646972615.7874684     
   2660663928.0842195     
   2684401037.3045201     
   2624858933.6178064     
   2614965349.5007415     
   2615065511.1596894     
   2625192479.4227748     
   2645373448.4458728     
   2608113167.9535828     
   2593547925.4585395     
   2589080252.0292401     
   2594768331.1909919     
   2610661832.8664947     
   2772729577.8522224     
   2767630531.9992409     
   2770757531.1230731     
   2782110575.2237139     
   2801689664.3011732     
   2727066068.3897514     
   2720172460.3767776     
   2722087016.5932574     
   2732813447.3836908     
   2752356125.6814179     
   2684401037.3045201     
   2675535309.3621321     
   2676191817.9255719     
   2686388147.6636276     
   2706143875.9317284     
   2645373448.4458728     
   2634176997.9643636     
   2633371805.2441511     
   2643004380.4477382     
   2663123915.4125171     
   2610661832.8664947     
   2596580392.5072880     
   2593938835.2171431     
   2602833884.3985276     
   2623363173.1797118     
   2801689664.3011732     
   2746993647.6782937     
   2698425138.2661290     
   2655984136.0646815     
   2619670641.0739651     
   2752356125.6814179     
   2698603901.7606311     
   2650661890.3655214     
   2608567332.8839374     
   2572372957.5899119     
   2706143875.9317284     
   2655486026.5171137     
   2610465296.5192237     
   2571231256.1287546     
   2537995865.0187521     
   2663123915.4125171     
   2617724372.3126059     
   2577931007.9860563     
   2544078720.5433846     
   2516641361.1663237     
   2623363173.1797118     
   2585393568.4567866     
   2553139593.2034898     
   2527188256.9513302     
   2508366878.3450375     
   2619670641.0739651     
   2430532552.4533653     
   2236476448.0157695     
   2037502327.7611604     
   1833610191.6895533     
   2572372957.5899119     
   2384991861.6974130     
   2194461100.7027578     
   2001158505.9065988     
   1805686943.0354803     
   2537995865.0187521     
   2357665593.2430139     
   2177067442.6196713     
   1997670827.1071124     
   1821748235.9768798     
   2516641361.1663237     
   2348588979.3792305     
   2184154247.1768551     
   2026431472.4045413     
   1879971284.6860693     
   2508366878.3450375     
   2357662012.2695179     
   2215254825.7808819     
   2086114788.2948372     
   1977091480.1852379     
   3014453056.5429225     
   2922503326.7030277     
   2851382123.0698309     
   2794766704.9737964     
   2751216134.4059324     
   3244295248.3898344     
   3113780069.0957856     
   2994732194.0785346     
   2885827262.0590162     
   2786849921.1602921     
   3443021318.5942388     
   3293037271.1060328     
   3150410535.9996810     
   3015309644.7949252     
   2887977897.5808058     
   3611901425.6580806     
   3460164616.4787989     
   3316935319.7418156     
   3180724190.1224847     
   3051217809.1293435     
   3756178475.2141771     
   3617157018.6878242     
   3493527501.3644028     
   3378913474.7948790     
   3271072357.6012406     
   2751216134.4059324     
   2742941745.3053851     
   2737404168.0402703     
   2733353767.7348599     
   2730017897.2825732     
   2786849921.1602921     
   2775129477.2475424     
   2767506929.7233000     
   2763706460.8926430     
   2763535532.8903270     
   2887977897.5808058     
   2864725250.8193326     
   2846378337.1428218     
   2833190969.4001598     
   2825429749.3538103     
   3051217809.1293435     
   3008647818.4137073     
   2971327641.1701498     
   2939502900.2772961     
   2913672059.1979699     
   3271072357.6012406     
   3201921312.6594491     
   3138110151.5569887     
   3079282506.3501306     
   3025808582.4512367     
   2730017897.2825732     
   2694775715.4757781     
   2670831780.5681248     
   2658399105.9057407     
   2657709239.8135104     
   2763535532.8903270     
   2716770153.5506959     
   2680134849.6804876     
   2653974859.0906568     
   2638660540.1687913     
   2825429749.3538103     
   2765388356.8622780     
   2714320957.4261098     
   2672680183.5507793     
   2640956253.6353617     
   2913672059.1979699     
   2839487621.1197352     
   2773120594.2087150     
   2715087728.6748223     
   2665958631.4556537     
   3025808582.4512367     
   2937406973.9932952     
   2855686851.7707534     
   2781177401.1690207     
   2714473351.0646949     
   2657709239.8135104     
   2632407955.3601184     
   2615539640.6521916     
   2607350989.5333581     
   2608113167.9535828     
   2638660540.1687913     
   2599307635.0531697     
   2568154951.0903211     
   2545516028.9338546     
   2531712336.0488935     
   2640956253.6353617     
   2587616247.3872561     
   2542215220.3191581     
   2505122208.9588819     
   2476713961.7783289     
   2665958631.4556537     
   2598980698.9175653     
   2539642356.7451000     
   2488346847.6480055     
   2445520775.2529693     
   2714473351.0646949     
   2634471345.9553156     
   2561783984.7624922     
   2496819922.6160975     
   2440040029.6110258     
   2608113167.9535828     
   2593547925.4585395     
   2589080252.0292401     
   2594768331.1909919     
   2610661832.8664947     
   2531712336.0488935     
   2507034222.8257375     
   2492487201.2095842     
   2488280687.2276664     
   2494591391.9849930     
   2476713961.7783289     
   2438642109.6522899     
   2410561730.9830732     
   2392875048.1403041     
   2385949267.4340820     
   2445520775.2529693     
   2391167556.9502583     
   2346370489.2779603     
   2311747971.0767059     
   2287914958.9155626     
   2440040029.6110258     
   2367161915.0751891     
   2303006882.3932886     
   2248391367.9934268     
   2204201915.3962908     
   2610661832.8664947     
   2596580392.5072880     
   2593938835.2171431     
   2602833884.3985276     
   2623363173.1797118     
   2494591391.9849930     
   2473174661.1689405     
   2463903103.0472627     
   2466931242.7841215     
   2482403185.0091605     
   2385949267.4340820     
   2355306069.2620668     
   2337691864.6201019     
   2333366935.3766637     
   2342563495.3822641     
   2287914958.9155626     
   2245781859.6772761     
   2217686489.8978152     
   2204069157.6256361     
   2205320515.1136179     
   2204201915.3962908     
   2147995071.2787471     
   2106856621.3237529     
   2081511143.5080712     
   2072617546.8168688     
   2623363173.1797118     
   2585393568.4567866     
   2553139593.2034898     
   2527188256.9513302     
   2508366878.3450375     
   2482403185.0091605     
   2450328582.2782650     
   2426702276.9403095     
   2412469573.2655673     
   2409014700.4481792     
   2342563495.3822641     
   2318683086.0551229     
   2306283493.1450949     
   2306765706.1163321     
   2322209130.0721474     
   2205320515.1136179     
   2191247027.8528600     
   2192171002.4366107     
   2210054945.7485943     
   2247788755.7346992     
   2072617546.8168688     
   2069004687.4211032     
   2084687519.7198434     
   2122293293.0058479     
   2185580615.1539240     
   2508366878.3450375     
   2357662012.2695179     
   2215254825.7808819     
   2086114788.2948372     
   1977091480.1852379     
   2409014700.4481792     
   2283365149.9095588     
   2168313908.1641793     
   2070602731.4630353     
   1998996795.0517471     
   2322209130.0721474     
   2225189191.8030739     
   2141557876.0152071     
   2079700170.4815278     
   2049813946.8052278     
   2247788755.7346992     
   2182923217.7014918     
   2134516084.3525143     
   2112275065.6778316     
   2127191533.5913477     
   2185580615.1539240     
   2156272799.5612154     
   2146542147.7858236     
   2166975512.6560540     
   2228729967.0402641     
   3756178475.2141771     
   3617157018.6878242     
   3493527501.3644028     
   3378913474.7948790     
   3271072357.6012406     
   3854116422.8793616     
   3737933253.3533530     
   3633981687.5776000     
   3540074175.1885924     
   3455396971.4048815     
   4050638731.9235716     
   3938605423.8392162     
   3834100092.2485614     
   3737372523.9182410     
   3648875158.4868398     
   4327540432.7249279     
   4204206473.3765564     
   4083026584.4527073     
   3964563990.1079545     
   3849846293.5069227     
   4668601705.7116518     
   4521022130.3047590     
   4370644936.0076237     
   4216077362.7861838     
   4057695135.6607008     
   3271072357.6012406     
   3201921312.6594491     
   3138110151.5569887     
   3079282506.3501306     
   3025808582.4512367     
   3455396971.4048815     
   3363687290.5656347     
   3275476950.1030555     
   3190878688.5906563     
   3110297950.7612834     
   3648875158.4868398     
   3540199567.8130426     
   3434415735.6995087     
   3331774210.4575381     
   3232608143.6077571     
   3849846293.5069227     
   3728981482.2338839     
   3611610378.5555754     
   3497827182.7616205     
   3387788175.6932240     
   4057695135.6607008     
   3928328184.1889048     
   3804247561.4408345     
   3685105195.7215476     
   3570751112.5572066     
   3025808582.4512367     
   2937406973.9932952     
   2855686851.7707534     
   2781177401.1690207     
   2714473351.0646949     
   3110297950.7612834     
   3008110726.1042233     
   2911344269.5029407     
   2820540579.8265696     
   2736334294.8837166     
   3232608143.6077571     
   3116938583.1381989     
   3005387281.7143254     
   2898442538.0004568     
   2796700665.7800612     
   3387788175.6932240     
   3259430310.6848464     
   3133941520.4729414     
   3011707604.2959237     
   2893223056.1860704     
   3570751112.5572066     
   3430787820.9929409     
   3292569395.2829671     
   3156353939.5126281     
   3022497053.0637484     
   2714473351.0646949     
   2634471345.9553156     
   2561783984.7624922     
   2496819922.6160975     
   2440040029.6110258     
   2736334294.8837166     
   2643479773.1056223     
   2557134984.0810261     
   2477823843.3685837     
   2406144816.4325204     
   2796700665.7800612     
   2689869067.9104147     
   2588430030.5256181     
   2492959127.1233258     
   2404138019.1679120     
   2893223056.1860704     
   2772103160.5251241     
   2655041868.6203308     
   2542588101.9634333     
   2435424321.5536480     
   3022497053.0637484     
   2887448625.6482658     
   2755035728.8754063     
   2625710750.1542897     
   2500073082.7468557     
   2440040029.6110258     
   2367161915.0751891     
   2303006882.3932886     
   2248391367.9934268     
   2204201915.3962908     
   2406144816.4325204     
   2314616841.1595044     
   2230539900.7814932     
   2154778511.8485403     
   2088301806.5178483     
   2404138019.1679120     
   2295380580.3003707     
   2192663025.8203025     
   2096785732.7721353     
   2008685265.7964587     
   2435424321.5536480     
   2311652575.1944776     
   2192542635.5317330     
   2078724174.7275100     
   1970970099.5299230     
   2500073082.7468557     
   2364055023.7492557     
   2231551982.5724530     
   2102965647.4569030     
   1978821002.4197619     
   2204201915.3962908     
   2147995071.2787471     
   2106856621.3237529     
   2081511143.5080712     
   2072617546.8168688     
   2088301806.5178483     
   2012904217.8159697     
   1949996101.3068807     
   1900640325.6382532     
   1865853693.1338282     
   2008685265.7964587     
   1912312936.9582860     
   1824799687.5542688     
   1747354140.2566667     
   1681274945.7756639     
   1970970099.5299230     
   1854948396.1553514     
   1743269737.2061191     
   1636876382.7499926     
   1536928217.9712985     
   1978821002.4197619     
   1848143436.7214289     
   1717309476.3409514     
   1586682116.9843280     
   1456807770.1451576     
   2072617546.8168688     
   2069004687.4211032     
   2084687519.7198434     
   2122293293.0058479     
   2185580615.1539240     
   1865853693.1338282     
   1855066073.6819224     
   1867273561.6625187     
   1904690681.9961765     
   1970329833.9481192     
   1681274945.7756639     
   1652478042.2827005     
   1651406415.2394488     
   1680435574.0082753     
   1742180756.7696857     
   1536928217.9712985     
   1475855938.1673501     
   1447493834.7799034     
   1455803176.6471615     
   1504096005.2312746     
   1456807770.1451576     
   1347723385.8103409     
   1273704746.6427944     
   1242856945.2876842     
   1262229268.8860552     
   2185580615.1539240     
   2156272799.5612154     
   2146542147.7858236     
   2166975512.6560540     
   2228729967.0402641     
   1970329833.9481192     
   1968705813.0134842     
   2003596719.3063569     
   2093703312.4231122     
   2257729281.5310755     
   1742180756.7696857     
   1787327156.9977257     
   1884586381.1570063     
   2060854836.1134868     
   2341353721.8525157     
   1504096005.2312746     
   1612849487.5404410     
   1788768786.3383980     
   2066552876.8527033     
   2476345479.6503706     
   1262229268.8860552     
   1446309486.7509110     
   1715577879.1251523     
   2110529359.7662041     
   2663493081.3641806     
   4668601705.7116518     
   4521022130.3047590     
   4370644936.0076237     
   4216077362.7861838     
   4057695135.6607008     
   5019877332.8272018     
   4841705775.7469969     
   4660964766.2737837     
   4477449416.0289154     
   4291131703.5041637     
   5306593890.6646557     
   5124378858.7836571     
   4943446228.2077456     
   4763398293.0091324     
   4584019719.6669483     
   5534949935.9936380     
   5371615367.6877680     
   5217974480.4557381     
   5071392857.9795237     
   4930640366.0899191     
   5713152948.2577620     
   5586880765.2488527     
   5484823780.9458923     
   5399235533.7220850     
   5326080432.6154966     
   4057695135.6607008     
   3928328184.1889048     
   3804247561.4408345     
   3685105195.7215476     
   3570751112.5572066     
   4291131703.5041637     
   4155498047.8154240     
   4023355009.6222715     
   3894838062.6324334     
   3770181560.5635099     
   4584019719.6669483     
   4434372129.3754349     
   4285940939.8208838     
   4138846173.1329856     
   3993392834.6162825     
   4930640366.0899191     
   4759330538.8682442     
   4586969780.4531183     
   4413135806.6101837     
   4237794607.3577957     
   5326080432.6154966     
   5125403430.1045532     
   4921882241.0539017     
   4714048671.6441622     
   4501076572.3791103     
   3570751112.5572066     
   3430787820.9929409     
   3292569395.2829671     
   3156353939.5126281     
   3022497053.0637484     
   3770181560.5635099     
   3616607268.3561850     
   3464350240.8674502     
   3313594792.2854085     
   3164602486.5435619     
   3993392834.6162825     
   3827161250.6521125     
   3661976338.8664145     
   3497947532.9210534     
   3335244484.7723374     
   4237794607.3577957     
   4059561316.5032964     
   3882237405.0121098     
   3705861048.1739988     
   3530518336.5668216     
   4501076572.3791103     
   4311211270.6494112     
   4122222818.8411274     
   3934082845.0034404     
   3746803582.2910876     
   3022497053.0637484     
   2887448625.6482658     
   2755035728.8754063     
   2625710750.1542897     
   2500073082.7468557     
   3164602486.5435619     
   3016764801.0292468     
   2870760824.7390409     
   2726863843.9766073     
   2585447497.3474903     
   3335244484.7723374     
   3176952896.0273414     
   3020003877.6599126     
   2864533229.6705585     
   2710740227.7281756     
   3530518336.5668216     
   3363735322.6576676     
   3198084035.7463822     
   3033610368.3310595     
   2870403354.3344603     
   3746803582.2910876     
   3573070298.1654544     
   3400481802.9237356     
   3229033764.0652947     
   3058760830.3035455     
   2500073082.7468557     
   2364055023.7492557     
   2231551982.5724530     
   2102965647.4569030     
   1978821002.4197619     
   2585447497.3474903     
   2439997774.2480483     
   2296781311.3001528     
   2156091990.2970390     
   2018325068.2499852     
   2710740227.7281756     
   2556994582.0867476     
   2404273299.3396754     
   2252730587.4823036     
   2102591289.5771315     
   2870403354.3344603     
   2709659009.9254003     
   2548905487.1863656     
   2388163470.1654124     
   2227498249.1711369     
   3058760830.3035455     
   2892280968.8735986     
   2724975512.6506915     
   2556759002.5485535     
   2387578950.8390026     
   1978821002.4197619     
   1848143436.7214289     
   1717309476.3409514     
   1586682116.9843280     
   1456807770.1451576     
   2018325068.2499852     
   1881326115.1571550     
   1744468695.5764697     
   1607880115.2213774     
   1471737749.7100668     
   2102591289.5771315     
   1962184513.3312445     
   1822639686.8076372     
   1683982239.6221247     
   1546262492.3063002     
   2227498249.1711369     
   2084769409.2843518     
   1943728354.7896473     
   1804370821.6504166     
   1666772905.9525557     
   2387578950.8390026     
   2241876848.0058837     
   2098549820.7877321     
   1957593288.2792177     
   1819189152.9439304     
   1456807770.1451576     
   1347723385.8103409     
   1273704746.6427944     
   1242856945.2876842     
   1262229268.8860552     
   1471737749.7100668     
   1327583844.3677912     
   1197973783.3516698     
   1087386532.4564469     
   1001729050.5435708     
   1546262492.3063002     
   1396604662.9284205     
   1243422859.0329061     
   1084432734.8775911     
   917591484.44352365     
   1666772905.9525557     
   1551734096.0393360     
   1427548978.9389770     
   1294555132.1022875     
   1158866120.5763533     
   1819189152.9439304     
   1779114090.1333807     
   1735403944.0062277     
   1696703648.2523606     
   1681561479.1601865     
   1262229268.8860552     
   1446309486.7509110     
   1715577879.1251523     
   2110529359.7662041     
   2663493081.3641806     
   1001729050.5435708     
   1164507680.8207364     
   1425302415.4729028     
   1808669736.1793382     
   2334649315.8021407     
   917591484.44352365     
   962994367.00986564     
   1144790656.4056888     
   1476358140.3786249     
   1957392797.9549878     
   1158866120.5763533     
   1008356116.7824794     
   985073114.92334342     
   1161371242.4342771     
   1544222890.2294905     
   1681561479.1601865     
   1383848110.9452338     
   1129371290.7318194     
   1009989320.4645481     
   1153292026.3824909     
 </DataArray>
 <DataArray  type="Float64" Name="strain" NumberOfComponents="3" format="ascii">
   9.4219209953303462E-002  -3.2336890682492569E-002  -3.3638961327533412E-003
   9.2949704023929103E-002  -2.8614020364128745E-002   9.4878091085426330E-004
   9.1680198094554743E-002  -2.6078615988427256E-002   3.8903616191774404E-003
   9.0410692165180329E-002  -2.4730677555387867E-002   5.4608459922170227E-003
   8.9141186235805914E-002  -2.4570205065010842E-002   5.6602340299723997E-003
   9.1696693844608101E-002  -2.9507266306070146E-002   6.2387786650816013E-003
   8.9302880178832866E-002  -2.6987291413213210E-002   8.5336657472490640E-003
   8.6909066513057576E-002  -2.5161890844303869E-002   9.9510336918989806E-003
   8.4515252847282341E-002  -2.4031064599342622E-002   1.0490882499031101E-002
   8.2121439181507161E-002  -2.3594812678329524E-002   1.0153212168645454E-002
   8.7850619308894706E-002  -2.6677641929647722E-002   1.4392112228052423E-002
   8.4826075104485005E-002  -2.5360562462297342E-002   1.5162100967494319E-002
   8.1801530900075053E-002  -2.4245165700180565E-002   1.5548147767185022E-002
   7.8776986695665269E-002  -2.3331451643297495E-002   1.5550252627123978E-002
   7.5752442491255373E-002  -2.2619420291648040E-002   1.5168415547311381E-002
   8.2680986346163832E-002  -2.3848017553225270E-002   2.1096104556159359E-002
   7.9519288800885518E-002  -2.3733833511381600E-002   2.0834086571590194E-002
   7.6357591255607218E-002  -2.3328440556057220E-002   2.0681703845035850E-002
   7.3195893710328863E-002  -2.2631838687252308E-002   2.0638956376496025E-002
   7.0034196165050619E-002  -2.1644027904966640E-002   2.0705844165971078E-002
   7.6187794956414867E-002  -2.1018393176802874E-002   2.6350755649402591E-002
   7.3382521268034351E-002  -2.2107104560465995E-002   2.5549622559536522E-002
   7.0577247579653918E-002  -2.2411715411934013E-002   2.5351701925451331E-002
   6.7771973891273388E-002  -2.1932225731207074E-002   2.5756993747147156E-002
   6.4966700202892885E-002  -2.0668635518285239E-002   2.6765498024623802E-002
   8.9141186235805914E-002  -2.4570205065010842E-002   5.6602340299723997E-003
   8.5580555067388653E-002  -2.4796054573475002E-002   3.4951482761101937E-003
   8.2019923898971447E-002  -2.4607082136958364E-002   2.0351226738962724E-003
   7.8459292730554187E-002  -2.4003287755461837E-002   1.2801572233313296E-003
   7.4898661562136981E-002  -2.2984671428985082E-002   1.2302519244155041E-003
   8.2121439181507161E-002  -2.3594812678329524E-002   1.0153212168645454E-002
   7.9181027905890350E-002  -2.3388178543653576E-002   8.8791168681085220E-003
   7.6240616630273650E-002  -2.2946205657703361E-002   8.1404012015238170E-003
   7.3300205354656894E-002  -2.2268894020480164E-002   7.9370651688911581E-003
   7.0359794079040139E-002  -2.1356243631982852E-002   8.2691087702107535E-003
   7.5752442491255373E-002  -2.2619420291648040E-002   1.5168415547311381E-002
   7.3262570590742412E-002  -2.1980302513831818E-002   1.4605827506393693E-002
   7.0772698690229480E-002  -2.1285329178448484E-002   1.4408938581731465E-002
   6.8282826789716589E-002  -2.0534500285498049E-002   1.4577748773324642E-002
   6.5792954889203614E-002  -1.9727815834980456E-002   1.5112258081173391E-002
   7.0034196165050619E-002  -2.1644027904966640E-002   2.0705844165971078E-002
   6.7825183121944799E-002  -2.0572426484010448E-002   2.0675280190965838E-002
   6.5616170078839020E-002  -1.9624452699193599E-002   2.0840734814519302E-002
   6.3407157035733200E-002  -1.8800106550516046E-002   2.1202208036631774E-002
   6.1198143992627428E-002  -1.8099388037978142E-002   2.1759699857302972E-002
   6.4966700202892885E-002  -2.0668635518285239E-002   2.6765498024623802E-002
   6.2868865499497523E-002  -1.9164550454188800E-002   2.7087474921824672E-002
   6.0771030796102174E-002  -1.7963576219938687E-002   2.7435789899887486E-002
   5.8673196092706804E-002  -1.7065712815534255E-002   2.7810442958812506E-002
   5.6575361389311463E-002  -1.6470960240975940E-002   2.8211434098599664E-002
   7.4898661562136981E-002  -2.2984671428985082E-002   1.2302519244155041E-003
   7.1795494562084672E-002  -2.1787335248906581E-002   9.8240583662478898E-004
   6.8692327562032418E-002  -2.0647381306604595E-002   9.0654783280175177E-004
   6.5589160561980192E-002  -1.9564809602079902E-002   1.0026779129463093E-003
   6.2485993561927855E-002  -1.8539620135331059E-002   1.2707960770588222E-003
   7.0359794079040139E-002  -2.1356243631982852E-002   8.2691087702107535E-003
   6.7427219886255496E-002  -2.0339543114344216E-002   7.9495853335964650E-003
   6.4494645693470853E-002  -1.9350081089696547E-002   7.7992594275494709E-003
   6.1562071500686238E-002  -1.8387857558039469E-002   7.8181310520699793E-003
   5.8629497307901568E-002  -1.7452872519373330E-002   8.0062002071581428E-003
   6.5792954889203614E-002  -1.9727815834980456E-002   1.5112258081173391E-002
   6.3028182950286393E-002  -1.8891750979781879E-002   1.4751201040521245E-002
   6.0263411011369214E-002  -1.8052780872788166E-002   1.4556550977036273E-002
   5.7498639072451986E-002  -1.7210905513999480E-002   1.4528307890718795E-002
   5.4733867133534814E-002  -1.6366124903415880E-002   1.4666471781568408E-002
   6.1198143992627428E-002  -1.8099388037978142E-002   2.1759699857302972E-002
   5.8598383754177433E-002  -1.7443958845219640E-002   2.1387252957398808E-002
   5.5998623515727361E-002  -1.6755480655879784E-002   2.1178422481261720E-002
   5.3398863277277352E-002  -1.6033953469959492E-002   2.1133208428891721E-002
   5.0799103038827308E-002  -1.5279377287458068E-002   2.1251610800289068E-002
   5.6575361389311463E-002  -1.6470960240975940E-002   2.8211434098599664E-002
   5.4137822297928406E-002  -1.5996166710657178E-002   2.7857741084229448E-002
   5.1700283206545378E-002  -1.5458180438971764E-002   2.7664873940226209E-002
   4.9262744115162280E-002  -1.4857001425919343E-002   2.7632832666589904E-002
   4.6825205023779237E-002  -1.4192629671500367E-002   2.7761617263320382E-002
   6.2485993561927855E-002  -1.8539620135331059E-002   1.2707960770588222E-003
   5.9611443287811317E-002  -1.7585123422199200E-002   1.1128089284174747E-003
   5.6736893013694778E-002  -1.6714629978522327E-002   1.0603870057497855E-003
   5.3862342739578267E-002  -1.5928139804300905E-002   1.1135303090556159E-003
   5.0987792465461701E-002  -1.5225652899534925E-002   1.2722388383352712E-003
   5.8629497307901568E-002  -1.7452872519373330E-002   8.0062002071581428E-003
   5.5868429124286467E-002  -1.6557129952805560E-002   7.7493711423740619E-003
   5.3107360940671283E-002  -1.5712633837442286E-002   7.6139410326193091E-003
   5.0346292757056113E-002  -1.4919384173283930E-002   7.5999098778944396E-003
   4.7585224573440943E-002  -1.4177380960330055E-002   7.7072776781977881E-003
   5.4733867133534814E-002  -1.6366124903415880E-002   1.4666471781568408E-002
   5.2102114769476765E-002  -1.5529136483412087E-002   1.4343557618892000E-002
   4.9470362405418758E-002  -1.4710637696362258E-002   1.4157876140300632E-002
   4.6838610041360758E-002  -1.3910628542266847E-002   1.4109427345794796E-002
   4.4206857677302674E-002  -1.3129109021125629E-002   1.4198211235373459E-002
   5.0799103038827308E-002  -1.5279377287458068E-002   2.1251610800289068E-002
   4.8312500223382245E-002  -1.4501143014018086E-002   2.0895368357970769E-002
   4.5825897407937202E-002  -1.3708641555281890E-002   2.0692192328793695E-002
   4.3339294592492132E-002  -1.2901872911249597E-002   2.0642082712757401E-002
   4.0852691777047104E-002  -1.2080837081920981E-002   2.0745039509861729E-002
   4.6825205023779237E-002  -1.4192629671500367E-002   2.7761617263320382E-002
   4.4499585486002913E-002  -1.3473149544624419E-002   2.7404803359611096E-002
   4.2173965948226644E-002  -1.2706645414201856E-002   2.7216889598098482E-002
   3.9848346410450361E-002  -1.1893117280232596E-002   2.7197875978782510E-002
   3.7522726872673995E-002  -1.1032565142716333E-002   2.7347762501663153E-002
   5.0987792465461701E-002  -1.5225652899534925E-002   1.2722388383352712E-003
   4.8186318814068763E-002  -1.4527731669437105E-002   7.4098873258510167E-004
   4.5384845162676046E-002  -1.3754938519218829E-002   3.3958459699356958E-004
   4.2583371511283219E-002  -1.2907273448881429E-002   6.8026431561063472E-005
   3.9781897859890392E-002  -1.1984736458424461E-002  -7.3685763713804420E-005
   4.7585224573440943E-002  -1.4177380960330055E-002   7.7072776781977881E-003
   4.4908752664851004E-002  -1.3440773858319432E-002   7.2530474156947689E-003
   4.2232280756261148E-002  -1.2663712526988280E-002   6.9189746686397213E-003
   3.9555808847671278E-002  -1.1846196966337180E-002   6.7050594370318961E-003
   3.6879336939081353E-002  -1.0988227176365495E-002   6.6113017208714320E-003
   4.4206857677302674E-002  -1.3129109021125629E-002   1.4198211235373459E-002
   4.1645699056804819E-002  -1.2353816047201593E-002   1.3786583125317969E-002
   3.9084540436306991E-002  -1.1572486534756843E-002   1.3485424075999147E-002
   3.6523381815809164E-002  -1.0785120483791821E-002   1.3294734087416687E-002
   3.3962223195311309E-002  -9.9917178943063067E-003   1.3214513159571062E-002
   4.0852691777047104E-002  -1.2080837081920981E-002   2.0745039509861729E-002
   3.8397157989930375E-002  -1.1266858236083838E-002   2.0341595861454495E-002
   3.5941624202813625E-002  -1.0481260542525850E-002   2.0038932819072361E-002
   3.3486090415696834E-002  -9.7240440012470175E-003   1.9837050382715909E-002
   3.1030556628580140E-002  -8.9952086122472297E-003   1.9735948552385252E-002
   3.7522726872673995E-002  -1.1032565142716333E-002   2.7347762501663153E-002
   3.5163129464227505E-002  -1.0179900424966359E-002   2.6918085624103749E-002
   3.2803532055780960E-002  -9.3900345502947180E-003   2.6579500897859043E-002
   3.0443934647334414E-002  -8.6629675187021235E-003   2.6332008322928896E-002
   2.8084337238887869E-002  -7.9986993301880416E-003   2.6175607899313946E-002
   3.9781897859890392E-002  -1.1984736458424461E-002  -7.3685763713804420E-005
   3.7386182179243832E-002  -1.1114391183701167E-002  -3.1966628640400785E-004
   3.4990466498597383E-002  -1.0423301260566453E-002  -4.8972181258843950E-004
   3.2594750817950907E-002  -9.9114666890186276E-003  -5.8385234226732141E-004
   3.0199035137304375E-002  -9.5788874690587722E-003  -6.0205787543976541E-004
   3.6879336939081353E-002  -1.0988227176365495E-002   6.6113017208714320E-003
   3.4543274744694985E-002  -1.0167436111529593E-002   6.1874633493850251E-003
   3.2207212550308534E-002  -9.4614567262853999E-003   5.8070069539132296E-003
   2.9871150355922207E-002  -8.8702890206312501E-003   5.4699325344556848E-003
   2.7535088161535770E-002  -8.3939329945683649E-003   5.1762400910128070E-003
   3.3962223195311309E-002  -9.9917178943063067E-003   1.3214513159571062E-002
   3.1653271466693556E-002  -9.2204810393575198E-003   1.2677260611285490E-002
   2.9344319738075816E-002  -8.4996121920032919E-003   1.2150847018522537E-002
   2.7035368009458070E-002  -7.8291113522427763E-003   1.1635272381282744E-002
   2.4726416280840297E-002  -7.2089785200774026E-003   1.1130536699565541E-002
   3.1030556628580140E-002  -8.9952086122472297E-003   1.9735948552385252E-002
   2.8716172345239654E-002  -8.2735259671856964E-003   1.9149725499296708E-002
   2.6401788061899144E-002  -7.5377676577218222E-003   1.8541798381239968E-002
   2.4087403778558704E-002  -6.7879336838555168E-003   1.7912167198214743E-002
   2.1773019495218204E-002  -6.0240240455867178E-003   1.7260831950220878E-002
   2.8084337238887869E-002  -7.9986993301880416E-003   2.6175607899313946E-002
   2.5731977380333226E-002  -7.3265708950137620E-003   2.5604858013419274E-002
   2.3379617521778584E-002  -6.5759231234401583E-003   2.4979861042065399E-002
   2.1027257663223956E-002  -5.7467560154676536E-003   2.4300616985250711E-002
   1.8674897804669299E-002  -4.8390695710956999E-003   2.3567125842976822E-002
   3.0199035137304375E-002  -9.5788874690587722E-003  -6.0205787543976541E-004
   2.9595022708643559E-002  -9.1285920530567166E-003  -3.5813410039753357E-004
   2.8991010279982798E-002  -8.2636088933787377E-003  -1.7960687183400381E-003
   2.8386997851321982E-002  -6.9839379900286103E-003  -4.9158617292665574E-003
   2.7782985422661222E-002  -5.2895793430038918E-003  -9.7175131331781461E-003
   2.7535088161535770E-002  -8.3939329945683649E-003   5.1762400910128070E-003
   2.5518512145847660E-002  -7.8680156996919770E-003   5.8590447475308505E-003
   2.3501936130159579E-002  -7.1281641875985402E-003   5.3985806229787103E-003
   2.1485360114471427E-002  -6.1743784582868610E-003   3.7948477173565254E-003
   1.9468784098783387E-002  -5.0066585117585216E-003   1.0478460306639903E-003
   2.4726416280840297E-002  -7.2089785200774026E-003   1.1130536699565541E-002
   2.1835866290039196E-002  -6.6074393463281811E-003   1.2051468711103741E-002
   1.8945316299238069E-002  -5.9927194818176766E-003   1.2367721553485644E-002
   1.6054766308436955E-002  -5.3648189265466661E-003   1.2079295226711417E-002
   1.3164216317635813E-002  -4.7237376805132625E-003   1.1186189730782281E-002
   2.1773019495218204E-002  -6.0240240455867178E-003   1.7260831950220878E-002
   1.8547085141218236E-002  -5.3468629929641354E-003   1.8219137790321874E-002
   1.5321150787218338E-002  -4.8572747760369239E-003   1.9111354073181319E-002
   1.2095216433218394E-002  -4.5552593948048059E-003   1.9937480798799263E-002
   8.8692820792185753E-003  -4.4408168492683919E-003   2.0697517967175241E-002
   1.8674897804669299E-002  -4.8390695710956999E-003   2.3567125842976822E-002
   1.5652168699384850E-002  -4.0862866395999786E-003   2.4362051985185262E-002
   1.2629439594100372E-002  -3.7218300702565599E-003   2.5629478182065568E-002
   9.6067104888158811E-003  -3.7456998630638200E-003   2.7369404433618849E-002
   6.5839813835314454E-003  -4.1578960180231883E-003   2.9581830739844883E-002
   2.7782985422661222E-002  -5.2895793430038918E-003  -9.7175131331781461E-003
   2.3354712854728898E-002  -4.2031219897289418E-003  -4.1904623405042418E-003
   1.8926440286796686E-002  -4.7471549676286195E-003   2.6028859886370048E-003
   1.4498167718864446E-002  -6.9216782767007740E-003   1.0662531854247093E-002
   1.0069895150932151E-002  -1.0726691916947750E-002   1.9988475256324634E-002
   1.9468784098783387E-002  -5.0066585117585216E-003   1.0478460306639903E-003
   1.6234039800632372E-002  -4.6890916396701288E-003   6.7393957507452251E-003
   1.2999295502481523E-002  -6.2857651336785669E-003   1.3551704473921733E-002
   9.7645512043304794E-003  -9.7966789937849602E-003   2.1484772200192237E-002
   6.5298069061796582E-003  -1.5221833219988934E-002   3.0538598929557903E-002
   1.3164216317635813E-002  -4.7237376805132625E-003   1.1186189730782281E-002
   1.0977461755892759E-002  -5.1750612896106496E-003   1.6758488343347810E-002
   8.7907071941497050E-003  -7.8243752997295968E-003   2.3306007425634739E-002
   6.6039526324066442E-003  -1.2671679710869473E-002   3.0828746977642776E-002
   4.4171980706636527E-003  -1.9716974523031006E-002   3.9326706999372130E-002
   8.8692820792185753E-003  -4.4408168492683919E-003   2.0697517967175241E-002
   7.5849787205100327E-003  -5.6610309395517255E-003   2.5866815437301530E-002
   6.3006753618016047E-003  -9.3629854657805295E-003   3.1865794843775601E-002
   5.0163720030931679E-003  -1.5546680427954044E-002   3.8694456186597684E-002
   3.7320686443845508E-003  -2.4212115826072633E-002   4.6352799465767591E-002
   6.5839813835314454E-003  -4.1578960180231883E-003   2.9581830739844883E-002
   6.0565906944842207E-003  -6.1470005894928015E-003   3.4064377032607784E-002
   5.5292000054370238E-003  -1.0901595631831379E-002   3.9231066728345254E-002
   5.0018093163898131E-003  -1.8421681145038206E-002   4.5081899827057043E-002
   4.4744186273426578E-003  -2.8707257129114261E-002   5.1616876328743455E-002
   7.6187794956414867E-002  -2.1018393176802874E-002   2.6350755649402591E-002
   7.3382521268034351E-002  -2.2107104560465995E-002   2.5549622559536522E-002
   7.0577247579653918E-002  -2.2411715411934013E-002   2.5351701925451331E-002
   6.7771973891273388E-002  -2.1932225731207074E-002   2.5756993747147156E-002
   6.4966700202892885E-002  -2.0668635518285239E-002   2.6765498024623802E-002
   6.9264231714040503E-002  -2.0228636275990364E-002   3.0802194717238551E-002
   6.6963378974294718E-002  -2.0163844333670189E-002   3.0892180664982172E-002
   6.4662526234548906E-002  -1.9828961277566531E-002   3.1387796054214295E-002
   6.2361673494803094E-002  -1.9223987107679426E-002   3.2289040884935130E-002
   6.0060820755057309E-002  -1.8348921824008907E-002   3.3595915157144357E-002
   6.2803483193432638E-002  -1.9438879375177798E-002   3.6664141820263452E-002
   6.0809468388029211E-002  -1.8220584106874341E-002   3.7131237387205335E-002
   5.8815453582625819E-002  -1.7246207143198980E-002   3.7806379381343333E-002
   5.6821438777222372E-002  -1.6515748484151691E-002   3.8689567802677412E-002
   5.4827423971818993E-002  -1.6029208129732408E-002   3.9780802651207911E-002
   5.6805549394591481E-002  -1.8649122474365259E-002   4.3936596958477493E-002
   5.4920789509237997E-002  -1.6277323880078583E-002   4.4266792726205949E-002
   5.3036029623884665E-002  -1.4663453008831463E-002   4.4607451906838264E-002
   5.1151269738531256E-002  -1.3807509860623944E-002   4.4958574500374417E-002
   4.9266509853177903E-002  -1.3709494435455938E-002   4.5320160506814401E-002
   5.1270430317516824E-002  -1.7859365573552721E-002   5.2619560131880627E-002
   4.9297342337921130E-002  -1.4334063653282769E-002   5.2298846681984035E-002
   4.7324254358325435E-002  -1.2080698874463974E-002   5.1791013630699323E-002
   4.5351166378729768E-002  -1.1099271237096316E-002   5.1096060978025742E-002
   4.3378078399134046E-002  -1.1389780741179523E-002   5.0213988723963821E-002
   6.4966700202892885E-002  -2.0668635518285239E-002   2.6765498024623802E-002
   6.2868865499497523E-002  -1.9164550454188800E-002   2.7087474921824672E-002
   6.0771030796102174E-002  -1.7963576219938687E-002   2.7435789899887486E-002
   5.8673196092706804E-002  -1.7065712815534255E-002   2.7810442958812506E-002
   5.6575361389311463E-002  -1.6470960240975940E-002   2.8211434098599664E-002
   6.0060820755057309E-002  -1.8348921824008907E-002   3.3595915157144357E-002
   5.8027961990563287E-002  -1.7399927263897177E-002   3.3416340881608067E-002
   5.5995103226069279E-002  -1.6573165264686530E-002   3.3340380403012265E-002
   5.3962244461575236E-002  -1.5868635826377091E-002   3.3368033721357215E-002
   5.1929385697081248E-002  -1.5286338948968803E-002   3.3499300836642432E-002
   5.4827423971818993E-002  -1.6029208129732408E-002   3.9780802651207911E-002
   5.2936816862304718E-002  -1.5635304073605277E-002   3.9280555471879287E-002
   5.1046209752790450E-002  -1.5182754309434485E-002   3.8961197805569878E-002
   4.9155602643276217E-002  -1.4671558837219874E-002   3.8822729652279342E-002
   4.7264995533761983E-002  -1.4101717656961610E-002   3.8865151012007826E-002
   4.9266509853177903E-002  -1.3709494435455938E-002   4.5320160506814401E-002
   4.7595430114721865E-002  -1.3870680883313516E-002   4.4680118692638424E-002
   4.5924350376265841E-002  -1.3792343354182411E-002   4.4298242107560018E-002
   4.4253270637809816E-002  -1.3474481848062684E-002   4.4174530751579018E-002
   4.2582190899353833E-002  -1.2917096364954472E-002   4.4308984624695520E-002
   4.3378078399134046E-002  -1.1389780741179523E-002   5.0213988723963821E-002
   4.2003801747814706E-002  -1.2106057693021727E-002   4.9615030543885358E-002
   4.0629525096495367E-002  -1.2401932398930254E-002   4.9351513308982853E-002
   3.9255248445176028E-002  -1.2277404858905515E-002   4.9423437019256361E-002
   3.7880971793856688E-002  -1.1732475072947279E-002   4.9830801674705771E-002
   5.6575361389311463E-002  -1.6470960240975940E-002   2.8211434098599664E-002
   5.4137822297928406E-002  -1.5996166710657178E-002   2.7857741084229448E-002
   5.1700283206545378E-002  -1.5458180438971764E-002   2.7664873940226209E-002
   4.9262744115162280E-002  -1.4857001425919343E-002   2.7632832666589904E-002
   4.6825205023779237E-002  -1.4192629671500367E-002   2.7761617263320382E-002
   5.1929385697081248E-002  -1.5286338948968803E-002   3.3499300836642432E-002
   4.9655967293146155E-002  -1.4742624710271907E-002   3.3184618180687048E-002
   4.7382548889211021E-002  -1.4153843188096510E-002   3.3037351029260670E-002
   4.5109130485275907E-002  -1.3519994382442772E-002   3.3057499382363409E-002
   4.2835712081340793E-002  -1.2841078293310604E-002   3.3245063239995321E-002
   4.7264995533761983E-002  -1.4101717656961610E-002   3.8865151012007826E-002
   4.5162287451437050E-002  -1.3489082709886469E-002   3.8571353256578747E-002
   4.3059579369112082E-002  -1.2849505937221353E-002   3.8451560639840968E-002
   4.0956871286787142E-002  -1.2182987338966198E-002   3.8505773161794446E-002
   3.8854163204462180E-002  -1.1489526915121118E-002   3.8733990822438974E-002
   4.2582190899353833E-002  -1.2917096364954472E-002   4.4308984624695520E-002
   4.0656782772801214E-002  -1.2235540709501114E-002   4.4017946311904324E-002
   3.8731374646248588E-002  -1.1545168686346176E-002   4.3907502771966603E-002
   3.6805966519695990E-002  -1.0845980295489515E-002   4.3977654004882585E-002
   3.4880558393143385E-002  -1.0137975536931382E-002   4.4228400010651606E-002
   3.7880971793856688E-002  -1.1732475072947279E-002   4.9830801674705771E-002
   3.6139453257238580E-002  -1.0981998709115731E-002   4.9524397346664029E-002
   3.4397934720620527E-002  -1.0240831435470957E-002   4.9405177425638241E-002
   3.2656416184002460E-002  -9.5089732520130012E-003   4.9473141911627952E-002
   3.0914897647384365E-002  -8.7864241587419234E-003   4.9728290804633091E-002
   4.6825205023779237E-002  -1.4192629671500367E-002   2.7761617263320382E-002
   4.4499585486002913E-002  -1.3473149544624419E-002   2.7404803359611096E-002
   4.2173965948226644E-002  -1.2706645414201856E-002   2.7216889598098482E-002
   3.9848346410450361E-002  -1.1893117280232596E-002   2.7197875978782510E-002
   3.7522726872673995E-002  -1.1032565142716333E-002   2.7347762501663153E-002
   4.2835712081340793E-002  -1.2841078293310604E-002   3.3245063239995321E-002
   4.0678390681778892E-002  -1.2131921074334251E-002   3.2926810887742214E-002
   3.8521069282216852E-002  -1.1407348879146822E-002   3.2776254669721117E-002
   3.6363747882654854E-002  -1.0667361707749005E-002   3.2793394585932181E-002
   3.4206426483092911E-002  -9.9119595601403487E-003   3.2978230636375228E-002
   3.8854163204462180E-002  -1.1489526915121118E-002   3.8733990822438974E-002
   3.6863935935149944E-002  -1.0790692604043695E-002   3.8422690994306175E-002
   3.4873708665837659E-002  -1.0108052344091789E-002   3.8277883292440612E-002
   3.2883481396525416E-002  -9.4416061352653596E-003   3.8299567716842453E-002
   3.0893254127213152E-002  -8.7913539775643645E-003   3.8487744267511864E-002
   3.4880558393143385E-002  -1.0137975536931382E-002   4.4228400010651606E-002
   3.3056221246116221E-002  -9.4494641337532770E-003   4.3892443679302721E-002
   3.1231884099089058E-002  -8.8087558090368112E-003   4.3721775466256579E-002
   2.9407546952061863E-002  -8.2158505627817416E-003   4.3716395371513242E-002
   2.7583209805034724E-002  -7.6707483949883248E-003   4.3876303395072765E-002
   3.0914897647384365E-002  -8.7864241587419234E-003   4.9728290804633091E-002
   2.9255246614677710E-002  -8.1082356634630259E-003   4.9336068942732014E-002
   2.7595595581971055E-002  -7.5094592739817639E-003   4.9107931191169213E-002
   2.5935944549264386E-002  -6.9900949902981895E-003   4.9043877549944562E-002
   2.4276293516557718E-002  -6.5501428124122851E-003   4.9143908019058102E-002
   3.7522726872673995E-002  -1.1032565142716333E-002   2.7347762501663153E-002
   3.5163129464227505E-002  -1.0179900424966359E-002   2.6918085624103749E-002
   3.2803532055780960E-002  -9.3900345502947180E-003   2.6579500897859043E-002
   3.0443934647334414E-002  -8.6629675187021235E-003   2.6332008322928896E-002
   2.8084337238887869E-002  -7.9986993301880416E-003   2.6175607899313946E-002
   3.4206426483092911E-002  -9.9119595601403487E-003   3.2978230636375228E-002
   3.1950588274435393E-002  -9.1631192513524362E-003   3.2518680092526120E-002
   2.9694750065777792E-002  -8.4428175964163521E-003   3.2175555796940203E-002
   2.7438911857120177E-002  -7.7510545953323601E-003   3.1948857749617407E-002
   2.5183073648462645E-002  -7.0878302481004463E-003   3.1838585950557663E-002
   3.0893254127213152E-002  -8.7913539775643645E-003   3.8487744267511864E-002
   2.8766509215293029E-002  -8.1463380777387073E-003   3.8032580246599529E-002
   2.6639764303372934E-002  -7.4956006425383331E-003   3.7719176570899154E-002
   2.4513019391452825E-002  -6.8391416719630442E-003   3.7547533240410207E-002
   2.2386274479532703E-002  -6.1769611660131285E-003   3.7517650255133039E-002
   2.7583209805034724E-002  -7.6707483949883248E-003   4.3876303395072765E-002
   2.5610892286800531E-002  -7.1295569041246593E-003   4.3459786086324129E-002
   2.3638574768566328E-002  -6.5483836886599742E-003   4.3210363219735815E-002
   2.1666257250332069E-002  -5.9272287485936156E-003   4.3128034795307753E-002
   1.9693939732097928E-002  -5.2660920839258940E-003   4.3212800813039610E-002
   2.4276293516557718E-002  -6.5501428124122851E-003   4.9143908019058102E-002
   2.2483737488957850E-002  -6.1127757305112218E-003   4.8800297611699961E-002
   2.0691181461357996E-002  -5.6011667347818650E-003   4.8649115743450599E-002
   1.8898625433758164E-002  -5.0153158252240551E-003   4.8690362414309629E-002
   1.7106069406158331E-002  -4.3552230018383264E-003   4.8924037624277439E-002
   2.8084337238887869E-002  -7.9986993301880416E-003   2.6175607899313946E-002
   2.5731977380333226E-002  -7.3265708950137620E-003   2.5604858013419274E-002
   2.3379617521778584E-002  -6.5759231234401583E-003   2.4979861042065399E-002
   2.1027257663223956E-002  -5.7467560154676536E-003   2.4300616985250711E-002
   1.8674897804669299E-002  -4.8390695710956999E-003   2.3567125842976822E-002
   2.5183073648462645E-002  -7.0878302481004463E-003   3.1838585950557663E-002
   2.2815015816729983E-002  -6.4271376578279305E-003   3.1461846836606522E-002
   2.0446957984997141E-002  -5.7429699276223267E-003   3.1107958861758711E-002
   1.8078900153264410E-002  -5.0353270574834338E-003   3.0776922026014536E-002
   1.5710842321531637E-002  -4.3042090474114669E-003   3.0468736329374302E-002
   2.2386274479532703E-002  -6.1769611660131285E-003   3.7517650255133039E-002
   2.0079616899185332E-002  -5.5277044206422654E-003   3.7279877716658638E-002
   1.7772959318837926E-002  -4.9100167318043703E-003   3.7142054541851391E-002
   1.5466301738490538E-002  -4.3238980994994326E-003   3.7104180730711318E-002
   1.3159644158143163E-002  -3.7693485237275115E-003   3.7166256283238275E-002
   1.9693939732097928E-002  -5.2660920839258940E-003   4.3212800813039610E-002
   1.7525780627699446E-002  -4.6282711834566836E-003   4.3058950653576032E-002
   1.5357621523300910E-002  -4.0770635359863652E-003   4.3082148082343438E-002
   1.3189462418902408E-002  -3.6124691415154887E-003   4.3282393099341218E-002
   1.1021303314503950E-002  -3.2344880000434728E-003   4.3659685704569795E-002
   1.7106069406158331E-002  -4.3552230018383264E-003   4.8924037624277439E-002
   1.5153507002272193E-002  -3.7288379462706578E-003   4.8799065647358919E-002
   1.3200944598386111E-002  -3.2441103401686378E-003   4.8928239483234326E-002
   1.1248382194500001E-002  -2.9010401835312255E-003   4.9311559131904270E-002
   9.2958197906138906E-003  -2.6996274763593231E-003   4.9949024593367919E-002
   1.8674897804669299E-002  -4.8390695710956999E-003   2.3567125842976822E-002
   1.5652168699384850E-002  -4.0862866395999786E-003   2.4362051985185262E-002
   1.2629439594100372E-002  -3.7218300702565599E-003   2.5629478182065568E-002
   9.6067104888158811E-003  -3.7456998630638200E-003   2.7369404433618849E-002
   6.5839813835314454E-003  -4.1578960180231883E-003   2.9581830739844883E-002
   1.5710842321531637E-002  -4.3042090474114669E-003   3.0468736329374302E-002
   1.3142616692064374E-002  -3.7817163053022185E-003   3.1243997193471262E-002
   1.0574391062597083E-002  -3.6999492390507593E-003   3.2455764954530120E-002
   8.0061654331297430E-003  -4.0589078486571312E-003   3.4104039612550596E-002
   5.4379398036625282E-003  -4.8585921341212090E-003   3.6188821167533192E-002
   1.3159644158143163E-002  -3.7693485237275115E-003   3.7166256283238275E-002
   1.1009928846782202E-002  -3.4771459710040697E-003   3.7869452555518213E-002
   8.8602135354212616E-003  -3.6780684078449866E-003   3.8973162567049136E-002
   6.7104982240603454E-003  -4.3721158342500052E-003   4.0477386317831016E-002
   4.5607829126993599E-003  -5.5592882502191743E-003   4.2382123807863631E-002
   1.1021303314503950E-002  -3.2344880000434728E-003   4.3659685704569795E-002
   9.2541051635385146E-003  -3.1725756367061708E-003   4.4238418071326127E-002
   7.4869070125730738E-003  -3.6561875766393109E-003   4.5181671019622303E-002
   5.7197088616076043E-003  -4.6853238198430978E-003   4.6489444549458969E-002
   3.9525107106421938E-003  -6.2599843663171673E-003   4.8161738660835680E-002
   9.2958197906138906E-003  -2.6996274763593231E-003   4.9949024593367919E-002
   7.8751456423331034E-003  -2.8680053024081054E-003   5.0350893740894631E-002
   6.4544714940523717E-003  -3.6343067454336075E-003   5.1081290312250505E-002
   5.0337973457715984E-003  -4.9985318054361835E-003   5.2140214307435456E-002
   3.6131231974908529E-003  -6.9606804824150492E-003   5.3527665726449958E-002
   6.5839813835314454E-003  -4.1578960180231883E-003   2.9581830739844883E-002
   6.0565906944842207E-003  -6.1470005894928015E-003   3.4064377032607784E-002
   5.5292000054370238E-003  -1.0901595631831379E-002   3.9231066728345254E-002
   5.0018093163898131E-003  -1.8421681145038206E-002   4.5081899827057043E-002
   4.4744186273426578E-003  -2.8707257129114261E-002   5.1616876328743455E-002
   5.4379398036625282E-003  -4.8585921341212090E-003   3.6188821167533192E-002
   5.4909071515722996E-003  -6.9958543594144107E-003   3.8336506445849794E-002
   5.5438744994820155E-003  -1.1367546788508154E-002   4.0960764395105598E-002
   5.5968418473918771E-003  -1.7973669421402327E-002   4.4061595015300881E-002
   5.6498091953015028E-003  -2.6814222258096931E-002   4.7638998306435365E-002
   4.5607829126993599E-003  -5.5592882502191743E-003   4.2382123807863631E-002
   4.9865375655309269E-003  -7.8447081293362420E-003   4.2726008338802191E-002
   5.4122922183625147E-003  -1.1833497945185470E-002   4.3338894808644932E-002
   5.8380468711939880E-003  -1.7525657697766501E-002   4.4220783217392250E-002
   6.2638015240256695E-003  -2.4921187387079380E-002   4.5371673565043125E-002
   3.9525107106421938E-003  -6.2599843663171673E-003   4.8161738660835680E-002
   4.5434819363603003E-003  -8.6935618992581842E-003   4.7232882711464863E-002
   5.1344531620783774E-003  -1.2299449101862737E-002   4.6365457968963075E-002
   5.7254243877964536E-003  -1.7077645974130647E-002   4.5559464433330345E-002
   6.3163956135145610E-003  -2.3028152516061828E-002   4.4814902104566290E-002
   3.6131231974908529E-003  -6.9606804824150492E-003   5.3527665726449958E-002
   4.1617402640602708E-003  -9.5424156691796824E-003   5.1857129563838367E-002
   4.7103573306297164E-003  -1.2765400258539755E-002   5.0040453876060542E-002
   5.2589743971991620E-003  -1.6629634250494733E-002   4.8077638663116345E-002
   5.8075914637686354E-003  -2.1135117645044499E-002   4.5968683925005749E-002
   5.1270430317516824E-002  -1.7859365573552721E-002   5.2619560131880627E-002
   4.9297342337921130E-002  -1.4334063653282769E-002   5.2298846681984035E-002
   4.7324254358325435E-002  -1.2080698874463974E-002   5.1791013630699323E-002
   4.5351166378729768E-002  -1.1099271237096316E-002   5.1096060978025742E-002
   4.3378078399134046E-002  -1.1389780741179523E-002   5.0213988723963821E-002
   4.5714441669083783E-002  -1.4600164761920997E-002   5.8437048569297045E-002
   4.3658742523348504E-002  -1.2593135942856715E-002   5.6747417148646839E-002
   4.1603043377613141E-002  -1.1251915065379564E-002   5.5079682997105778E-002
   3.9547344231877814E-002  -1.0576502129489747E-002   5.3433846114673889E-002
   3.7491645086142472E-002  -1.0566897135187076E-002   5.1809906501351227E-002
   3.9653899156167433E-002  -1.1340963950289190E-002   6.2433199305575754E-002
   3.7724605714790090E-002  -1.0852208232430521E-002   5.9980779114035682E-002
   3.5795312273412774E-002  -1.0423131256295251E-002   5.7759273062102490E-002
   3.3866018832035473E-002  -1.0053733021883286E-002   5.5768681149776213E-002
   3.1936725390658158E-002  -9.7440135291946006E-003   5.4009003377056747E-002
   3.3088802778767475E-002  -8.0817631386574107E-003   6.4608012340717086E-002
   3.1494931912245915E-002  -9.1112805220044252E-003   6.1998932578150888E-002
   2.9901061045724302E-002  -9.5943474472108339E-003   5.9829783825689514E-002
   2.8307190179202718E-002  -9.5309639142767983E-003   5.8100566083332444E-002
   2.6713319312681130E-002  -8.9211299232022229E-003   5.6811279351080067E-002
   2.6019152536884194E-002  -4.8225623270256590E-003   6.4961487674720764E-002
   2.4969721115715993E-002  -7.3703528115782457E-003   6.2801877540992479E-002
   2.3920289694547778E-002  -8.7655636381265278E-003   6.1291215287866629E-002
   2.2870858273379570E-002  -9.0081948066702972E-003   6.0429500915342715E-002
   2.1821426852211348E-002  -8.0982463172096786E-003   6.0216734423421292E-002
   4.3378078399134046E-002  -1.1389780741179523E-002   5.0213988723963821E-002
   4.2003801747814706E-002  -1.2106057693021727E-002   4.9615030543885358E-002
   4.0629525096495367E-002  -1.2401932398930254E-002   4.9351513308982853E-002
   3.9255248445176028E-002  -1.2277404858905515E-002   4.9423437019256361E-002
   3.7880971793856688E-002  -1.1732475072947279E-002   4.9830801674705771E-002
   3.7491645086142472E-002  -1.0566897135187076E-002   5.1809906501351227E-002
   3.6403174352672318E-002  -1.0777219531938775E-002   5.1816004614159361E-002
   3.5314703619202206E-002  -1.0761588769212189E-002   5.2058273617490061E-002
   3.4226232885732052E-002  -1.0520004847007091E-002   5.2536713511343043E-002
   3.3137762152261926E-002  -1.0052467765323703E-002   5.3251324295718688E-002
   3.1936725390658158E-002  -9.7440135291946006E-003   5.4009003377056747E-002
   3.1034790520383819E-002  -9.4483813708560599E-003   5.4425708696296156E-002
   3.0132855650109466E-002  -9.1212451394940691E-003   5.4979314851404851E-002
   2.9230920779835114E-002  -8.7626048351087775E-003   5.5669821842382609E-002
   2.8328985909560775E-002  -8.3724604577001815E-003   5.6497229669229335E-002
   2.6713319312681130E-002  -8.9211299232022229E-003   5.6811279351080067E-002
   2.5898650250949166E-002  -8.1195432097731987E-003   5.7444142790295957E-002
   2.5083981189217223E-002  -7.4809015097759210E-003   5.8114637010727485E-002
   2.4269312127485260E-002  -7.0052048232104643E-003   5.8822762012374734E-002
   2.3454643065753313E-002  -6.6924531500765772E-003   5.9568517795237738E-002
   2.1821426852211348E-002  -8.0982463172096786E-003   6.0216734423421292E-002
   2.0994753544368389E-002  -6.7907050486904486E-003   6.0871306896158439E-002
   2.0168080236525408E-002  -5.8405578800578700E-003   6.1464240095457812E-002
   1.9341406928682445E-002  -5.2478048113121199E-003   6.1995534021319590E-002
   1.8514733620839482E-002  -5.0124458424530838E-003   6.2465188673743621E-002
   3.7880971793856688E-002  -1.1732475072947279E-002   4.9830801674705771E-002
   3.6139453257238580E-002  -1.0981998709115731E-002   4.9524397346664029E-002
   3.4397934720620527E-002  -1.0240831435470957E-002   4.9405177425638241E-002
   3.2656416184002460E-002  -9.5089732520130012E-003   4.9473141911627952E-002
   3.0914897647384365E-002  -8.7864241587419234E-003   4.9728290804633091E-002
   3.3137762152261926E-002  -1.0052467765323703E-002   5.3251324295718688E-002
   3.1597198574557311E-002  -9.4720578473986294E-003   5.2888365629877865E-002
   3.0056634996852689E-002  -8.8918554164685998E-003   5.2740132474848003E-002
   2.8516071419148057E-002  -8.3118604725334506E-003   5.2806624830629485E-002
   2.6975507841443466E-002  -7.7320730155931994E-003   5.3087842697222332E-002
   2.8328985909560775E-002  -8.3724604577001815E-003   5.6497229669229335E-002
   2.7016918394565270E-002  -7.9621169856815416E-003   5.6086818268780744E-002
   2.5704850879569800E-002  -7.5428793974659583E-003   5.5918673482939128E-002
   2.4392783364574299E-002  -7.1147476930537319E-003   5.5992795311704313E-002
   2.3080715849578798E-002  -6.6777218724445586E-003   5.6309183755076611E-002
   2.3454643065753313E-002  -6.6924531500765772E-003   5.9568517795237738E-002
   2.2398612717262588E-002  -6.4521761239643635E-003   5.9119755263373236E-002
   2.1342582368771894E-002  -6.1939033784635146E-003   5.8940800449911443E-002
   2.0286552020281189E-002  -5.9176349135740972E-003   5.9031653354852276E-002
   1.9230521671790471E-002  -5.6233707292958207E-003   5.9392313978195624E-002
   1.8514733620839482E-002  -5.0124458424530838E-003   6.2465188673743621E-002
   1.7742281542649202E-002  -4.9422352622473797E-003   6.1987176613655159E-002
   1.6969829464458956E-002  -4.8449273594609737E-003   6.1806513375765149E-002
   1.6197377386268700E-002  -4.7205221340944660E-003   6.1923198960073436E-002
   1.5424925308078444E-002  -4.5690195861472493E-003   6.2337233366579758E-002
   3.0914897647384365E-002  -8.7864241587419234E-003   4.9728290804633091E-002
   2.9255246614677710E-002  -8.1082356634630259E-003   4.9336068942732014E-002
   2.7595595581971055E-002  -7.5094592739817639E-003   4.9107931191169213E-002
   2.5935944549264386E-002  -6.9900949902981895E-003   4.9043877549944562E-002
   2.4276293516557718E-002  -6.5501428124122851E-003   4.9143908019058102E-002
   2.6975507841443466E-002  -7.7320730155931994E-003   5.3087842697222332E-002
   2.5485359169557409E-002  -7.1717697447331863E-003   5.2686550404398541E-002
   2.3995210497671317E-002  -6.6502273590382799E-003   5.2460178722877920E-002
   2.2505061825785235E-002  -6.1674458585087230E-003   5.2408727652660247E-002
   2.1014913153899167E-002  -5.7234252431441757E-003   5.2532197193745633E-002
   2.3080715849578798E-002  -6.6777218724445586E-003   5.6309183755076611E-002
   2.1770906039478219E-002  -6.2353038260033744E-003   5.5939472251962635E-002
   2.0461096229377584E-002  -5.7909954440948028E-003   5.5755517861116578E-002
   1.9151286419276964E-002  -5.3447967267189807E-003   5.5757320582538419E-002
   1.7841476609176364E-002  -4.8967076738757886E-003   5.5944880416228054E-002
   1.9230521671790471E-002  -5.6233707292958207E-003   5.9392313978195624E-002
   1.8111887224440199E-002  -5.2988379072734376E-003   5.9094834485424012E-002
   1.6993252777089872E-002  -4.9317635291513777E-003   5.8993948605885131E-002
   1.5874618329739559E-002  -4.5221475949293209E-003   5.9089656339578994E-002
   1.4755983882389244E-002  -4.0699901046075404E-003   5.9381957686505581E-002
   1.5424925308078444E-002  -4.5690195861472493E-003   6.2337233366579758E-002
   1.4508302724443284E-002  -4.3623719885437784E-003   6.2152637104782971E-002
   1.3591680140808131E-002  -4.0725316142079387E-003   6.2175470957183593E-002
   1.2675057557172974E-002  -3.6994984631397408E-003   6.2405734923781833E-002
   1.1758434973537846E-002  -3.2432725353392922E-003   6.2843429004577733E-002
   2.4276293516557718E-002  -6.5501428124122851E-003   4.9143908019058102E-002
   2.2483737488957850E-002  -6.1127757305112218E-003   4.8800297611699961E-002
   2.0691181461357996E-002  -5.6011667347818650E-003   4.8649115743450599E-002
   1.8898625433758164E-002  -5.0153158252240551E-003   4.8690362414309629E-002
   1.7106069406158331E-002  -4.3552230018383264E-003   4.8924037624277439E-002
   2.1014913153899167E-002  -5.7234252431441757E-003   5.2532197193745633E-002
   1.9418240536240805E-002  -5.2800953417168617E-003   5.2335796160715375E-002
   1.7821567918582401E-002  -4.7993859829999486E-003   5.2338733408459404E-002
   1.6224895300923997E-002  -4.2812971669924232E-003   5.2541008936977815E-002
   1.4628222683265635E-002  -3.7258288936948825E-003   5.2942622746270485E-002
   1.7841476609176364E-002  -4.8967076738757886E-003   5.5944880416228054E-002
   1.6447597143125166E-002  -4.4474149529229734E-003   5.5858826300987541E-002
   1.5053717677073964E-002  -3.9976052312180183E-003   5.5979020208187000E-002
   1.3659838211022774E-002  -3.5472785087608434E-003   5.6305462137826591E-002
   1.2265958744971564E-002  -3.0964347855517160E-003   5.6838152089906169E-002
   1.4755983882389244E-002  -4.0699901046075404E-003   5.9381957686505581E-002
   1.3571807309610955E-002  -3.6147345641288492E-003   5.9369388032516623E-002
   1.2387630736832696E-002  -3.1958244794359839E-003   5.9569976142633471E-002
   1.1203454164054397E-002  -2.8132598505294041E-003   5.9983722016856166E-002
   1.0019277591276150E-002  -2.4670406774084108E-003   6.0610625655184394E-002
   1.1758434973537846E-002  -3.2432725353392922E-003   6.2843429004577733E-002
   1.0790871035698202E-002  -2.7820541753347805E-003   6.2867481355302401E-002
   9.8233070978585857E-003  -2.3940437276541993E-003   6.3111601211798540E-002
   8.8557431600189557E-003  -2.0792411922976387E-003   6.3575788574066289E-002
   7.8881792221793257E-003  -1.8376465692652166E-003   6.4260043442105563E-002
   1.7106069406158331E-002  -4.3552230018383264E-003   4.8924037624277439E-002
   1.5153507002272193E-002  -3.7288379462706578E-003   4.8799065647358919E-002
   1.3200944598386111E-002  -3.2441103401686378E-003   4.8928239483234326E-002
   1.1248382194500001E-002  -2.9010401835312255E-003   4.9311559131904270E-002
   9.2958197906138906E-003  -2.6996274763593231E-003   4.9949024593367919E-002
   1.4628222683265635E-002  -3.7258288936948825E-003   5.2942622746270485E-002
   1.2930308614898176E-002  -3.2160414329088782E-003   5.2798536810785834E-002
   1.1232394546530716E-002  -2.8349950544365732E-003   5.2909601733544254E-002
   9.5344804781632986E-003  -2.5826897582771485E-003   5.3275817514545992E-002
   7.8365664097957977E-003  -2.4591255444312843E-003   5.3897184153790911E-002
   1.2265958744971564E-002  -3.0964347855517160E-003   5.6838152089906169E-002
   1.0823698057571815E-002  -2.7032449195471542E-003   5.6687868563007032E-002
   9.3814373701720383E-003  -2.4258797687043698E-003   5.6793740939800524E-002
   7.9391766827722685E-003  -2.2643393330230646E-003   5.7155769220286007E-002
   6.4969159953725125E-003  -2.2186236125033565E-003   5.7773953404463702E-002
   1.0019277591276150E-002  -2.4670406774084108E-003   6.0610625655184394E-002
   8.8336753302930872E-003  -2.1904484061854579E-003   6.0467060904022985E-002
   7.6480730693100109E-003  -2.0167644829724024E-003   6.0580657102002715E-002
   6.4624708083269849E-003  -1.9459889077692062E-003   6.0951414249123412E-002
   5.2768685473438999E-003  -1.9781216805753732E-003   6.1579332345385672E-002
   7.8881792221793257E-003  -1.8376465692652166E-003   6.4260043442105563E-002
   6.9602404330620232E-003  -1.6776518928235395E-003   6.4136113833833219E-002
   6.0323016439446930E-003  -1.6076491972400742E-003   6.4270350220151207E-002
   5.1043628548273906E-003  -1.6276384825148413E-003   6.4662752601059331E-002
   4.1764240657100604E-003  -1.7376197486473899E-003   6.5313320976557843E-002
   9.2958197906138906E-003  -2.6996274763593231E-003   4.9949024593367919E-002
   7.8751456423331034E-003  -2.8680053024081054E-003   5.0350893740894631E-002
   6.4544714940523717E-003  -3.6343067454336075E-003   5.1081290312250505E-002
   5.0337973457715984E-003  -4.9985318054361835E-003   5.2140214307435456E-002
   3.6131231974908529E-003  -6.9606804824150492E-003   5.3527665726449958E-002
   7.8365664097957977E-003  -2.4591255444312843E-003   5.3897184153790911E-002
   6.7176355411212307E-003  -2.6541003378921513E-003   5.3838741848850624E-002
   5.5987046724466361E-003  -3.3574120636532256E-003   5.4055258679293644E-002
   4.4797738037720622E-003  -4.5690607217137510E-003   5.4546734645119763E-002
   3.3608429350974744E-003  -6.2890463120746087E-003   5.5313169746328716E-002
   6.4969159953725125E-003  -2.2186236125033565E-003   5.7773953404463702E-002
   5.6261601178578952E-003  -2.4401953733760029E-003   5.7344786331733150E-002
   4.7554042403432639E-003  -3.0805173818720805E-003   5.7137010105939981E-002
   3.8846483628286292E-003  -4.1395896379914331E-003   5.7150624727083536E-002
   3.0138924853140153E-003  -5.6174121417342238E-003   5.7385630195163934E-002
   5.2768685473438999E-003  -1.9781216805753732E-003   6.1579332345385672E-002
   4.6007193725430932E-003  -2.2262904088600627E-003   6.0869027189542187E-002
   3.9245701977422588E-003  -2.8036227000913169E-003   6.0326544592189529E-002
   3.2484210229414444E-003  -3.7101185542692799E-003   5.9951884553327076E-002
   2.5722718481406177E-003  -4.9457779713939221E-003   5.9745047072955949E-002
   4.1764240657100604E-003  -1.7376197486473899E-003   6.5313320976557843E-002
   3.6413133051768354E-003  -2.0123854443438449E-003   6.4411464422277742E-002
   3.1062025446436103E-003  -2.5267280183107199E-003   6.3623862138041887E-002
   2.5710917841103784E-003  -3.2806474705467242E-003   6.2950514123850720E-002
   2.0359810235771603E-003  -4.2741438010533983E-003   6.2391420379704021E-002
   3.6131231974908529E-003  -6.9606804824150492E-003   5.3527665726449958E-002
   4.1617402640602708E-003  -9.5424156691796824E-003   5.1857129563838367E-002
   4.7103573306297164E-003  -1.2765400258539755E-002   5.0040453876060542E-002
   5.2589743971991620E-003  -1.6629634250494733E-002   4.8077638663116345E-002
   5.8075914637686354E-003  -2.1135117645044499E-002   4.5968683925005749E-002
   3.3608429350974744E-003  -6.2890463120746087E-003   5.5313169746328716E-002
   3.7812674439083038E-003  -8.5524516485134816E-003   5.2956034382509176E-002
   4.2016919527191887E-003  -1.1394359544809080E-002   5.0488653428338470E-002
   4.6221164615299834E-003  -1.4814770000960910E-002   4.7911026883816571E-002
   5.0425409703409030E-003  -1.8813683016969396E-002   4.5223154748944339E-002
   3.0138924853140153E-003  -5.6174121417342238E-003   5.7385630195163934E-002
   3.3420183711816501E-003  -7.5624876278475028E-003   5.4404642472875103E-002
   3.6701442570492640E-003  -1.0023318831078862E-002   5.1349303095050272E-002
   3.9982701429168918E-003  -1.2999905751427589E-002   4.8219612061690308E-002
   4.3263960287845404E-003  -1.6492248388894293E-002   4.5015569372794495E-002
   2.5722718481406177E-003  -4.9457779713939221E-003   5.9745047072955949E-002
   2.8439930458803390E-003  -6.5725236071813020E-003   5.6202953834936169E-002
   3.1157142436201036E-003  -8.6522781173483040E-003   5.2622402876195518E-002
   3.3874354413598474E-003  -1.1185041501894017E-002   4.9003394196735009E-002
   3.6591566390995894E-003  -1.4170813760819190E-002   4.5345927796554691E-002
   2.0359810235771603E-003  -4.2741438010533983E-003   6.2391420379704021E-002
   2.2871914680043792E-003  -5.5825595865151012E-003   5.8350968468692033E-002
   2.5384019124315982E-003  -7.2812374036178018E-003   5.4307952771775025E-002
   2.7896123568587824E-003  -9.3701772523605148E-003   5.0262373288952833E-002
   3.0408228012859806E-003  -1.1849379132744087E-002   4.6214230020225955E-002
   2.6019152536884194E-002  -4.8225623270256590E-003   6.4961487674720764E-002
   2.4969721115715993E-002  -7.3703528115782457E-003   6.2801877540992479E-002
   2.3920289694547778E-002  -8.7655636381265278E-003   6.1291215287866629E-002
   2.2870858273379570E-002  -9.0081948066702972E-003   6.0429500915342715E-002
   2.1821426852211348E-002  -8.0982463172096786E-003   6.0216734423421292E-002
   1.8901509983313344E-002  -3.6169218060106423E-003   6.3372757015858705E-002
   1.8404378974594446E-002  -5.5277646438824102E-003   6.2533575851519474E-002
   1.7907247965875575E-002  -6.5741727468916628E-003   6.2150047631476496E-002
   1.7410116957156684E-002  -6.7561461150383618E-003   6.2222172355730090E-002
   1.6912985948437792E-002  -6.0736847483224832E-003   6.2749950024280132E-002
   1.2192436670850765E-002  -2.4112812849955700E-003   6.2565046465248408E-002
   1.2054311138275431E-002  -3.6851764761865330E-003   6.2758149347156220E-002
   1.1916185605700087E-002  -4.3827818556568254E-003   6.3213610237054643E-002
   1.1778060073124751E-002  -4.5040974234064265E-003   6.3931429134943776E-002
   1.1639934540549412E-002  -4.0491231794352323E-003   6.4911606040823452E-002
   5.8919325994964983E-003  -1.2056407639805256E-003   6.2538356022889971E-002
   5.9195176067589235E-003  -1.8425883084906905E-003   6.3475598027902924E-002
   5.9471026140213443E-003  -2.1913909644219187E-003   6.4481903104600835E-002
   5.9746876212837634E-003  -2.2520487317743802E-003   6.5557271252983496E-002
   6.0022726285461825E-003  -2.0245616105479536E-003   6.6701702473051017E-002
  -2.2307494532136651E-009  -2.4296548106761406E-010   6.3292685688783379E-002
  -1.6199550589846012E-009  -1.4079479249140547E-010   6.4685921893759657E-002
  -1.0091606647555373E-009  -7.3187136906405215E-011   6.5954926234115002E-002
  -3.9836627052647344E-010  -4.0142545537635854E-011   6.7099698709849512E-002
   2.1242812370259045E-010  -4.1660730421000380E-011   6.8120239320963005E-002
   2.1821426852211348E-002  -8.0982463172096786E-003   6.0216734423421292E-002
   2.0994753544368389E-002  -6.7907050486904486E-003   6.0871306896158439E-002
   2.0168080236525408E-002  -5.8405578800578700E-003   6.1464240095457812E-002
   1.9341406928682445E-002  -5.2478048113121199E-003   6.1995534021319590E-002
   1.8514733620839482E-002  -5.0124458424530838E-003   6.2465188673743621E-002
   1.6912985948437792E-002  -6.0736847483224832E-003   6.2749950024280132E-002
   1.6091750262633715E-002  -5.0930288001335283E-003   6.2794269052477522E-002
   1.5270514576829625E-002  -4.3804184238609017E-003   6.2911102598190327E-002
   1.4449278891025548E-002  -3.9358536195047457E-003   6.3100450661418742E-002
   1.3628043205221457E-002  -3.7593343870647722E-003   6.3362313242162599E-002
   1.1639934540549412E-002  -4.0491231794352323E-003   6.4911606040823452E-002
   1.0958290267737425E-002  -3.3953525515767746E-003   6.4435020152451464E-002
   1.0276645994925440E-002  -2.9202789676640514E-003   6.4165102572548177E-002
   9.5950017221134651E-003  -2.6239024276973177E-003   6.4101853301113523E-002
   8.9133574493014782E-003  -2.5062229316764606E-003   6.4245272338147655E-002
   6.0022726285461825E-003  -2.0245616105479536E-003   6.6701702473051017E-002
   5.5943735596795125E-003  -1.6976763030198821E-003   6.5793560196080111E-002
   5.1864744908128382E-003  -1.4601395114671699E-003   6.5226240018531098E-002
   4.7785754219461700E-003  -1.3119512358899721E-003   6.4999741940404046E-002
   4.3706763530794923E-003  -1.2531114762880935E-003   6.5114065961698858E-002
   2.1242812370259045E-010  -4.1660730421000380E-011   6.8120239320963005E-002
   1.3845997265393706E-010  -5.4463100696011679E-011   6.6869889183363673E-002
   6.4491828544177565E-011  -5.5270274468277591E-011   6.6094514936139437E-002
  -9.4763173003054035E-012  -4.4082664601985400E-011   6.5794116579290365E-002
  -8.3444466614235324E-011  -2.0899837416266109E-011   6.5968694112816306E-002
   1.8514733620839482E-002  -5.0124458424530838E-003   6.2465188673743621E-002
   1.7742281542649202E-002  -4.9422352622473797E-003   6.1987176613655159E-002
   1.6969829464458956E-002  -4.8449273594609737E-003   6.1806513375765149E-002
   1.6197377386268700E-002  -4.7205221340944660E-003   6.1923198960073436E-002
   1.5424925308078444E-002  -4.5690195861472493E-003   6.2337233366579758E-002
   1.3628043205221457E-002  -3.7593343870647722E-003   6.3362313242162599E-002
   1.3126880999286369E-002  -3.7066764456319123E-003   6.3053957048070403E-002
   1.2625718793351282E-002  -3.6336955142962785E-003   6.2990831776290654E-002
   1.2124556587416197E-002  -3.5403915930583597E-003   6.3172937426822839E-002
   1.1623394381481106E-002  -3.4267646819178821E-003   6.3600273999666890E-002
   8.9133574493014782E-003  -2.5062229316764606E-003   6.4245272338147655E-002
   8.6313672157353194E-003  -2.4711176290163200E-003   6.4099797677374018E-002
   8.3493769821691693E-003  -2.4224636691315207E-003   6.4147436039026340E-002
   8.0673867486030157E-003  -2.3602610520222517E-003   6.4388187423104370E-002
   7.7853965150368569E-003  -2.2845097776884871E-003   6.4822051829608276E-002
   4.3706763530794923E-003  -1.2531114762880935E-003   6.5114065961698858E-002
   4.2557401919960467E-003  -1.2355588124007902E-003   6.5124698501565784E-002
   4.1408040309126055E-003  -1.2112318239667665E-003   6.5276326163972345E-002
   4.0258678698291616E-003  -1.1801305109862556E-003   6.5568948948918487E-002
   3.9109317087457239E-003  -1.1422548734589394E-003   6.6002566856404085E-002
  -8.3444466614235324E-011  -2.0899837416266109E-011   6.5968694112816306E-002
  -7.1931433032190739E-011   4.2147396683844818E-012   6.6128659520645838E-002
  -6.0418395980699202E-011   2.1197987809529195E-011   6.6377502151128642E-002
  -4.8905362398654617E-011   3.0049865373804607E-011   6.6715222004264774E-002
  -3.7392325347163080E-011   3.0770275216696064E-011   6.7141819080054344E-002
   1.5424925308078444E-002  -4.5690195861472493E-003   6.2337233366579758E-002
   1.4508302724443284E-002  -4.3623719885437784E-003   6.2152637104782971E-002
   1.3591680140808131E-002  -4.0725316142079387E-003   6.2175470957183593E-002
   1.2675057557172974E-002  -3.6994984631397408E-003   6.2405734923781833E-002
   1.1758434973537846E-002  -3.2432725353392922E-003   6.2843429004577733E-002
   1.1623394381481106E-002  -3.4267646819178821E-003   6.3600273999666890E-002
   1.0919633295679722E-002  -3.2717789845219114E-003   6.3457435861329514E-002
   1.0215872209878345E-002  -3.0543987045174165E-003   6.3532890604462294E-002
   9.5121111240769537E-003  -2.7746238419047199E-003   6.3826638229065133E-002
   8.8083500382755836E-003  -2.4324543966836032E-003   6.4338678735137822E-002
   7.7853965150368569E-003  -2.2845097776884871E-003   6.4822051829608276E-002
   7.3053596943416198E-003  -2.1811859805000167E-003   6.4700173620606913E-002
   6.8253228736463913E-003  -2.0362657948271232E-003   6.4807451060347743E-002
   6.3452860529511655E-003  -1.8497492206697008E-003   6.5143884148830836E-002
   5.8652492322559258E-003  -1.6216362580276922E-003   6.5709472886056469E-002
   3.9109317087457239E-003  -1.1422548734589394E-003   6.6002566856404085E-002
   3.6654819204290177E-003  -1.0905929764782468E-003   6.5880850382614597E-002
   3.4200321321123136E-003  -1.0181328851368264E-003   6.5999152324839647E-002
   3.1745823437956061E-003  -9.2487459943462521E-004   6.6357472683079413E-002
   2.9291325554789034E-003  -8.1081811937205872E-004   6.6955811457334119E-002
  -3.7392325347163080E-011   3.0770275216696064E-011   6.7141819080054344E-002
  -2.6058131347150848E-011   2.7543800573681665E-011   6.6999466147352638E-002
  -1.4723926938797760E-011   2.4553664657034346E-011   6.7107994397938187E-002
  -3.3897329387855279E-012   2.1800332372645670E-011   6.7467403831810741E-002
   7.9444714695675600E-012   1.9283907803924194E-011   6.8077694448970383E-002
   1.1758434973537846E-002  -3.2432725353392922E-003   6.2843429004577733E-002
   1.0790871035698202E-002  -2.7820541753347805E-003   6.2867481355302401E-002
   9.8233070978585857E-003  -2.3940437276541993E-003   6.3111601211798540E-002
   8.8557431600189557E-003  -2.0792411922976387E-003   6.3575788574066289E-002
   7.8881792221793257E-003  -1.8376465692652166E-003   6.4260043442105563E-002
   8.8083500382755836E-003  -2.4324543966836032E-003   6.4338678735137822E-002
   8.0663094753436054E-003  -2.0865406271771691E-003   6.4311114161060001E-002
   7.3242689124116134E-003  -1.7955327917084374E-003   6.4514528831026347E-002
   6.5822283494796352E-003  -1.5594308902778312E-003   6.4948922745036317E-002
   5.8401877865476431E-003  -1.3782349228849133E-003   6.5614295903090147E-002
   5.8652492322559258E-003  -1.6216362580276922E-003   6.5709472886056469E-002
   5.3596437825038507E-003  -1.3910270790194190E-003   6.5648593365462915E-002
   4.8540383327517651E-003  -1.1970218557627726E-003   6.5829604827185126E-002
   4.3484328829996866E-003  -1.0396205882579092E-003   6.6252507271223532E-002
   3.8428274332476045E-003  -9.1882327650477658E-004   6.6917300697578064E-002
   2.9291325554789034E-003  -8.1081811937205872E-004   6.6955811457334119E-002
   2.6708739571789653E-003  -6.9551353086184931E-004   6.6879918968510366E-002
   2.4126153588790193E-003  -5.9851091981711485E-004   6.7056829200275198E-002
   2.1543567605790837E-003  -5.1981028623821098E-004   6.7486542152627907E-002
   1.8960981622791351E-003  -4.5941163012439001E-004   6.8169057825569368E-002
   7.9444714695675600E-012   1.9283907803924194E-011   6.8077694448970383E-002
  -6.3106464498474679E-013   1.7295997967181620E-011   6.8005090970202908E-002
  -9.2066007595370536E-012   1.6128626212363883E-011   6.8196201950296242E-002
  -1.7782136874089360E-011   1.5781924378455159E-011   6.8651027389250024E-002
  -2.6357672988641667E-011   1.6255663481956617E-011   6.9369567287064116E-002
   7.8881792221793257E-003  -1.8376465692652166E-003   6.4260043442105563E-002
   6.9602404330620232E-003  -1.6776518928235395E-003   6.4136113833833219E-002
   6.0323016439446930E-003  -1.6076491972400742E-003   6.4270350220151207E-002
   5.1043628548273906E-003  -1.6276384825148413E-003   6.4662752601059331E-002
   4.1764240657100604E-003  -1.7376197486473899E-003   6.5313320976557843E-002
   5.8401877865476431E-003  -1.3782349228849133E-003   6.5614295903090147E-002
   5.1638696679728383E-003  -1.2582389154141005E-003   6.5455709069769663E-002
   4.4875515493980334E-003  -1.2057368937491708E-003   6.5542197582943995E-002
   3.8112334308232146E-003  -1.2207288578901035E-003   6.5873761442613060E-002
   3.1349153122484236E-003  -1.3032148078373496E-003   6.6450400648777108E-002
   3.8428274332476045E-003  -9.1882327650477658E-004   6.6917300697578064E-002
   3.4050393371197994E-003  -8.3882593800438388E-004   6.6746554634261518E-002
   2.9672512409920047E-003  -8.0382459025805930E-004   6.6807793269344287E-002
   2.5294631448642066E-003  -8.1381923326581326E-004   6.7101016602826358E-002
   2.0916750487364189E-003  -8.6880986702742025E-004   6.7626224634707410E-002
   1.8960981622791351E-003  -4.5941163012439001E-004   6.8169057825569368E-002
   1.6837494405028833E-003  -4.1941296059491706E-004   6.8008650527308867E-002
   1.4714007187266167E-003  -4.0191228676688534E-004   6.8067137279352125E-002
   1.2590519969503441E-003  -4.0690960864118823E-004   6.8344518081698891E-002
   1.0467032751740844E-003  -4.3440492621732441E-004   6.8840792934349790E-002
  -2.6357672988641667E-011   1.6255663481956617E-011   6.9369567287064116E-002
  -2.1877902267597449E-011   1.6814882819460308E-011   6.9241996748911516E-002
  -1.7398135016000182E-011   1.6723927798167892E-011   6.9320229612967188E-002
  -1.2918371233849868E-011   1.5983374346273393E-011   6.9604265879231020E-002
  -8.4385970433586976E-012   1.4592549391068133E-011   7.0094105547703234E-002
   4.1764240657100604E-003  -1.7376197486473899E-003   6.5313320976557843E-002
   3.6413133051768354E-003  -2.0123854443438449E-003   6.4411464422277742E-002
   3.1062025446436103E-003  -2.5267280183107199E-003   6.3623862138041887E-002
   2.5710917841103784E-003  -3.2806474705467242E-003   6.2950514123850720E-002
   2.0359810235771603E-003  -4.2741438010533983E-003   6.2391420379704021E-002
   3.1349153122484236E-003  -1.3032148078373496E-003   6.6450400648777108E-002
   2.7189396768326352E-003  -1.5092890799870418E-003   6.5342063671085027E-002
   2.3029640414168676E-003  -1.8950460107355349E-003   6.4357742673583157E-002
   1.8869884060010930E-003  -2.4604856000831343E-003   6.3497437656271818E-002
   1.4710127705853115E-003  -3.2056078480300343E-003   6.2761148619150720E-002
   2.0916750487364189E-003  -8.6880986702742025E-004   6.7626224634707410E-002
   1.8045962485839714E-003  -1.0061927156301553E-003   6.6371301453274550E-002
   1.5175174484315379E-003  -1.2633640031608218E-003   6.5250155962177731E-002
   1.2304386482790922E-003  -1.6403237296196624E-003   6.4262788161417200E-002
   9.4335984812665696E-004  -2.1370718950066703E-003   6.3409198050992821E-002
   1.0467032751740844E-003  -4.3440492621732441E-004   6.8840792934349790E-002
   8.9828302043085291E-004  -5.0309635127308849E-004   6.7499177768846633E-002
   7.4986276568762833E-004  -6.3168199558581717E-004   6.6301102003825468E-002
   6.0144251094439291E-004  -8.2016185915602044E-004   6.5246565639286810E-002
   4.5302225620117223E-004  -1.0685359419833063E-003   6.4335568675229757E-002
  -8.4385970433586976E-012   1.4592549391068133E-011   7.0094105547703234E-002
  -7.6267325788137441E-012   1.3083645278300082E-011   6.8725692617801037E-002
  -6.8148611753748867E-012   1.1989048642746525E-011   6.7510580798526787E-002
  -6.0029967108299331E-012   1.1307559055762084E-011   6.6448770089880510E-002
  -5.1911253073910757E-012   1.1040168779175019E-011   6.5540260491862568E-002
   2.0359810235771603E-003  -4.2741438010533983E-003   6.2391420379704021E-002
   2.2871914680043792E-003  -5.5825595865151012E-003   5.8350968468692033E-002
   2.5384019124315982E-003  -7.2812374036178018E-003   5.4307952771775025E-002
   2.7896123568587824E-003  -9.3701772523605148E-003   5.0262373288952833E-002
   3.0408228012859806E-003  -1.1849379132744087E-002   4.6214230020225955E-002
   1.4710127705853115E-003  -3.2056078480300343E-003   6.2761148619150720E-002
   1.7045997228350568E-003  -4.1869196870899517E-003   5.8401473054765174E-002
   1.9381866750847881E-003  -5.4609280497779356E-003   5.4009114291929394E-002
   2.1717736273345230E-003  -7.0276329360927092E-003   4.9584072330643131E-002
   2.4053605795842647E-003  -8.8870343460358825E-003   4.5126347170907799E-002
   9.4335984812665696E-004  -2.1370718950066703E-003   6.3409198050992821E-002
   1.1292038956536715E-003  -2.7912797876651352E-003   5.8827864341246539E-002
   1.3150479431806791E-003  -3.6406186959378195E-003   5.4183728020505084E-002
   1.5008919907077128E-003  -4.6850886198255629E-003   4.9476789088768347E-002
   1.6867360382347291E-003  -5.9246895593274562E-003   4.4707047546036272E-002
   4.5302225620117223E-004  -1.0685359419833063E-003   6.4335568675229757E-002
   5.6100398646023036E-004  -1.3956398882399301E-003   5.9630142328136182E-002
   6.6898571671928850E-004  -1.8203093420981614E-003   5.4831793957502033E-002
   7.7696744697836355E-004  -2.3425443035577538E-003   4.9940523563327080E-002
   8.8494917723740477E-004  -2.9623447726191410E-003   4.4956331145611761E-002
  -5.1911253073910757E-012   1.1040168779175019E-011   6.5540260491862568E-002
  -4.7452528018077089E-012   1.1185163906191065E-011   6.0808307015434271E-002
  -4.2993837656712941E-012   1.1741968508616196E-011   5.5953312102920372E-002
  -3.8535077906409754E-012   1.2709451546744077E-011   5.0975275754320454E-002
  -3.4076352850576086E-012   1.4089174271703087E-011   4.5874197969634878E-002
  -2.2307494532136651E-009  -2.4296548106761406E-010   6.3292685688783379E-002
  -1.6199550589846012E-009  -1.4079479249140547E-010   6.4685921893759657E-002
  -1.0091606647555373E-009  -7.3187136906405215E-011   6.5954926234115002E-002
  -3.9836627052647344E-010  -4.0142545537635854E-011   6.7099698709849512E-002
   2.1242812370259045E-010  -4.1660730421000380E-011   6.8120239320963005E-002
  -5.8919369732440136E-003   1.2056404794347220E-003   6.2538355863954315E-002
  -5.9195207836482272E-003   1.8425881126283850E-003   6.3475597970822889E-002
  -5.9471045940524391E-003   2.1913908285358663E-003   6.4481903099914875E-002
  -5.9746884044566528E-003   2.2520486271569509E-003   6.5557271251230814E-002
  -6.0022722148608716E-003   2.0245615084918955E-003   6.6701702424770387E-002
  -1.2192440781344070E-002   2.4112812018348972E-003   6.2565046011509959E-002
  -1.2054314126102276E-002   3.6851763660515763E-003   6.2758149137547348E-002
  -1.1916187470860467E-002   4.3827817302587932E-003   6.3213610172652951E-002
  -1.1778060815618665E-002   4.5040972944563936E-003   6.3931429116826921E-002
  -1.1639934160376871E-002   4.0491230586445492E-003   6.4911605970069355E-002
  -1.8901513655049627E-002   3.6169219242350586E-003   6.3372756131450214E-002
  -1.8404381647317201E-002   5.5277646194748301E-003   6.2533575393933089E-002
  -1.7907249639584767E-002   6.5741726319817305E-003   6.2150047452329042E-002
  -1.7410117631852330E-002   6.7561459617558632E-003   6.2222172306637971E-002
  -1.6912985624119900E-002   6.0736846087972168E-003   6.2749949956859730E-002
  -2.6019155594360702E-002   4.8225626466352756E-003   6.4961486223774956E-002
  -2.4969723347293013E-002   7.3703528728979451E-003   6.2801876739980389E-002
  -2.3920291100225317E-002   8.7655635337047233E-003   6.1291214938943350E-002
  -2.2870858853157632E-002   9.0081946290552217E-003   6.0429500820663923E-002
  -2.1821426606089933E-002   8.0982461589498289E-003   6.0216734385142023E-002
   2.1242812370259045E-010  -4.1660730421000380E-011   6.8120239320963005E-002
   1.3845997265393706E-010  -5.4463100696011679E-011   6.6869889183363673E-002
   6.4491828544177565E-011  -5.5270274468277591E-011   6.6094514936139437E-002
  -9.4763173003054035E-012  -4.4082664601985400E-011   6.5794116579290365E-002
  -8.3444466614235324E-011  -2.0899837416266109E-011   6.5968694112816306E-002
  -6.0022722148608716E-003   2.0245615084918955E-003   6.6701702424770387E-002
  -5.5943732895819675E-003   1.6976761961705750E-003   6.5793560148800320E-002
  -5.1864743643030668E-003   1.4601394138230583E-003   6.5226239980949174E-002
  -4.7785754390241662E-003   1.3119511614490820E-003   6.4999741921217116E-002
  -4.3706765137452690E-003   1.2531114390491038E-003   6.5114065969603840E-002
  -1.1639934160376871E-002   4.0491230586445492E-003   6.4911605970069355E-002
  -1.0958290018107089E-002   3.3953524468042229E-003   6.4435020073707314E-002
  -1.0276645875837313E-002   2.9202788829163287E-003   6.4165102503208060E-002
  -9.5950017335675319E-003   2.6239023669808823E-003   6.4101853258571609E-002
  -8.9133575912977506E-003   2.5062228989979896E-003   6.4245272339797960E-002
  -1.6912985624119900E-002   6.0736846087972168E-003   6.2749949956859730E-002
  -1.6091750047115400E-002   5.0930286974378292E-003   6.2794268958084570E-002
  -1.5270514470110913E-002   4.3804183520095748E-003   6.2911102502915900E-002
  -1.4449278893106413E-002   3.9358535725126558E-003   6.3100450591353954E-002
  -1.3628043316101927E-002   3.7593343589469586E-003   6.3362313223398664E-002
  -2.1821426606089933E-002   8.0982461589498289E-003   6.0216734385142023E-002
  -2.0994753376606889E-002   6.7907049480715187E-003   6.0871306801932257E-002
  -2.0168080147123860E-002   5.8405578211029319E-003   6.1464239980072888E-002
  -1.9341406917640809E-002   5.2478047780442905E-003   6.1995533919564139E-002
  -1.8514733688157779E-002   5.0124458188958165E-003   6.2465188620405621E-002
  -8.3444466614235324E-011  -2.0899837416266109E-011   6.5968694112816306E-002
  -7.1931433032190739E-011   4.2147396683844818E-012   6.6128659520645838E-002
  -6.0418395980699202E-011   2.1197987809529195E-011   6.6377502151128642E-002
  -4.8905362398654617E-011   3.0049865373804607E-011   6.6715222004264774E-002
  -3.7392325347163080E-011   3.0770275216696064E-011   6.7141819080054344E-002
  -4.3706765137452690E-003   1.2531114390491038E-003   6.5114065969603840E-002
  -4.2557403307115511E-003   1.2355588138226736E-003   6.5124698507170120E-002
  -4.1408041476778418E-003   1.2112318529700489E-003   6.5276326165124243E-002
  -4.0258679646441300E-003   1.1801305564908653E-003   6.5568948943466571E-002
  -3.9109317816104217E-003   1.1422549243853553E-003   6.6002566842196631E-002
  -8.9133575912977506E-003   2.5062228989979896E-003   6.4245272339797960E-002
  -8.6313673390087525E-003   2.4711176234306076E-003   6.4099797679605955E-002
  -8.3493770867197475E-003   2.4224636847419989E-003   6.4147436037536476E-002
  -8.0673868344307391E-003   2.3602610829319207E-003   6.4388187413589620E-002
  -7.7853965821417306E-003   2.2845098180005463E-003   6.4822051807765430E-002
  -1.3628043316101927E-002   3.7593343589469586E-003   6.3362313223398664E-002
  -1.3126881096823004E-002   3.7066764330387358E-003   6.3053957037953315E-002
  -1.2625718877544082E-002   3.6336955165140045E-003   6.2990831768365341E-002
  -1.2124556658265166E-002   3.5403916093730593E-003   6.3172937414634520E-002
  -1.1623394438986237E-002   3.4267647116157374E-003   6.3600273976760852E-002
  -1.8514733688157779E-002   5.0124458188958165E-003   6.2465188620405621E-002
  -1.7742281604154315E-002   4.9422352426464200E-003   6.1987176582212200E-002
  -1.6969829520150873E-002   4.8449273482859823E-003   6.1806513357610643E-002
  -1.6197377436147426E-002   4.7205221358139690E-003   6.1923198946600810E-002
  -1.5424925352143973E-002   4.5690196052307064E-003   6.2337233349182841E-002
  -3.7392325347163080E-011   3.0770275216696064E-011   6.7141819080054344E-002
  -2.6058131347150848E-011   2.7543800573681665E-011   6.6999466147352638E-002
  -1.4723926938797760E-011   2.4553664657034346E-011   6.7107994397938187E-002
  -3.3897329387855279E-012   2.1800332372645670E-011   6.7467403831810741E-002
   7.9444714695675600E-012   1.9283907803924194E-011   6.8077694448970383E-002
  -3.9109317816104217E-003   1.1422549243853553E-003   6.6002566842196631E-002
  -3.6654819713513101E-003   1.0905930266899011E-003   6.5880850371161093E-002
  -3.4200321610921777E-003   1.0181329334406353E-003   6.5999152314688281E-002
  -3.1745823508330558E-003   9.2487464463735652E-004   6.6357472672778292E-002
  -2.9291325405739407E-003   8.1081816028016895E-004   6.6955811445431002E-002
  -7.7853965821417306E-003   2.2845098180005463E-003   6.4822051807765430E-002
  -7.3053597416820283E-003   2.1811860258363069E-003   6.4700173602605382E-002
  -6.8253229012223190E-003   2.0362658423275087E-003   6.4807451043283684E-002
  -6.3452860607626140E-003   1.8497492674743841E-003   6.5143884129800433E-002
  -5.8652492203029073E-003   1.6216363012767632E-003   6.5709472862155560E-002
  -1.1623394438986237E-002   3.4267647116157374E-003   6.3600273976760852E-002
  -1.0919633337050302E-002   3.2717790249826156E-003   6.3457435841685783E-002
  -1.0215872235114349E-002   3.0543987512145418E-003   6.3532890583724591E-002
  -9.5121111331784060E-003   2.7746238903114655E-003   6.3826638202877400E-002
  -8.8083500312424595E-003   2.4324544422730798E-003   6.4338678699144392E-002
  -1.5424925352143973E-002   4.5690196052307064E-003   6.2337233349182841E-002
  -1.4508302757456133E-002   4.3623720241289243E-003   6.2152637088401852E-002
  -1.3591680162768269E-002   4.0725316601014361E-003   6.2175470936010613E-002
  -1.2675057568080418E-002   3.6994985131484012E-003   6.2405734892009096E-002
  -1.1758434973392566E-002   3.2432725832697296E-003   6.2843428956397274E-002
   7.9444714695675600E-012   1.9283907803924194E-011   6.8077694448970383E-002
  -6.3106464498474679E-013   1.7295997967181620E-011   6.8005090970202908E-002
  -9.2066007595370536E-012   1.6128626212363883E-011   6.8196201950296242E-002
  -1.7782136874089360E-011   1.5781924378455159E-011   6.8651027389250024E-002
  -2.6357672988641667E-011   1.6255663481956617E-011   6.9369567287064116E-002
  -2.9291325405739407E-003   8.1081816028016895E-004   6.6955811445431002E-002
  -2.6708739590448685E-003   6.9551356759711691E-004   6.6879918956558315E-002
  -2.4126153775157928E-003   5.9851095381543984E-004   6.7056829189034189E-002
  -2.1543567959867258E-003   5.1981031893579693E-004   6.7486542142858805E-002
  -1.8960982144576588E-003   4.5941166295793145E-004   6.8169057818032064E-002
  -5.8652492203029073E-003   1.6216363012767632E-003   6.5709472862155560E-002
  -5.3596437861810793E-003   1.3910271178983191E-003   6.5648593341258721E-002
  -4.8540383520592513E-003   1.1970218915026004E-003   6.5829604804198680E-002
  -4.3484329179374302E-003   1.0396206220898950E-003   6.6252507250975506E-002
  -3.8428274838156092E-003   9.1882330966008841E-004   6.6917300681589048E-002
  -8.8083500312424595E-003   2.4324544422730798E-003   6.4338678699144392E-002
  -8.0663094820397057E-003   2.0865406681994242E-003   6.4311114124304430E-002
  -7.3242689328369805E-003   1.7955328291896430E-003   6.4514528795789478E-002
  -6.5822283836342414E-003   1.5594309252441024E-003   6.4948922713599644E-002
  -5.8401878344315006E-003   1.3782349563624674E-003   6.5614295877734569E-002
  -1.1758434973392566E-002   3.2432725832697296E-003   6.2843428956397274E-002
  -1.0790871046620770E-002   2.7820542185005293E-003   6.2867481305695527E-002
  -9.8233071198489640E-003   2.3940437668765746E-003   6.3111601163806874E-002
  -8.8557431930771490E-003   2.0792412283979766E-003   6.3575788530731342E-002
  -7.8881792663053549E-003   1.8376466030645133E-003   6.4260043406468959E-002
  -2.6357672988641667E-011   1.6255663481956617E-011   6.9369567287064116E-002
  -2.1877902267597449E-011   1.6814882819460308E-011   6.9241996748911516E-002
  -1.7398135016000182E-011   1.6723927798167892E-011   6.9320229612967188E-002
  -1.2918371233849868E-011   1.5983374346273393E-011   6.9604265879231020E-002
  -8.4385970433586976E-012   1.4592549391068133E-011   7.0094105547703234E-002
  -1.8960982144576588E-003   4.5941166295793145E-004   6.8169057818032064E-002
  -1.6837494837909257E-003   4.1941299377484809E-004   6.8008650519619462E-002
  -1.4714007531241927E-003   4.0191231927980131E-004   6.8067137271372313E-002
  -1.2590520224574561E-003   4.0690963947332542E-004   6.8344518073290755E-002
  -1.0467032917907265E-003   4.3440495435453919E-004   6.8840792925375038E-002
  -3.8428274838156092E-003   9.1882330966008841E-004   6.6917300681589048E-002
  -3.4050393790045538E-003   8.3882597073475784E-004   6.6746554618254211E-002
  -2.9672512741935071E-003   8.0382462183591075E-004   6.6807793253042244E-002
  -2.5294631693824560E-003   8.1381926296305793E-004   6.7101016585953410E-002
  -2.0916750645714188E-003   8.6880989411664000E-004   6.7626224616987335E-002
  -5.8401878344315006E-003   1.3782349563624674E-003   6.5614295877734569E-002
  -5.1638697075187864E-003   1.2582389476950839E-003   6.5455709044815763E-002
  -4.4875515806060712E-003   1.2057369243917912E-003   6.5542197557977230E-002
  -3.8112334536933674E-003   1.2207288864531218E-003   6.5873761417219012E-002
  -3.1349153267806427E-003   1.3032148338789074E-003   6.6450400622541261E-002
  -7.8881792663053549E-003   1.8376466030645133E-003   6.4260043406468959E-002
  -6.9602404693336270E-003   1.6776519246546329E-003   6.4136113799304284E-002
  -6.0323016723618957E-003   1.6076492269479215E-003   6.4270350186177216E-002
  -5.1043628753901678E-003   1.6276385099429150E-003   6.4662752567087756E-002
  -4.1764240784184364E-003   1.7376197736407306E-003   6.5313320942036124E-002
  -8.4385970433586976E-012   1.4592549391068133E-011   7.0094105547703234E-002
  -7.6267325788137441E-012   1.3083645278300082E-011   6.8725692617801037E-002
  -6.8148611753748867E-012   1.1989048642746525E-011   6.7510580798526787E-002
  -6.0029967108299331E-012   1.1307559055762084E-011   6.6448770089880510E-002
  -5.1911253073910757E-012   1.1040168779175019E-011   6.5540260491862568E-002
  -1.0467032917907265E-003   4.3440495435453919E-004   6.8840792925375038E-002
  -8.9828303546135579E-004   5.0309637658602080E-004   6.7499177761146167E-002
  -7.4986277913199374E-004   6.3168201882882191E-004   6.6301101997324308E-002
  -6.0144252280262128E-004   8.2016188108281068E-004   6.5246565633909237E-002
  -4.5302226647326096E-004   1.0685359633485492E-003   6.4335568670901622E-002
  -2.0916750645714188E-003   8.6880989411664000E-004   6.7626224616987335E-002
  -1.8045962629456222E-003   1.0061927400877857E-003   6.6371301438029745E-002
  -1.5175174613198316E-003   1.2633640256683870E-003   6.5250155949258246E-002
  -1.2304386596940307E-003   1.6403237508578437E-003   6.4262788150672545E-002
  -9.4335985806825833E-004   2.1370719156568740E-003   6.3409198042272713E-002
  -3.1349153267806427E-003   1.3032148338789074E-003   6.6450400622541261E-002
  -2.7189396900795040E-003   1.5092891035898559E-003   6.5342063648452797E-002
  -2.3029640533783723E-003   1.8950460325081117E-003   6.4357742654329059E-002
  -1.8869884166772366E-003   2.4604856206334302E-003   6.3497437640170046E-002
  -1.4710127799761013E-003   3.2056078679652267E-003   6.2761148605976286E-002
  -4.1764240784184364E-003   1.7376197736407306E-003   6.5313320942036124E-002
  -3.6413133168630429E-003   2.0123854670918706E-003   6.4411464392414297E-002
  -3.1062025553076182E-003   2.5267280393478087E-003   6.3623862112536456E-002
  -2.5710917937522056E-003   3.2806474904081492E-003   6.2950514102402017E-002
  -2.0359810321968000E-003   4.2741438202736903E-003   6.2391420362011618E-002
  -5.1911253073910757E-012   1.1040168779175019E-011   6.5540260491862568E-002
  -4.7452528018077089E-012   1.1185163906191065E-011   6.0808307015434271E-002
  -4.2993837656712941E-012   1.1741968508616196E-011   5.5953312102920372E-002
  -3.8535077906409754E-012   1.2709451546744077E-011   5.0975275754320454E-002
  -3.4076352850576086E-012   1.4089174271703087E-011   4.5874197969634878E-002
  -4.5302226647326096E-004   1.0685359633485492E-003   6.4335568670901622E-002
  -5.6100399584985833E-004   1.3956399098122851E-003   5.9630142324821944E-002
  -6.6898572522646089E-004   1.8203093646609048E-003   5.4831793955183061E-002
  -7.7696745460307387E-004   2.3425443278939848E-003   4.9940523561985639E-002
  -8.8494918397967470E-004   2.9623447995115182E-003   4.4956331145228345E-002
  -9.4335985806825833E-004   2.1370719156568740E-003   6.3409198042272713E-002
  -1.1292039047406596E-003   2.7912798084394619E-003   5.8827864334514923E-002
  -1.3150479514130687E-003   3.6406187175798271E-003   5.4183728015724450E-002
  -1.5008919980855021E-003   4.6850886430780704E-003   4.9476789085901064E-002
  -1.6867360447578791E-003   5.9246895849340842E-003   4.4707047545046730E-002
  -1.4710127799761013E-003   3.2056078679652267E-003   6.2761148605976286E-002
  -1.7045997314176567E-003   4.1869197070666109E-003   5.8401473044513451E-002
  -1.9381866828592053E-003   5.4609280704989785E-003   5.4009114284544510E-002
  -2.1717736343007678E-003   7.0276329582621578E-003   4.9584072326069692E-002
  -2.4053605857423093E-003   8.8870343703566501E-003   4.5126347169089365E-002
  -2.0359810321968000E-003   4.2741438202736903E-003   6.2391420362011618E-002
  -2.2871914758808218E-003   5.5825596056937599E-003   5.8350968454816687E-002
  -2.5384019195648540E-003   7.2812374234178801E-003   5.4307952761642853E-002
  -2.7896123632488567E-003   9.3701772734466823E-003   5.0262373282489531E-002
  -3.0408228069329080E-003   1.1849379155778994E-002   4.6214230017357583E-002
  -2.6019155594360702E-002   4.8225626466352756E-003   6.4961486223774956E-002
  -2.4969723347293013E-002   7.3703528728979451E-003   6.2801876739980389E-002
  -2.3920291100225317E-002   8.7655635337047233E-003   6.1291214938943350E-002
  -2.2870858853157632E-002   9.0081946290552217E-003   6.0429500820663923E-002
  -2.1821426606089933E-002   8.0982461589498289E-003   6.0216734385142023E-002
  -3.3088805278033234E-002   8.0817632703326092E-003   6.4608011059171411E-002
  -3.1494933740498450E-002   9.1112804854948937E-003   6.1998931780020916E-002
  -2.9901062202963666E-002   9.5943473062170825E-003   5.9829783399046960E-002
  -2.8307190665428875E-002   9.5309637324993562E-003   5.8100565916249736E-002
  -2.6713319127894073E-002   8.9211297643416176E-003   5.6811279331629133E-002
  -3.9653901384823276E-002   1.1340963894029943E-002   6.2433198297959625E-002
  -3.7724607341402316E-002   1.0852208098091815E-002   5.9980778394469081E-002
  -3.5795313297981364E-002   1.0423131078729664E-002   5.7759272604574377E-002
  -3.3866019254560391E-002   1.0053732835943519E-002   5.5768680928275235E-002
  -3.1936725211139431E-002   9.7440133697334619E-003   5.4009003365571920E-002
  -4.5714443914730771E-002   1.4600164517727277E-002   5.8437047940139236E-002
  -4.3658744150004578E-002   1.2593135710688722E-002   5.6747416583324842E-002
  -4.1603044385278370E-002   1.1251914851242134E-002   5.5079682555525256E-002
  -3.9547344620552170E-002   1.0576501939387778E-002   5.3433845856740367E-002
  -3.7491644855825970E-002   1.0566896975125278E-002   5.1809906486970342E-002
  -5.1270432867755705E-002   1.7859365141424610E-002   5.2619559985710440E-002
  -4.9297344166305185E-002   1.4334063323285628E-002   5.2298846346588213E-002
  -4.7324255464854734E-002   1.2080698623754688E-002   5.1791013251899831E-002
  -4.5351166763404234E-002   1.1099271042831739E-002   5.1096060701645241E-002
  -4.3378078061953734E-002   1.1389780580517095E-002   5.0213988695824496E-002
  -2.1821426606089933E-002   8.0982461589498289E-003   6.0216734385142023E-002
  -2.0994753376606889E-002   6.7907049480715187E-003   6.0871306801932257E-002
  -2.0168080147123860E-002   5.8405578211029319E-003   6.1464239980072888E-002
  -1.9341406917640809E-002   5.2478047780442905E-003   6.1995533919564139E-002
  -1.8514733688157779E-002   5.0124458188958165E-003   6.2465188620405621E-002
  -2.6713319127894073E-002   8.9211297643416176E-003   5.6811279331629133E-002
  -2.5898650119288751E-002   8.1195430998082796E-003   5.7444142747549359E-002
  -2.5083981110683433E-002   7.4809014369640325E-003   5.8114636960363716E-002
  -2.4269312102078142E-002   7.0052047758083005E-003   5.8822761970072295E-002
  -2.3454643093472817E-002   6.6924531163415901E-003   5.9568517776674879E-002
  -3.1936725211139431E-002   9.7440133697334619E-003   5.4009003365571920E-002
  -3.1034790387868178E-002   9.4483812515453319E-003   5.4425708698401104E-002
  -3.0132855564596925E-002   9.1212450528249112E-003   5.4979314863668138E-002
  -2.9230920741325668E-002   8.7626047735723106E-003   5.5669821861372801E-002
  -2.8328985918054418E-002   8.3724604137874747E-003   5.6497229691515355E-002
  -3.7491644855825970E-002   1.0566896975125278E-002   5.1809906486970342E-002
  -3.6403174182345177E-002   1.0777219403282377E-002   5.1816004654487414E-002
  -3.5314703508864335E-002   1.0761588668685845E-002   5.2058273689985932E-002
  -3.4226232835383529E-002   1.0520004771336293E-002   5.2536713593465921E-002
  -3.3137762161902694E-002   1.0052467711233304E-002   5.3251324364927154E-002
  -4.3378078061953734E-002   1.1389780580517095E-002   5.0213988695824496E-002
  -4.2003801502719693E-002   1.2106057555019201E-002   4.9615030615808409E-002
  -4.0629524943485665E-002   1.2401932284546946E-002   4.9351513439317318E-002
  -3.9255248384251637E-002   1.2277404769100289E-002   4.9423437166351211E-002
  -3.7880971825017595E-002   1.1732475008679133E-002   4.9830801796910129E-002
  -1.8514733688157779E-002   5.0124458188958165E-003   6.2465188620405621E-002
  -1.7742281604154315E-002   4.9422352426464200E-003   6.1987176582212200E-002
  -1.6969829520150873E-002   4.8449273482859823E-003   6.1806513357610643E-002
  -1.6197377436147426E-002   4.7205221358139690E-003   6.1923198946600810E-002
  -1.5424925352143973E-002   4.5690196052307064E-003   6.2337233349182841E-002
  -2.3454643093472817E-002   6.6924531163415901E-003   5.9568517776674879E-002
  -2.2398612745729199E-002   6.4521760992398147E-003   5.9119755251827777E-002
  -2.1342582397985640E-002   6.1939033651788600E-003   5.8940800440869218E-002
  -2.0286552050242039E-002   5.9176349141587467E-003   5.9031653343798937E-002
  -1.9230521702498463E-002   5.6233707461794680E-003   5.9392313960617227E-002
  -2.8328985918054418E-002   8.3724604137874747E-003   5.6497229691515355E-002
  -2.7016918406274133E-002   7.9621169558330152E-003   5.6086818281166892E-002
  -2.5704850894493821E-002   7.5428793820716405E-003   5.5918673485003317E-002
  -2.4392783382713529E-002   7.1147476925033058E-003   5.5992795303024916E-002
  -2.3080715870933251E-002   6.6777218871280630E-003   5.6309183735231527E-002
  -3.3137762161902694E-002   1.0052467711233304E-002   5.3251324364927154E-002
  -3.1597198585789105E-002   9.4720578124263405E-003   5.2888365670229441E-002
  -3.0056635009675519E-002   8.8918553989645252E-003   5.2740132490013358E-002
  -2.8516071433561916E-002   8.3118604708480297E-003   5.2806624824278885E-002
  -2.6975507857448341E-002   7.7320730280766858E-003   5.3087842673025999E-002
  -3.7880971825017595E-002   1.1732475008679133E-002   4.9830801796910129E-002
  -3.6139453284274106E-002   1.0981998669019555E-002   4.9524397419015487E-002
  -3.4397934743530645E-002   1.0240831415857271E-002   4.9405177455898952E-002
  -3.2656416202787177E-002   9.5089732491926357E-003   4.9473141907560692E-002
  -3.0914897662043694E-002   8.7864241690253087E-003   4.9728290774000539E-002
  -1.5424925352143973E-002   4.5690196052307064E-003   6.2337233349182841E-002
  -1.4508302757456133E-002   4.3623720241289243E-003   6.2152637088401852E-002
  -1.3591680162768269E-002   4.0725316601014361E-003   6.2175470936010613E-002
  -1.2675057568080418E-002   3.6994985131484012E-003   6.2405734892009096E-002
  -1.1758434973392566E-002   3.2432725832697296E-003   6.2843428956397274E-002
  -1.9230521702498463E-002   5.6233707461794680E-003   5.9392313960617227E-002
  -1.8111887248877214E-002   5.2988379389823925E-003   5.9094834460098555E-002
  -1.6993252795255979E-002   4.9317635703093332E-003   5.8993948569057070E-002
  -1.5874618341634717E-002   4.5221476401597072E-003   5.9089656287492576E-002
  -1.4755983888013493E-002   4.0699901485342638E-003   5.9381957615405101E-002
  -2.3080715870933251E-002   6.6777218871280630E-003   5.6309183735231527E-002
  -2.1770906057291303E-002   6.2353038538359162E-003   5.5939472216424840E-002
  -2.0461096243649415E-002   5.7909954805170222E-003   5.5755517808182400E-002
  -1.9151286430007484E-002   5.3447967671713496E-003   5.5757320510504464E-002
  -1.7841476616365579E-002   4.8967077137989645E-003   5.5944880323390622E-002
  -2.6975507857448341E-002   7.7320730280766858E-003   5.3087842673025999E-002
  -2.5485359182698415E-002   7.1717697686893012E-003   5.2686550357380596E-002
  -2.3995210507948520E-002   6.6502273907247597E-003   5.2460178653386841E-002
  -2.2505061833198621E-002   6.1674458941829349E-003   5.2408727561044831E-002
  -2.1014913158448723E-002   5.7234252790636930E-003   5.2532197080354337E-002
  -3.0914897662043694E-002   8.7864241690253087E-003   4.9728290774000539E-002
  -2.9255246625098527E-002   8.1082356835426861E-003   4.9336068882965933E-002
  -2.7595595588153346E-002   7.5094593009325805E-003   4.9107931104670322E-002
  -2.5935944551208186E-002   6.9900950211943466E-003   4.9043877439113703E-002
  -2.4276293514262998E-002   6.5501428443283105E-003   4.9143907886295968E-002
  -1.1758434973392566E-002   3.2432725832697296E-003   6.2843428956397274E-002
  -1.0790871046620770E-002   2.7820542185005293E-003   6.2867481305695527E-002
  -9.8233071198489640E-003   2.3940437668765746E-003   6.3111601163806874E-002
  -8.8557431930771490E-003   2.0792412283979766E-003   6.3575788530731342E-002
  -7.8881792663053549E-003   1.8376466030645133E-003   6.4260043406468959E-002
  -1.4755983888013493E-002   4.0699901485342638E-003   5.9381957615405101E-002
  -1.3571807323583700E-002   3.6147346042421091E-003   5.9369387964461062E-002
  -1.2387630759153867E-002   3.1958245160924603E-003   5.9569976080019849E-002
  -1.1203454194724051E-002   2.8132598840860668E-003   5.9983721962081710E-002
  -1.0019277630294240E-002   2.4670407082222345E-003   6.0610625610646285E-002
  -1.7841476616365579E-002   4.8967077137989645E-003   5.5944880323390622E-002
  -1.6447597156587980E-002   4.4474149899835225E-003   5.5858826215202162E-002
  -1.5053717696810371E-002   3.9976052653084571E-003   5.5979020131206231E-002
  -1.3659838237032788E-002   3.5472785397741569E-003   5.6305462071402884E-002
  -1.2265958777255191E-002   3.0964348133799557E-003   5.6838152035792538E-002
  -2.1014913158448723E-002   5.7234252790636930E-003   5.2532197080354337E-002
  -1.9418240545633625E-002   5.2800953757251301E-003   5.2335796057918868E-002
  -1.7821567932818486E-002   4.7993860145245093E-003   5.2338733317365715E-002
  -1.6224895320003360E-002   4.2812971954620249E-003   5.2541008858694997E-002
  -1.4628222707188247E-002   3.7258289185376214E-003   5.2942622681906672E-002
  -2.4276293514262998E-002   6.5501428443283105E-003   4.9143907886295968E-002
  -2.2483737490720579E-002   6.1127757614664602E-003   4.8800297492611167E-002
  -2.0691181467178188E-002   5.6011667637403395E-003   4.8649115638498497E-002
  -1.8898625443635797E-002   5.0153158511502816E-003   4.8690362323958125E-002
  -1.7106069420093378E-002   4.3552230236952871E-003   4.8924037548989774E-002
  -7.8881792663053549E-003   1.8376466030645133E-003   6.4260043406468959E-002
  -6.9602404693336270E-003   1.6776519246546329E-003   6.4136113799304284E-002
  -6.0323016723618957E-003   1.6076492269479215E-003   6.4270350186177216E-002
  -5.1043628753901678E-003   1.6276385099429150E-003   6.4662752567087756E-002
  -4.1764240784184364E-003   1.7376197736407306E-003   6.5313320942036124E-002
  -1.0019277630294240E-002   2.4670407082222345E-003   6.0610625610646285E-002
  -8.8336753621630522E-003   2.1904484345186548E-003   6.0467060862071209E-002
  -7.6480730940318258E-003   2.0167645089925468E-003   6.0580657061777399E-002
  -6.4624708259006011E-003   1.9459889316439591E-003   6.0951414209764854E-002
  -5.2768685577694145E-003   1.9781217024729125E-003   6.1579332306033463E-002
  -1.2265958777255191E-002   3.0964348133799557E-003   5.6838152035792538E-002
  -1.0823698083720966E-002   2.7032449443823436E-003   5.6687868513282030E-002
  -9.3814373901867261E-003   2.4258797910373803E-003   5.6793740893296349E-002
  -7.9391766966525248E-003   2.2643393533448887E-003   5.7155769175835543E-002
  -6.4969160031182905E-003   2.2186236313050944E-003   5.7773953360899549E-002
  -1.4628222707188247E-002   3.7258289185376214E-003   5.2942622681906672E-002
  -1.2930308634007452E-002   3.2160414542460880E-003   5.2798536752935908E-002
  -1.1232394560826600E-002   2.8349950730820542E-003   5.2909601680733775E-002
  -9.5344804876457794E-003   2.5826897750459311E-003   5.3275817465300218E-002
  -7.8365664144649551E-003   2.4591255601371098E-003   5.3897184106634514E-002
  -1.7106069420093378E-002   4.3552230236952871E-003   4.8924037548989774E-002
  -1.5153507013022399E-002   3.7288379641099989E-003   4.8799065581033862E-002
  -1.3200944605951448E-002   3.2441103551267558E-003   4.8928239424089914E-002
  -1.1248382198880469E-002   2.9010401967469526E-003   4.9311559078158096E-002
  -9.2958197918095176E-003   2.6996274889694583E-003   4.9949024543238130E-002
  -4.1764240784184364E-003   1.7376197736407306E-003   6.5313320942036124E-002
  -3.6413133168630429E-003   2.0123854670918706E-003   6.4411464392414297E-002
  -3.1062025553076182E-003   2.5267280393478087E-003   6.3623862112536456E-002
  -2.5710917937522056E-003   3.2806474904081492E-003   6.2950514102402017E-002
  -2.0359810321968000E-003   4.2741438202736903E-003   6.2391420362011618E-002
  -5.2768685577694145E-003   1.9781217024729125E-003   6.1579332306033463E-002
  -4.6007193822778271E-003   2.2262904290533680E-003   6.0869027155671385E-002
  -3.9245702067862240E-003   2.8036227189592311E-003   6.0326544563438139E-002
  -3.2484210312945976E-003   3.7101185721909596E-003   5.9951884529333574E-002
  -2.5722718558030301E-003   4.9457779887481790E-003   5.9745047053357370E-002
  -6.4969160031182905E-003   2.2186236313050944E-003   5.7773953360899549E-002
  -5.6261601253055470E-003   2.4401953910147822E-003   5.7344786294318162E-002
  -4.7554042474928322E-003   3.0805173985707784E-003   5.7137010074250386E-002
  -3.8846483696801308E-003   4.1395896539733294E-003   5.7150624700696200E-002
  -3.0138924918673721E-003   5.6174121572221680E-003   5.7385630173655527E-002
  -7.8365664144649551E-003   2.4591255601371098E-003   5.3897184106634514E-002
  -6.7176355459462080E-003   2.6541003529760160E-003   5.3838741808354476E-002
  -5.5987046774274452E-003   3.3574120781822633E-003   5.4055258644973278E-002
  -4.4797738089086634E-003   4.5690607357556975E-003   5.4546734616490726E-002
  -3.3608429403899358E-003   6.2890463256961848E-003   5.5313169722906237E-002
  -9.2958197918095176E-003   2.6996274889694583E-003   4.9949024543238130E-002
  -7.8751456441998047E-003   2.8680053149376938E-003   5.0350893697780563E-002
  -6.4544714965900640E-003   3.6343067577936927E-003   5.1081290275606650E-002
  -5.0337973489803442E-003   4.9985318175383847E-003   5.2140214276715835E-002
  -3.6131232013706105E-003   6.9606804941704237E-003   5.3527665701108784E-002
  -2.0359810321968000E-003   4.2741438202736903E-003   6.2391420362011618E-002
  -2.2871914758808218E-003   5.5825596056937599E-003   5.8350968454816687E-002
  -2.5384019195648540E-003   7.2812374234178801E-003   5.4307952761642853E-002
  -2.7896123632488567E-003   9.3701772734466823E-003   5.0262373282489531E-002
  -3.0408228069329080E-003   1.1849379155778994E-002   4.6214230017357583E-002
  -2.5722718558030301E-003   4.9457779887481790E-003   5.9745047053357370E-002
  -2.8439930528820316E-003   6.5725236244040808E-003   5.6202953819876778E-002
  -3.1157142499610331E-003   8.6522781349319400E-003   5.2622402865585172E-002
  -3.3874354470400537E-003   1.1185041520332305E-002   4.9003394190483385E-002
  -3.6591566441190743E-003   1.4170813780604696E-002   4.5345927794569807E-002
  -3.0138924918673721E-003   5.6174121572221680E-003   5.7385630173655527E-002
  -3.3420183771730571E-003   7.5624876431144017E-003   5.4404642456456931E-002
  -3.6701442624787412E-003   1.0023318846446347E-002   5.1349303083615946E-002
  -3.9982701477843975E-003   1.2999905767218541E-002   4.8219612055132109E-002
  -4.3263960330900825E-003   1.6492248405430177E-002   4.5015569371006592E-002
  -3.3608429403899358E-003   6.2890463256961848E-003   5.5313169722906237E-002
  -3.7812674487539724E-003   8.5524516618247226E-003   5.2956034364557182E-002
  -4.2016919571179808E-003   1.1394359557960580E-002   5.0488653415734094E-002
  -4.6221164654820868E-003   1.4814770014104471E-002   4.7911026876436974E-002
  -5.0425409738460540E-003   1.8813683030255879E-002   4.5223154746664940E-002
  -3.6131232013706105E-003   6.9606804941704237E-003   5.3527665701108784E-002
  -4.1617402676246973E-003   9.5424156805347105E-003   5.1857129544177538E-002
  -4.7103573338787980E-003   1.2765400269474925E-002   5.0040453861940337E-002
  -5.2589744001328709E-003   1.6629634260990650E-002   4.8077638654397403E-002
  -5.8075914663869854E-003   2.1135117655081359E-002   4.5968683921548070E-002
  -5.1270432867755705E-002   1.7859365141424610E-002   5.2619559985710440E-002
  -4.9297344166305185E-002   1.4334063323285628E-002   5.2298846346588213E-002
  -4.7324255464854734E-002   1.2080698623754688E-002   5.1791013251899831E-002
  -4.5351166763404234E-002   1.1099271042831739E-002   5.1096060701645241E-002
  -4.3378078061953734E-002   1.1389780580517095E-002   5.0213988695824496E-002
  -5.6805552173083043E-002   1.8649122025228781E-002   4.3936596264421479E-002
  -5.4920791484802223E-002   1.6277323547379458E-002   4.4266792192801135E-002
  -5.3036030796521409E-002   1.4663452764107743E-002   4.4607451550407712E-002
  -5.1151270108240554E-002   1.3807509675413346E-002   4.4958574337241083E-002
  -4.9266509419959734E-002   1.3709494281296586E-002   4.5320160553301292E-002
  -6.2803485759897748E-002   1.9438878909032925E-002   3.6664140595437406E-002
  -6.0809470199993637E-002   1.8220583771473425E-002   3.7131236667288403E-002
  -5.8815454640089429E-002   1.7246206904460812E-002   3.7806379053159339E-002
  -5.6821439080185297E-002   1.6515748307994977E-002   3.8689567753050054E-002
  -5.4827423520281096E-002   1.6029207982076132E-002   3.9780802766960624E-002
  -6.9264233628199751E-002   2.0228635792837096E-002   3.0802192978758566E-002
  -6.6963380311879234E-002   2.0163843995567296E-002   3.0892179770050335E-002
  -6.4662526995558814E-002   1.9828961044813818E-002   3.1387795760154852E-002
  -6.2361673679238297E-002   1.9223986940576678E-002   3.2289040949072458E-002
  -6.0060820362917822E-002   1.8348921682855623E-002   3.3595915336802604E-002
  -7.6187795777989120E-002   2.1018392676641240E-002   2.6350753414384587E-002
  -7.3382521820459345E-002   2.2107104219661167E-002   2.5549621501086472E-002
  -7.0577247862929487E-002   2.2411715185166936E-002   2.5351701671394333E-002
  -6.7771973905399699E-002   2.1932225573158173E-002   2.5756993925307892E-002
  -6.4966699947869883E-002   2.0668635383635170E-002   2.6765498262827314E-002
  -4.3378078061953734E-002   1.1389780580517095E-002   5.0213988695824496E-002
  -4.2003801502719693E-002   1.2106057555019201E-002   4.9615030615808409E-002
  -4.0629524943485665E-002   1.2401932284546946E-002   4.9351513439317318E-002
  -3.9255248384251637E-002   1.2277404769100289E-002   4.9423437166351211E-002
  -3.7880971825017595E-002   1.1732475008679133E-002   4.9830801796910129E-002
  -4.9266509419959734E-002   1.3709494281296586E-002   4.5320160553301292E-002
  -4.7595429802894204E-002   1.3870680747633424E-002   4.4680118775953959E-002
  -4.5924350185828682E-002   1.3792343240300084E-002   4.4298242210744576E-002
  -4.4253270568763131E-002   1.3474481759296355E-002   4.4174530857673283E-002
  -4.2582190951697629E-002   1.2917096304622566E-002   4.4308984716739830E-002
  -5.4827423520281096E-002   1.6029207982076132E-002   3.9780802766960624E-002
  -5.2936816536771167E-002   1.5635303940247619E-002   3.9280555563586297E-002
  -5.1046209553261175E-002   1.5182754196053222E-002   3.8961197880962944E-002
  -4.9155602569751183E-002   1.4671558749492643E-002   3.8822729719090461E-002
  -4.7264995586241247E-002   1.4101717600566110E-002   3.8865151077968951E-002
  -6.0060820362917822E-002   1.8348921682855623E-002   3.3595915336802604E-002
  -5.8027961704350463E-002   1.7399927132861884E-002   3.3416340978705453E-002
  -5.5995103045783104E-002   1.6573165151806388E-002   3.3340380449972166E-002
  -5.3962244387215738E-002   1.5868635739688820E-002   3.3368033750602877E-002
  -5.1929385728648386E-002   1.5286338896509627E-002   3.3499300880597160E-002
  -6.4966699947869883E-002   2.0668635383635170E-002   2.6765498262827314E-002
  -6.2868865305632196E-002   1.9164550325476010E-002   2.7087475021311480E-002
  -6.0771030663394537E-002   1.7963576107559540E-002   2.7435789917772541E-002
  -5.8673196021156851E-002   1.7065712729885007E-002   2.7810442952210426E-002
  -5.6575361378919165E-002   1.6470960192453088E-002   2.8211434124624957E-002
  -3.7880971825017595E-002   1.1732475008679133E-002   4.9830801796910129E-002
  -3.6139453284274106E-002   1.0981998669019555E-002   4.9524397419015487E-002
  -3.4397934743530645E-002   1.0240831415857271E-002   4.9405177455898952E-002
  -3.2656416202787177E-002   9.5089732491926357E-003   4.9473141907560692E-002
  -3.0914897662043694E-002   8.7864241690253087E-003   4.9728290774000539E-002
  -4.2582190951697629E-002   1.2917096304622566E-002   4.4308984716739830E-002
  -4.0656782815624078E-002   1.2235540676682477E-002   4.4017946368350935E-002
  -3.8731374679550526E-002   1.1545168675880041E-002   4.3907502795844072E-002
  -3.6805966543476988E-002   1.0845980302214946E-002   4.3977653999219241E-002
  -3.4880558407403423E-002   1.0137975555687850E-002   4.4228399978476218E-002
  -4.7264995586241247E-002   1.4101717600566110E-002   3.8865151077968951E-002
  -4.5162287493733834E-002   1.3489082684345427E-002   3.8571353299726052E-002
  -4.3059579401226442E-002   1.2849505935902603E-002   3.8451560658468997E-002
  -4.0956871308719070E-002   1.2182987355237703E-002   3.8505773154197578E-002
  -3.8854163216211692E-002   1.1489526942350559E-002   3.8733990786912115E-002
  -5.1929385728648386E-002   1.5286338896509627E-002   3.3499300880597160E-002
  -4.9655967318603368E-002   1.4742624692008363E-002   3.3184618213140657E-002
  -4.7382548908558357E-002   1.4153843195925268E-002   3.3037351043773699E-002
  -4.5109130498513346E-002   1.3519994408260237E-002   3.3057499372496212E-002
  -4.2835712088468335E-002   1.2841078329013239E-002   3.3245063199308054E-002
  -5.6575361378919165E-002   1.6470960192453088E-002   2.8211434124624957E-002
  -5.4137822290232757E-002   1.5996166699671271E-002   2.7857741108594847E-002
  -5.1700283201546349E-002   1.5458180455947892E-002   2.7664873951758207E-002
  -4.9262744112859941E-002   1.4857001461282705E-002   2.7632832654114717E-002
  -4.6825205024173477E-002   1.4192629715675864E-002   2.7761617215664447E-002
  -3.0914897662043694E-002   8.7864241690253087E-003   4.9728290774000539E-002
  -2.9255246625098527E-002   8.1082356835426861E-003   4.9336068882965933E-002
  -2.7595595588153346E-002   7.5094593009325805E-003   4.9107931104670322E-002
  -2.5935944551208186E-002   6.9900950211943466E-003   4.9043877439113703E-002
  -2.4276293514262998E-002   6.5501428443283105E-003   4.9143907886295968E-002
  -3.4880558407403423E-002   1.0137975555687850E-002   4.4228399978476218E-002
  -3.3056221253415445E-002   9.4494641602596852E-003   4.3892443617263244E-002
  -3.1231884099427412E-002   8.8087558398916299E-003   4.3721775377397243E-002
  -2.9407546945439407E-002   8.2158505945836360E-003   4.3716395258877952E-002
  -2.7583209791451443E-002   7.6707484243363488E-003   4.3876303261705274E-002
  -3.8854163216211692E-002   1.1489526942350559E-002   3.8733990786912115E-002
  -3.6863935936573049E-002   1.0790692636976518E-002   3.8422690927708919E-002
  -3.4873708656934330E-002   1.0108052378850804E-002   3.8277883198460261E-002
  -3.2883481377295687E-002   9.4416061679732065E-003   3.8299567599166258E-002
  -3.0893254097656961E-002   8.7913540043441096E-003   3.8487744129826862E-002
  -4.2835712088468335E-002   1.2841078329013239E-002   3.3245063199308054E-002
  -4.0678390674571199E-002   1.2131921113693434E-002   3.2926810814302751E-002
  -3.8521069260674043E-002   1.1407348917810027E-002   3.2776254567859792E-002
  -3.6363747846776893E-002   1.0667361741362692E-002   3.2793394459979162E-002
  -3.4206426432879751E-002   9.9119595843518427E-003   3.2978230490660898E-002
  -4.6825205024173477E-002   1.4192629715675864E-002   2.7761617215664447E-002
  -4.4499585467410063E-002   1.3473149590410460E-002   2.7404803277044754E-002
  -4.2173965910646594E-002   1.2706645456768959E-002   2.7216889485595336E-002
  -3.9848346353883152E-002   1.1893117314752105E-002   2.7197875841316180E-002
  -3.7522726797119682E-002   1.1032565164359798E-002   2.7347762344207216E-002
  -2.4276293514262998E-002   6.5501428443283105E-003   4.9143907886295968E-002
  -2.2483737490720579E-002   6.1127757614664602E-003   4.8800297492611167E-002
  -2.0691181467178188E-002   5.6011667637403395E-003   4.8649115638498497E-002
  -1.8898625443635797E-002   5.0153158511502816E-003   4.8690362323958125E-002
  -1.7106069420093378E-002   4.3552230236952871E-003   4.8924037548989774E-002
  -2.7583209791451443E-002   7.6707484243363488E-003   4.3876303261705274E-002
  -2.5610892277625731E-002   7.1295569294622108E-003   4.3459785970125675E-002
  -2.3638574763800040E-002   6.5483837102752740E-003   4.3210363119540601E-002
  -2.1666257249974362E-002   5.9272287667753859E-003   4.3128034709949817E-002
  -1.9693939736148691E-002   5.2660920989620053E-003   4.3212800741353419E-002
  -3.0893254097656961E-002   8.7913540043441096E-003   3.8487744129826862E-002
  -2.8766509192125769E-002   8.1463380974579891E-003   3.8032580130903937E-002
  -2.6639764286594578E-002   7.4956006568102085E-003   3.7719176474397459E-002
  -2.4513019381063351E-002   6.8391416824006013E-003   3.7547533160307886E-002
  -2.2386274475532188E-002   6.1769611742290009E-003   3.7517650188634732E-002
  -3.4206426432879751E-002   9.9119595843518427E-003   3.2978230490660898E-002
  -3.1950588234220756E-002   9.1631192654536425E-003   3.2518679974945564E-002
  -2.9694750035561792E-002   8.4428176033451430E-003   3.2175555703069160E-002
  -2.7438911836902787E-002   7.7510545980257611E-003   3.1948857675031694E-002
  -2.5183073638243830E-002   7.0878302494959688E-003   3.1838585890833056E-002
  -3.7522726797119682E-002   1.1032565164359798E-002   2.7347762344207216E-002
  -3.5163129403910642E-002   1.0179900433449574E-002   2.6918085502250833E-002
  -3.2803532010701672E-002   9.3900345498798277E-003   2.6579500805555656E-002
  -3.0443934617492695E-002   8.6629675136510251E-003   2.6332008254121658E-002
  -2.8084337224283662E-002   7.9986993247627147E-003   2.6175607847948590E-002
  -1.7106069420093378E-002   4.3552230236952871E-003   4.8924037548989774E-002
  -1.5153507013022399E-002   3.7288379641099989E-003   4.8799065581033862E-002
  -1.3200944605951448E-002   3.2441103551267558E-003   4.8928239424089914E-002
  -1.1248382198880469E-002   2.9010401967469526E-003   4.9311559078158096E-002
  -9.2958197918095176E-003   2.6996274889694583E-003   4.9949024543238130E-002
  -1.9693939736148691E-002   5.2660920989620053E-003   4.3212800741353419E-002
  -1.7525780630160116E-002   4.6282711958986478E-003   4.3058950590182832E-002
  -1.5357621524171576E-002   4.0770635466478855E-003   4.3082148025835293E-002
  -1.3189462418182998E-002   3.6124691512094548E-003   4.3282393048311121E-002
  -1.1021303312194516E-002   3.2344880095837025E-003   4.3659685657610026E-002
  -2.2386274475532188E-002   6.1769611742290009E-003   3.7517650188634732E-002
  -2.0079616894814665E-002   5.5277044276878795E-003   3.7279877657458882E-002
  -1.7772959314097274E-002   4.9100167381687793E-003   3.7142054488917456E-002
  -1.5466301733379872E-002   4.3238981056721755E-003   3.7104180683010600E-002
  -1.3159644152662360E-002   3.7693485301979468E-003   3.7166256239738182E-002
  -2.5183073638243830E-002   7.0878302494959688E-003   3.1838585890833056E-002
  -2.2815015806986229E-002   6.4271376594768198E-003   3.1461846782861916E-002
  -2.0446957975728604E-002   5.7429699296897910E-003   3.1107958813336504E-002
  -1.8078900144470989E-002   5.0353270601350090E-003   3.0776921982257045E-002
  -1.5710842313213430E-002   4.3042090508122466E-003   3.0468736289623280E-002
  -2.8084337224283662E-002   7.9986993247627147E-003   2.6175607847948590E-002
  -2.5731977366674513E-002   7.3265708912657601E-003   2.5604857966392003E-002
  -2.3379617509065503E-002   6.5759231212106917E-003   2.4979860999092551E-002
  -2.1027257651456438E-002   5.7467560145975927E-003   2.4300616946049958E-002
  -1.8674897793847345E-002   4.8390695714264353E-003   2.3567125807264500E-002
  -9.2958197918095176E-003   2.6996274889694583E-003   4.9949024543238130E-002
  -7.8751456441998047E-003   2.8680053149376938E-003   5.0350893697780563E-002
  -6.4544714965900640E-003   3.6343067577936927E-003   5.1081290275606650E-002
  -5.0337973489803442E-003   4.9985318175383847E-003   5.2140214276715835E-002
  -3.6131232013706105E-003   6.9606804941704237E-003   5.3527665701108784E-002
  -1.1021303312194516E-002   3.2344880095837025E-003   4.3659685657610026E-002
  -9.2541051624082382E-003   3.1725756464295318E-003   4.4238418030972337E-002
  -7.4869070126219253E-003   3.6561875864070115E-003   4.5181670985404487E-002
  -5.7197088628355881E-003   4.6853238295154892E-003   4.6489444520906226E-002
  -3.9525107130493342E-003   6.2599843757550344E-003   4.8161738637477525E-002
  -1.3159644152662360E-002   3.7693485301979468E-003   3.7166256239738182E-002
  -1.1009928842913318E-002   3.4771459779220359E-003   3.7869452518163482E-002
  -8.8602135331642129E-003   3.6780684150200249E-003   3.8973162535444777E-002
  -6.7104982234151653E-003   4.3721158414928227E-003   4.0477386291582110E-002
  -4.5607829136660658E-003   5.5592882573390900E-003   4.2382123786575299E-002
  -1.5710842313213430E-002   4.3042090508122466E-003   3.0468736289623280E-002
  -1.3142616685715194E-002   3.7817163094140960E-003   3.1243997159354414E-002
  -1.0574391058216982E-002   3.6999492436331910E-003   3.2455764925727798E-002
  -8.0061654307187428E-003   4.0589078534695976E-003   3.4104039588743279E-002
  -5.4379398032205883E-003   4.8585921389233122E-003   3.6188821148401051E-002
  -1.8674897793847345E-002   4.8390695714264353E-003   2.3567125807264500E-002
  -1.5652168690813761E-002   4.0862866409064891E-003   2.4362051954544439E-002
  -1.2629439587780206E-002   3.7218300722466902E-003   2.5629478156252994E-002
  -9.6067104847466639E-003   3.7456998654473994E-003   2.7369404412390053E-002
  -6.5839813817130666E-003   4.1578960205075344E-003   2.9581830722955615E-002
  -3.6131232013706105E-003   6.9606804941704237E-003   5.3527665701108784E-002
  -4.1617402676246973E-003   9.5424156805347105E-003   5.1857129544177538E-002
  -4.7103573338787980E-003   1.2765400269474925E-002   5.0040453861940337E-002
  -5.2589744001328709E-003   1.6629634260990650E-002   4.8077638654397403E-002
  -5.8075914663869854E-003   2.1135117655081359E-002   4.5968683921548070E-002
  -3.9525107130493342E-003   6.2599843757550344E-003   4.8161738637477525E-002
  -4.5434819386189762E-003   8.6935619083575166E-003   4.7232882693683587E-002
  -5.1344531641885627E-003   1.2299449110553667E-002   4.6365457956564493E-002
  -5.7254243897582255E-003   1.7077645982344396E-002   4.5559464426119856E-002
  -6.3163956153277911E-003   2.3028152523729251E-002   4.4814902102350951E-002
  -4.5607829136660658E-003   5.5592882573390900E-003   4.2382123786575299E-002
  -4.9865375665703385E-003   7.8447081361792681E-003   4.2726008322937353E-002
  -5.4122922194746702E-003   1.1833497951632410E-002   4.3338894797955024E-002
  -5.8380468723789672E-003   1.7525657703698308E-002   4.4220783211628520E-002
  -6.2638015252832746E-003   2.4921187392377364E-002   4.5371673563957549E-002
  -5.4379398032205883E-003   4.8585921389233122E-003   3.6188821148401051E-002
  -5.4909071514788570E-003   6.9958543640013249E-003   3.8336506431937888E-002
  -5.5438744997371239E-003   1.1367546792711042E-002   4.0960764386111112E-002
  -5.5968418479954724E-003   1.7973669425052692E-002   4.4061595010920759E-002
  -5.6498091962536579E-003   2.6814222261025367E-002   4.7638998306367114E-002
  -6.5839813817130666E-003   4.1578960205075344E-003   2.9581830722955615E-002
  -6.0565906933444658E-003   6.1470005918238257E-003   3.4064377020685876E-002
  -5.5292000049759205E-003   1.0901595633789729E-002   3.9231066721033381E-002
  -5.0018093166074445E-003   1.8421681146406146E-002   4.5081899823997962E-002
  -4.4744186282388299E-003   2.8707257129673369E-002   5.1616876329579675E-002
  -7.6187795777989120E-002   2.1018392676641240E-002   2.6350753414384587E-002
  -7.3382521820459345E-002   2.2107104219661167E-002   2.5549621501086472E-002
  -7.0577247862929487E-002   2.2411715185166936E-002   2.5351701671394333E-002
  -6.7771973905399699E-002   2.1932225573158173E-002   2.5756993925307892E-002
  -6.4966699947869883E-002   2.0668635383635170E-002   2.6765498262827314E-002
  -8.2680986215567520E-002   2.3848017521599429E-002   2.1096103479063544E-002
  -7.9519288672712934E-002   2.3733833411946653E-002   2.0834086041744138E-002
  -7.6357591129858404E-002   2.3328440416508875E-002   2.0681703691468128E-002
  -7.3195893587003805E-002   2.2631838535285855E-002   2.0638956428235961E-002
  -7.0034196044149288E-002   2.1644027768277896E-002   2.0705844252047440E-002
  -8.7850618947236545E-002   2.6677642366557675E-002   1.4392112045205463E-002
  -8.4826074815619434E-002   2.5360562604232001E-002   1.5162100775593615E-002
  -8.1801530684002283E-002   2.4245165647850814E-002   1.5548147596463363E-002
  -7.8776986552385173E-002   2.3331451497413648E-002   1.5550252507814687E-002
  -7.5752442420768076E-002   2.2619420152920622E-002   1.5168415509647204E-002
  -9.1696693972996249E-002   2.9507267211515809E-002   6.2387791128096573E-003
  -8.9302880249178651E-002   2.6987291796517585E-002   8.5336657026349287E-003
  -8.6909066525361234E-002   2.5161890879192753E-002   9.9510333863795167E-003
  -8.4515252801543650E-002   2.4031064459541219E-002   1.0490882164043643E-002
  -8.2121439077726177E-002   2.3594812537563348E-002   1.0153212035626837E-002
  -9.4219211292846605E-002   3.2336892056474054E-002  -3.3638953181233111E-003
  -9.2949704973390945E-002   2.8614020988802946E-002   9.4878082286831145E-004
  -9.1680198653935063E-002   2.6078616110534719E-002   3.8903610612169570E-003
  -9.0410692334479348E-002   2.4730677421669033E-002   5.4608453969229240E-003
  -8.9141186015023632E-002   2.4570204922206074E-002   5.6602338299860944E-003
  -6.4966699947869883E-002   2.0668635383635170E-002   2.6765498262827314E-002
  -6.2868865305632196E-002   1.9164550325476010E-002   2.7087475021311480E-002
  -6.0771030663394537E-002   1.7963576107559540E-002   2.7435789917772541E-002
  -5.8673196021156851E-002   1.7065712729885007E-002   2.7810442952210426E-002
  -5.6575361378919165E-002   1.6470960192453088E-002   2.8211434124624957E-002
  -7.0034196044149288E-002   2.1644027768277896E-002   2.0705844252047440E-002
  -6.7825183018002694E-002   2.0572426375466621E-002   2.0675280213334854E-002
  -6.5616169991856058E-002   1.9624452616833848E-002   2.0840734804463523E-002
  -6.3407156965709449E-002   1.8800106492379821E-002   2.1202208025432996E-002
  -6.1198143939562827E-002   1.8099388002104200E-002   2.1759699876243710E-002
  -7.5752442420768076E-002   2.2619420152920622E-002   1.5168415509647204E-002
  -7.3262570518848255E-002   2.1980302425457218E-002   1.4605827467674332E-002
  -7.0772698616928476E-002   2.1285329126108220E-002   1.4408938547406630E-002
  -6.8282826715008654E-002   2.0534500254874695E-002   1.4577748748843978E-002
  -6.5792954813088875E-002   1.9727815811755478E-002   1.5112258071987128E-002
  -8.2121439077726177E-002   2.3594812537563348E-002   1.0153212035626837E-002
  -7.9181027808168963E-002   2.3388178475447600E-002   8.8791167843294480E-003
  -7.6240616538611639E-002   2.2946205635383087E-002   8.1404011466017171E-003
  -7.3300205269054383E-002   2.2268894017369287E-002   7.9370651224434652E-003
  -7.0359793999497100E-002   2.1356243621406534E-002   8.2691087118549229E-003
  -8.9141186015023632E-002   2.4570204922206074E-002   5.6602338299860944E-003
  -8.5580554885964666E-002   2.4796054525438316E-002   3.4951481633002102E-003
  -8.2019923756905644E-002   2.4607082144656955E-002   2.0351226020491470E-003
  -7.8459292627846677E-002   2.4003287779864393E-002   1.2801571462312707E-003
  -7.4898661498787655E-002   2.2984671431057868E-002   1.2302517958474590E-003
  -5.6575361378919165E-002   1.6470960192453088E-002   2.8211434124624957E-002
  -5.4137822290232757E-002   1.5996166699671271E-002   2.7857741108594847E-002
  -5.1700283201546349E-002   1.5458180455947892E-002   2.7664873951758207E-002
  -4.9262744112859941E-002   1.4857001461282705E-002   2.7632832654114717E-002
  -4.6825205024173477E-002   1.4192629715675864E-002   2.7761617215664447E-002
  -6.1198143939562827E-002   1.8099388002104200E-002   2.1759699876243710E-002
  -5.8598383708823268E-002   1.7443958828957440E-002   2.1387252954759906E-002
  -5.5998623478083626E-002   1.6755480655889748E-002   2.1178422458189114E-002
  -5.3398863247344046E-002   1.6033953482900994E-002   2.1133208386531648E-002
  -5.0799103016604438E-002   1.5279377309990960E-002   2.1251610739787097E-002
  -6.5792954813088875E-002   1.9727815811755478E-002   1.5112258071987128E-002
  -6.3028182874576288E-002   1.8891750958243678E-002   1.4751200996070191E-002
  -6.0263410936063577E-002   1.8052780855831486E-002   1.4556550910786316E-002
  -5.7498638997550901E-002   1.7210905504519057E-002   1.4528307816135223E-002
  -5.4733867059038280E-002   1.6366124904306029E-002   1.4666471712117254E-002
  -7.0359793999497100E-002   2.1356243621406534E-002   8.2691087118549229E-003
  -6.7427219787491638E-002   2.0339543087529714E-002   7.9495852325256952E-003
  -6.4494645575486162E-002   1.9350081055773117E-002   7.7992593095492103E-003
  -6.1562071363480735E-002   1.8387857526137068E-002   7.8181309429256746E-003
  -5.8629497151475252E-002   1.7452872498621055E-002   8.0062001326547221E-003
  -7.4898661498787655E-002   2.2984671431057868E-002   1.2302517958474590E-003
  -7.1795494447569608E-002   2.1787335216815751E-002   9.8240566412666208E-004
  -6.8692327396351449E-002   2.0647381255715025E-002   9.0654765447817365E-004
  -6.5589160345133374E-002   1.9564809547755399E-002   1.0026777669022990E-003
  -6.2485993293915243E-002   1.8539620092936082E-002   1.2707960013993436E-003
  -4.6825205024173477E-002   1.4192629715675864E-002   2.7761617215664447E-002
  -4.4499585467410063E-002   1.3473149590410460E-002   2.7404803277044754E-002
  -4.2173965910646594E-002   1.2706645456768959E-002   2.7216889485595336E-002
  -3.9848346353883152E-002   1.1893117314752105E-002   2.7197875841316180E-002
  -3.7522726797119682E-002   1.1032565164359798E-002   2.7347762344207216E-002
  -5.0799103016604438E-002   1.5279377309990960E-002   2.1251610739787097E-002
  -4.8312500181449655E-002   1.4501143041836417E-002   2.0895368282913662E-002
  -4.5825897346294782E-002   1.3708641583114023E-002   2.0692192235652829E-002
  -4.3339294511139922E-002   1.2901872933823222E-002   2.0642082598004430E-002
  -4.0852691675985126E-002   1.2080837093964458E-002   2.0745039369968465E-002
  -5.4733867059038280E-002   1.6366124904306029E-002   1.4666471712117254E-002
  -5.2102114683049774E-002   1.5529136493262763E-002   1.4343557554797409E-002
  -4.9470362307061318E-002   1.4710637709458761E-002   1.4157876069532609E-002
  -4.6838609931072861E-002   1.3910628552894396E-002   1.4109427256322530E-002
  -4.4206857555084349E-002   1.3129109023568952E-002   1.4198211115167142E-002
  -5.8629497151475252E-002   1.7452872498621055E-002   8.0062001326547221E-003
  -5.5868428972210768E-002   1.6557129944688914E-002   7.7493710926961473E-003
  -5.3107360792946333E-002   1.5712633835803552E-002   7.6139409872348022E-003
  -5.0346292613681808E-002   1.4919384171965210E-002   7.5999098162706528E-003
  -4.7585224434417414E-002   1.4177380953173419E-002   7.7072775798035231E-003
  -6.2485993293915243E-002   1.8539620092936082E-002   1.2707960013993436E-003
  -5.9611443048932400E-002   1.7585123396115288E-002   1.1128088966096961E-003
  -5.6736892803949723E-002   1.6714629962148647E-002   1.0603869887591821E-003
  -5.3862342558966964E-002   1.5928139791036265E-002   1.1135302778485165E-003
  -5.0987792313984204E-002   1.5225652882778329E-002   1.2722387638771648E-003
  -3.7522726797119682E-002   1.1032565164359798E-002   2.7347762344207216E-002
  -3.5163129403910642E-002   1.0179900433449574E-002   2.6918085502250833E-002
  -3.2803532010701672E-002   9.3900345498798277E-003   2.6579500805555656E-002
  -3.0443934617492695E-002   8.6629675136510251E-003   2.6332008254121658E-002
  -2.8084337224283662E-002   7.9986993247627147E-003   2.6175607847948590E-002
  -4.0852691675985126E-002   1.2080837093964458E-002   2.0745039369968465E-002
  -3.8397157910123311E-002   1.1266858237035493E-002   2.0341595757054409E-002
  -3.5941624144261525E-002   1.0481260536534615E-002   2.0038932744184723E-002
  -3.3486090378399690E-002   9.7240439924618158E-003   1.9837050331359365E-002
  -3.1030556612537924E-002   8.9952086048168400E-003   1.9735948518578739E-002
  -4.4206857555084349E-002   1.3129109023568952E-002   1.4198211115167142E-002
  -4.1645698961786437E-002   1.2353816040621052E-002   1.3786583040382855E-002
  -3.9084540368488588E-002   1.1572486523189082E-002   1.3485424020425962E-002
  -3.6523381775190704E-002   1.0785120471272055E-002   1.3294734055296992E-002
  -3.3962223181892889E-002   9.9917178848711874E-003   1.3214513144995527E-002
  -4.7585224434417414E-002   1.4177380953173419E-002   7.7072775798035231E-003
  -4.4908752558900082E-002   1.3440773844206957E-002   7.2530473522360583E-003
  -4.2232280683382875E-002   1.2663712509843932E-002   6.9189746342798765E-003
  -3.9555808807865592E-002   1.1846196950083236E-002   6.7050594259345456E-003
  -3.6879336932348343E-002   1.0988227164925535E-002   6.6113017272002444E-003
  -5.0987792313984204E-002   1.5225652882778329E-002   1.2722387638771648E-003
  -4.8186318701464281E-002   1.4527731647792641E-002   7.4098869261463030E-004
  -4.5384845088944359E-002   1.3754938496498337E-002   3.3958458574614991E-004
  -4.2583371476424409E-002   1.2907273428892974E-002   6.8026443271924919E-005
  -3.9781897863904514E-002   1.1984736444979438E-002  -7.3685734807815706E-005
  -2.8084337224283662E-002   7.9986993247627147E-003   2.6175607847948590E-002
  -2.5731977366674513E-002   7.3265708912657601E-003   2.5604857966392003E-002
  -2.3379617509065503E-002   6.5759231212106917E-003   2.4979860999092551E-002
  -2.1027257651456438E-002   5.7467560145975927E-003   2.4300616946049958E-002
  -1.8674897793847345E-002   4.8390695714264353E-003   2.3567125807264500E-002
  -3.1030556612537924E-002   8.9952086048168400E-003   1.9735948518578739E-002
  -2.8716172329916662E-002   8.2735259627747526E-003   1.9149725465785639E-002
  -2.6401788047295371E-002   7.5377676555092032E-003   1.8541798348759936E-002
  -2.4087403764674123E-002   6.7879336830206985E-003   1.7912167167501616E-002
  -2.1773019482052763E-002   6.0240240453087734E-003   1.7260831922010389E-002
  -3.3962223181892889E-002   9.9917178848711874E-003   1.3214513144995527E-002
  -3.1653271452749231E-002   9.2204810342838561E-003   1.2677260592301426E-002
  -2.9344319723605579E-002   8.4996121898080479E-003   1.2150846996884693E-002
  -2.7035367994461948E-002   7.8291113514438043E-003   1.1635272358745230E-002
  -2.4726416265318324E-002   7.2089785191911115E-003   1.1130536677883274E-002
  -3.6879336932348343E-002   1.0988227164925535E-002   6.6113017272002444E-003
  -3.4543274735172290E-002   1.0167436105792960E-002   6.1874633459395659E-003
  -3.2207212537996147E-002   9.4614567241065040E-003   5.8070069434662600E-003
  -2.9871150340820045E-002   8.8702890198668546E-003   5.4699325197806944E-003
  -2.7535088143643954E-002   8.3939329930735052E-003   5.1762400748823906E-003
  -3.9781897863904514E-002   1.1984736444979438E-002  -7.3685734807815706E-005
  -3.7386182177185812E-002   1.1114391177301730E-002  -3.1966627330026753E-004
  -3.4990466490467054E-002   1.0423301258405016E-002  -4.8972181149492533E-004
  -3.2594750803748351E-002   9.9114666882898633E-003  -5.8385234939183073E-004
  -3.0199035117029593E-002   9.5788874669557877E-003  -6.0205788699119189E-004
  -1.8674897793847345E-002   4.8390695714264353E-003   2.3567125807264500E-002
  -1.5652168690813761E-002   4.0862866409064891E-003   2.4362051954544439E-002
  -1.2629439587780206E-002   3.7218300722466902E-003   2.5629478156252994E-002
  -9.6067104847466639E-003   3.7456998654473994E-003   2.7369404412390053E-002
  -6.5839813817130666E-003   4.1578960205075344E-003   2.9581830722955615E-002
  -2.1773019482052763E-002   6.0240240453087734E-003   1.7260831922010389E-002
  -1.8547085130722257E-002   5.3468629928996037E-003   1.8219137766943339E-002
  -1.5321150779391585E-002   4.8572747763186708E-003   1.9111354054041685E-002
  -1.2095216428060988E-002   4.5552593955664397E-003   1.9937480783305844E-002
  -8.8692820767302949E-003   4.4408168506425705E-003   2.0697517954735511E-002
  -2.4726416265318324E-002   7.2089785191911115E-003   1.1130536677883274E-002
  -2.1835866277953586E-002   6.6074393448925517E-003   1.2051468694437267E-002
  -1.8945316290588876E-002   5.9927194803910955E-003   1.2367721540893634E-002
  -1.6054766303224100E-002   5.3648189256857021E-003   1.2079295217252983E-002
  -1.3164216315859373E-002   4.7237376807774956E-003   1.1186189723514650E-002
  -2.7535088143643954E-002   8.3939329930735052E-003   5.1762400748823906E-003
  -2.5518512132508039E-002   7.8680156968858050E-003   5.8590447370255108E-003
  -2.3501936121372025E-002   7.1281641844631871E-003   5.3985806168084238E-003
  -2.1485360110236048E-002   6.1743784558056306E-003   3.7948477142314176E-003
  -1.9468784099100096E-002   5.0066585109124762E-003   1.0478460292938502E-003
  -3.0199035117029593E-002   9.5788874669557877E-003  -6.0205788699119189E-004
  -2.9595022694385409E-002   9.1285920488789474E-003  -3.5813410529039746E-004
  -2.8991010271741058E-002   8.2636088885353898E-003  -1.7960687182132506E-003
  -2.8386997849096790E-002   6.9839379859243100E-003  -4.9158617257586412E-003
  -2.7782985426452522E-002   5.2895793410474568E-003  -9.7175131279275684E-003
  -6.5839813817130666E-003   4.1578960205075344E-003   2.9581830722955615E-002
  -6.0565906933444658E-003   6.1470005918238257E-003   3.4064377020685876E-002
  -5.5292000049759205E-003   1.0901595633789729E-002   3.9231066721033381E-002
  -5.0018093166074445E-003   1.8421681146406146E-002   4.5081899823997962E-002
  -4.4744186282388299E-003   2.8707257129673369E-002   5.1616876329579675E-002
  -8.8692820767302949E-003   4.4408168506425705E-003   2.0697517954735511E-002
  -7.5849787188435325E-003   5.6610309413397397E-003   2.5866815428287060E-002
  -6.3006753609568950E-003   9.3629854674517343E-003   3.1865794838258077E-002
  -5.0163720030701464E-003   1.5546680428978055E-002   3.8694456184648424E-002
  -3.7320686451834950E-003   2.4212115825918534E-002   4.6352799467457517E-002
  -1.3164216315859373E-002   4.7237376807774956E-003   1.1186189723514650E-002
  -1.0977461754652570E-002   5.1750612908567639E-003   1.6758488337652339E-002
  -8.7907071934456571E-003   7.8243753011139339E-003   2.3306007422010860E-002
  -6.6039526322387472E-003   1.2671679711549901E-002   3.0828746976590410E-002
  -4.4171980710319414E-003   1.9716974522163921E-002   3.9326707001391625E-002
  -1.9468784099100096E-002   5.0066585109124762E-003   1.0478460292938502E-003
  -1.6234039800771215E-002   4.6890916403731220E-003   6.7393957487807757E-003
  -1.2999295502442195E-002   6.2857651347767024E-003   1.3551704472291197E-002
  -9.7645512041132712E-003   9.7966789941212225E-003   2.1484772199823806E-002
  -6.5298069057842870E-003   1.5221833218409198E-002   3.0538598931380806E-002
  -2.7782985426452522E-002   5.2895793410474568E-003  -9.7175131279275684E-003
  -2.3354712857199589E-002   4.2031219898892580E-003  -4.1904623383272610E-003
  -1.8926440287946711E-002   4.7471549684381387E-003   2.6028859890984690E-003
  -1.4498167718693583E-002   6.9216782766930995E-003   1.0662531854349580E-002
  -1.0069895149440899E-002   1.0726691914654474E-002   1.9988475257424643E-002
 </DataArray>
 </PointData>
 </Piece>
 </UnstructuredGrid>
 </VTKFile>
