 <VTKFile type="UnstructuredGrid"  version="0.1"   >
 <UnstructuredGrid>
 <Piece  NumberOfPoints="          1600 "  NumberOfCells="         1024 ">
 <Points>
 <DataArray  type="Float64" NumberOfComponents="3"  format="ascii" >
   0.0000000000000000        0.0000000000000000        0.0000000000000000     
   3.1250000000000000E-002   0.0000000000000000        0.0000000000000000     
   6.2500000000000000E-002   0.0000000000000000        0.0000000000000000     
   9.3750000000000000E-002   0.0000000000000000        0.0000000000000000     
  0.12500000000000000        0.0000000000000000        0.0000000000000000     
   0.0000000000000000        3.1250000000000000E-002   0.0000000000000000     
   3.1250000000000000E-002   3.1250000000000000E-002   0.0000000000000000     
   6.2500000000000000E-002   3.1250000000000000E-002   0.0000000000000000     
   9.3750000000000000E-002   3.1250000000000000E-002   0.0000000000000000     
  0.12500000000000000        3.1250000000000000E-002   0.0000000000000000     
   0.0000000000000000        6.2500000000000000E-002   0.0000000000000000     
   3.1250000000000000E-002   6.2500000000000000E-002   0.0000000000000000     
   6.2500000000000000E-002   6.2500000000000000E-002   0.0000000000000000     
   9.3750000000000000E-002   6.2500000000000000E-002   0.0000000000000000     
  0.12500000000000000        6.2500000000000000E-002   0.0000000000000000     
   0.0000000000000000        9.3750000000000000E-002   0.0000000000000000     
   3.1250000000000000E-002   9.3750000000000000E-002   0.0000000000000000     
   6.2500000000000000E-002   9.3750000000000000E-002   0.0000000000000000     
   9.3750000000000000E-002   9.3750000000000000E-002   0.0000000000000000     
  0.12500000000000000        9.3750000000000000E-002   0.0000000000000000     
   0.0000000000000000       0.12500000000000000        0.0000000000000000     
   3.1250000000000000E-002  0.12500000000000000        0.0000000000000000     
   6.2500000000000000E-002  0.12500000000000000        0.0000000000000000     
   9.3750000000000000E-002  0.12500000000000000        0.0000000000000000     
  0.12500000000000000       0.12500000000000000        0.0000000000000000     
  0.12500000000000000        0.0000000000000000        0.0000000000000000     
  0.15625000000000000        0.0000000000000000        0.0000000000000000     
  0.18750000000000000        0.0000000000000000        0.0000000000000000     
  0.21875000000000000        0.0000000000000000        0.0000000000000000     
  0.25000000000000000        0.0000000000000000        0.0000000000000000     
  0.12500000000000000        3.1250000000000000E-002   0.0000000000000000     
  0.15625000000000000        3.1250000000000000E-002   0.0000000000000000     
  0.18750000000000000        3.1250000000000000E-002   0.0000000000000000     
  0.21875000000000000        3.1250000000000000E-002   0.0000000000000000     
  0.25000000000000000        3.1250000000000000E-002   0.0000000000000000     
  0.12500000000000000        6.2500000000000000E-002   0.0000000000000000     
  0.15625000000000000        6.2500000000000000E-002   0.0000000000000000     
  0.18750000000000000        6.2500000000000000E-002   0.0000000000000000     
  0.21875000000000000        6.2500000000000000E-002   0.0000000000000000     
  0.25000000000000000        6.2500000000000000E-002   0.0000000000000000     
  0.12500000000000000        9.3750000000000000E-002   0.0000000000000000     
  0.15625000000000000        9.3750000000000000E-002   0.0000000000000000     
  0.18750000000000000        9.3750000000000000E-002   0.0000000000000000     
  0.21875000000000000        9.3750000000000000E-002   0.0000000000000000     
  0.25000000000000000        9.3750000000000000E-002   0.0000000000000000     
  0.12500000000000000       0.12500000000000000        0.0000000000000000     
  0.15625000000000000       0.12500000000000000        0.0000000000000000     
  0.18750000000000000       0.12500000000000000        0.0000000000000000     
  0.21875000000000000       0.12500000000000000        0.0000000000000000     
  0.25000000000000000       0.12500000000000000        0.0000000000000000     
  0.25000000000000000        0.0000000000000000        0.0000000000000000     
  0.28125000000000000        0.0000000000000000        0.0000000000000000     
  0.31250000000000000        0.0000000000000000        0.0000000000000000     
  0.34375000000000000        0.0000000000000000        0.0000000000000000     
  0.37500000000000000        0.0000000000000000        0.0000000000000000     
  0.25000000000000000        3.1250000000000000E-002   0.0000000000000000     
  0.28125000000000000        3.1250000000000000E-002   0.0000000000000000     
  0.31250000000000000        3.1250000000000000E-002   0.0000000000000000     
  0.34375000000000000        3.1250000000000000E-002   0.0000000000000000     
  0.37500000000000000        3.1250000000000000E-002   0.0000000000000000     
  0.25000000000000000        6.2500000000000000E-002   0.0000000000000000     
  0.28125000000000000        6.2500000000000000E-002   0.0000000000000000     
  0.31250000000000000        6.2500000000000000E-002   0.0000000000000000     
  0.34375000000000000        6.2500000000000000E-002   0.0000000000000000     
  0.37500000000000000        6.2500000000000000E-002   0.0000000000000000     
  0.25000000000000000        9.3750000000000000E-002   0.0000000000000000     
  0.28125000000000000        9.3750000000000000E-002   0.0000000000000000     
  0.31250000000000000        9.3750000000000000E-002   0.0000000000000000     
  0.34375000000000000        9.3750000000000000E-002   0.0000000000000000     
  0.37500000000000000        9.3750000000000000E-002   0.0000000000000000     
  0.25000000000000000       0.12500000000000000        0.0000000000000000     
  0.28125000000000000       0.12500000000000000        0.0000000000000000     
  0.31250000000000000       0.12500000000000000        0.0000000000000000     
  0.34375000000000000       0.12500000000000000        0.0000000000000000     
  0.37500000000000000       0.12500000000000000        0.0000000000000000     
  0.37500000000000000        0.0000000000000000        0.0000000000000000     
  0.40625000000000000        0.0000000000000000        0.0000000000000000     
  0.43750000000000000        0.0000000000000000        0.0000000000000000     
  0.46875000000000000        0.0000000000000000        0.0000000000000000     
  0.50000000000000000        0.0000000000000000        0.0000000000000000     
  0.37500000000000000        3.1250000000000000E-002   0.0000000000000000     
  0.40625000000000000        3.1250000000000000E-002   0.0000000000000000     
  0.43750000000000000        3.1250000000000000E-002   0.0000000000000000     
  0.46875000000000000        3.1250000000000000E-002   0.0000000000000000     
  0.50000000000000000        3.1250000000000000E-002   0.0000000000000000     
  0.37500000000000000        6.2500000000000000E-002   0.0000000000000000     
  0.40625000000000000        6.2500000000000000E-002   0.0000000000000000     
  0.43750000000000000        6.2500000000000000E-002   0.0000000000000000     
  0.46875000000000000        6.2500000000000000E-002   0.0000000000000000     
  0.50000000000000000        6.2500000000000000E-002   0.0000000000000000     
  0.37500000000000000        9.3750000000000000E-002   0.0000000000000000     
  0.40625000000000000        9.3750000000000000E-002   0.0000000000000000     
  0.43750000000000000        9.3750000000000000E-002   0.0000000000000000     
  0.46875000000000000        9.3750000000000000E-002   0.0000000000000000     
  0.50000000000000000        9.3750000000000000E-002   0.0000000000000000     
  0.37500000000000000       0.12500000000000000        0.0000000000000000     
  0.40625000000000000       0.12500000000000000        0.0000000000000000     
  0.43750000000000000       0.12500000000000000        0.0000000000000000     
  0.46875000000000000       0.12500000000000000        0.0000000000000000     
  0.50000000000000000       0.12500000000000000        0.0000000000000000     
  0.50000000000000000        0.0000000000000000        0.0000000000000000     
  0.53125000000000000        0.0000000000000000        0.0000000000000000     
  0.56250000000000000        0.0000000000000000        0.0000000000000000     
  0.59375000000000000        0.0000000000000000        0.0000000000000000     
  0.62500000000000000        0.0000000000000000        0.0000000000000000     
  0.50000000000000000        3.1250000000000000E-002   0.0000000000000000     
  0.53125000000000000        3.1250000000000000E-002   0.0000000000000000     
  0.56250000000000000        3.1250000000000000E-002   0.0000000000000000     
  0.59375000000000000        3.1250000000000000E-002   0.0000000000000000     
  0.62500000000000000        3.1250000000000000E-002   0.0000000000000000     
  0.50000000000000000        6.2500000000000000E-002   0.0000000000000000     
  0.53125000000000000        6.2500000000000000E-002   0.0000000000000000     
  0.56250000000000000        6.2500000000000000E-002   0.0000000000000000     
  0.59375000000000000        6.2500000000000000E-002   0.0000000000000000     
  0.62500000000000000        6.2500000000000000E-002   0.0000000000000000     
  0.50000000000000000        9.3750000000000000E-002   0.0000000000000000     
  0.53125000000000000        9.3750000000000000E-002   0.0000000000000000     
  0.56250000000000000        9.3750000000000000E-002   0.0000000000000000     
  0.59375000000000000        9.3750000000000000E-002   0.0000000000000000     
  0.62500000000000000        9.3750000000000000E-002   0.0000000000000000     
  0.50000000000000000       0.12500000000000000        0.0000000000000000     
  0.53125000000000000       0.12500000000000000        0.0000000000000000     
  0.56250000000000000       0.12500000000000000        0.0000000000000000     
  0.59375000000000000       0.12500000000000000        0.0000000000000000     
  0.62500000000000000       0.12500000000000000        0.0000000000000000     
  0.62500000000000000        0.0000000000000000        0.0000000000000000     
  0.65625000000000000        0.0000000000000000        0.0000000000000000     
  0.68750000000000000        0.0000000000000000        0.0000000000000000     
  0.71875000000000000        0.0000000000000000        0.0000000000000000     
  0.75000000000000000        0.0000000000000000        0.0000000000000000     
  0.62500000000000000        3.1250000000000000E-002   0.0000000000000000     
  0.65625000000000000        3.1250000000000000E-002   0.0000000000000000     
  0.68750000000000000        3.1250000000000000E-002   0.0000000000000000     
  0.71875000000000000        3.1250000000000000E-002   0.0000000000000000     
  0.75000000000000000        3.1250000000000000E-002   0.0000000000000000     
  0.62500000000000000        6.2500000000000000E-002   0.0000000000000000     
  0.65625000000000000        6.2500000000000000E-002   0.0000000000000000     
  0.68750000000000000        6.2500000000000000E-002   0.0000000000000000     
  0.71875000000000000        6.2500000000000000E-002   0.0000000000000000     
  0.75000000000000000        6.2500000000000000E-002   0.0000000000000000     
  0.62500000000000000        9.3750000000000000E-002   0.0000000000000000     
  0.65625000000000000        9.3750000000000000E-002   0.0000000000000000     
  0.68750000000000000        9.3750000000000000E-002   0.0000000000000000     
  0.71875000000000000        9.3750000000000000E-002   0.0000000000000000     
  0.75000000000000000        9.3750000000000000E-002   0.0000000000000000     
  0.62500000000000000       0.12500000000000000        0.0000000000000000     
  0.65625000000000000       0.12500000000000000        0.0000000000000000     
  0.68750000000000000       0.12500000000000000        0.0000000000000000     
  0.71875000000000000       0.12500000000000000        0.0000000000000000     
  0.75000000000000000       0.12500000000000000        0.0000000000000000     
  0.75000000000000000        0.0000000000000000        0.0000000000000000     
  0.78125000000000000        0.0000000000000000        0.0000000000000000     
  0.81250000000000000        0.0000000000000000        0.0000000000000000     
  0.84375000000000000        0.0000000000000000        0.0000000000000000     
  0.87500000000000000        0.0000000000000000        0.0000000000000000     
  0.75000000000000000        3.1250000000000000E-002   0.0000000000000000     
  0.78125000000000000        3.1250000000000000E-002   0.0000000000000000     
  0.81250000000000000        3.1250000000000000E-002   0.0000000000000000     
  0.84375000000000000        3.1250000000000000E-002   0.0000000000000000     
  0.87500000000000000        3.1250000000000000E-002   0.0000000000000000     
  0.75000000000000000        6.2500000000000000E-002   0.0000000000000000     
  0.78125000000000000        6.2500000000000000E-002   0.0000000000000000     
  0.81250000000000000        6.2500000000000000E-002   0.0000000000000000     
  0.84375000000000000        6.2500000000000000E-002   0.0000000000000000     
  0.87500000000000000        6.2500000000000000E-002   0.0000000000000000     
  0.75000000000000000        9.3750000000000000E-002   0.0000000000000000     
  0.78125000000000000        9.3750000000000000E-002   0.0000000000000000     
  0.81250000000000000        9.3750000000000000E-002   0.0000000000000000     
  0.84375000000000000        9.3750000000000000E-002   0.0000000000000000     
  0.87500000000000000        9.3750000000000000E-002   0.0000000000000000     
  0.75000000000000000       0.12500000000000000        0.0000000000000000     
  0.78125000000000000       0.12500000000000000        0.0000000000000000     
  0.81250000000000000       0.12500000000000000        0.0000000000000000     
  0.84375000000000000       0.12500000000000000        0.0000000000000000     
  0.87500000000000000       0.12500000000000000        0.0000000000000000     
  0.87500000000000000        0.0000000000000000        0.0000000000000000     
  0.90625000000000000        0.0000000000000000        0.0000000000000000     
  0.93750000000000000        0.0000000000000000        0.0000000000000000     
  0.96875000000000000        0.0000000000000000        0.0000000000000000     
   1.0000000000000000        0.0000000000000000        0.0000000000000000     
  0.87500000000000000        3.1250000000000000E-002   0.0000000000000000     
  0.90625000000000000        3.1250000000000000E-002   0.0000000000000000     
  0.93750000000000000        3.1250000000000000E-002   0.0000000000000000     
  0.96875000000000000        3.1250000000000000E-002   0.0000000000000000     
   1.0000000000000000        3.1250000000000000E-002   0.0000000000000000     
  0.87500000000000000        6.2500000000000000E-002   0.0000000000000000     
  0.90625000000000000        6.2500000000000000E-002   0.0000000000000000     
  0.93750000000000000        6.2500000000000000E-002   0.0000000000000000     
  0.96875000000000000        6.2500000000000000E-002   0.0000000000000000     
   1.0000000000000000        6.2500000000000000E-002   0.0000000000000000     
  0.87500000000000000        9.3750000000000000E-002   0.0000000000000000     
  0.90625000000000000        9.3750000000000000E-002   0.0000000000000000     
  0.93750000000000000        9.3750000000000000E-002   0.0000000000000000     
  0.96875000000000000        9.3750000000000000E-002   0.0000000000000000     
   1.0000000000000000        9.3750000000000000E-002   0.0000000000000000     
  0.87500000000000000       0.12500000000000000        0.0000000000000000     
  0.90625000000000000       0.12500000000000000        0.0000000000000000     
  0.93750000000000000       0.12500000000000000        0.0000000000000000     
  0.96875000000000000       0.12500000000000000        0.0000000000000000     
   1.0000000000000000       0.12500000000000000        0.0000000000000000     
   0.0000000000000000       0.12500000000000000        0.0000000000000000     
   3.1250000000000000E-002  0.12500000000000000        0.0000000000000000     
   6.2500000000000000E-002  0.12500000000000000        0.0000000000000000     
   9.3750000000000000E-002  0.12500000000000000        0.0000000000000000     
  0.12500000000000000       0.12500000000000000        0.0000000000000000     
   0.0000000000000000       0.15625000000000000        0.0000000000000000     
   3.1250000000000000E-002  0.15625000000000000        0.0000000000000000     
   6.2500000000000000E-002  0.15625000000000000        0.0000000000000000     
   9.3750000000000000E-002  0.15625000000000000        0.0000000000000000     
  0.12500000000000000       0.15625000000000000        0.0000000000000000     
   0.0000000000000000       0.18750000000000000        0.0000000000000000     
   3.1250000000000000E-002  0.18750000000000000        0.0000000000000000     
   6.2500000000000000E-002  0.18750000000000000        0.0000000000000000     
   9.3750000000000000E-002  0.18750000000000000        0.0000000000000000     
  0.12500000000000000       0.18750000000000000        0.0000000000000000     
   0.0000000000000000       0.21875000000000000        0.0000000000000000     
   3.1250000000000000E-002  0.21875000000000000        0.0000000000000000     
   6.2500000000000000E-002  0.21875000000000000        0.0000000000000000     
   9.3750000000000000E-002  0.21875000000000000        0.0000000000000000     
  0.12500000000000000       0.21875000000000000        0.0000000000000000     
   0.0000000000000000       0.25000000000000000        0.0000000000000000     
   3.1250000000000000E-002  0.25000000000000000        0.0000000000000000     
   6.2500000000000000E-002  0.25000000000000000        0.0000000000000000     
   9.3750000000000000E-002  0.25000000000000000        0.0000000000000000     
  0.12500000000000000       0.25000000000000000        0.0000000000000000     
  0.12500000000000000       0.12500000000000000        0.0000000000000000     
  0.15625000000000000       0.12500000000000000        0.0000000000000000     
  0.18750000000000000       0.12500000000000000        0.0000000000000000     
  0.21875000000000000       0.12500000000000000        0.0000000000000000     
  0.25000000000000000       0.12500000000000000        0.0000000000000000     
  0.12500000000000000       0.15625000000000000        0.0000000000000000     
  0.15625000000000000       0.15625000000000000        0.0000000000000000     
  0.18750000000000000       0.15625000000000000        0.0000000000000000     
  0.21875000000000000       0.15625000000000000        0.0000000000000000     
  0.25000000000000000       0.15625000000000000        0.0000000000000000     
  0.12500000000000000       0.18750000000000000        0.0000000000000000     
  0.15625000000000000       0.18750000000000000        0.0000000000000000     
  0.18750000000000000       0.18750000000000000        0.0000000000000000     
  0.21875000000000000       0.18750000000000000        0.0000000000000000     
  0.25000000000000000       0.18750000000000000        0.0000000000000000     
  0.12500000000000000       0.21875000000000000        0.0000000000000000     
  0.15625000000000000       0.21875000000000000        0.0000000000000000     
  0.18750000000000000       0.21875000000000000        0.0000000000000000     
  0.21875000000000000       0.21875000000000000        0.0000000000000000     
  0.25000000000000000       0.21875000000000000        0.0000000000000000     
  0.12500000000000000       0.25000000000000000        0.0000000000000000     
  0.15625000000000000       0.25000000000000000        0.0000000000000000     
  0.18750000000000000       0.25000000000000000        0.0000000000000000     
  0.21875000000000000       0.25000000000000000        0.0000000000000000     
  0.25000000000000000       0.25000000000000000        0.0000000000000000     
  0.25000000000000000       0.12500000000000000        0.0000000000000000     
  0.28125000000000000       0.12500000000000000        0.0000000000000000     
  0.31250000000000000       0.12500000000000000        0.0000000000000000     
  0.34375000000000000       0.12500000000000000        0.0000000000000000     
  0.37500000000000000       0.12500000000000000        0.0000000000000000     
  0.25000000000000000       0.15625000000000000        0.0000000000000000     
  0.28125000000000000       0.15625000000000000        0.0000000000000000     
  0.31250000000000000       0.15625000000000000        0.0000000000000000     
  0.34375000000000000       0.15625000000000000        0.0000000000000000     
  0.37500000000000000       0.15625000000000000        0.0000000000000000     
  0.25000000000000000       0.18750000000000000        0.0000000000000000     
  0.28125000000000000       0.18750000000000000        0.0000000000000000     
  0.31250000000000000       0.18750000000000000        0.0000000000000000     
  0.34375000000000000       0.18750000000000000        0.0000000000000000     
  0.37500000000000000       0.18750000000000000        0.0000000000000000     
  0.25000000000000000       0.21875000000000000        0.0000000000000000     
  0.28125000000000000       0.21875000000000000        0.0000000000000000     
  0.31250000000000000       0.21875000000000000        0.0000000000000000     
  0.34375000000000000       0.21875000000000000        0.0000000000000000     
  0.37500000000000000       0.21875000000000000        0.0000000000000000     
  0.25000000000000000       0.25000000000000000        0.0000000000000000     
  0.28125000000000000       0.25000000000000000        0.0000000000000000     
  0.31250000000000000       0.25000000000000000        0.0000000000000000     
  0.34375000000000000       0.25000000000000000        0.0000000000000000     
  0.37500000000000000       0.25000000000000000        0.0000000000000000     
  0.37500000000000000       0.12500000000000000        0.0000000000000000     
  0.40625000000000000       0.12500000000000000        0.0000000000000000     
  0.43750000000000000       0.12500000000000000        0.0000000000000000     
  0.46875000000000000       0.12500000000000000        0.0000000000000000     
  0.50000000000000000       0.12500000000000000        0.0000000000000000     
  0.37500000000000000       0.15625000000000000        0.0000000000000000     
  0.40625000000000000       0.15625000000000000        0.0000000000000000     
  0.43750000000000000       0.15625000000000000        0.0000000000000000     
  0.46875000000000000       0.15625000000000000        0.0000000000000000     
  0.50000000000000000       0.15625000000000000        0.0000000000000000     
  0.37500000000000000       0.18750000000000000        0.0000000000000000     
  0.40625000000000000       0.18750000000000000        0.0000000000000000     
  0.43750000000000000       0.18750000000000000        0.0000000000000000     
  0.46875000000000000       0.18750000000000000        0.0000000000000000     
  0.50000000000000000       0.18750000000000000        0.0000000000000000     
  0.37500000000000000       0.21875000000000000        0.0000000000000000     
  0.40625000000000000       0.21875000000000000        0.0000000000000000     
  0.43750000000000000       0.21875000000000000        0.0000000000000000     
  0.46875000000000000       0.21875000000000000        0.0000000000000000     
  0.50000000000000000       0.21875000000000000        0.0000000000000000     
  0.37500000000000000       0.25000000000000000        0.0000000000000000     
  0.40625000000000000       0.25000000000000000        0.0000000000000000     
  0.43750000000000000       0.25000000000000000        0.0000000000000000     
  0.46875000000000000       0.25000000000000000        0.0000000000000000     
  0.50000000000000000       0.25000000000000000        0.0000000000000000     
  0.50000000000000000       0.12500000000000000        0.0000000000000000     
  0.53125000000000000       0.12500000000000000        0.0000000000000000     
  0.56250000000000000       0.12500000000000000        0.0000000000000000     
  0.59375000000000000       0.12500000000000000        0.0000000000000000     
  0.62500000000000000       0.12500000000000000        0.0000000000000000     
  0.50000000000000000       0.15625000000000000        0.0000000000000000     
  0.53125000000000000       0.15625000000000000        0.0000000000000000     
  0.56250000000000000       0.15625000000000000        0.0000000000000000     
  0.59375000000000000       0.15625000000000000        0.0000000000000000     
  0.62500000000000000       0.15625000000000000        0.0000000000000000     
  0.50000000000000000       0.18750000000000000        0.0000000000000000     
  0.53125000000000000       0.18750000000000000        0.0000000000000000     
  0.56250000000000000       0.18750000000000000        0.0000000000000000     
  0.59375000000000000       0.18750000000000000        0.0000000000000000     
  0.62500000000000000       0.18750000000000000        0.0000000000000000     
  0.50000000000000000       0.21875000000000000        0.0000000000000000     
  0.53125000000000000       0.21875000000000000        0.0000000000000000     
  0.56250000000000000       0.21875000000000000        0.0000000000000000     
  0.59375000000000000       0.21875000000000000        0.0000000000000000     
  0.62500000000000000       0.21875000000000000        0.0000000000000000     
  0.50000000000000000       0.25000000000000000        0.0000000000000000     
  0.53125000000000000       0.25000000000000000        0.0000000000000000     
  0.56250000000000000       0.25000000000000000        0.0000000000000000     
  0.59375000000000000       0.25000000000000000        0.0000000000000000     
  0.62500000000000000       0.25000000000000000        0.0000000000000000     
  0.62500000000000000       0.12500000000000000        0.0000000000000000     
  0.65625000000000000       0.12500000000000000        0.0000000000000000     
  0.68750000000000000       0.12500000000000000        0.0000000000000000     
  0.71875000000000000       0.12500000000000000        0.0000000000000000     
  0.75000000000000000       0.12500000000000000        0.0000000000000000     
  0.62500000000000000       0.15625000000000000        0.0000000000000000     
  0.65625000000000000       0.15625000000000000        0.0000000000000000     
  0.68750000000000000       0.15625000000000000        0.0000000000000000     
  0.71875000000000000       0.15625000000000000        0.0000000000000000     
  0.75000000000000000       0.15625000000000000        0.0000000000000000     
  0.62500000000000000       0.18750000000000000        0.0000000000000000     
  0.65625000000000000       0.18750000000000000        0.0000000000000000     
  0.68750000000000000       0.18750000000000000        0.0000000000000000     
  0.71875000000000000       0.18750000000000000        0.0000000000000000     
  0.75000000000000000       0.18750000000000000        0.0000000000000000     
  0.62500000000000000       0.21875000000000000        0.0000000000000000     
  0.65625000000000000       0.21875000000000000        0.0000000000000000     
  0.68750000000000000       0.21875000000000000        0.0000000000000000     
  0.71875000000000000       0.21875000000000000        0.0000000000000000     
  0.75000000000000000       0.21875000000000000        0.0000000000000000     
  0.62500000000000000       0.25000000000000000        0.0000000000000000     
  0.65625000000000000       0.25000000000000000        0.0000000000000000     
  0.68750000000000000       0.25000000000000000        0.0000000000000000     
  0.71875000000000000       0.25000000000000000        0.0000000000000000     
  0.75000000000000000       0.25000000000000000        0.0000000000000000     
  0.75000000000000000       0.12500000000000000        0.0000000000000000     
  0.78125000000000000       0.12500000000000000        0.0000000000000000     
  0.81250000000000000       0.12500000000000000        0.0000000000000000     
  0.84375000000000000       0.12500000000000000        0.0000000000000000     
  0.87500000000000000       0.12500000000000000        0.0000000000000000     
  0.75000000000000000       0.15625000000000000        0.0000000000000000     
  0.78125000000000000       0.15625000000000000        0.0000000000000000     
  0.81250000000000000       0.15625000000000000        0.0000000000000000     
  0.84375000000000000       0.15625000000000000        0.0000000000000000     
  0.87500000000000000       0.15625000000000000        0.0000000000000000     
  0.75000000000000000       0.18750000000000000        0.0000000000000000     
  0.78125000000000000       0.18750000000000000        0.0000000000000000     
  0.81250000000000000       0.18750000000000000        0.0000000000000000     
  0.84375000000000000       0.18750000000000000        0.0000000000000000     
  0.87500000000000000       0.18750000000000000        0.0000000000000000     
  0.75000000000000000       0.21875000000000000        0.0000000000000000     
  0.78125000000000000       0.21875000000000000        0.0000000000000000     
  0.81250000000000000       0.21875000000000000        0.0000000000000000     
  0.84375000000000000       0.21875000000000000        0.0000000000000000     
  0.87500000000000000       0.21875000000000000        0.0000000000000000     
  0.75000000000000000       0.25000000000000000        0.0000000000000000     
  0.78125000000000000       0.25000000000000000        0.0000000000000000     
  0.81250000000000000       0.25000000000000000        0.0000000000000000     
  0.84375000000000000       0.25000000000000000        0.0000000000000000     
  0.87500000000000000       0.25000000000000000        0.0000000000000000     
  0.87500000000000000       0.12500000000000000        0.0000000000000000     
  0.90625000000000000       0.12500000000000000        0.0000000000000000     
  0.93750000000000000       0.12500000000000000        0.0000000000000000     
  0.96875000000000000       0.12500000000000000        0.0000000000000000     
   1.0000000000000000       0.12500000000000000        0.0000000000000000     
  0.87500000000000000       0.15625000000000000        0.0000000000000000     
  0.90625000000000000       0.15625000000000000        0.0000000000000000     
  0.93750000000000000       0.15625000000000000        0.0000000000000000     
  0.96875000000000000       0.15625000000000000        0.0000000000000000     
   1.0000000000000000       0.15625000000000000        0.0000000000000000     
  0.87500000000000000       0.18750000000000000        0.0000000000000000     
  0.90625000000000000       0.18750000000000000        0.0000000000000000     
  0.93750000000000000       0.18750000000000000        0.0000000000000000     
  0.96875000000000000       0.18750000000000000        0.0000000000000000     
   1.0000000000000000       0.18750000000000000        0.0000000000000000     
  0.87500000000000000       0.21875000000000000        0.0000000000000000     
  0.90625000000000000       0.21875000000000000        0.0000000000000000     
  0.93750000000000000       0.21875000000000000        0.0000000000000000     
  0.96875000000000000       0.21875000000000000        0.0000000000000000     
   1.0000000000000000       0.21875000000000000        0.0000000000000000     
  0.87500000000000000       0.25000000000000000        0.0000000000000000     
  0.90625000000000000       0.25000000000000000        0.0000000000000000     
  0.93750000000000000       0.25000000000000000        0.0000000000000000     
  0.96875000000000000       0.25000000000000000        0.0000000000000000     
   1.0000000000000000       0.25000000000000000        0.0000000000000000     
   0.0000000000000000       0.25000000000000000        0.0000000000000000     
   3.1250000000000000E-002  0.25000000000000000        0.0000000000000000     
   6.2500000000000000E-002  0.25000000000000000        0.0000000000000000     
   9.3750000000000000E-002  0.25000000000000000        0.0000000000000000     
  0.12500000000000000       0.25000000000000000        0.0000000000000000     
   0.0000000000000000       0.28125000000000000        0.0000000000000000     
   3.1250000000000000E-002  0.28125000000000000        0.0000000000000000     
   6.2500000000000000E-002  0.28125000000000000        0.0000000000000000     
   9.3750000000000000E-002  0.28125000000000000        0.0000000000000000     
  0.12500000000000000       0.28125000000000000        0.0000000000000000     
   0.0000000000000000       0.31250000000000000        0.0000000000000000     
   3.1250000000000000E-002  0.31250000000000000        0.0000000000000000     
   6.2500000000000000E-002  0.31250000000000000        0.0000000000000000     
   9.3750000000000000E-002  0.31250000000000000        0.0000000000000000     
  0.12500000000000000       0.31250000000000000        0.0000000000000000     
   0.0000000000000000       0.34375000000000000        0.0000000000000000     
   3.1250000000000000E-002  0.34375000000000000        0.0000000000000000     
   6.2500000000000000E-002  0.34375000000000000        0.0000000000000000     
   9.3750000000000000E-002  0.34375000000000000        0.0000000000000000     
  0.12500000000000000       0.34375000000000000        0.0000000000000000     
   0.0000000000000000       0.37500000000000000        0.0000000000000000     
   3.1250000000000000E-002  0.37500000000000000        0.0000000000000000     
   6.2500000000000000E-002  0.37500000000000000        0.0000000000000000     
   9.3750000000000000E-002  0.37500000000000000        0.0000000000000000     
  0.12500000000000000       0.37500000000000000        0.0000000000000000     
  0.12500000000000000       0.25000000000000000        0.0000000000000000     
  0.15625000000000000       0.25000000000000000        0.0000000000000000     
  0.18750000000000000       0.25000000000000000        0.0000000000000000     
  0.21875000000000000       0.25000000000000000        0.0000000000000000     
  0.25000000000000000       0.25000000000000000        0.0000000000000000     
  0.12500000000000000       0.28125000000000000        0.0000000000000000     
  0.15625000000000000       0.28125000000000000        0.0000000000000000     
  0.18750000000000000       0.28125000000000000        0.0000000000000000     
  0.21875000000000000       0.28125000000000000        0.0000000000000000     
  0.25000000000000000       0.28125000000000000        0.0000000000000000     
  0.12500000000000000       0.31250000000000000        0.0000000000000000     
  0.15625000000000000       0.31250000000000000        0.0000000000000000     
  0.18750000000000000       0.31250000000000000        0.0000000000000000     
  0.21875000000000000       0.31250000000000000        0.0000000000000000     
  0.25000000000000000       0.31250000000000000        0.0000000000000000     
  0.12500000000000000       0.34375000000000000        0.0000000000000000     
  0.15625000000000000       0.34375000000000000        0.0000000000000000     
  0.18750000000000000       0.34375000000000000        0.0000000000000000     
  0.21875000000000000       0.34375000000000000        0.0000000000000000     
  0.25000000000000000       0.34375000000000000        0.0000000000000000     
  0.12500000000000000       0.37500000000000000        0.0000000000000000     
  0.15625000000000000       0.37500000000000000        0.0000000000000000     
  0.18750000000000000       0.37500000000000000        0.0000000000000000     
  0.21875000000000000       0.37500000000000000        0.0000000000000000     
  0.25000000000000000       0.37500000000000000        0.0000000000000000     
  0.25000000000000000       0.25000000000000000        0.0000000000000000     
  0.28125000000000000       0.25000000000000000        0.0000000000000000     
  0.31250000000000000       0.25000000000000000        0.0000000000000000     
  0.34375000000000000       0.25000000000000000        0.0000000000000000     
  0.37500000000000000       0.25000000000000000        0.0000000000000000     
  0.25000000000000000       0.28125000000000000        0.0000000000000000     
  0.28125000000000000       0.28125000000000000        0.0000000000000000     
  0.31250000000000000       0.28125000000000000        0.0000000000000000     
  0.34375000000000000       0.28125000000000000        0.0000000000000000     
  0.37500000000000000       0.28125000000000000        0.0000000000000000     
  0.25000000000000000       0.31250000000000000        0.0000000000000000     
  0.28125000000000000       0.31250000000000000        0.0000000000000000     
  0.31250000000000000       0.31250000000000000        0.0000000000000000     
  0.34375000000000000       0.31250000000000000        0.0000000000000000     
  0.37500000000000000       0.31250000000000000        0.0000000000000000     
  0.25000000000000000       0.34375000000000000        0.0000000000000000     
  0.28125000000000000       0.34375000000000000        0.0000000000000000     
  0.31250000000000000       0.34375000000000000        0.0000000000000000     
  0.34375000000000000       0.34375000000000000        0.0000000000000000     
  0.37500000000000000       0.34375000000000000        0.0000000000000000     
  0.25000000000000000       0.37500000000000000        0.0000000000000000     
  0.28125000000000000       0.37500000000000000        0.0000000000000000     
  0.31250000000000000       0.37500000000000000        0.0000000000000000     
  0.34375000000000000       0.37500000000000000        0.0000000000000000     
  0.37500000000000000       0.37500000000000000        0.0000000000000000     
  0.37500000000000000       0.25000000000000000        0.0000000000000000     
  0.40625000000000000       0.25000000000000000        0.0000000000000000     
  0.43750000000000000       0.25000000000000000        0.0000000000000000     
  0.46875000000000000       0.25000000000000000        0.0000000000000000     
  0.50000000000000000       0.25000000000000000        0.0000000000000000     
  0.37500000000000000       0.28125000000000000        0.0000000000000000     
  0.40625000000000000       0.28125000000000000        0.0000000000000000     
  0.43750000000000000       0.28125000000000000        0.0000000000000000     
  0.46875000000000000       0.28125000000000000        0.0000000000000000     
  0.50000000000000000       0.28125000000000000        0.0000000000000000     
  0.37500000000000000       0.31250000000000000        0.0000000000000000     
  0.40625000000000000       0.31250000000000000        0.0000000000000000     
  0.43750000000000000       0.31250000000000000        0.0000000000000000     
  0.46875000000000000       0.31250000000000000        0.0000000000000000     
  0.50000000000000000       0.31250000000000000        0.0000000000000000     
  0.37500000000000000       0.34375000000000000        0.0000000000000000     
  0.40625000000000000       0.34375000000000000        0.0000000000000000     
  0.43750000000000000       0.34375000000000000        0.0000000000000000     
  0.46875000000000000       0.34375000000000000        0.0000000000000000     
  0.50000000000000000       0.34375000000000000        0.0000000000000000     
  0.37500000000000000       0.37500000000000000        0.0000000000000000     
  0.40625000000000000       0.37500000000000000        0.0000000000000000     
  0.43750000000000000       0.37500000000000000        0.0000000000000000     
  0.46875000000000000       0.37500000000000000        0.0000000000000000     
  0.50000000000000000       0.37500000000000000        0.0000000000000000     
  0.50000000000000000       0.25000000000000000        0.0000000000000000     
  0.53125000000000000       0.25000000000000000        0.0000000000000000     
  0.56250000000000000       0.25000000000000000        0.0000000000000000     
  0.59375000000000000       0.25000000000000000        0.0000000000000000     
  0.62500000000000000       0.25000000000000000        0.0000000000000000     
  0.50000000000000000       0.28125000000000000        0.0000000000000000     
  0.53125000000000000       0.28125000000000000        0.0000000000000000     
  0.56250000000000000       0.28125000000000000        0.0000000000000000     
  0.59375000000000000       0.28125000000000000        0.0000000000000000     
  0.62500000000000000       0.28125000000000000        0.0000000000000000     
  0.50000000000000000       0.31250000000000000        0.0000000000000000     
  0.53125000000000000       0.31250000000000000        0.0000000000000000     
  0.56250000000000000       0.31250000000000000        0.0000000000000000     
  0.59375000000000000       0.31250000000000000        0.0000000000000000     
  0.62500000000000000       0.31250000000000000        0.0000000000000000     
  0.50000000000000000       0.34375000000000000        0.0000000000000000     
  0.53125000000000000       0.34375000000000000        0.0000000000000000     
  0.56250000000000000       0.34375000000000000        0.0000000000000000     
  0.59375000000000000       0.34375000000000000        0.0000000000000000     
  0.62500000000000000       0.34375000000000000        0.0000000000000000     
  0.50000000000000000       0.37500000000000000        0.0000000000000000     
  0.53125000000000000       0.37500000000000000        0.0000000000000000     
  0.56250000000000000       0.37500000000000000        0.0000000000000000     
  0.59375000000000000       0.37500000000000000        0.0000000000000000     
  0.62500000000000000       0.37500000000000000        0.0000000000000000     
  0.62500000000000000       0.25000000000000000        0.0000000000000000     
  0.65625000000000000       0.25000000000000000        0.0000000000000000     
  0.68750000000000000       0.25000000000000000        0.0000000000000000     
  0.71875000000000000       0.25000000000000000        0.0000000000000000     
  0.75000000000000000       0.25000000000000000        0.0000000000000000     
  0.62500000000000000       0.28125000000000000        0.0000000000000000     
  0.65625000000000000       0.28125000000000000        0.0000000000000000     
  0.68750000000000000       0.28125000000000000        0.0000000000000000     
  0.71875000000000000       0.28125000000000000        0.0000000000000000     
  0.75000000000000000       0.28125000000000000        0.0000000000000000     
  0.62500000000000000       0.31250000000000000        0.0000000000000000     
  0.65625000000000000       0.31250000000000000        0.0000000000000000     
  0.68750000000000000       0.31250000000000000        0.0000000000000000     
  0.71875000000000000       0.31250000000000000        0.0000000000000000     
  0.75000000000000000       0.31250000000000000        0.0000000000000000     
  0.62500000000000000       0.34375000000000000        0.0000000000000000     
  0.65625000000000000       0.34375000000000000        0.0000000000000000     
  0.68750000000000000       0.34375000000000000        0.0000000000000000     
  0.71875000000000000       0.34375000000000000        0.0000000000000000     
  0.75000000000000000       0.34375000000000000        0.0000000000000000     
  0.62500000000000000       0.37500000000000000        0.0000000000000000     
  0.65625000000000000       0.37500000000000000        0.0000000000000000     
  0.68750000000000000       0.37500000000000000        0.0000000000000000     
  0.71875000000000000       0.37500000000000000        0.0000000000000000     
  0.75000000000000000       0.37500000000000000        0.0000000000000000     
  0.75000000000000000       0.25000000000000000        0.0000000000000000     
  0.78125000000000000       0.25000000000000000        0.0000000000000000     
  0.81250000000000000       0.25000000000000000        0.0000000000000000     
  0.84375000000000000       0.25000000000000000        0.0000000000000000     
  0.87500000000000000       0.25000000000000000        0.0000000000000000     
  0.75000000000000000       0.28125000000000000        0.0000000000000000     
  0.78125000000000000       0.28125000000000000        0.0000000000000000     
  0.81250000000000000       0.28125000000000000        0.0000000000000000     
  0.84375000000000000       0.28125000000000000        0.0000000000000000     
  0.87500000000000000       0.28125000000000000        0.0000000000000000     
  0.75000000000000000       0.31250000000000000        0.0000000000000000     
  0.78125000000000000       0.31250000000000000        0.0000000000000000     
  0.81250000000000000       0.31250000000000000        0.0000000000000000     
  0.84375000000000000       0.31250000000000000        0.0000000000000000     
  0.87500000000000000       0.31250000000000000        0.0000000000000000     
  0.75000000000000000       0.34375000000000000        0.0000000000000000     
  0.78125000000000000       0.34375000000000000        0.0000000000000000     
  0.81250000000000000       0.34375000000000000        0.0000000000000000     
  0.84375000000000000       0.34375000000000000        0.0000000000000000     
  0.87500000000000000       0.34375000000000000        0.0000000000000000     
  0.75000000000000000       0.37500000000000000        0.0000000000000000     
  0.78125000000000000       0.37500000000000000        0.0000000000000000     
  0.81250000000000000       0.37500000000000000        0.0000000000000000     
  0.84375000000000000       0.37500000000000000        0.0000000000000000     
  0.87500000000000000       0.37500000000000000        0.0000000000000000     
  0.87500000000000000       0.25000000000000000        0.0000000000000000     
  0.90625000000000000       0.25000000000000000        0.0000000000000000     
  0.93750000000000000       0.25000000000000000        0.0000000000000000     
  0.96875000000000000       0.25000000000000000        0.0000000000000000     
   1.0000000000000000       0.25000000000000000        0.0000000000000000     
  0.87500000000000000       0.28125000000000000        0.0000000000000000     
  0.90625000000000000       0.28125000000000000        0.0000000000000000     
  0.93750000000000000       0.28125000000000000        0.0000000000000000     
  0.96875000000000000       0.28125000000000000        0.0000000000000000     
   1.0000000000000000       0.28125000000000000        0.0000000000000000     
  0.87500000000000000       0.31250000000000000        0.0000000000000000     
  0.90625000000000000       0.31250000000000000        0.0000000000000000     
  0.93750000000000000       0.31250000000000000        0.0000000000000000     
  0.96875000000000000       0.31250000000000000        0.0000000000000000     
   1.0000000000000000       0.31250000000000000        0.0000000000000000     
  0.87500000000000000       0.34375000000000000        0.0000000000000000     
  0.90625000000000000       0.34375000000000000        0.0000000000000000     
  0.93750000000000000       0.34375000000000000        0.0000000000000000     
  0.96875000000000000       0.34375000000000000        0.0000000000000000     
   1.0000000000000000       0.34375000000000000        0.0000000000000000     
  0.87500000000000000       0.37500000000000000        0.0000000000000000     
  0.90625000000000000       0.37500000000000000        0.0000000000000000     
  0.93750000000000000       0.37500000000000000        0.0000000000000000     
  0.96875000000000000       0.37500000000000000        0.0000000000000000     
   1.0000000000000000       0.37500000000000000        0.0000000000000000     
   0.0000000000000000       0.37500000000000000        0.0000000000000000     
   3.1250000000000000E-002  0.37500000000000000        0.0000000000000000     
   6.2500000000000000E-002  0.37500000000000000        0.0000000000000000     
   9.3750000000000000E-002  0.37500000000000000        0.0000000000000000     
  0.12500000000000000       0.37500000000000000        0.0000000000000000     
   0.0000000000000000       0.40625000000000000        0.0000000000000000     
   3.1250000000000000E-002  0.40625000000000000        0.0000000000000000     
   6.2500000000000000E-002  0.40625000000000000        0.0000000000000000     
   9.3750000000000000E-002  0.40625000000000000        0.0000000000000000     
  0.12500000000000000       0.40625000000000000        0.0000000000000000     
   0.0000000000000000       0.43750000000000000        0.0000000000000000     
   3.1250000000000000E-002  0.43750000000000000        0.0000000000000000     
   6.2500000000000000E-002  0.43750000000000000        0.0000000000000000     
   9.3750000000000000E-002  0.43750000000000000        0.0000000000000000     
  0.12500000000000000       0.43750000000000000        0.0000000000000000     
   0.0000000000000000       0.46875000000000000        0.0000000000000000     
   3.1250000000000000E-002  0.46875000000000000        0.0000000000000000     
   6.2500000000000000E-002  0.46875000000000000        0.0000000000000000     
   9.3750000000000000E-002  0.46875000000000000        0.0000000000000000     
  0.12500000000000000       0.46875000000000000        0.0000000000000000     
   0.0000000000000000       0.50000000000000000        0.0000000000000000     
   3.1250000000000000E-002  0.50000000000000000        0.0000000000000000     
   6.2500000000000000E-002  0.50000000000000000        0.0000000000000000     
   9.3750000000000000E-002  0.50000000000000000        0.0000000000000000     
  0.12500000000000000       0.50000000000000000        0.0000000000000000     
  0.12500000000000000       0.37500000000000000        0.0000000000000000     
  0.15625000000000000       0.37500000000000000        0.0000000000000000     
  0.18750000000000000       0.37500000000000000        0.0000000000000000     
  0.21875000000000000       0.37500000000000000        0.0000000000000000     
  0.25000000000000000       0.37500000000000000        0.0000000000000000     
  0.12500000000000000       0.40625000000000000        0.0000000000000000     
  0.15625000000000000       0.40625000000000000        0.0000000000000000     
  0.18750000000000000       0.40625000000000000        0.0000000000000000     
  0.21875000000000000       0.40625000000000000        0.0000000000000000     
  0.25000000000000000       0.40625000000000000        0.0000000000000000     
  0.12500000000000000       0.43750000000000000        0.0000000000000000     
  0.15625000000000000       0.43750000000000000        0.0000000000000000     
  0.18750000000000000       0.43750000000000000        0.0000000000000000     
  0.21875000000000000       0.43750000000000000        0.0000000000000000     
  0.25000000000000000       0.43750000000000000        0.0000000000000000     
  0.12500000000000000       0.46875000000000000        0.0000000000000000     
  0.15625000000000000       0.46875000000000000        0.0000000000000000     
  0.18750000000000000       0.46875000000000000        0.0000000000000000     
  0.21875000000000000       0.46875000000000000        0.0000000000000000     
  0.25000000000000000       0.46875000000000000        0.0000000000000000     
  0.12500000000000000       0.50000000000000000        0.0000000000000000     
  0.15625000000000000       0.50000000000000000        0.0000000000000000     
  0.18750000000000000       0.50000000000000000        0.0000000000000000     
  0.21875000000000000       0.50000000000000000        0.0000000000000000     
  0.25000000000000000       0.50000000000000000        0.0000000000000000     
  0.25000000000000000       0.37500000000000000        0.0000000000000000     
  0.28125000000000000       0.37500000000000000        0.0000000000000000     
  0.31250000000000000       0.37500000000000000        0.0000000000000000     
  0.34375000000000000       0.37500000000000000        0.0000000000000000     
  0.37500000000000000       0.37500000000000000        0.0000000000000000     
  0.25000000000000000       0.40625000000000000        0.0000000000000000     
  0.28125000000000000       0.40625000000000000        0.0000000000000000     
  0.31250000000000000       0.40625000000000000        0.0000000000000000     
  0.34375000000000000       0.40625000000000000        0.0000000000000000     
  0.37500000000000000       0.40625000000000000        0.0000000000000000     
  0.25000000000000000       0.43750000000000000        0.0000000000000000     
  0.28125000000000000       0.43750000000000000        0.0000000000000000     
  0.31250000000000000       0.43750000000000000        0.0000000000000000     
  0.34375000000000000       0.43750000000000000        0.0000000000000000     
  0.37500000000000000       0.43750000000000000        0.0000000000000000     
  0.25000000000000000       0.46875000000000000        0.0000000000000000     
  0.28125000000000000       0.46875000000000000        0.0000000000000000     
  0.31250000000000000       0.46875000000000000        0.0000000000000000     
  0.34375000000000000       0.46875000000000000        0.0000000000000000     
  0.37500000000000000       0.46875000000000000        0.0000000000000000     
  0.25000000000000000       0.50000000000000000        0.0000000000000000     
  0.28125000000000000       0.50000000000000000        0.0000000000000000     
  0.31250000000000000       0.50000000000000000        0.0000000000000000     
  0.34375000000000000       0.50000000000000000        0.0000000000000000     
  0.37500000000000000       0.50000000000000000        0.0000000000000000     
  0.37500000000000000       0.37500000000000000        0.0000000000000000     
  0.40625000000000000       0.37500000000000000        0.0000000000000000     
  0.43750000000000000       0.37500000000000000        0.0000000000000000     
  0.46875000000000000       0.37500000000000000        0.0000000000000000     
  0.50000000000000000       0.37500000000000000        0.0000000000000000     
  0.37500000000000000       0.40625000000000000        0.0000000000000000     
  0.40625000000000000       0.40625000000000000        0.0000000000000000     
  0.43750000000000000       0.40625000000000000        0.0000000000000000     
  0.46875000000000000       0.40625000000000000        0.0000000000000000     
  0.50000000000000000       0.40625000000000000        0.0000000000000000     
  0.37500000000000000       0.43750000000000000        0.0000000000000000     
  0.40625000000000000       0.43750000000000000        0.0000000000000000     
  0.43750000000000000       0.43750000000000000        0.0000000000000000     
  0.46875000000000000       0.43750000000000000        0.0000000000000000     
  0.50000000000000000       0.43750000000000000        0.0000000000000000     
  0.37500000000000000       0.46875000000000000        0.0000000000000000     
  0.40625000000000000       0.46875000000000000        0.0000000000000000     
  0.43750000000000000       0.46875000000000000        0.0000000000000000     
  0.46875000000000000       0.46875000000000000        0.0000000000000000     
  0.50000000000000000       0.46875000000000000        0.0000000000000000     
  0.37500000000000000       0.50000000000000000        0.0000000000000000     
  0.40625000000000000       0.50000000000000000        0.0000000000000000     
  0.43750000000000000       0.50000000000000000        0.0000000000000000     
  0.46875000000000000       0.50000000000000000        0.0000000000000000     
  0.50000000000000000       0.50000000000000000        0.0000000000000000     
  0.50000000000000000       0.37500000000000000        0.0000000000000000     
  0.53125000000000000       0.37500000000000000        0.0000000000000000     
  0.56250000000000000       0.37500000000000000        0.0000000000000000     
  0.59375000000000000       0.37500000000000000        0.0000000000000000     
  0.62500000000000000       0.37500000000000000        0.0000000000000000     
  0.50000000000000000       0.40625000000000000        0.0000000000000000     
  0.53125000000000000       0.40625000000000000        0.0000000000000000     
  0.56250000000000000       0.40625000000000000        0.0000000000000000     
  0.59375000000000000       0.40625000000000000        0.0000000000000000     
  0.62500000000000000       0.40625000000000000        0.0000000000000000     
  0.50000000000000000       0.43750000000000000        0.0000000000000000     
  0.53125000000000000       0.43750000000000000        0.0000000000000000     
  0.56250000000000000       0.43750000000000000        0.0000000000000000     
  0.59375000000000000       0.43750000000000000        0.0000000000000000     
  0.62500000000000000       0.43750000000000000        0.0000000000000000     
  0.50000000000000000       0.46875000000000000        0.0000000000000000     
  0.53125000000000000       0.46875000000000000        0.0000000000000000     
  0.56250000000000000       0.46875000000000000        0.0000000000000000     
  0.59375000000000000       0.46875000000000000        0.0000000000000000     
  0.62500000000000000       0.46875000000000000        0.0000000000000000     
  0.50000000000000000       0.50000000000000000        0.0000000000000000     
  0.53125000000000000       0.50000000000000000        0.0000000000000000     
  0.56250000000000000       0.50000000000000000        0.0000000000000000     
  0.59375000000000000       0.50000000000000000        0.0000000000000000     
  0.62500000000000000       0.50000000000000000        0.0000000000000000     
  0.62500000000000000       0.37500000000000000        0.0000000000000000     
  0.65625000000000000       0.37500000000000000        0.0000000000000000     
  0.68750000000000000       0.37500000000000000        0.0000000000000000     
  0.71875000000000000       0.37500000000000000        0.0000000000000000     
  0.75000000000000000       0.37500000000000000        0.0000000000000000     
  0.62500000000000000       0.40625000000000000        0.0000000000000000     
  0.65625000000000000       0.40625000000000000        0.0000000000000000     
  0.68750000000000000       0.40625000000000000        0.0000000000000000     
  0.71875000000000000       0.40625000000000000        0.0000000000000000     
  0.75000000000000000       0.40625000000000000        0.0000000000000000     
  0.62500000000000000       0.43750000000000000        0.0000000000000000     
  0.65625000000000000       0.43750000000000000        0.0000000000000000     
  0.68750000000000000       0.43750000000000000        0.0000000000000000     
  0.71875000000000000       0.43750000000000000        0.0000000000000000     
  0.75000000000000000       0.43750000000000000        0.0000000000000000     
  0.62500000000000000       0.46875000000000000        0.0000000000000000     
  0.65625000000000000       0.46875000000000000        0.0000000000000000     
  0.68750000000000000       0.46875000000000000        0.0000000000000000     
  0.71875000000000000       0.46875000000000000        0.0000000000000000     
  0.75000000000000000       0.46875000000000000        0.0000000000000000     
  0.62500000000000000       0.50000000000000000        0.0000000000000000     
  0.65625000000000000       0.50000000000000000        0.0000000000000000     
  0.68750000000000000       0.50000000000000000        0.0000000000000000     
  0.71875000000000000       0.50000000000000000        0.0000000000000000     
  0.75000000000000000       0.50000000000000000        0.0000000000000000     
  0.75000000000000000       0.37500000000000000        0.0000000000000000     
  0.78125000000000000       0.37500000000000000        0.0000000000000000     
  0.81250000000000000       0.37500000000000000        0.0000000000000000     
  0.84375000000000000       0.37500000000000000        0.0000000000000000     
  0.87500000000000000       0.37500000000000000        0.0000000000000000     
  0.75000000000000000       0.40625000000000000        0.0000000000000000     
  0.78125000000000000       0.40625000000000000        0.0000000000000000     
  0.81250000000000000       0.40625000000000000        0.0000000000000000     
  0.84375000000000000       0.40625000000000000        0.0000000000000000     
  0.87500000000000000       0.40625000000000000        0.0000000000000000     
  0.75000000000000000       0.43750000000000000        0.0000000000000000     
  0.78125000000000000       0.43750000000000000        0.0000000000000000     
  0.81250000000000000       0.43750000000000000        0.0000000000000000     
  0.84375000000000000       0.43750000000000000        0.0000000000000000     
  0.87500000000000000       0.43750000000000000        0.0000000000000000     
  0.75000000000000000       0.46875000000000000        0.0000000000000000     
  0.78125000000000000       0.46875000000000000        0.0000000000000000     
  0.81250000000000000       0.46875000000000000        0.0000000000000000     
  0.84375000000000000       0.46875000000000000        0.0000000000000000     
  0.87500000000000000       0.46875000000000000        0.0000000000000000     
  0.75000000000000000       0.50000000000000000        0.0000000000000000     
  0.78125000000000000       0.50000000000000000        0.0000000000000000     
  0.81250000000000000       0.50000000000000000        0.0000000000000000     
  0.84375000000000000       0.50000000000000000        0.0000000000000000     
  0.87500000000000000       0.50000000000000000        0.0000000000000000     
  0.87500000000000000       0.37500000000000000        0.0000000000000000     
  0.90625000000000000       0.37500000000000000        0.0000000000000000     
  0.93750000000000000       0.37500000000000000        0.0000000000000000     
  0.96875000000000000       0.37500000000000000        0.0000000000000000     
   1.0000000000000000       0.37500000000000000        0.0000000000000000     
  0.87500000000000000       0.40625000000000000        0.0000000000000000     
  0.90625000000000000       0.40625000000000000        0.0000000000000000     
  0.93750000000000000       0.40625000000000000        0.0000000000000000     
  0.96875000000000000       0.40625000000000000        0.0000000000000000     
   1.0000000000000000       0.40625000000000000        0.0000000000000000     
  0.87500000000000000       0.43750000000000000        0.0000000000000000     
  0.90625000000000000       0.43750000000000000        0.0000000000000000     
  0.93750000000000000       0.43750000000000000        0.0000000000000000     
  0.96875000000000000       0.43750000000000000        0.0000000000000000     
   1.0000000000000000       0.43750000000000000        0.0000000000000000     
  0.87500000000000000       0.46875000000000000        0.0000000000000000     
  0.90625000000000000       0.46875000000000000        0.0000000000000000     
  0.93750000000000000       0.46875000000000000        0.0000000000000000     
  0.96875000000000000       0.46875000000000000        0.0000000000000000     
   1.0000000000000000       0.46875000000000000        0.0000000000000000     
  0.87500000000000000       0.50000000000000000        0.0000000000000000     
  0.90625000000000000       0.50000000000000000        0.0000000000000000     
  0.93750000000000000       0.50000000000000000        0.0000000000000000     
  0.96875000000000000       0.50000000000000000        0.0000000000000000     
   1.0000000000000000       0.50000000000000000        0.0000000000000000     
   0.0000000000000000       0.50000000000000000        0.0000000000000000     
   3.1250000000000000E-002  0.50000000000000000        0.0000000000000000     
   6.2500000000000000E-002  0.50000000000000000        0.0000000000000000     
   9.3750000000000000E-002  0.50000000000000000        0.0000000000000000     
  0.12500000000000000       0.50000000000000000        0.0000000000000000     
   0.0000000000000000       0.53125000000000000        0.0000000000000000     
   3.1250000000000000E-002  0.53125000000000000        0.0000000000000000     
   6.2500000000000000E-002  0.53125000000000000        0.0000000000000000     
   9.3750000000000000E-002  0.53125000000000000        0.0000000000000000     
  0.12500000000000000       0.53125000000000000        0.0000000000000000     
   0.0000000000000000       0.56250000000000000        0.0000000000000000     
   3.1250000000000000E-002  0.56250000000000000        0.0000000000000000     
   6.2500000000000000E-002  0.56250000000000000        0.0000000000000000     
   9.3750000000000000E-002  0.56250000000000000        0.0000000000000000     
  0.12500000000000000       0.56250000000000000        0.0000000000000000     
   0.0000000000000000       0.59375000000000000        0.0000000000000000     
   3.1250000000000000E-002  0.59375000000000000        0.0000000000000000     
   6.2500000000000000E-002  0.59375000000000000        0.0000000000000000     
   9.3750000000000000E-002  0.59375000000000000        0.0000000000000000     
  0.12500000000000000       0.59375000000000000        0.0000000000000000     
   0.0000000000000000       0.62500000000000000        0.0000000000000000     
   3.1250000000000000E-002  0.62500000000000000        0.0000000000000000     
   6.2500000000000000E-002  0.62500000000000000        0.0000000000000000     
   9.3750000000000000E-002  0.62500000000000000        0.0000000000000000     
  0.12500000000000000       0.62500000000000000        0.0000000000000000     
  0.12500000000000000       0.50000000000000000        0.0000000000000000     
  0.15625000000000000       0.50000000000000000        0.0000000000000000     
  0.18750000000000000       0.50000000000000000        0.0000000000000000     
  0.21875000000000000       0.50000000000000000        0.0000000000000000     
  0.25000000000000000       0.50000000000000000        0.0000000000000000     
  0.12500000000000000       0.53125000000000000        0.0000000000000000     
  0.15625000000000000       0.53125000000000000        0.0000000000000000     
  0.18750000000000000       0.53125000000000000        0.0000000000000000     
  0.21875000000000000       0.53125000000000000        0.0000000000000000     
  0.25000000000000000       0.53125000000000000        0.0000000000000000     
  0.12500000000000000       0.56250000000000000        0.0000000000000000     
  0.15625000000000000       0.56250000000000000        0.0000000000000000     
  0.18750000000000000       0.56250000000000000        0.0000000000000000     
  0.21875000000000000       0.56250000000000000        0.0000000000000000     
  0.25000000000000000       0.56250000000000000        0.0000000000000000     
  0.12500000000000000       0.59375000000000000        0.0000000000000000     
  0.15625000000000000       0.59375000000000000        0.0000000000000000     
  0.18750000000000000       0.59375000000000000        0.0000000000000000     
  0.21875000000000000       0.59375000000000000        0.0000000000000000     
  0.25000000000000000       0.59375000000000000        0.0000000000000000     
  0.12500000000000000       0.62500000000000000        0.0000000000000000     
  0.15625000000000000       0.62500000000000000        0.0000000000000000     
  0.18750000000000000       0.62500000000000000        0.0000000000000000     
  0.21875000000000000       0.62500000000000000        0.0000000000000000     
  0.25000000000000000       0.62500000000000000        0.0000000000000000     
  0.25000000000000000       0.50000000000000000        0.0000000000000000     
  0.28125000000000000       0.50000000000000000        0.0000000000000000     
  0.31250000000000000       0.50000000000000000        0.0000000000000000     
  0.34375000000000000       0.50000000000000000        0.0000000000000000     
  0.37500000000000000       0.50000000000000000        0.0000000000000000     
  0.25000000000000000       0.53125000000000000        0.0000000000000000     
  0.28125000000000000       0.53125000000000000        0.0000000000000000     
  0.31250000000000000       0.53125000000000000        0.0000000000000000     
  0.34375000000000000       0.53125000000000000        0.0000000000000000     
  0.37500000000000000       0.53125000000000000        0.0000000000000000     
  0.25000000000000000       0.56250000000000000        0.0000000000000000     
  0.28125000000000000       0.56250000000000000        0.0000000000000000     
  0.31250000000000000       0.56250000000000000        0.0000000000000000     
  0.34375000000000000       0.56250000000000000        0.0000000000000000     
  0.37500000000000000       0.56250000000000000        0.0000000000000000     
  0.25000000000000000       0.59375000000000000        0.0000000000000000     
  0.28125000000000000       0.59375000000000000        0.0000000000000000     
  0.31250000000000000       0.59375000000000000        0.0000000000000000     
  0.34375000000000000       0.59375000000000000        0.0000000000000000     
  0.37500000000000000       0.59375000000000000        0.0000000000000000     
  0.25000000000000000       0.62500000000000000        0.0000000000000000     
  0.28125000000000000       0.62500000000000000        0.0000000000000000     
  0.31250000000000000       0.62500000000000000        0.0000000000000000     
  0.34375000000000000       0.62500000000000000        0.0000000000000000     
  0.37500000000000000       0.62500000000000000        0.0000000000000000     
  0.37500000000000000       0.50000000000000000        0.0000000000000000     
  0.40625000000000000       0.50000000000000000        0.0000000000000000     
  0.43750000000000000       0.50000000000000000        0.0000000000000000     
  0.46875000000000000       0.50000000000000000        0.0000000000000000     
  0.50000000000000000       0.50000000000000000        0.0000000000000000     
  0.37500000000000000       0.53125000000000000        0.0000000000000000     
  0.40625000000000000       0.53125000000000000        0.0000000000000000     
  0.43750000000000000       0.53125000000000000        0.0000000000000000     
  0.46875000000000000       0.53125000000000000        0.0000000000000000     
  0.50000000000000000       0.53125000000000000        0.0000000000000000     
  0.37500000000000000       0.56250000000000000        0.0000000000000000     
  0.40625000000000000       0.56250000000000000        0.0000000000000000     
  0.43750000000000000       0.56250000000000000        0.0000000000000000     
  0.46875000000000000       0.56250000000000000        0.0000000000000000     
  0.50000000000000000       0.56250000000000000        0.0000000000000000     
  0.37500000000000000       0.59375000000000000        0.0000000000000000     
  0.40625000000000000       0.59375000000000000        0.0000000000000000     
  0.43750000000000000       0.59375000000000000        0.0000000000000000     
  0.46875000000000000       0.59375000000000000        0.0000000000000000     
  0.50000000000000000       0.59375000000000000        0.0000000000000000     
  0.37500000000000000       0.62500000000000000        0.0000000000000000     
  0.40625000000000000       0.62500000000000000        0.0000000000000000     
  0.43750000000000000       0.62500000000000000        0.0000000000000000     
  0.46875000000000000       0.62500000000000000        0.0000000000000000     
  0.50000000000000000       0.62500000000000000        0.0000000000000000     
  0.50000000000000000       0.50000000000000000        0.0000000000000000     
  0.53125000000000000       0.50000000000000000        0.0000000000000000     
  0.56250000000000000       0.50000000000000000        0.0000000000000000     
  0.59375000000000000       0.50000000000000000        0.0000000000000000     
  0.62500000000000000       0.50000000000000000        0.0000000000000000     
  0.50000000000000000       0.53125000000000000        0.0000000000000000     
  0.53125000000000000       0.53125000000000000        0.0000000000000000     
  0.56250000000000000       0.53125000000000000        0.0000000000000000     
  0.59375000000000000       0.53125000000000000        0.0000000000000000     
  0.62500000000000000       0.53125000000000000        0.0000000000000000     
  0.50000000000000000       0.56250000000000000        0.0000000000000000     
  0.53125000000000000       0.56250000000000000        0.0000000000000000     
  0.56250000000000000       0.56250000000000000        0.0000000000000000     
  0.59375000000000000       0.56250000000000000        0.0000000000000000     
  0.62500000000000000       0.56250000000000000        0.0000000000000000     
  0.50000000000000000       0.59375000000000000        0.0000000000000000     
  0.53125000000000000       0.59375000000000000        0.0000000000000000     
  0.56250000000000000       0.59375000000000000        0.0000000000000000     
  0.59375000000000000       0.59375000000000000        0.0000000000000000     
  0.62500000000000000       0.59375000000000000        0.0000000000000000     
  0.50000000000000000       0.62500000000000000        0.0000000000000000     
  0.53125000000000000       0.62500000000000000        0.0000000000000000     
  0.56250000000000000       0.62500000000000000        0.0000000000000000     
  0.59375000000000000       0.62500000000000000        0.0000000000000000     
  0.62500000000000000       0.62500000000000000        0.0000000000000000     
  0.62500000000000000       0.50000000000000000        0.0000000000000000     
  0.65625000000000000       0.50000000000000000        0.0000000000000000     
  0.68750000000000000       0.50000000000000000        0.0000000000000000     
  0.71875000000000000       0.50000000000000000        0.0000000000000000     
  0.75000000000000000       0.50000000000000000        0.0000000000000000     
  0.62500000000000000       0.53125000000000000        0.0000000000000000     
  0.65625000000000000       0.53125000000000000        0.0000000000000000     
  0.68750000000000000       0.53125000000000000        0.0000000000000000     
  0.71875000000000000       0.53125000000000000        0.0000000000000000     
  0.75000000000000000       0.53125000000000000        0.0000000000000000     
  0.62500000000000000       0.56250000000000000        0.0000000000000000     
  0.65625000000000000       0.56250000000000000        0.0000000000000000     
  0.68750000000000000       0.56250000000000000        0.0000000000000000     
  0.71875000000000000       0.56250000000000000        0.0000000000000000     
  0.75000000000000000       0.56250000000000000        0.0000000000000000     
  0.62500000000000000       0.59375000000000000        0.0000000000000000     
  0.65625000000000000       0.59375000000000000        0.0000000000000000     
  0.68750000000000000       0.59375000000000000        0.0000000000000000     
  0.71875000000000000       0.59375000000000000        0.0000000000000000     
  0.75000000000000000       0.59375000000000000        0.0000000000000000     
  0.62500000000000000       0.62500000000000000        0.0000000000000000     
  0.65625000000000000       0.62500000000000000        0.0000000000000000     
  0.68750000000000000       0.62500000000000000        0.0000000000000000     
  0.71875000000000000       0.62500000000000000        0.0000000000000000     
  0.75000000000000000       0.62500000000000000        0.0000000000000000     
  0.75000000000000000       0.50000000000000000        0.0000000000000000     
  0.78125000000000000       0.50000000000000000        0.0000000000000000     
  0.81250000000000000       0.50000000000000000        0.0000000000000000     
  0.84375000000000000       0.50000000000000000        0.0000000000000000     
  0.87500000000000000       0.50000000000000000        0.0000000000000000     
  0.75000000000000000       0.53125000000000000        0.0000000000000000     
  0.78125000000000000       0.53125000000000000        0.0000000000000000     
  0.81250000000000000       0.53125000000000000        0.0000000000000000     
  0.84375000000000000       0.53125000000000000        0.0000000000000000     
  0.87500000000000000       0.53125000000000000        0.0000000000000000     
  0.75000000000000000       0.56250000000000000        0.0000000000000000     
  0.78125000000000000       0.56250000000000000        0.0000000000000000     
  0.81250000000000000       0.56250000000000000        0.0000000000000000     
  0.84375000000000000       0.56250000000000000        0.0000000000000000     
  0.87500000000000000       0.56250000000000000        0.0000000000000000     
  0.75000000000000000       0.59375000000000000        0.0000000000000000     
  0.78125000000000000       0.59375000000000000        0.0000000000000000     
  0.81250000000000000       0.59375000000000000        0.0000000000000000     
  0.84375000000000000       0.59375000000000000        0.0000000000000000     
  0.87500000000000000       0.59375000000000000        0.0000000000000000     
  0.75000000000000000       0.62500000000000000        0.0000000000000000     
  0.78125000000000000       0.62500000000000000        0.0000000000000000     
  0.81250000000000000       0.62500000000000000        0.0000000000000000     
  0.84375000000000000       0.62500000000000000        0.0000000000000000     
  0.87500000000000000       0.62500000000000000        0.0000000000000000     
  0.87500000000000000       0.50000000000000000        0.0000000000000000     
  0.90625000000000000       0.50000000000000000        0.0000000000000000     
  0.93750000000000000       0.50000000000000000        0.0000000000000000     
  0.96875000000000000       0.50000000000000000        0.0000000000000000     
   1.0000000000000000       0.50000000000000000        0.0000000000000000     
  0.87500000000000000       0.53125000000000000        0.0000000000000000     
  0.90625000000000000       0.53125000000000000        0.0000000000000000     
  0.93750000000000000       0.53125000000000000        0.0000000000000000     
  0.96875000000000000       0.53125000000000000        0.0000000000000000     
   1.0000000000000000       0.53125000000000000        0.0000000000000000     
  0.87500000000000000       0.56250000000000000        0.0000000000000000     
  0.90625000000000000       0.56250000000000000        0.0000000000000000     
  0.93750000000000000       0.56250000000000000        0.0000000000000000     
  0.96875000000000000       0.56250000000000000        0.0000000000000000     
   1.0000000000000000       0.56250000000000000        0.0000000000000000     
  0.87500000000000000       0.59375000000000000        0.0000000000000000     
  0.90625000000000000       0.59375000000000000        0.0000000000000000     
  0.93750000000000000       0.59375000000000000        0.0000000000000000     
  0.96875000000000000       0.59375000000000000        0.0000000000000000     
   1.0000000000000000       0.59375000000000000        0.0000000000000000     
  0.87500000000000000       0.62500000000000000        0.0000000000000000     
  0.90625000000000000       0.62500000000000000        0.0000000000000000     
  0.93750000000000000       0.62500000000000000        0.0000000000000000     
  0.96875000000000000       0.62500000000000000        0.0000000000000000     
   1.0000000000000000       0.62500000000000000        0.0000000000000000     
   0.0000000000000000       0.62500000000000000        0.0000000000000000     
   3.1250000000000000E-002  0.62500000000000000        0.0000000000000000     
   6.2500000000000000E-002  0.62500000000000000        0.0000000000000000     
   9.3750000000000000E-002  0.62500000000000000        0.0000000000000000     
  0.12500000000000000       0.62500000000000000        0.0000000000000000     
   0.0000000000000000       0.65625000000000000        0.0000000000000000     
   3.1250000000000000E-002  0.65625000000000000        0.0000000000000000     
   6.2500000000000000E-002  0.65625000000000000        0.0000000000000000     
   9.3750000000000000E-002  0.65625000000000000        0.0000000000000000     
  0.12500000000000000       0.65625000000000000        0.0000000000000000     
   0.0000000000000000       0.68750000000000000        0.0000000000000000     
   3.1250000000000000E-002  0.68750000000000000        0.0000000000000000     
   6.2500000000000000E-002  0.68750000000000000        0.0000000000000000     
   9.3750000000000000E-002  0.68750000000000000        0.0000000000000000     
  0.12500000000000000       0.68750000000000000        0.0000000000000000     
   0.0000000000000000       0.71875000000000000        0.0000000000000000     
   3.1250000000000000E-002  0.71875000000000000        0.0000000000000000     
   6.2500000000000000E-002  0.71875000000000000        0.0000000000000000     
   9.3750000000000000E-002  0.71875000000000000        0.0000000000000000     
  0.12500000000000000       0.71875000000000000        0.0000000000000000     
   0.0000000000000000       0.75000000000000000        0.0000000000000000     
   3.1250000000000000E-002  0.75000000000000000        0.0000000000000000     
   6.2500000000000000E-002  0.75000000000000000        0.0000000000000000     
   9.3750000000000000E-002  0.75000000000000000        0.0000000000000000     
  0.12500000000000000       0.75000000000000000        0.0000000000000000     
  0.12500000000000000       0.62500000000000000        0.0000000000000000     
  0.15625000000000000       0.62500000000000000        0.0000000000000000     
  0.18750000000000000       0.62500000000000000        0.0000000000000000     
  0.21875000000000000       0.62500000000000000        0.0000000000000000     
  0.25000000000000000       0.62500000000000000        0.0000000000000000     
  0.12500000000000000       0.65625000000000000        0.0000000000000000     
  0.15625000000000000       0.65625000000000000        0.0000000000000000     
  0.18750000000000000       0.65625000000000000        0.0000000000000000     
  0.21875000000000000       0.65625000000000000        0.0000000000000000     
  0.25000000000000000       0.65625000000000000        0.0000000000000000     
  0.12500000000000000       0.68750000000000000        0.0000000000000000     
  0.15625000000000000       0.68750000000000000        0.0000000000000000     
  0.18750000000000000       0.68750000000000000        0.0000000000000000     
  0.21875000000000000       0.68750000000000000        0.0000000000000000     
  0.25000000000000000       0.68750000000000000        0.0000000000000000     
  0.12500000000000000       0.71875000000000000        0.0000000000000000     
  0.15625000000000000       0.71875000000000000        0.0000000000000000     
  0.18750000000000000       0.71875000000000000        0.0000000000000000     
  0.21875000000000000       0.71875000000000000        0.0000000000000000     
  0.25000000000000000       0.71875000000000000        0.0000000000000000     
  0.12500000000000000       0.75000000000000000        0.0000000000000000     
  0.15625000000000000       0.75000000000000000        0.0000000000000000     
  0.18750000000000000       0.75000000000000000        0.0000000000000000     
  0.21875000000000000       0.75000000000000000        0.0000000000000000     
  0.25000000000000000       0.75000000000000000        0.0000000000000000     
  0.25000000000000000       0.62500000000000000        0.0000000000000000     
  0.28125000000000000       0.62500000000000000        0.0000000000000000     
  0.31250000000000000       0.62500000000000000        0.0000000000000000     
  0.34375000000000000       0.62500000000000000        0.0000000000000000     
  0.37500000000000000       0.62500000000000000        0.0000000000000000     
  0.25000000000000000       0.65625000000000000        0.0000000000000000     
  0.28125000000000000       0.65625000000000000        0.0000000000000000     
  0.31250000000000000       0.65625000000000000        0.0000000000000000     
  0.34375000000000000       0.65625000000000000        0.0000000000000000     
  0.37500000000000000       0.65625000000000000        0.0000000000000000     
  0.25000000000000000       0.68750000000000000        0.0000000000000000     
  0.28125000000000000       0.68750000000000000        0.0000000000000000     
  0.31250000000000000       0.68750000000000000        0.0000000000000000     
  0.34375000000000000       0.68750000000000000        0.0000000000000000     
  0.37500000000000000       0.68750000000000000        0.0000000000000000     
  0.25000000000000000       0.71875000000000000        0.0000000000000000     
  0.28125000000000000       0.71875000000000000        0.0000000000000000     
  0.31250000000000000       0.71875000000000000        0.0000000000000000     
  0.34375000000000000       0.71875000000000000        0.0000000000000000     
  0.37500000000000000       0.71875000000000000        0.0000000000000000     
  0.25000000000000000       0.75000000000000000        0.0000000000000000     
  0.28125000000000000       0.75000000000000000        0.0000000000000000     
  0.31250000000000000       0.75000000000000000        0.0000000000000000     
  0.34375000000000000       0.75000000000000000        0.0000000000000000     
  0.37500000000000000       0.75000000000000000        0.0000000000000000     
  0.37500000000000000       0.62500000000000000        0.0000000000000000     
  0.40625000000000000       0.62500000000000000        0.0000000000000000     
  0.43750000000000000       0.62500000000000000        0.0000000000000000     
  0.46875000000000000       0.62500000000000000        0.0000000000000000     
  0.50000000000000000       0.62500000000000000        0.0000000000000000     
  0.37500000000000000       0.65625000000000000        0.0000000000000000     
  0.40625000000000000       0.65625000000000000        0.0000000000000000     
  0.43750000000000000       0.65625000000000000        0.0000000000000000     
  0.46875000000000000       0.65625000000000000        0.0000000000000000     
  0.50000000000000000       0.65625000000000000        0.0000000000000000     
  0.37500000000000000       0.68750000000000000        0.0000000000000000     
  0.40625000000000000       0.68750000000000000        0.0000000000000000     
  0.43750000000000000       0.68750000000000000        0.0000000000000000     
  0.46875000000000000       0.68750000000000000        0.0000000000000000     
  0.50000000000000000       0.68750000000000000        0.0000000000000000     
  0.37500000000000000       0.71875000000000000        0.0000000000000000     
  0.40625000000000000       0.71875000000000000        0.0000000000000000     
  0.43750000000000000       0.71875000000000000        0.0000000000000000     
  0.46875000000000000       0.71875000000000000        0.0000000000000000     
  0.50000000000000000       0.71875000000000000        0.0000000000000000     
  0.37500000000000000       0.75000000000000000        0.0000000000000000     
  0.40625000000000000       0.75000000000000000        0.0000000000000000     
  0.43750000000000000       0.75000000000000000        0.0000000000000000     
  0.46875000000000000       0.75000000000000000        0.0000000000000000     
  0.50000000000000000       0.75000000000000000        0.0000000000000000     
  0.50000000000000000       0.62500000000000000        0.0000000000000000     
  0.53125000000000000       0.62500000000000000        0.0000000000000000     
  0.56250000000000000       0.62500000000000000        0.0000000000000000     
  0.59375000000000000       0.62500000000000000        0.0000000000000000     
  0.62500000000000000       0.62500000000000000        0.0000000000000000     
  0.50000000000000000       0.65625000000000000        0.0000000000000000     
  0.53125000000000000       0.65625000000000000        0.0000000000000000     
  0.56250000000000000       0.65625000000000000        0.0000000000000000     
  0.59375000000000000       0.65625000000000000        0.0000000000000000     
  0.62500000000000000       0.65625000000000000        0.0000000000000000     
  0.50000000000000000       0.68750000000000000        0.0000000000000000     
  0.53125000000000000       0.68750000000000000        0.0000000000000000     
  0.56250000000000000       0.68750000000000000        0.0000000000000000     
  0.59375000000000000       0.68750000000000000        0.0000000000000000     
  0.62500000000000000       0.68750000000000000        0.0000000000000000     
  0.50000000000000000       0.71875000000000000        0.0000000000000000     
  0.53125000000000000       0.71875000000000000        0.0000000000000000     
  0.56250000000000000       0.71875000000000000        0.0000000000000000     
  0.59375000000000000       0.71875000000000000        0.0000000000000000     
  0.62500000000000000       0.71875000000000000        0.0000000000000000     
  0.50000000000000000       0.75000000000000000        0.0000000000000000     
  0.53125000000000000       0.75000000000000000        0.0000000000000000     
  0.56250000000000000       0.75000000000000000        0.0000000000000000     
  0.59375000000000000       0.75000000000000000        0.0000000000000000     
  0.62500000000000000       0.75000000000000000        0.0000000000000000     
  0.62500000000000000       0.62500000000000000        0.0000000000000000     
  0.65625000000000000       0.62500000000000000        0.0000000000000000     
  0.68750000000000000       0.62500000000000000        0.0000000000000000     
  0.71875000000000000       0.62500000000000000        0.0000000000000000     
  0.75000000000000000       0.62500000000000000        0.0000000000000000     
  0.62500000000000000       0.65625000000000000        0.0000000000000000     
  0.65625000000000000       0.65625000000000000        0.0000000000000000     
  0.68750000000000000       0.65625000000000000        0.0000000000000000     
  0.71875000000000000       0.65625000000000000        0.0000000000000000     
  0.75000000000000000       0.65625000000000000        0.0000000000000000     
  0.62500000000000000       0.68750000000000000        0.0000000000000000     
  0.65625000000000000       0.68750000000000000        0.0000000000000000     
  0.68750000000000000       0.68750000000000000        0.0000000000000000     
  0.71875000000000000       0.68750000000000000        0.0000000000000000     
  0.75000000000000000       0.68750000000000000        0.0000000000000000     
  0.62500000000000000       0.71875000000000000        0.0000000000000000     
  0.65625000000000000       0.71875000000000000        0.0000000000000000     
  0.68750000000000000       0.71875000000000000        0.0000000000000000     
  0.71875000000000000       0.71875000000000000        0.0000000000000000     
  0.75000000000000000       0.71875000000000000        0.0000000000000000     
  0.62500000000000000       0.75000000000000000        0.0000000000000000     
  0.65625000000000000       0.75000000000000000        0.0000000000000000     
  0.68750000000000000       0.75000000000000000        0.0000000000000000     
  0.71875000000000000       0.75000000000000000        0.0000000000000000     
  0.75000000000000000       0.75000000000000000        0.0000000000000000     
  0.75000000000000000       0.62500000000000000        0.0000000000000000     
  0.78125000000000000       0.62500000000000000        0.0000000000000000     
  0.81250000000000000       0.62500000000000000        0.0000000000000000     
  0.84375000000000000       0.62500000000000000        0.0000000000000000     
  0.87500000000000000       0.62500000000000000        0.0000000000000000     
  0.75000000000000000       0.65625000000000000        0.0000000000000000     
  0.78125000000000000       0.65625000000000000        0.0000000000000000     
  0.81250000000000000       0.65625000000000000        0.0000000000000000     
  0.84375000000000000       0.65625000000000000        0.0000000000000000     
  0.87500000000000000       0.65625000000000000        0.0000000000000000     
  0.75000000000000000       0.68750000000000000        0.0000000000000000     
  0.78125000000000000       0.68750000000000000        0.0000000000000000     
  0.81250000000000000       0.68750000000000000        0.0000000000000000     
  0.84375000000000000       0.68750000000000000        0.0000000000000000     
  0.87500000000000000       0.68750000000000000        0.0000000000000000     
  0.75000000000000000       0.71875000000000000        0.0000000000000000     
  0.78125000000000000       0.71875000000000000        0.0000000000000000     
  0.81250000000000000       0.71875000000000000        0.0000000000000000     
  0.84375000000000000       0.71875000000000000        0.0000000000000000     
  0.87500000000000000       0.71875000000000000        0.0000000000000000     
  0.75000000000000000       0.75000000000000000        0.0000000000000000     
  0.78125000000000000       0.75000000000000000        0.0000000000000000     
  0.81250000000000000       0.75000000000000000        0.0000000000000000     
  0.84375000000000000       0.75000000000000000        0.0000000000000000     
  0.87500000000000000       0.75000000000000000        0.0000000000000000     
  0.87500000000000000       0.62500000000000000        0.0000000000000000     
  0.90625000000000000       0.62500000000000000        0.0000000000000000     
  0.93750000000000000       0.62500000000000000        0.0000000000000000     
  0.96875000000000000       0.62500000000000000        0.0000000000000000     
   1.0000000000000000       0.62500000000000000        0.0000000000000000     
  0.87500000000000000       0.65625000000000000        0.0000000000000000     
  0.90625000000000000       0.65625000000000000        0.0000000000000000     
  0.93750000000000000       0.65625000000000000        0.0000000000000000     
  0.96875000000000000       0.65625000000000000        0.0000000000000000     
   1.0000000000000000       0.65625000000000000        0.0000000000000000     
  0.87500000000000000       0.68750000000000000        0.0000000000000000     
  0.90625000000000000       0.68750000000000000        0.0000000000000000     
  0.93750000000000000       0.68750000000000000        0.0000000000000000     
  0.96875000000000000       0.68750000000000000        0.0000000000000000     
   1.0000000000000000       0.68750000000000000        0.0000000000000000     
  0.87500000000000000       0.71875000000000000        0.0000000000000000     
  0.90625000000000000       0.71875000000000000        0.0000000000000000     
  0.93750000000000000       0.71875000000000000        0.0000000000000000     
  0.96875000000000000       0.71875000000000000        0.0000000000000000     
   1.0000000000000000       0.71875000000000000        0.0000000000000000     
  0.87500000000000000       0.75000000000000000        0.0000000000000000     
  0.90625000000000000       0.75000000000000000        0.0000000000000000     
  0.93750000000000000       0.75000000000000000        0.0000000000000000     
  0.96875000000000000       0.75000000000000000        0.0000000000000000     
   1.0000000000000000       0.75000000000000000        0.0000000000000000     
   0.0000000000000000       0.75000000000000000        0.0000000000000000     
   3.1250000000000000E-002  0.75000000000000000        0.0000000000000000     
   6.2500000000000000E-002  0.75000000000000000        0.0000000000000000     
   9.3750000000000000E-002  0.75000000000000000        0.0000000000000000     
  0.12500000000000000       0.75000000000000000        0.0000000000000000     
   0.0000000000000000       0.78125000000000000        0.0000000000000000     
   3.1250000000000000E-002  0.78125000000000000        0.0000000000000000     
   6.2500000000000000E-002  0.78125000000000000        0.0000000000000000     
   9.3750000000000000E-002  0.78125000000000000        0.0000000000000000     
  0.12500000000000000       0.78125000000000000        0.0000000000000000     
   0.0000000000000000       0.81250000000000000        0.0000000000000000     
   3.1250000000000000E-002  0.81250000000000000        0.0000000000000000     
   6.2500000000000000E-002  0.81250000000000000        0.0000000000000000     
   9.3750000000000000E-002  0.81250000000000000        0.0000000000000000     
  0.12500000000000000       0.81250000000000000        0.0000000000000000     
   0.0000000000000000       0.84375000000000000        0.0000000000000000     
   3.1250000000000000E-002  0.84375000000000000        0.0000000000000000     
   6.2500000000000000E-002  0.84375000000000000        0.0000000000000000     
   9.3750000000000000E-002  0.84375000000000000        0.0000000000000000     
  0.12500000000000000       0.84375000000000000        0.0000000000000000     
   0.0000000000000000       0.87500000000000000        0.0000000000000000     
   3.1250000000000000E-002  0.87500000000000000        0.0000000000000000     
   6.2500000000000000E-002  0.87500000000000000        0.0000000000000000     
   9.3750000000000000E-002  0.87500000000000000        0.0000000000000000     
  0.12500000000000000       0.87500000000000000        0.0000000000000000     
  0.12500000000000000       0.75000000000000000        0.0000000000000000     
  0.15625000000000000       0.75000000000000000        0.0000000000000000     
  0.18750000000000000       0.75000000000000000        0.0000000000000000     
  0.21875000000000000       0.75000000000000000        0.0000000000000000     
  0.25000000000000000       0.75000000000000000        0.0000000000000000     
  0.12500000000000000       0.78125000000000000        0.0000000000000000     
  0.15625000000000000       0.78125000000000000        0.0000000000000000     
  0.18750000000000000       0.78125000000000000        0.0000000000000000     
  0.21875000000000000       0.78125000000000000        0.0000000000000000     
  0.25000000000000000       0.78125000000000000        0.0000000000000000     
  0.12500000000000000       0.81250000000000000        0.0000000000000000     
  0.15625000000000000       0.81250000000000000        0.0000000000000000     
  0.18750000000000000       0.81250000000000000        0.0000000000000000     
  0.21875000000000000       0.81250000000000000        0.0000000000000000     
  0.25000000000000000       0.81250000000000000        0.0000000000000000     
  0.12500000000000000       0.84375000000000000        0.0000000000000000     
  0.15625000000000000       0.84375000000000000        0.0000000000000000     
  0.18750000000000000       0.84375000000000000        0.0000000000000000     
  0.21875000000000000       0.84375000000000000        0.0000000000000000     
  0.25000000000000000       0.84375000000000000        0.0000000000000000     
  0.12500000000000000       0.87500000000000000        0.0000000000000000     
  0.15625000000000000       0.87500000000000000        0.0000000000000000     
  0.18750000000000000       0.87500000000000000        0.0000000000000000     
  0.21875000000000000       0.87500000000000000        0.0000000000000000     
  0.25000000000000000       0.87500000000000000        0.0000000000000000     
  0.25000000000000000       0.75000000000000000        0.0000000000000000     
  0.28125000000000000       0.75000000000000000        0.0000000000000000     
  0.31250000000000000       0.75000000000000000        0.0000000000000000     
  0.34375000000000000       0.75000000000000000        0.0000000000000000     
  0.37500000000000000       0.75000000000000000        0.0000000000000000     
  0.25000000000000000       0.78125000000000000        0.0000000000000000     
  0.28125000000000000       0.78125000000000000        0.0000000000000000     
  0.31250000000000000       0.78125000000000000        0.0000000000000000     
  0.34375000000000000       0.78125000000000000        0.0000000000000000     
  0.37500000000000000       0.78125000000000000        0.0000000000000000     
  0.25000000000000000       0.81250000000000000        0.0000000000000000     
  0.28125000000000000       0.81250000000000000        0.0000000000000000     
  0.31250000000000000       0.81250000000000000        0.0000000000000000     
  0.34375000000000000       0.81250000000000000        0.0000000000000000     
  0.37500000000000000       0.81250000000000000        0.0000000000000000     
  0.25000000000000000       0.84375000000000000        0.0000000000000000     
  0.28125000000000000       0.84375000000000000        0.0000000000000000     
  0.31250000000000000       0.84375000000000000        0.0000000000000000     
  0.34375000000000000       0.84375000000000000        0.0000000000000000     
  0.37500000000000000       0.84375000000000000        0.0000000000000000     
  0.25000000000000000       0.87500000000000000        0.0000000000000000     
  0.28125000000000000       0.87500000000000000        0.0000000000000000     
  0.31250000000000000       0.87500000000000000        0.0000000000000000     
  0.34375000000000000       0.87500000000000000        0.0000000000000000     
  0.37500000000000000       0.87500000000000000        0.0000000000000000     
  0.37500000000000000       0.75000000000000000        0.0000000000000000     
  0.40625000000000000       0.75000000000000000        0.0000000000000000     
  0.43750000000000000       0.75000000000000000        0.0000000000000000     
  0.46875000000000000       0.75000000000000000        0.0000000000000000     
  0.50000000000000000       0.75000000000000000        0.0000000000000000     
  0.37500000000000000       0.78125000000000000        0.0000000000000000     
  0.40625000000000000       0.78125000000000000        0.0000000000000000     
  0.43750000000000000       0.78125000000000000        0.0000000000000000     
  0.46875000000000000       0.78125000000000000        0.0000000000000000     
  0.50000000000000000       0.78125000000000000        0.0000000000000000     
  0.37500000000000000       0.81250000000000000        0.0000000000000000     
  0.40625000000000000       0.81250000000000000        0.0000000000000000     
  0.43750000000000000       0.81250000000000000        0.0000000000000000     
  0.46875000000000000       0.81250000000000000        0.0000000000000000     
  0.50000000000000000       0.81250000000000000        0.0000000000000000     
  0.37500000000000000       0.84375000000000000        0.0000000000000000     
  0.40625000000000000       0.84375000000000000        0.0000000000000000     
  0.43750000000000000       0.84375000000000000        0.0000000000000000     
  0.46875000000000000       0.84375000000000000        0.0000000000000000     
  0.50000000000000000       0.84375000000000000        0.0000000000000000     
  0.37500000000000000       0.87500000000000000        0.0000000000000000     
  0.40625000000000000       0.87500000000000000        0.0000000000000000     
  0.43750000000000000       0.87500000000000000        0.0000000000000000     
  0.46875000000000000       0.87500000000000000        0.0000000000000000     
  0.50000000000000000       0.87500000000000000        0.0000000000000000     
  0.50000000000000000       0.75000000000000000        0.0000000000000000     
  0.53125000000000000       0.75000000000000000        0.0000000000000000     
  0.56250000000000000       0.75000000000000000        0.0000000000000000     
  0.59375000000000000       0.75000000000000000        0.0000000000000000     
  0.62500000000000000       0.75000000000000000        0.0000000000000000     
  0.50000000000000000       0.78125000000000000        0.0000000000000000     
  0.53125000000000000       0.78125000000000000        0.0000000000000000     
  0.56250000000000000       0.78125000000000000        0.0000000000000000     
  0.59375000000000000       0.78125000000000000        0.0000000000000000     
  0.62500000000000000       0.78125000000000000        0.0000000000000000     
  0.50000000000000000       0.81250000000000000        0.0000000000000000     
  0.53125000000000000       0.81250000000000000        0.0000000000000000     
  0.56250000000000000       0.81250000000000000        0.0000000000000000     
  0.59375000000000000       0.81250000000000000        0.0000000000000000     
  0.62500000000000000       0.81250000000000000        0.0000000000000000     
  0.50000000000000000       0.84375000000000000        0.0000000000000000     
  0.53125000000000000       0.84375000000000000        0.0000000000000000     
  0.56250000000000000       0.84375000000000000        0.0000000000000000     
  0.59375000000000000       0.84375000000000000        0.0000000000000000     
  0.62500000000000000       0.84375000000000000        0.0000000000000000     
  0.50000000000000000       0.87500000000000000        0.0000000000000000     
  0.53125000000000000       0.87500000000000000        0.0000000000000000     
  0.56250000000000000       0.87500000000000000        0.0000000000000000     
  0.59375000000000000       0.87500000000000000        0.0000000000000000     
  0.62500000000000000       0.87500000000000000        0.0000000000000000     
  0.62500000000000000       0.75000000000000000        0.0000000000000000     
  0.65625000000000000       0.75000000000000000        0.0000000000000000     
  0.68750000000000000       0.75000000000000000        0.0000000000000000     
  0.71875000000000000       0.75000000000000000        0.0000000000000000     
  0.75000000000000000       0.75000000000000000        0.0000000000000000     
  0.62500000000000000       0.78125000000000000        0.0000000000000000     
  0.65625000000000000       0.78125000000000000        0.0000000000000000     
  0.68750000000000000       0.78125000000000000        0.0000000000000000     
  0.71875000000000000       0.78125000000000000        0.0000000000000000     
  0.75000000000000000       0.78125000000000000        0.0000000000000000     
  0.62500000000000000       0.81250000000000000        0.0000000000000000     
  0.65625000000000000       0.81250000000000000        0.0000000000000000     
  0.68750000000000000       0.81250000000000000        0.0000000000000000     
  0.71875000000000000       0.81250000000000000        0.0000000000000000     
  0.75000000000000000       0.81250000000000000        0.0000000000000000     
  0.62500000000000000       0.84375000000000000        0.0000000000000000     
  0.65625000000000000       0.84375000000000000        0.0000000000000000     
  0.68750000000000000       0.84375000000000000        0.0000000000000000     
  0.71875000000000000       0.84375000000000000        0.0000000000000000     
  0.75000000000000000       0.84375000000000000        0.0000000000000000     
  0.62500000000000000       0.87500000000000000        0.0000000000000000     
  0.65625000000000000       0.87500000000000000        0.0000000000000000     
  0.68750000000000000       0.87500000000000000        0.0000000000000000     
  0.71875000000000000       0.87500000000000000        0.0000000000000000     
  0.75000000000000000       0.87500000000000000        0.0000000000000000     
  0.75000000000000000       0.75000000000000000        0.0000000000000000     
  0.78125000000000000       0.75000000000000000        0.0000000000000000     
  0.81250000000000000       0.75000000000000000        0.0000000000000000     
  0.84375000000000000       0.75000000000000000        0.0000000000000000     
  0.87500000000000000       0.75000000000000000        0.0000000000000000     
  0.75000000000000000       0.78125000000000000        0.0000000000000000     
  0.78125000000000000       0.78125000000000000        0.0000000000000000     
  0.81250000000000000       0.78125000000000000        0.0000000000000000     
  0.84375000000000000       0.78125000000000000        0.0000000000000000     
  0.87500000000000000       0.78125000000000000        0.0000000000000000     
  0.75000000000000000       0.81250000000000000        0.0000000000000000     
  0.78125000000000000       0.81250000000000000        0.0000000000000000     
  0.81250000000000000       0.81250000000000000        0.0000000000000000     
  0.84375000000000000       0.81250000000000000        0.0000000000000000     
  0.87500000000000000       0.81250000000000000        0.0000000000000000     
  0.75000000000000000       0.84375000000000000        0.0000000000000000     
  0.78125000000000000       0.84375000000000000        0.0000000000000000     
  0.81250000000000000       0.84375000000000000        0.0000000000000000     
  0.84375000000000000       0.84375000000000000        0.0000000000000000     
  0.87500000000000000       0.84375000000000000        0.0000000000000000     
  0.75000000000000000       0.87500000000000000        0.0000000000000000     
  0.78125000000000000       0.87500000000000000        0.0000000000000000     
  0.81250000000000000       0.87500000000000000        0.0000000000000000     
  0.84375000000000000       0.87500000000000000        0.0000000000000000     
  0.87500000000000000       0.87500000000000000        0.0000000000000000     
  0.87500000000000000       0.75000000000000000        0.0000000000000000     
  0.90625000000000000       0.75000000000000000        0.0000000000000000     
  0.93750000000000000       0.75000000000000000        0.0000000000000000     
  0.96875000000000000       0.75000000000000000        0.0000000000000000     
   1.0000000000000000       0.75000000000000000        0.0000000000000000     
  0.87500000000000000       0.78125000000000000        0.0000000000000000     
  0.90625000000000000       0.78125000000000000        0.0000000000000000     
  0.93750000000000000       0.78125000000000000        0.0000000000000000     
  0.96875000000000000       0.78125000000000000        0.0000000000000000     
   1.0000000000000000       0.78125000000000000        0.0000000000000000     
  0.87500000000000000       0.81250000000000000        0.0000000000000000     
  0.90625000000000000       0.81250000000000000        0.0000000000000000     
  0.93750000000000000       0.81250000000000000        0.0000000000000000     
  0.96875000000000000       0.81250000000000000        0.0000000000000000     
   1.0000000000000000       0.81250000000000000        0.0000000000000000     
  0.87500000000000000       0.84375000000000000        0.0000000000000000     
  0.90625000000000000       0.84375000000000000        0.0000000000000000     
  0.93750000000000000       0.84375000000000000        0.0000000000000000     
  0.96875000000000000       0.84375000000000000        0.0000000000000000     
   1.0000000000000000       0.84375000000000000        0.0000000000000000     
  0.87500000000000000       0.87500000000000000        0.0000000000000000     
  0.90625000000000000       0.87500000000000000        0.0000000000000000     
  0.93750000000000000       0.87500000000000000        0.0000000000000000     
  0.96875000000000000       0.87500000000000000        0.0000000000000000     
   1.0000000000000000       0.87500000000000000        0.0000000000000000     
   0.0000000000000000       0.87500000000000000        0.0000000000000000     
   3.1250000000000000E-002  0.87500000000000000        0.0000000000000000     
   6.2500000000000000E-002  0.87500000000000000        0.0000000000000000     
   9.3750000000000000E-002  0.87500000000000000        0.0000000000000000     
  0.12500000000000000       0.87500000000000000        0.0000000000000000     
   0.0000000000000000       0.90625000000000000        0.0000000000000000     
   3.1250000000000000E-002  0.90625000000000000        0.0000000000000000     
   6.2500000000000000E-002  0.90625000000000000        0.0000000000000000     
   9.3750000000000000E-002  0.90625000000000000        0.0000000000000000     
  0.12500000000000000       0.90625000000000000        0.0000000000000000     
   0.0000000000000000       0.93750000000000000        0.0000000000000000     
   3.1250000000000000E-002  0.93750000000000000        0.0000000000000000     
   6.2500000000000000E-002  0.93750000000000000        0.0000000000000000     
   9.3750000000000000E-002  0.93750000000000000        0.0000000000000000     
  0.12500000000000000       0.93750000000000000        0.0000000000000000     
   0.0000000000000000       0.96875000000000000        0.0000000000000000     
   3.1250000000000000E-002  0.96875000000000000        0.0000000000000000     
   6.2500000000000000E-002  0.96875000000000000        0.0000000000000000     
   9.3750000000000000E-002  0.96875000000000000        0.0000000000000000     
  0.12500000000000000       0.96875000000000000        0.0000000000000000     
   0.0000000000000000        1.0000000000000000        0.0000000000000000     
   3.1250000000000000E-002   1.0000000000000000        0.0000000000000000     
   6.2500000000000000E-002   1.0000000000000000        0.0000000000000000     
   9.3750000000000000E-002   1.0000000000000000        0.0000000000000000     
  0.12500000000000000        1.0000000000000000        0.0000000000000000     
  0.12500000000000000       0.87500000000000000        0.0000000000000000     
  0.15625000000000000       0.87500000000000000        0.0000000000000000     
  0.18750000000000000       0.87500000000000000        0.0000000000000000     
  0.21875000000000000       0.87500000000000000        0.0000000000000000     
  0.25000000000000000       0.87500000000000000        0.0000000000000000     
  0.12500000000000000       0.90625000000000000        0.0000000000000000     
  0.15625000000000000       0.90625000000000000        0.0000000000000000     
  0.18750000000000000       0.90625000000000000        0.0000000000000000     
  0.21875000000000000       0.90625000000000000        0.0000000000000000     
  0.25000000000000000       0.90625000000000000        0.0000000000000000     
  0.12500000000000000       0.93750000000000000        0.0000000000000000     
  0.15625000000000000       0.93750000000000000        0.0000000000000000     
  0.18750000000000000       0.93750000000000000        0.0000000000000000     
  0.21875000000000000       0.93750000000000000        0.0000000000000000     
  0.25000000000000000       0.93750000000000000        0.0000000000000000     
  0.12500000000000000       0.96875000000000000        0.0000000000000000     
  0.15625000000000000       0.96875000000000000        0.0000000000000000     
  0.18750000000000000       0.96875000000000000        0.0000000000000000     
  0.21875000000000000       0.96875000000000000        0.0000000000000000     
  0.25000000000000000       0.96875000000000000        0.0000000000000000     
  0.12500000000000000        1.0000000000000000        0.0000000000000000     
  0.15625000000000000        1.0000000000000000        0.0000000000000000     
  0.18750000000000000        1.0000000000000000        0.0000000000000000     
  0.21875000000000000        1.0000000000000000        0.0000000000000000     
  0.25000000000000000        1.0000000000000000        0.0000000000000000     
  0.25000000000000000       0.87500000000000000        0.0000000000000000     
  0.28125000000000000       0.87500000000000000        0.0000000000000000     
  0.31250000000000000       0.87500000000000000        0.0000000000000000     
  0.34375000000000000       0.87500000000000000        0.0000000000000000     
  0.37500000000000000       0.87500000000000000        0.0000000000000000     
  0.25000000000000000       0.90625000000000000        0.0000000000000000     
  0.28125000000000000       0.90625000000000000        0.0000000000000000     
  0.31250000000000000       0.90625000000000000        0.0000000000000000     
  0.34375000000000000       0.90625000000000000        0.0000000000000000     
  0.37500000000000000       0.90625000000000000        0.0000000000000000     
  0.25000000000000000       0.93750000000000000        0.0000000000000000     
  0.28125000000000000       0.93750000000000000        0.0000000000000000     
  0.31250000000000000       0.93750000000000000        0.0000000000000000     
  0.34375000000000000       0.93750000000000000        0.0000000000000000     
  0.37500000000000000       0.93750000000000000        0.0000000000000000     
  0.25000000000000000       0.96875000000000000        0.0000000000000000     
  0.28125000000000000       0.96875000000000000        0.0000000000000000     
  0.31250000000000000       0.96875000000000000        0.0000000000000000     
  0.34375000000000000       0.96875000000000000        0.0000000000000000     
  0.37500000000000000       0.96875000000000000        0.0000000000000000     
  0.25000000000000000        1.0000000000000000        0.0000000000000000     
  0.28125000000000000        1.0000000000000000        0.0000000000000000     
  0.31250000000000000        1.0000000000000000        0.0000000000000000     
  0.34375000000000000        1.0000000000000000        0.0000000000000000     
  0.37500000000000000        1.0000000000000000        0.0000000000000000     
  0.37500000000000000       0.87500000000000000        0.0000000000000000     
  0.40625000000000000       0.87500000000000000        0.0000000000000000     
  0.43750000000000000       0.87500000000000000        0.0000000000000000     
  0.46875000000000000       0.87500000000000000        0.0000000000000000     
  0.50000000000000000       0.87500000000000000        0.0000000000000000     
  0.37500000000000000       0.90625000000000000        0.0000000000000000     
  0.40625000000000000       0.90625000000000000        0.0000000000000000     
  0.43750000000000000       0.90625000000000000        0.0000000000000000     
  0.46875000000000000       0.90625000000000000        0.0000000000000000     
  0.50000000000000000       0.90625000000000000        0.0000000000000000     
  0.37500000000000000       0.93750000000000000        0.0000000000000000     
  0.40625000000000000       0.93750000000000000        0.0000000000000000     
  0.43750000000000000       0.93750000000000000        0.0000000000000000     
  0.46875000000000000       0.93750000000000000        0.0000000000000000     
  0.50000000000000000       0.93750000000000000        0.0000000000000000     
  0.37500000000000000       0.96875000000000000        0.0000000000000000     
  0.40625000000000000       0.96875000000000000        0.0000000000000000     
  0.43750000000000000       0.96875000000000000        0.0000000000000000     
  0.46875000000000000       0.96875000000000000        0.0000000000000000     
  0.50000000000000000       0.96875000000000000        0.0000000000000000     
  0.37500000000000000        1.0000000000000000        0.0000000000000000     
  0.40625000000000000        1.0000000000000000        0.0000000000000000     
  0.43750000000000000        1.0000000000000000        0.0000000000000000     
  0.46875000000000000        1.0000000000000000        0.0000000000000000     
  0.50000000000000000        1.0000000000000000        0.0000000000000000     
  0.50000000000000000       0.87500000000000000        0.0000000000000000     
  0.53125000000000000       0.87500000000000000        0.0000000000000000     
  0.56250000000000000       0.87500000000000000        0.0000000000000000     
  0.59375000000000000       0.87500000000000000        0.0000000000000000     
  0.62500000000000000       0.87500000000000000        0.0000000000000000     
  0.50000000000000000       0.90625000000000000        0.0000000000000000     
  0.53125000000000000       0.90625000000000000        0.0000000000000000     
  0.56250000000000000       0.90625000000000000        0.0000000000000000     
  0.59375000000000000       0.90625000000000000        0.0000000000000000     
  0.62500000000000000       0.90625000000000000        0.0000000000000000     
  0.50000000000000000       0.93750000000000000        0.0000000000000000     
  0.53125000000000000       0.93750000000000000        0.0000000000000000     
  0.56250000000000000       0.93750000000000000        0.0000000000000000     
  0.59375000000000000       0.93750000000000000        0.0000000000000000     
  0.62500000000000000       0.93750000000000000        0.0000000000000000     
  0.50000000000000000       0.96875000000000000        0.0000000000000000     
  0.53125000000000000       0.96875000000000000        0.0000000000000000     
  0.56250000000000000       0.96875000000000000        0.0000000000000000     
  0.59375000000000000       0.96875000000000000        0.0000000000000000     
  0.62500000000000000       0.96875000000000000        0.0000000000000000     
  0.50000000000000000        1.0000000000000000        0.0000000000000000     
  0.53125000000000000        1.0000000000000000        0.0000000000000000     
  0.56250000000000000        1.0000000000000000        0.0000000000000000     
  0.59375000000000000        1.0000000000000000        0.0000000000000000     
  0.62500000000000000        1.0000000000000000        0.0000000000000000     
  0.62500000000000000       0.87500000000000000        0.0000000000000000     
  0.65625000000000000       0.87500000000000000        0.0000000000000000     
  0.68750000000000000       0.87500000000000000        0.0000000000000000     
  0.71875000000000000       0.87500000000000000        0.0000000000000000     
  0.75000000000000000       0.87500000000000000        0.0000000000000000     
  0.62500000000000000       0.90625000000000000        0.0000000000000000     
  0.65625000000000000       0.90625000000000000        0.0000000000000000     
  0.68750000000000000       0.90625000000000000        0.0000000000000000     
  0.71875000000000000       0.90625000000000000        0.0000000000000000     
  0.75000000000000000       0.90625000000000000        0.0000000000000000     
  0.62500000000000000       0.93750000000000000        0.0000000000000000     
  0.65625000000000000       0.93750000000000000        0.0000000000000000     
  0.68750000000000000       0.93750000000000000        0.0000000000000000     
  0.71875000000000000       0.93750000000000000        0.0000000000000000     
  0.75000000000000000       0.93750000000000000        0.0000000000000000     
  0.62500000000000000       0.96875000000000000        0.0000000000000000     
  0.65625000000000000       0.96875000000000000        0.0000000000000000     
  0.68750000000000000       0.96875000000000000        0.0000000000000000     
  0.71875000000000000       0.96875000000000000        0.0000000000000000     
  0.75000000000000000       0.96875000000000000        0.0000000000000000     
  0.62500000000000000        1.0000000000000000        0.0000000000000000     
  0.65625000000000000        1.0000000000000000        0.0000000000000000     
  0.68750000000000000        1.0000000000000000        0.0000000000000000     
  0.71875000000000000        1.0000000000000000        0.0000000000000000     
  0.75000000000000000        1.0000000000000000        0.0000000000000000     
  0.75000000000000000       0.87500000000000000        0.0000000000000000     
  0.78125000000000000       0.87500000000000000        0.0000000000000000     
  0.81250000000000000       0.87500000000000000        0.0000000000000000     
  0.84375000000000000       0.87500000000000000        0.0000000000000000     
  0.87500000000000000       0.87500000000000000        0.0000000000000000     
  0.75000000000000000       0.90625000000000000        0.0000000000000000     
  0.78125000000000000       0.90625000000000000        0.0000000000000000     
  0.81250000000000000       0.90625000000000000        0.0000000000000000     
  0.84375000000000000       0.90625000000000000        0.0000000000000000     
  0.87500000000000000       0.90625000000000000        0.0000000000000000     
  0.75000000000000000       0.93750000000000000        0.0000000000000000     
  0.78125000000000000       0.93750000000000000        0.0000000000000000     
  0.81250000000000000       0.93750000000000000        0.0000000000000000     
  0.84375000000000000       0.93750000000000000        0.0000000000000000     
  0.87500000000000000       0.93750000000000000        0.0000000000000000     
  0.75000000000000000       0.96875000000000000        0.0000000000000000     
  0.78125000000000000       0.96875000000000000        0.0000000000000000     
  0.81250000000000000       0.96875000000000000        0.0000000000000000     
  0.84375000000000000       0.96875000000000000        0.0000000000000000     
  0.87500000000000000       0.96875000000000000        0.0000000000000000     
  0.75000000000000000        1.0000000000000000        0.0000000000000000     
  0.78125000000000000        1.0000000000000000        0.0000000000000000     
  0.81250000000000000        1.0000000000000000        0.0000000000000000     
  0.84375000000000000        1.0000000000000000        0.0000000000000000     
  0.87500000000000000        1.0000000000000000        0.0000000000000000     
  0.87500000000000000       0.87500000000000000        0.0000000000000000     
  0.90625000000000000       0.87500000000000000        0.0000000000000000     
  0.93750000000000000       0.87500000000000000        0.0000000000000000     
  0.96875000000000000       0.87500000000000000        0.0000000000000000     
   1.0000000000000000       0.87500000000000000        0.0000000000000000     
  0.87500000000000000       0.90625000000000000        0.0000000000000000     
  0.90625000000000000       0.90625000000000000        0.0000000000000000     
  0.93750000000000000       0.90625000000000000        0.0000000000000000     
  0.96875000000000000       0.90625000000000000        0.0000000000000000     
   1.0000000000000000       0.90625000000000000        0.0000000000000000     
  0.87500000000000000       0.93750000000000000        0.0000000000000000     
  0.90625000000000000       0.93750000000000000        0.0000000000000000     
  0.93750000000000000       0.93750000000000000        0.0000000000000000     
  0.96875000000000000       0.93750000000000000        0.0000000000000000     
   1.0000000000000000       0.93750000000000000        0.0000000000000000     
  0.87500000000000000       0.96875000000000000        0.0000000000000000     
  0.90625000000000000       0.96875000000000000        0.0000000000000000     
  0.93750000000000000       0.96875000000000000        0.0000000000000000     
  0.96875000000000000       0.96875000000000000        0.0000000000000000     
   1.0000000000000000       0.96875000000000000        0.0000000000000000     
  0.87500000000000000        1.0000000000000000        0.0000000000000000     
  0.90625000000000000        1.0000000000000000        0.0000000000000000     
  0.93750000000000000        1.0000000000000000        0.0000000000000000     
  0.96875000000000000        1.0000000000000000        0.0000000000000000     
   1.0000000000000000        1.0000000000000000        0.0000000000000000     
 </DataArray>
 </Points>
 <Cells>
 <DataArray  type="Int32"  Name="connectivity"  format="ascii">
           0           1           6           5
           1           2           7           6
           2           3           8           7
           3           4           9           8
           5           6          11          10
           6           7          12          11
           7           8          13          12
           8           9          14          13
          10          11          16          15
          11          12          17          16
          12          13          18          17
          13          14          19          18
          15          16          21          20
          16          17          22          21
          17          18          23          22
          18          19          24          23
          25          26          31          30
          26          27          32          31
          27          28          33          32
          28          29          34          33
          30          31          36          35
          31          32          37          36
          32          33          38          37
          33          34          39          38
          35          36          41          40
          36          37          42          41
          37          38          43          42
          38          39          44          43
          40          41          46          45
          41          42          47          46
          42          43          48          47
          43          44          49          48
          50          51          56          55
          51          52          57          56
          52          53          58          57
          53          54          59          58
          55          56          61          60
          56          57          62          61
          57          58          63          62
          58          59          64          63
          60          61          66          65
          61          62          67          66
          62          63          68          67
          63          64          69          68
          65          66          71          70
          66          67          72          71
          67          68          73          72
          68          69          74          73
          75          76          81          80
          76          77          82          81
          77          78          83          82
          78          79          84          83
          80          81          86          85
          81          82          87          86
          82          83          88          87
          83          84          89          88
          85          86          91          90
          86          87          92          91
          87          88          93          92
          88          89          94          93
          90          91          96          95
          91          92          97          96
          92          93          98          97
          93          94          99          98
         100         101         106         105
         101         102         107         106
         102         103         108         107
         103         104         109         108
         105         106         111         110
         106         107         112         111
         107         108         113         112
         108         109         114         113
         110         111         116         115
         111         112         117         116
         112         113         118         117
         113         114         119         118
         115         116         121         120
         116         117         122         121
         117         118         123         122
         118         119         124         123
         125         126         131         130
         126         127         132         131
         127         128         133         132
         128         129         134         133
         130         131         136         135
         131         132         137         136
         132         133         138         137
         133         134         139         138
         135         136         141         140
         136         137         142         141
         137         138         143         142
         138         139         144         143
         140         141         146         145
         141         142         147         146
         142         143         148         147
         143         144         149         148
         150         151         156         155
         151         152         157         156
         152         153         158         157
         153         154         159         158
         155         156         161         160
         156         157         162         161
         157         158         163         162
         158         159         164         163
         160         161         166         165
         161         162         167         166
         162         163         168         167
         163         164         169         168
         165         166         171         170
         166         167         172         171
         167         168         173         172
         168         169         174         173
         175         176         181         180
         176         177         182         181
         177         178         183         182
         178         179         184         183
         180         181         186         185
         181         182         187         186
         182         183         188         187
         183         184         189         188
         185         186         191         190
         186         187         192         191
         187         188         193         192
         188         189         194         193
         190         191         196         195
         191         192         197         196
         192         193         198         197
         193         194         199         198
         200         201         206         205
         201         202         207         206
         202         203         208         207
         203         204         209         208
         205         206         211         210
         206         207         212         211
         207         208         213         212
         208         209         214         213
         210         211         216         215
         211         212         217         216
         212         213         218         217
         213         214         219         218
         215         216         221         220
         216         217         222         221
         217         218         223         222
         218         219         224         223
         225         226         231         230
         226         227         232         231
         227         228         233         232
         228         229         234         233
         230         231         236         235
         231         232         237         236
         232         233         238         237
         233         234         239         238
         235         236         241         240
         236         237         242         241
         237         238         243         242
         238         239         244         243
         240         241         246         245
         241         242         247         246
         242         243         248         247
         243         244         249         248
         250         251         256         255
         251         252         257         256
         252         253         258         257
         253         254         259         258
         255         256         261         260
         256         257         262         261
         257         258         263         262
         258         259         264         263
         260         261         266         265
         261         262         267         266
         262         263         268         267
         263         264         269         268
         265         266         271         270
         266         267         272         271
         267         268         273         272
         268         269         274         273
         275         276         281         280
         276         277         282         281
         277         278         283         282
         278         279         284         283
         280         281         286         285
         281         282         287         286
         282         283         288         287
         283         284         289         288
         285         286         291         290
         286         287         292         291
         287         288         293         292
         288         289         294         293
         290         291         296         295
         291         292         297         296
         292         293         298         297
         293         294         299         298
         300         301         306         305
         301         302         307         306
         302         303         308         307
         303         304         309         308
         305         306         311         310
         306         307         312         311
         307         308         313         312
         308         309         314         313
         310         311         316         315
         311         312         317         316
         312         313         318         317
         313         314         319         318
         315         316         321         320
         316         317         322         321
         317         318         323         322
         318         319         324         323
         325         326         331         330
         326         327         332         331
         327         328         333         332
         328         329         334         333
         330         331         336         335
         331         332         337         336
         332         333         338         337
         333         334         339         338
         335         336         341         340
         336         337         342         341
         337         338         343         342
         338         339         344         343
         340         341         346         345
         341         342         347         346
         342         343         348         347
         343         344         349         348
         350         351         356         355
         351         352         357         356
         352         353         358         357
         353         354         359         358
         355         356         361         360
         356         357         362         361
         357         358         363         362
         358         359         364         363
         360         361         366         365
         361         362         367         366
         362         363         368         367
         363         364         369         368
         365         366         371         370
         366         367         372         371
         367         368         373         372
         368         369         374         373
         375         376         381         380
         376         377         382         381
         377         378         383         382
         378         379         384         383
         380         381         386         385
         381         382         387         386
         382         383         388         387
         383         384         389         388
         385         386         391         390
         386         387         392         391
         387         388         393         392
         388         389         394         393
         390         391         396         395
         391         392         397         396
         392         393         398         397
         393         394         399         398
         400         401         406         405
         401         402         407         406
         402         403         408         407
         403         404         409         408
         405         406         411         410
         406         407         412         411
         407         408         413         412
         408         409         414         413
         410         411         416         415
         411         412         417         416
         412         413         418         417
         413         414         419         418
         415         416         421         420
         416         417         422         421
         417         418         423         422
         418         419         424         423
         425         426         431         430
         426         427         432         431
         427         428         433         432
         428         429         434         433
         430         431         436         435
         431         432         437         436
         432         433         438         437
         433         434         439         438
         435         436         441         440
         436         437         442         441
         437         438         443         442
         438         439         444         443
         440         441         446         445
         441         442         447         446
         442         443         448         447
         443         444         449         448
         450         451         456         455
         451         452         457         456
         452         453         458         457
         453         454         459         458
         455         456         461         460
         456         457         462         461
         457         458         463         462
         458         459         464         463
         460         461         466         465
         461         462         467         466
         462         463         468         467
         463         464         469         468
         465         466         471         470
         466         467         472         471
         467         468         473         472
         468         469         474         473
         475         476         481         480
         476         477         482         481
         477         478         483         482
         478         479         484         483
         480         481         486         485
         481         482         487         486
         482         483         488         487
         483         484         489         488
         485         486         491         490
         486         487         492         491
         487         488         493         492
         488         489         494         493
         490         491         496         495
         491         492         497         496
         492         493         498         497
         493         494         499         498
         500         501         506         505
         501         502         507         506
         502         503         508         507
         503         504         509         508
         505         506         511         510
         506         507         512         511
         507         508         513         512
         508         509         514         513
         510         511         516         515
         511         512         517         516
         512         513         518         517
         513         514         519         518
         515         516         521         520
         516         517         522         521
         517         518         523         522
         518         519         524         523
         525         526         531         530
         526         527         532         531
         527         528         533         532
         528         529         534         533
         530         531         536         535
         531         532         537         536
         532         533         538         537
         533         534         539         538
         535         536         541         540
         536         537         542         541
         537         538         543         542
         538         539         544         543
         540         541         546         545
         541         542         547         546
         542         543         548         547
         543         544         549         548
         550         551         556         555
         551         552         557         556
         552         553         558         557
         553         554         559         558
         555         556         561         560
         556         557         562         561
         557         558         563         562
         558         559         564         563
         560         561         566         565
         561         562         567         566
         562         563         568         567
         563         564         569         568
         565         566         571         570
         566         567         572         571
         567         568         573         572
         568         569         574         573
         575         576         581         580
         576         577         582         581
         577         578         583         582
         578         579         584         583
         580         581         586         585
         581         582         587         586
         582         583         588         587
         583         584         589         588
         585         586         591         590
         586         587         592         591
         587         588         593         592
         588         589         594         593
         590         591         596         595
         591         592         597         596
         592         593         598         597
         593         594         599         598
         600         601         606         605
         601         602         607         606
         602         603         608         607
         603         604         609         608
         605         606         611         610
         606         607         612         611
         607         608         613         612
         608         609         614         613
         610         611         616         615
         611         612         617         616
         612         613         618         617
         613         614         619         618
         615         616         621         620
         616         617         622         621
         617         618         623         622
         618         619         624         623
         625         626         631         630
         626         627         632         631
         627         628         633         632
         628         629         634         633
         630         631         636         635
         631         632         637         636
         632         633         638         637
         633         634         639         638
         635         636         641         640
         636         637         642         641
         637         638         643         642
         638         639         644         643
         640         641         646         645
         641         642         647         646
         642         643         648         647
         643         644         649         648
         650         651         656         655
         651         652         657         656
         652         653         658         657
         653         654         659         658
         655         656         661         660
         656         657         662         661
         657         658         663         662
         658         659         664         663
         660         661         666         665
         661         662         667         666
         662         663         668         667
         663         664         669         668
         665         666         671         670
         666         667         672         671
         667         668         673         672
         668         669         674         673
         675         676         681         680
         676         677         682         681
         677         678         683         682
         678         679         684         683
         680         681         686         685
         681         682         687         686
         682         683         688         687
         683         684         689         688
         685         686         691         690
         686         687         692         691
         687         688         693         692
         688         689         694         693
         690         691         696         695
         691         692         697         696
         692         693         698         697
         693         694         699         698
         700         701         706         705
         701         702         707         706
         702         703         708         707
         703         704         709         708
         705         706         711         710
         706         707         712         711
         707         708         713         712
         708         709         714         713
         710         711         716         715
         711         712         717         716
         712         713         718         717
         713         714         719         718
         715         716         721         720
         716         717         722         721
         717         718         723         722
         718         719         724         723
         725         726         731         730
         726         727         732         731
         727         728         733         732
         728         729         734         733
         730         731         736         735
         731         732         737         736
         732         733         738         737
         733         734         739         738
         735         736         741         740
         736         737         742         741
         737         738         743         742
         738         739         744         743
         740         741         746         745
         741         742         747         746
         742         743         748         747
         743         744         749         748
         750         751         756         755
         751         752         757         756
         752         753         758         757
         753         754         759         758
         755         756         761         760
         756         757         762         761
         757         758         763         762
         758         759         764         763
         760         761         766         765
         761         762         767         766
         762         763         768         767
         763         764         769         768
         765         766         771         770
         766         767         772         771
         767         768         773         772
         768         769         774         773
         775         776         781         780
         776         777         782         781
         777         778         783         782
         778         779         784         783
         780         781         786         785
         781         782         787         786
         782         783         788         787
         783         784         789         788
         785         786         791         790
         786         787         792         791
         787         788         793         792
         788         789         794         793
         790         791         796         795
         791         792         797         796
         792         793         798         797
         793         794         799         798
         800         801         806         805
         801         802         807         806
         802         803         808         807
         803         804         809         808
         805         806         811         810
         806         807         812         811
         807         808         813         812
         808         809         814         813
         810         811         816         815
         811         812         817         816
         812         813         818         817
         813         814         819         818
         815         816         821         820
         816         817         822         821
         817         818         823         822
         818         819         824         823
         825         826         831         830
         826         827         832         831
         827         828         833         832
         828         829         834         833
         830         831         836         835
         831         832         837         836
         832         833         838         837
         833         834         839         838
         835         836         841         840
         836         837         842         841
         837         838         843         842
         838         839         844         843
         840         841         846         845
         841         842         847         846
         842         843         848         847
         843         844         849         848
         850         851         856         855
         851         852         857         856
         852         853         858         857
         853         854         859         858
         855         856         861         860
         856         857         862         861
         857         858         863         862
         858         859         864         863
         860         861         866         865
         861         862         867         866
         862         863         868         867
         863         864         869         868
         865         866         871         870
         866         867         872         871
         867         868         873         872
         868         869         874         873
         875         876         881         880
         876         877         882         881
         877         878         883         882
         878         879         884         883
         880         881         886         885
         881         882         887         886
         882         883         888         887
         883         884         889         888
         885         886         891         890
         886         887         892         891
         887         888         893         892
         888         889         894         893
         890         891         896         895
         891         892         897         896
         892         893         898         897
         893         894         899         898
         900         901         906         905
         901         902         907         906
         902         903         908         907
         903         904         909         908
         905         906         911         910
         906         907         912         911
         907         908         913         912
         908         909         914         913
         910         911         916         915
         911         912         917         916
         912         913         918         917
         913         914         919         918
         915         916         921         920
         916         917         922         921
         917         918         923         922
         918         919         924         923
         925         926         931         930
         926         927         932         931
         927         928         933         932
         928         929         934         933
         930         931         936         935
         931         932         937         936
         932         933         938         937
         933         934         939         938
         935         936         941         940
         936         937         942         941
         937         938         943         942
         938         939         944         943
         940         941         946         945
         941         942         947         946
         942         943         948         947
         943         944         949         948
         950         951         956         955
         951         952         957         956
         952         953         958         957
         953         954         959         958
         955         956         961         960
         956         957         962         961
         957         958         963         962
         958         959         964         963
         960         961         966         965
         961         962         967         966
         962         963         968         967
         963         964         969         968
         965         966         971         970
         966         967         972         971
         967         968         973         972
         968         969         974         973
         975         976         981         980
         976         977         982         981
         977         978         983         982
         978         979         984         983
         980         981         986         985
         981         982         987         986
         982         983         988         987
         983         984         989         988
         985         986         991         990
         986         987         992         991
         987         988         993         992
         988         989         994         993
         990         991         996         995
         991         992         997         996
         992         993         998         997
         993         994         999         998
        1000        1001        1006        1005
        1001        1002        1007        1006
        1002        1003        1008        1007
        1003        1004        1009        1008
        1005        1006        1011        1010
        1006        1007        1012        1011
        1007        1008        1013        1012
        1008        1009        1014        1013
        1010        1011        1016        1015
        1011        1012        1017        1016
        1012        1013        1018        1017
        1013        1014        1019        1018
        1015        1016        1021        1020
        1016        1017        1022        1021
        1017        1018        1023        1022
        1018        1019        1024        1023
        1025        1026        1031        1030
        1026        1027        1032        1031
        1027        1028        1033        1032
        1028        1029        1034        1033
        1030        1031        1036        1035
        1031        1032        1037        1036
        1032        1033        1038        1037
        1033        1034        1039        1038
        1035        1036        1041        1040
        1036        1037        1042        1041
        1037        1038        1043        1042
        1038        1039        1044        1043
        1040        1041        1046        1045
        1041        1042        1047        1046
        1042        1043        1048        1047
        1043        1044        1049        1048
        1050        1051        1056        1055
        1051        1052        1057        1056
        1052        1053        1058        1057
        1053        1054        1059        1058
        1055        1056        1061        1060
        1056        1057        1062        1061
        1057        1058        1063        1062
        1058        1059        1064        1063
        1060        1061        1066        1065
        1061        1062        1067        1066
        1062        1063        1068        1067
        1063        1064        1069        1068
        1065        1066        1071        1070
        1066        1067        1072        1071
        1067        1068        1073        1072
        1068        1069        1074        1073
        1075        1076        1081        1080
        1076        1077        1082        1081
        1077        1078        1083        1082
        1078        1079        1084        1083
        1080        1081        1086        1085
        1081        1082        1087        1086
        1082        1083        1088        1087
        1083        1084        1089        1088
        1085        1086        1091        1090
        1086        1087        1092        1091
        1087        1088        1093        1092
        1088        1089        1094        1093
        1090        1091        1096        1095
        1091        1092        1097        1096
        1092        1093        1098        1097
        1093        1094        1099        1098
        1100        1101        1106        1105
        1101        1102        1107        1106
        1102        1103        1108        1107
        1103        1104        1109        1108
        1105        1106        1111        1110
        1106        1107        1112        1111
        1107        1108        1113        1112
        1108        1109        1114        1113
        1110        1111        1116        1115
        1111        1112        1117        1116
        1112        1113        1118        1117
        1113        1114        1119        1118
        1115        1116        1121        1120
        1116        1117        1122        1121
        1117        1118        1123        1122
        1118        1119        1124        1123
        1125        1126        1131        1130
        1126        1127        1132        1131
        1127        1128        1133        1132
        1128        1129        1134        1133
        1130        1131        1136        1135
        1131        1132        1137        1136
        1132        1133        1138        1137
        1133        1134        1139        1138
        1135        1136        1141        1140
        1136        1137        1142        1141
        1137        1138        1143        1142
        1138        1139        1144        1143
        1140        1141        1146        1145
        1141        1142        1147        1146
        1142        1143        1148        1147
        1143        1144        1149        1148
        1150        1151        1156        1155
        1151        1152        1157        1156
        1152        1153        1158        1157
        1153        1154        1159        1158
        1155        1156        1161        1160
        1156        1157        1162        1161
        1157        1158        1163        1162
        1158        1159        1164        1163
        1160        1161        1166        1165
        1161        1162        1167        1166
        1162        1163        1168        1167
        1163        1164        1169        1168
        1165        1166        1171        1170
        1166        1167        1172        1171
        1167        1168        1173        1172
        1168        1169        1174        1173
        1175        1176        1181        1180
        1176        1177        1182        1181
        1177        1178        1183        1182
        1178        1179        1184        1183
        1180        1181        1186        1185
        1181        1182        1187        1186
        1182        1183        1188        1187
        1183        1184        1189        1188
        1185        1186        1191        1190
        1186        1187        1192        1191
        1187        1188        1193        1192
        1188        1189        1194        1193
        1190        1191        1196        1195
        1191        1192        1197        1196
        1192        1193        1198        1197
        1193        1194        1199        1198
        1200        1201        1206        1205
        1201        1202        1207        1206
        1202        1203        1208        1207
        1203        1204        1209        1208
        1205        1206        1211        1210
        1206        1207        1212        1211
        1207        1208        1213        1212
        1208        1209        1214        1213
        1210        1211        1216        1215
        1211        1212        1217        1216
        1212        1213        1218        1217
        1213        1214        1219        1218
        1215        1216        1221        1220
        1216        1217        1222        1221
        1217        1218        1223        1222
        1218        1219        1224        1223
        1225        1226        1231        1230
        1226        1227        1232        1231
        1227        1228        1233        1232
        1228        1229        1234        1233
        1230        1231        1236        1235
        1231        1232        1237        1236
        1232        1233        1238        1237
        1233        1234        1239        1238
        1235        1236        1241        1240
        1236        1237        1242        1241
        1237        1238        1243        1242
        1238        1239        1244        1243
        1240        1241        1246        1245
        1241        1242        1247        1246
        1242        1243        1248        1247
        1243        1244        1249        1248
        1250        1251        1256        1255
        1251        1252        1257        1256
        1252        1253        1258        1257
        1253        1254        1259        1258
        1255        1256        1261        1260
        1256        1257        1262        1261
        1257        1258        1263        1262
        1258        1259        1264        1263
        1260        1261        1266        1265
        1261        1262        1267        1266
        1262        1263        1268        1267
        1263        1264        1269        1268
        1265        1266        1271        1270
        1266        1267        1272        1271
        1267        1268        1273        1272
        1268        1269        1274        1273
        1275        1276        1281        1280
        1276        1277        1282        1281
        1277        1278        1283        1282
        1278        1279        1284        1283
        1280        1281        1286        1285
        1281        1282        1287        1286
        1282        1283        1288        1287
        1283        1284        1289        1288
        1285        1286        1291        1290
        1286        1287        1292        1291
        1287        1288        1293        1292
        1288        1289        1294        1293
        1290        1291        1296        1295
        1291        1292        1297        1296
        1292        1293        1298        1297
        1293        1294        1299        1298
        1300        1301        1306        1305
        1301        1302        1307        1306
        1302        1303        1308        1307
        1303        1304        1309        1308
        1305        1306        1311        1310
        1306        1307        1312        1311
        1307        1308        1313        1312
        1308        1309        1314        1313
        1310        1311        1316        1315
        1311        1312        1317        1316
        1312        1313        1318        1317
        1313        1314        1319        1318
        1315        1316        1321        1320
        1316        1317        1322        1321
        1317        1318        1323        1322
        1318        1319        1324        1323
        1325        1326        1331        1330
        1326        1327        1332        1331
        1327        1328        1333        1332
        1328        1329        1334        1333
        1330        1331        1336        1335
        1331        1332        1337        1336
        1332        1333        1338        1337
        1333        1334        1339        1338
        1335        1336        1341        1340
        1336        1337        1342        1341
        1337        1338        1343        1342
        1338        1339        1344        1343
        1340        1341        1346        1345
        1341        1342        1347        1346
        1342        1343        1348        1347
        1343        1344        1349        1348
        1350        1351        1356        1355
        1351        1352        1357        1356
        1352        1353        1358        1357
        1353        1354        1359        1358
        1355        1356        1361        1360
        1356        1357        1362        1361
        1357        1358        1363        1362
        1358        1359        1364        1363
        1360        1361        1366        1365
        1361        1362        1367        1366
        1362        1363        1368        1367
        1363        1364        1369        1368
        1365        1366        1371        1370
        1366        1367        1372        1371
        1367        1368        1373        1372
        1368        1369        1374        1373
        1375        1376        1381        1380
        1376        1377        1382        1381
        1377        1378        1383        1382
        1378        1379        1384        1383
        1380        1381        1386        1385
        1381        1382        1387        1386
        1382        1383        1388        1387
        1383        1384        1389        1388
        1385        1386        1391        1390
        1386        1387        1392        1391
        1387        1388        1393        1392
        1388        1389        1394        1393
        1390        1391        1396        1395
        1391        1392        1397        1396
        1392        1393        1398        1397
        1393        1394        1399        1398
        1400        1401        1406        1405
        1401        1402        1407        1406
        1402        1403        1408        1407
        1403        1404        1409        1408
        1405        1406        1411        1410
        1406        1407        1412        1411
        1407        1408        1413        1412
        1408        1409        1414        1413
        1410        1411        1416        1415
        1411        1412        1417        1416
        1412        1413        1418        1417
        1413        1414        1419        1418
        1415        1416        1421        1420
        1416        1417        1422        1421
        1417        1418        1423        1422
        1418        1419        1424        1423
        1425        1426        1431        1430
        1426        1427        1432        1431
        1427        1428        1433        1432
        1428        1429        1434        1433
        1430        1431        1436        1435
        1431        1432        1437        1436
        1432        1433        1438        1437
        1433        1434        1439        1438
        1435        1436        1441        1440
        1436        1437        1442        1441
        1437        1438        1443        1442
        1438        1439        1444        1443
        1440        1441        1446        1445
        1441        1442        1447        1446
        1442        1443        1448        1447
        1443        1444        1449        1448
        1450        1451        1456        1455
        1451        1452        1457        1456
        1452        1453        1458        1457
        1453        1454        1459        1458
        1455        1456        1461        1460
        1456        1457        1462        1461
        1457        1458        1463        1462
        1458        1459        1464        1463
        1460        1461        1466        1465
        1461        1462        1467        1466
        1462        1463        1468        1467
        1463        1464        1469        1468
        1465        1466        1471        1470
        1466        1467        1472        1471
        1467        1468        1473        1472
        1468        1469        1474        1473
        1475        1476        1481        1480
        1476        1477        1482        1481
        1477        1478        1483        1482
        1478        1479        1484        1483
        1480        1481        1486        1485
        1481        1482        1487        1486
        1482        1483        1488        1487
        1483        1484        1489        1488
        1485        1486        1491        1490
        1486        1487        1492        1491
        1487        1488        1493        1492
        1488        1489        1494        1493
        1490        1491        1496        1495
        1491        1492        1497        1496
        1492        1493        1498        1497
        1493        1494        1499        1498
        1500        1501        1506        1505
        1501        1502        1507        1506
        1502        1503        1508        1507
        1503        1504        1509        1508
        1505        1506        1511        1510
        1506        1507        1512        1511
        1507        1508        1513        1512
        1508        1509        1514        1513
        1510        1511        1516        1515
        1511        1512        1517        1516
        1512        1513        1518        1517
        1513        1514        1519        1518
        1515        1516        1521        1520
        1516        1517        1522        1521
        1517        1518        1523        1522
        1518        1519        1524        1523
        1525        1526        1531        1530
        1526        1527        1532        1531
        1527        1528        1533        1532
        1528        1529        1534        1533
        1530        1531        1536        1535
        1531        1532        1537        1536
        1532        1533        1538        1537
        1533        1534        1539        1538
        1535        1536        1541        1540
        1536        1537        1542        1541
        1537        1538        1543        1542
        1538        1539        1544        1543
        1540        1541        1546        1545
        1541        1542        1547        1546
        1542        1543        1548        1547
        1543        1544        1549        1548
        1550        1551        1556        1555
        1551        1552        1557        1556
        1552        1553        1558        1557
        1553        1554        1559        1558
        1555        1556        1561        1560
        1556        1557        1562        1561
        1557        1558        1563        1562
        1558        1559        1564        1563
        1560        1561        1566        1565
        1561        1562        1567        1566
        1562        1563        1568        1567
        1563        1564        1569        1568
        1565        1566        1571        1570
        1566        1567        1572        1571
        1567        1568        1573        1572
        1568        1569        1574        1573
        1575        1576        1581        1580
        1576        1577        1582        1581
        1577        1578        1583        1582
        1578        1579        1584        1583
        1580        1581        1586        1585
        1581        1582        1587        1586
        1582        1583        1588        1587
        1583        1584        1589        1588
        1585        1586        1591        1590
        1586        1587        1592        1591
        1587        1588        1593        1592
        1588        1589        1594        1593
        1590        1591        1596        1595
        1591        1592        1597        1596
        1592        1593        1598        1597
        1593        1594        1599        1598
 </DataArray>
 <DataArray  type="Int32"  Name="offsets"  format="ascii"> 
           4
           8
          12
          16
          20
          24
          28
          32
          36
          40
          44
          48
          52
          56
          60
          64
          68
          72
          76
          80
          84
          88
          92
          96
         100
         104
         108
         112
         116
         120
         124
         128
         132
         136
         140
         144
         148
         152
         156
         160
         164
         168
         172
         176
         180
         184
         188
         192
         196
         200
         204
         208
         212
         216
         220
         224
         228
         232
         236
         240
         244
         248
         252
         256
         260
         264
         268
         272
         276
         280
         284
         288
         292
         296
         300
         304
         308
         312
         316
         320
         324
         328
         332
         336
         340
         344
         348
         352
         356
         360
         364
         368
         372
         376
         380
         384
         388
         392
         396
         400
         404
         408
         412
         416
         420
         424
         428
         432
         436
         440
         444
         448
         452
         456
         460
         464
         468
         472
         476
         480
         484
         488
         492
         496
         500
         504
         508
         512
         516
         520
         524
         528
         532
         536
         540
         544
         548
         552
         556
         560
         564
         568
         572
         576
         580
         584
         588
         592
         596
         600
         604
         608
         612
         616
         620
         624
         628
         632
         636
         640
         644
         648
         652
         656
         660
         664
         668
         672
         676
         680
         684
         688
         692
         696
         700
         704
         708
         712
         716
         720
         724
         728
         732
         736
         740
         744
         748
         752
         756
         760
         764
         768
         772
         776
         780
         784
         788
         792
         796
         800
         804
         808
         812
         816
         820
         824
         828
         832
         836
         840
         844
         848
         852
         856
         860
         864
         868
         872
         876
         880
         884
         888
         892
         896
         900
         904
         908
         912
         916
         920
         924
         928
         932
         936
         940
         944
         948
         952
         956
         960
         964
         968
         972
         976
         980
         984
         988
         992
         996
        1000
        1004
        1008
        1012
        1016
        1020
        1024
        1028
        1032
        1036
        1040
        1044
        1048
        1052
        1056
        1060
        1064
        1068
        1072
        1076
        1080
        1084
        1088
        1092
        1096
        1100
        1104
        1108
        1112
        1116
        1120
        1124
        1128
        1132
        1136
        1140
        1144
        1148
        1152
        1156
        1160
        1164
        1168
        1172
        1176
        1180
        1184
        1188
        1192
        1196
        1200
        1204
        1208
        1212
        1216
        1220
        1224
        1228
        1232
        1236
        1240
        1244
        1248
        1252
        1256
        1260
        1264
        1268
        1272
        1276
        1280
        1284
        1288
        1292
        1296
        1300
        1304
        1308
        1312
        1316
        1320
        1324
        1328
        1332
        1336
        1340
        1344
        1348
        1352
        1356
        1360
        1364
        1368
        1372
        1376
        1380
        1384
        1388
        1392
        1396
        1400
        1404
        1408
        1412
        1416
        1420
        1424
        1428
        1432
        1436
        1440
        1444
        1448
        1452
        1456
        1460
        1464
        1468
        1472
        1476
        1480
        1484
        1488
        1492
        1496
        1500
        1504
        1508
        1512
        1516
        1520
        1524
        1528
        1532
        1536
        1540
        1544
        1548
        1552
        1556
        1560
        1564
        1568
        1572
        1576
        1580
        1584
        1588
        1592
        1596
        1600
        1604
        1608
        1612
        1616
        1620
        1624
        1628
        1632
        1636
        1640
        1644
        1648
        1652
        1656
        1660
        1664
        1668
        1672
        1676
        1680
        1684
        1688
        1692
        1696
        1700
        1704
        1708
        1712
        1716
        1720
        1724
        1728
        1732
        1736
        1740
        1744
        1748
        1752
        1756
        1760
        1764
        1768
        1772
        1776
        1780
        1784
        1788
        1792
        1796
        1800
        1804
        1808
        1812
        1816
        1820
        1824
        1828
        1832
        1836
        1840
        1844
        1848
        1852
        1856
        1860
        1864
        1868
        1872
        1876
        1880
        1884
        1888
        1892
        1896
        1900
        1904
        1908
        1912
        1916
        1920
        1924
        1928
        1932
        1936
        1940
        1944
        1948
        1952
        1956
        1960
        1964
        1968
        1972
        1976
        1980
        1984
        1988
        1992
        1996
        2000
        2004
        2008
        2012
        2016
        2020
        2024
        2028
        2032
        2036
        2040
        2044
        2048
        2052
        2056
        2060
        2064
        2068
        2072
        2076
        2080
        2084
        2088
        2092
        2096
        2100
        2104
        2108
        2112
        2116
        2120
        2124
        2128
        2132
        2136
        2140
        2144
        2148
        2152
        2156
        2160
        2164
        2168
        2172
        2176
        2180
        2184
        2188
        2192
        2196
        2200
        2204
        2208
        2212
        2216
        2220
        2224
        2228
        2232
        2236
        2240
        2244
        2248
        2252
        2256
        2260
        2264
        2268
        2272
        2276
        2280
        2284
        2288
        2292
        2296
        2300
        2304
        2308
        2312
        2316
        2320
        2324
        2328
        2332
        2336
        2340
        2344
        2348
        2352
        2356
        2360
        2364
        2368
        2372
        2376
        2380
        2384
        2388
        2392
        2396
        2400
        2404
        2408
        2412
        2416
        2420
        2424
        2428
        2432
        2436
        2440
        2444
        2448
        2452
        2456
        2460
        2464
        2468
        2472
        2476
        2480
        2484
        2488
        2492
        2496
        2500
        2504
        2508
        2512
        2516
        2520
        2524
        2528
        2532
        2536
        2540
        2544
        2548
        2552
        2556
        2560
        2564
        2568
        2572
        2576
        2580
        2584
        2588
        2592
        2596
        2600
        2604
        2608
        2612
        2616
        2620
        2624
        2628
        2632
        2636
        2640
        2644
        2648
        2652
        2656
        2660
        2664
        2668
        2672
        2676
        2680
        2684
        2688
        2692
        2696
        2700
        2704
        2708
        2712
        2716
        2720
        2724
        2728
        2732
        2736
        2740
        2744
        2748
        2752
        2756
        2760
        2764
        2768
        2772
        2776
        2780
        2784
        2788
        2792
        2796
        2800
        2804
        2808
        2812
        2816
        2820
        2824
        2828
        2832
        2836
        2840
        2844
        2848
        2852
        2856
        2860
        2864
        2868
        2872
        2876
        2880
        2884
        2888
        2892
        2896
        2900
        2904
        2908
        2912
        2916
        2920
        2924
        2928
        2932
        2936
        2940
        2944
        2948
        2952
        2956
        2960
        2964
        2968
        2972
        2976
        2980
        2984
        2988
        2992
        2996
        3000
        3004
        3008
        3012
        3016
        3020
        3024
        3028
        3032
        3036
        3040
        3044
        3048
        3052
        3056
        3060
        3064
        3068
        3072
        3076
        3080
        3084
        3088
        3092
        3096
        3100
        3104
        3108
        3112
        3116
        3120
        3124
        3128
        3132
        3136
        3140
        3144
        3148
        3152
        3156
        3160
        3164
        3168
        3172
        3176
        3180
        3184
        3188
        3192
        3196
        3200
        3204
        3208
        3212
        3216
        3220
        3224
        3228
        3232
        3236
        3240
        3244
        3248
        3252
        3256
        3260
        3264
        3268
        3272
        3276
        3280
        3284
        3288
        3292
        3296
        3300
        3304
        3308
        3312
        3316
        3320
        3324
        3328
        3332
        3336
        3340
        3344
        3348
        3352
        3356
        3360
        3364
        3368
        3372
        3376
        3380
        3384
        3388
        3392
        3396
        3400
        3404
        3408
        3412
        3416
        3420
        3424
        3428
        3432
        3436
        3440
        3444
        3448
        3452
        3456
        3460
        3464
        3468
        3472
        3476
        3480
        3484
        3488
        3492
        3496
        3500
        3504
        3508
        3512
        3516
        3520
        3524
        3528
        3532
        3536
        3540
        3544
        3548
        3552
        3556
        3560
        3564
        3568
        3572
        3576
        3580
        3584
        3588
        3592
        3596
        3600
        3604
        3608
        3612
        3616
        3620
        3624
        3628
        3632
        3636
        3640
        3644
        3648
        3652
        3656
        3660
        3664
        3668
        3672
        3676
        3680
        3684
        3688
        3692
        3696
        3700
        3704
        3708
        3712
        3716
        3720
        3724
        3728
        3732
        3736
        3740
        3744
        3748
        3752
        3756
        3760
        3764
        3768
        3772
        3776
        3780
        3784
        3788
        3792
        3796
        3800
        3804
        3808
        3812
        3816
        3820
        3824
        3828
        3832
        3836
        3840
        3844
        3848
        3852
        3856
        3860
        3864
        3868
        3872
        3876
        3880
        3884
        3888
        3892
        3896
        3900
        3904
        3908
        3912
        3916
        3920
        3924
        3928
        3932
        3936
        3940
        3944
        3948
        3952
        3956
        3960
        3964
        3968
        3972
        3976
        3980
        3984
        3988
        3992
        3996
        4000
        4004
        4008
        4012
        4016
        4020
        4024
        4028
        4032
        4036
        4040
        4044
        4048
        4052
        4056
        4060
        4064
        4068
        4072
        4076
        4080
        4084
        4088
        4092
        4096
 </DataArray>
 <DataArray  type="UInt8"  Name="types"  format="ascii">
 9
 9
 9
 9
 9
 9
 9
 9
 9
 9
 9
 9
 9
 9
 9
 9
 9
 9
 9
 9
 9
 9
 9
 9
 9
 9
 9
 9
 9
 9
 9
 9
 9
 9
 9
 9
 9
 9
 9
 9
 9
 9
 9
 9
 9
 9
 9
 9
 9
 9
 9
 9
 9
 9
 9
 9
 9
 9
 9
 9
 9
 9
 9
 9
 9
 9
 9
 9
 9
 9
 9
 9
 9
 9
 9
 9
 9
 9
 9
 9
 9
 9
 9
 9
 9
 9
 9
 9
 9
 9
 9
 9
 9
 9
 9
 9
 9
 9
 9
 9
 9
 9
 9
 9
 9
 9
 9
 9
 9
 9
 9
 9
 9
 9
 9
 9
 9
 9
 9
 9
 9
 9
 9
 9
 9
 9
 9
 9
 9
 9
 9
 9
 9
 9
 9
 9
 9
 9
 9
 9
 9
 9
 9
 9
 9
 9
 9
 9
 9
 9
 9
 9
 9
 9
 9
 9
 9
 9
 9
 9
 9
 9
 9
 9
 9
 9
 9
 9
 9
 9
 9
 9
 9
 9
 9
 9
 9
 9
 9
 9
 9
 9
 9
 9
 9
 9
 9
 9
 9
 9
 9
 9
 9
 9
 9
 9
 9
 9
 9
 9
 9
 9
 9
 9
 9
 9
 9
 9
 9
 9
 9
 9
 9
 9
 9
 9
 9
 9
 9
 9
 9
 9
 9
 9
 9
 9
 9
 9
 9
 9
 9
 9
 9
 9
 9
 9
 9
 9
 9
 9
 9
 9
 9
 9
 9
 9
 9
 9
 9
 9
 9
 9
 9
 9
 9
 9
 9
 9
 9
 9
 9
 9
 9
 9
 9
 9
 9
 9
 9
 9
 9
 9
 9
 9
 9
 9
 9
 9
 9
 9
 9
 9
 9
 9
 9
 9
 9
 9
 9
 9
 9
 9
 9
 9
 9
 9
 9
 9
 9
 9
 9
 9
 9
 9
 9
 9
 9
 9
 9
 9
 9
 9
 9
 9
 9
 9
 9
 9
 9
 9
 9
 9
 9
 9
 9
 9
 9
 9
 9
 9
 9
 9
 9
 9
 9
 9
 9
 9
 9
 9
 9
 9
 9
 9
 9
 9
 9
 9
 9
 9
 9
 9
 9
 9
 9
 9
 9
 9
 9
 9
 9
 9
 9
 9
 9
 9
 9
 9
 9
 9
 9
 9
 9
 9
 9
 9
 9
 9
 9
 9
 9
 9
 9
 9
 9
 9
 9
 9
 9
 9
 9
 9
 9
 9
 9
 9
 9
 9
 9
 9
 9
 9
 9
 9
 9
 9
 9
 9
 9
 9
 9
 9
 9
 9
 9
 9
 9
 9
 9
 9
 9
 9
 9
 9
 9
 9
 9
 9
 9
 9
 9
 9
 9
 9
 9
 9
 9
 9
 9
 9
 9
 9
 9
 9
 9
 9
 9
 9
 9
 9
 9
 9
 9
 9
 9
 9
 9
 9
 9
 9
 9
 9
 9
 9
 9
 9
 9
 9
 9
 9
 9
 9
 9
 9
 9
 9
 9
 9
 9
 9
 9
 9
 9
 9
 9
 9
 9
 9
 9
 9
 9
 9
 9
 9
 9
 9
 9
 9
 9
 9
 9
 9
 9
 9
 9
 9
 9
 9
 9
 9
 9
 9
 9
 9
 9
 9
 9
 9
 9
 9
 9
 9
 9
 9
 9
 9
 9
 9
 9
 9
 9
 9
 9
 9
 9
 9
 9
 9
 9
 9
 9
 9
 9
 9
 9
 9
 9
 9
 9
 9
 9
 9
 9
 9
 9
 9
 9
 9
 9
 9
 9
 9
 9
 9
 9
 9
 9
 9
 9
 9
 9
 9
 9
 9
 9
 9
 9
 9
 9
 9
 9
 9
 9
 9
 9
 9
 9
 9
 9
 9
 9
 9
 9
 9
 9
 9
 9
 9
 9
 9
 9
 9
 9
 9
 9
 9
 9
 9
 9
 9
 9
 9
 9
 9
 9
 9
 9
 9
 9
 9
 9
 9
 9
 9
 9
 9
 9
 9
 9
 9
 9
 9
 9
 9
 9
 9
 9
 9
 9
 9
 9
 9
 9
 9
 9
 9
 9
 9
 9
 9
 9
 9
 9
 9
 9
 9
 9
 9
 9
 9
 9
 9
 9
 9
 9
 9
 9
 9
 9
 9
 9
 9
 9
 9
 9
 9
 9
 9
 9
 9
 9
 9
 9
 9
 9
 9
 9
 9
 9
 9
 9
 9
 9
 9
 9
 9
 9
 9
 9
 9
 9
 9
 9
 9
 9
 9
 9
 9
 9
 9
 9
 9
 9
 9
 9
 9
 9
 9
 9
 9
 9
 9
 9
 9
 9
 9
 9
 9
 9
 9
 9
 9
 9
 9
 9
 9
 9
 9
 9
 9
 9
 9
 9
 9
 9
 9
 9
 9
 9
 9
 9
 9
 9
 9
 9
 9
 9
 9
 9
 9
 9
 9
 9
 9
 9
 9
 9
 9
 9
 9
 9
 9
 9
 9
 9
 9
 9
 9
 9
 9
 9
 9
 9
 9
 9
 9
 9
 9
 9
 9
 9
 9
 9
 9
 9
 9
 9
 9
 9
 9
 9
 9
 9
 9
 9
 9
 9
 9
 9
 9
 9
 9
 9
 9
 9
 9
 9
 9
 9
 9
 9
 9
 9
 9
 9
 9
 9
 9
 9
 9
 9
 9
 9
 9
 9
 9
 9
 9
 9
 9
 9
 9
 9
 9
 9
 9
 9
 9
 9
 9
 9
 9
 9
 9
 9
 9
 9
 9
 9
 9
 9
 9
 9
 9
 9
 9
 9
 9
 9
 9
 9
 9
 9
 9
 9
 9
 9
 9
 9
 9
 9
 9
 9
 9
 9
 9
 9
 9
 9
 9
 9
 9
 9
 9
 9
 9
 9
 9
 9
 9
 9
 9
 9
 9
 9
 9
 9
 9
 9
 9
 9
 9
 9
 9
 9
 9
 9
 9
 9
 9
 9
 9
 9
 9
 9
 9
 9
 9
 9
 9
 9
 9
 9
 9
 9
 9
 9
 9
 9
 9
 9
 9
 9
 9
 9
 9
 9
 9
 9
 9
 9
 9
 9
 9
 9
 9
 9
 9
 9
 9
 9
 9
 9
 9
 9
 9
 9
 9
 9
 9
 9
 9
 9
 9
 9
 9
 9
 9
 9
 9
 9
 9
 9
 9
 9
 9
 9
 9
 9
 9
 9
 9
 9
 9
 9
 9
 9
 9
 9
 9
 9
 9
 9
 9
 9
 9
 9
 9
 9
 9
 9
 9
 9
 9
 9
 9
 9
 9
 9
 9
 9
 9
 9
 9
 </DataArray>
 </Cells> 
 <PointData>
 <DataArray  type="Float64" Name="disp" NumberOfComponents="3" format="ascii">
   0.0000000000000000        0.0000000000000000        0.0000000000000000     
   6.0961096605976458E-003   3.7908054702802119E-003   0.0000000000000000     
   1.1666150986532333E-002   7.3242526882246811E-003   0.0000000000000000     
   1.6710123977804060E-002   1.0600341653833409E-002   0.0000000000000000     
   2.1228028634412831E-002   1.3619072367106393E-002   0.0000000000000000     
   0.0000000000000000        0.0000000000000000        0.0000000000000000     
   4.8912082480876721E-003   3.0223151008855662E-003   0.0000000000000000     
   9.5737102488628149E-003   6.0607064655717018E-003   0.0000000000000000     
   1.4047506002325433E-002   9.1151740940584088E-003   0.0000000000000000     
   1.8312595508475520E-002   1.2185717986345686E-002   0.0000000000000000     
   0.0000000000000000        0.0000000000000000        0.0000000000000000     
   3.9535715876520810E-003   2.4251602232547432E-003   0.0000000000000000     
   7.9106529931286911E-003   5.0629190931801909E-003   0.0000000000000000     
   1.1871244216429832E-002   7.9132766097763443E-003   0.0000000000000000     
   1.5835345257555502E-002   1.0976232773043201E-002   0.0000000000000000     
   0.0000000000000000        0.0000000000000000        0.0000000000000000     
   3.2831996792908719E-003   1.9993408373877434E-003   0.0000000000000000     
   6.6769792193299574E-003   4.3308905710501477E-003   0.0000000000000000     
   1.0181338620117258E-002   6.9946492009872125E-003   0.0000000000000000     
   1.3796277881652773E-002   9.9906167271989373E-003   0.0000000000000000     
   0.0000000000000000        0.0000000000000000        0.0000000000000000     
   2.8800925230040458E-003   1.7448569432845663E-003   0.0000000000000000     
   5.8726889274666157E-003   3.8646208991815712E-003   0.0000000000000000     
   8.9777892133877102E-003   6.3592918676910141E-003   0.0000000000000000     
   1.2195393380767328E-002   9.2288698488128956E-003   0.0000000000000000     
   2.1228028634412831E-002   1.3619072367106393E-002   0.0000000000000000     
   2.5432989658782854E-002   1.6611531115533575E-002   0.0000000000000000     
   2.9538131753338345E-002   1.9808804186604901E-002   0.0000000000000000     
   3.3543454918079307E-002   2.3210891580320359E-002   0.0000000000000000     
   3.7448959153005737E-002   2.6817793296679961E-002   0.0000000000000000     
   1.8312595508475520E-002   1.2185717986345686E-002   0.0000000000000000     
   2.2407249761525548E-002   1.5340933438105902E-002   0.0000000000000000     
   2.6369739755687984E-002   1.8649415745011423E-002   0.0000000000000000     
   3.0200065490962824E-002   2.2111164907062254E-002   0.0000000000000000     
   3.3898226967350065E-002   2.5726180924258397E-002   0.0000000000000000     
   1.5835345257555502E-002   1.0976232773043201E-002   0.0000000000000000     
   1.9731131241809408E-002   1.4210707945035922E-002   0.0000000000000000     
   2.3486777294495265E-002   1.7575622487809674E-002   0.0000000000000000     
   2.7102283415613066E-002   2.1070976401364454E-002   0.0000000000000000     
   3.0577649605162811E-002   2.4696769685700268E-002   0.0000000000000000     
   1.3796277881652773E-002   9.9906167271989373E-003   0.0000000000000000     
   1.7404634099634438E-002   1.3220854636323642E-002   0.0000000000000000     
   2.0889244369760189E-002   1.6587424414999653E-002   0.0000000000000000     
   2.4250108692030030E-002   2.0090326063226960E-002   0.0000000000000000     
   2.7487227066443961E-002   2.3729559581005574E-002   0.0000000000000000     
   1.2195393380767328E-002   9.2288698488128956E-003   0.0000000000000000     
   1.5427758335000622E-002   1.2371373511969061E-002   0.0000000000000000     
   1.8577140981482759E-002   1.5684821526581353E-002   0.0000000000000000     
   2.1643541320213719E-002   1.9169213892649771E-002   0.0000000000000000     
   2.4626959351193519E-002   2.2824550610174320E-002   0.0000000000000000     
   3.7448959153005737E-002   2.6817793296679961E-002   0.0000000000000000     
   4.1258249032490153E-002   3.0623891425929833E-002   0.0000000000000000     
   4.4974929130905068E-002   3.4623568058316095E-002   0.0000000000000000     
   4.8598999448250482E-002   3.8816823193838772E-002   0.0000000000000000     
   5.2130459984526395E-002   4.3203656832497848E-002   0.0000000000000000     
   3.3898226967350065E-002   2.5726180924258397E-002   0.0000000000000000     
   3.7487201577498221E-002   2.9522814121736629E-002   0.0000000000000000     
   4.0989966714055782E-002   3.3529414824633758E-002   0.0000000000000000     
   4.4406522377022750E-002   3.7745983032949765E-002   0.0000000000000000     
   4.7736868566399124E-002   4.2172518746684665E-002   0.0000000000000000     
   3.0577649605162811E-002   2.4696769685700268E-002   0.0000000000000000     
   3.3942421112568628E-002   2.8497354828419936E-002   0.0000000000000000     
   3.7226143187254646E-002   3.2517084317126292E-002   0.0000000000000000     
   4.0428815829220845E-002   3.6755958151819340E-002   0.0000000000000000     
   4.3550439038467260E-002   4.1213976332499076E-002   0.0000000000000000     
   2.7487227066443961E-002   2.3729559581005574E-002   0.0000000000000000     
   3.0623907637701366E-002   2.7547513545979740E-002   0.0000000000000000     
   3.3683458550501637E-002   3.1586576535793720E-002   0.0000000000000000     
   3.6665879804844793E-002   3.5846748550447505E-002   0.0000000000000000     
   3.9571171400730805E-002   4.0328029589941111E-002   0.0000000000000000     
   2.4626959351193519E-002   2.2824550610174320E-002   0.0000000000000000     
   2.7531661152896444E-002   2.6673290274416055E-002   0.0000000000000000     
   3.0361912803796794E-002   3.0737891480636038E-002   0.0000000000000000     
   3.3117714303894569E-002   3.5018354228834279E-002   0.0000000000000000     
   3.5799065653189757E-002   3.9514678519010756E-002   0.0000000000000000     
   5.2130459984526395E-002   4.3203656832497848E-002   0.0000000000000000     
   5.5569008761431428E-002   4.7790626090551430E-002   0.0000000000000000     
   5.8914343800664244E-002   5.2584288084257629E-002   0.0000000000000000     
   6.2166465102224816E-002   5.7584642813616450E-002   0.0000000000000000     
   6.5325372666113157E-002   6.2791690278627896E-002   0.0000000000000000     
   4.7736868566399124E-002   4.2172518746684665E-002   0.0000000000000000     
   5.0977575813761958E-002   4.6803484477814433E-002   0.0000000000000000     
   5.4125214650688300E-002   5.1633342738315088E-002   0.0000000000000000     
   5.7179785077178177E-002   5.6662093528186602E-002   0.0000000000000000     
   6.0141287093231563E-002   6.1889736847428989E-002   0.0000000000000000     
   4.3550439038467260E-002   4.1213976332499076E-002   0.0000000000000000     
   4.6586503152190581E-002   4.5879037356712261E-002   0.0000000000000000     
   4.9532498507587543E-002   5.0739039722005636E-002   0.0000000000000000     
   5.2388425104658125E-002   5.5793983428379219E-002   0.0000000000000000     
   5.5154282943402355E-002   6.1043868475832978E-002   0.0000000000000000     
   3.9571171400730805E-002   4.0328029589941111E-002   0.0000000000000000     
   4.2395790776717318E-002   4.5017284727244915E-002   0.0000000000000000     
   4.5136195371361945E-002   4.9901379035329312E-002   0.0000000000000000     
   4.7792385184664693E-002   5.4980312514194302E-002   0.0000000000000000     
   5.0364360216625562E-002   6.0254085163839878E-002   0.0000000000000000     
   3.5799065653189757E-002   3.9514678519010756E-002   0.0000000000000000     
   3.8405438687342155E-002   4.4218226589412400E-002   0.0000000000000000     
   4.0936305242011521E-002   4.9120360678286089E-002   0.0000000000000000     
   4.3391665317197861E-002   5.4221080785631849E-002   0.0000000000000000     
   4.5771518912901162E-002   5.9520386911449667E-002   0.0000000000000000     
   6.5325372666113157E-002   6.2791690278627896E-002   0.0000000000000000     
   6.8390029232392374E-002   6.8189853376706550E-002   0.0000000000000000     
   7.1359397541125524E-002   7.3763555005267017E-002   0.0000000000000000     
   7.4233477592312649E-002   7.9512795164309272E-002   0.0000000000000000     
   7.7012269385953736E-002   8.5437573853833368E-002   0.0000000000000000     
   6.0141287093231563E-002   6.1889736847428989E-002   0.0000000000000000     
   6.3012616881425593E-002   6.7306640882733165E-002   0.0000000000000000     
   6.5796670624337389E-002   7.2903173820790035E-002   0.0000000000000000     
   6.8493448321966965E-002   7.8679335661599611E-002   0.0000000000000000     
   7.1102949974314322E-002   8.4635126405161867E-002   0.0000000000000000     
   5.5154282943402355E-002   6.1043868475832978E-002   0.0000000000000000     
   5.7834928237311685E-002   6.6482104360790426E-002   0.0000000000000000     
   6.0435217199877600E-002   7.2102100579675019E-002   0.0000000000000000     
   6.2955149831100093E-002   7.7903857132486778E-002   0.0000000000000000     
   6.5394726130979172E-002   8.3887374019225691E-002   0.0000000000000000     
   5.0364360216625562E-002   6.0254085163839878E-002   0.0000000000000000     
   5.2856963300050672E-002   6.5716243810878330E-002   0.0000000000000000     
   5.5275037267746165E-002   7.1360335281921983E-002   0.0000000000000000     
   5.7618582119712033E-002   7.7186359576970801E-002   0.0000000000000000     
   5.9887597855948278E-002   8.3194316696024798E-002   0.0000000000000000     
   4.5771518912901162E-002   5.9520386911449667E-002   0.0000000000000000     
   4.8078722069642539E-002   6.5009059232996880E-002   0.0000000000000000     
   5.0316130827943083E-002   7.0677877927530899E-002   0.0000000000000000     
   5.2483745187802786E-002   7.6526842995051692E-002   0.0000000000000000     
   5.4581565149221641E-002   8.2555954435559242E-002   0.0000000000000000     
   7.7012269385953736E-002   8.5437573853833368E-002   0.0000000000000000     
   7.9691060466527866E-002   9.1526544320985795E-002   0.0000000000000000     
   8.2265138378514152E-002   9.7768359812913042E-002   0.0000000000000000     
   8.4734503121912566E-002  0.10416302032961516        0.0000000000000000     
   8.7099154696723163E-002  0.11071052587109212        0.0000000000000000     
   7.1102949974314322E-002   8.4635126405161867E-002   0.0000000000000000     
   7.3619538154961431E-002   9.0757536285401674E-002   0.0000000000000000     
   7.6037575437490262E-002   9.7033555536243890E-002   0.0000000000000000     
   7.8357061821900872E-002  0.10346318415768849        0.0000000000000000     
   8.0577997308193178E-002  0.11004642214973548        0.0000000000000000     
   6.5394726130979172E-002   8.3887374019225691E-002   0.0000000000000000     
   6.7747831810563611E-002   9.0038902340884547E-002   0.0000000000000000     
   7.0008352580902156E-002   9.6344693198456191E-002   0.0000000000000000     
   7.2176288441994849E-002  0.10280474659194062        0.0000000000000000     
   7.4251639393841648E-002  0.10941906252133780        0.0000000000000000     
   5.9887597855948278E-002   8.3194316696024798E-002   0.0000000000000000     
   6.2075941433334371E-002   8.9370642487434426E-002   0.0000000000000000     
   6.4177469808749790E-002   9.5701772799549958E-002   0.0000000000000000     
   6.6192182982194508E-002  0.10218770763237152        0.0000000000000000     
   6.8120080953668574E-002  0.10882844698589905        0.0000000000000000     
   5.4581565149221641E-002   8.2555954435559242E-002   0.0000000000000000     
   5.6603867023273739E-002   8.8752756725051216E-002   0.0000000000000000     
   5.8544927121033166E-002   9.5104794339525206E-002   0.0000000000000000     
   6.0404745442499901E-002  0.10161206727898124        0.0000000000000000     
   6.2183321987673942E-002  0.10827457554341929        0.0000000000000000     
   8.7099154696723163E-002  0.11071052587109212        0.0000000000000000     
   8.9378272566474543E-002  0.11741386201407637        0.0000000000000000     
   9.1591036194695372E-002  0.12427601433530036        0.0000000000000000     
   9.3737445581385651E-002  0.13129698283476407        0.0000000000000000     
   9.5817500726545393E-002  0.13847676751246754        0.0000000000000000     
   8.0577997308193178E-002  0.11004642214973548        0.0000000000000000     
   8.2713881120900778E-002  0.11677938918257433        0.0000000000000000     
   8.4778212484557205E-002  0.12365820492639448        0.0000000000000000     
   8.6770991399162473E-002  0.13068286938119594        0.0000000000000000     
   8.8692217864716538E-002  0.13785338254697871        0.0000000000000000     
   7.4251639393841648E-002  0.10941906252133780        0.0000000000000000     
   7.6244215073768218E-002  0.11617974240112561        0.0000000000000000     
   7.8163825119100208E-002  0.12307888764578200        0.0000000000000000     
   8.0010469529837591E-002  0.13011649825530688        0.0000000000000000     
   8.1784148305980381E-002  0.13729257422970031        0.0000000000000000     
   6.8120080953668574E-002  0.10882844698589905        0.0000000000000000     
   6.9969274425076874E-002  0.11561492166973028        0.0000000000000000     
   7.1747874098324380E-002  0.12253806249346291        0.0000000000000000     
   7.3455879973411048E-002  0.12959786945709698        0.0000000000000000     
   7.5093292050336921E-002  0.13679434256063241        0.0000000000000000     
   6.2183321987673942E-002  0.10827457554341929        0.0000000000000000     
   6.3889059174826748E-002  0.11508492698838832        0.0000000000000000     
   6.5530359422229706E-002  0.12203572946943726        0.0000000000000000     
   6.7107222729882843E-002  0.12912698298656614        0.0000000000000000     
   6.8619649097786145E-002  0.13635868753977498        0.0000000000000000     
   9.5817500726545393E-002  0.13847676751246754        0.0000000000000000     
   9.7781171914159221E-002  0.14575918338114091        0.0000000000000000     
   9.9578429428211754E-002  0.15308804545351443        0.0000000000000000     
  0.10120927326870301       0.16046335372958806        0.0000000000000000     
  0.10267370343563298       0.16788510820936181        0.0000000000000000     
   8.8692217864716538E-002  0.13785338254697871        0.0000000000000000     
   9.0518579332571500E-002  0.14513938930896539        0.0000000000000000     
   9.2226763254079372E-002  0.15251053455237853        0.0000000000000000     
   9.3816769629240140E-002  0.15996681827721818        0.0000000000000000     
   9.5288598458053833E-002  0.16750824048348437        0.0000000000000000     
   8.1784148305980381E-002  0.13729257422970031        0.0000000000000000     
   8.3477964349824171E-002  0.14459111391271867        0.0000000000000000     
   8.5085020563664501E-002  0.15199611564811830        0.0000000000000000     
   8.6605316947501385E-002  0.15950757943589919        0.0000000000000000     
   8.8038853501334863E-002  0.16712550527606140        0.0000000000000000     
   7.5093292050336921E-002  0.13679434256063241        0.0000000000000000     
   7.6659326965917207E-002  0.14411435719240082        0.0000000000000000     
   7.8153201356967156E-002  0.15154478874073368        0.0000000000000000     
   7.9574915223486781E-002  0.15908563720563104        0.0000000000000000     
   8.0924468565476082E-002  0.16673690258709292        0.0000000000000000     
   6.8619649097786145E-002  0.13635868753977498        0.0000000000000000     
   7.0062667180850635E-002  0.14370911914801182        0.0000000000000000     
   7.1431305633987349E-002  0.15115655383022475        0.0000000000000000     
   7.2725564457196301E-002  0.15870099158641376        0.0000000000000000     
   7.3945443650477463E-002  0.16634243241657892        0.0000000000000000     
   0.0000000000000000        0.0000000000000000        0.0000000000000000     
   2.8800925230040458E-003   1.7448569432845663E-003   0.0000000000000000     
   5.8726889274666157E-003   3.8646208991815712E-003   0.0000000000000000     
   8.9777892133877102E-003   6.3592918676910141E-003   0.0000000000000000     
   1.2195393380767328E-002   9.2288698488128956E-003   0.0000000000000000     
   0.0000000000000000        0.0000000000000000        0.0000000000000000     
   2.6103797653961847E-003   1.5889933980611139E-003   0.0000000000000000     
   5.2897839418443041E-003   3.5567372305574945E-003   0.0000000000000000     
   8.0382125293443577E-003   5.9032314974891403E-003   0.0000000000000000     
   1.0855665527896347E-002   8.6284761988560509E-003   0.0000000000000000     
   0.0000000000000000        0.0000000000000000        0.0000000000000000     
   2.3401910530718704E-003   1.4590350588332887E-003   0.0000000000000000     
   4.7202660867686607E-003   3.2998667181609481E-003   0.0000000000000000     
   7.1402251010903705E-003   5.5224949779829769E-003   0.0000000000000000     
   9.6000680960369993E-003   8.1269198382993794E-003   0.0000000000000000     
   0.0000000000000000        0.0000000000000000        0.0000000000000000     
   2.0695263860311033E-003   1.3549819256010896E-003   0.0000000000000000     
   4.1641353622396855E-003   3.0940093619919321E-003   0.0000000000000000     
   6.2838269286257468E-003   5.2170823091725275E-003   0.0000000000000000     
   8.4286010851892870E-003   7.7242007671428749E-003   0.0000000000000000     
   0.0000000000000000        0.0000000000000000        0.0000000000000000     
   1.7983857642738827E-003   1.2768339983645176E-003   0.0000000000000000     
   3.6213917682573790E-003   2.9391651620504474E-003   0.0000000000000000     
   5.4690180119504892E-003   4.9869934910577885E-003   0.0000000000000000     
   7.3412644953532117E-003   7.4203189853865436E-003   0.0000000000000000     
   1.2195393380767328E-002   9.2288698488128956E-003   0.0000000000000000     
   1.5427758335000622E-002   1.2371373511969061E-002   0.0000000000000000     
   1.8577140981482759E-002   1.5684821526581353E-002   0.0000000000000000     
   2.1643541320213719E-002   1.9169213892649771E-002   0.0000000000000000     
   2.4626959351193519E-002   2.2824550610174320E-002   0.0000000000000000     
   1.0855665527896347E-002   8.6284761988560509E-003   0.0000000000000000     
   1.3688883604253741E-002   1.1650359625246569E-002   0.0000000000000000     
   1.6484607425170016E-002   1.4886770067249026E-002   0.0000000000000000     
   1.9242836990645162E-002   1.8337707524863432E-002   0.0000000000000000     
   2.1963572300679197E-002   2.2003171998089779E-002   0.0000000000000000     
   9.6000680960369993E-003   8.1269198382993794E-003   0.0000000000000000     
   1.2076389563739550E-002   1.1045908029430557E-002   0.0000000000000000     
   1.4545783996329012E-002   1.4212226281696926E-002   0.0000000000000000     
   1.7008251393805390E-002   1.7625874595098488E-002   0.0000000000000000     
   1.9463791756168695E-002   2.1286852969635232E-002   0.0000000000000000     
   8.4286010851892870E-003   7.7242007671428749E-003   0.0000000000000000     
   1.0590276213458044E-002   1.0558018724521031E-002   0.0000000000000000     
   1.2760670694959753E-002   1.3661190169925048E-002   0.0000000000000000     
   1.4939784529694411E-002   1.7033715103354930E-002   0.0000000000000000     
   1.7127617717662018E-002   2.0675593524810677E-002   0.0000000000000000     
   7.3412644953532117E-003   7.4203189853865436E-003   0.0000000000000000     
   9.2305435534092324E-003   1.0186691710517986E-002   0.0000000000000000     
   1.1129267521062230E-002   1.3233661731933397E-002   0.0000000000000000     
   1.3037436398312211E-002   1.6561229049632774E-002   0.0000000000000000     
   1.4955050185159168E-002   2.0169393663616114E-002   0.0000000000000000     
   2.4626959351193519E-002   2.2824550610174320E-002   0.0000000000000000     
   2.7531661152896444E-002   2.6673290274416055E-002   0.0000000000000000     
   3.0361912803796794E-002   3.0737891480636038E-002   0.0000000000000000     
   3.3117714303894569E-002   3.5018354228834279E-002   0.0000000000000000     
   3.5799065653189757E-002   3.9514678519010756E-002   0.0000000000000000     
   2.1963572300679197E-002   2.2003171998089779E-002   0.0000000000000000     
   2.4630137204886497E-002   2.5880758181759125E-002   0.0000000000000000     
   2.7225855552881463E-002   2.9968060770702517E-002   0.0000000000000000     
   2.9750727344664097E-002   3.4265079764919958E-002   0.0000000000000000     
   3.2204752580234405E-002   3.8771815164411444E-002   0.0000000000000000     
   1.9463791756168695E-002   2.1286852969635232E-002   0.0000000000000000     
   2.1883791340404156E-002   2.5175990436039200E-002   0.0000000000000000     
   2.4239636403497033E-002   2.9274116025042415E-002   0.0000000000000000     
   2.6531326945447312E-002   3.3581229736644881E-002   0.0000000000000000     
   2.8758862966255006E-002   3.8097331570846597E-002   0.0000000000000000     
   1.7127617717662018E-002   2.0675593524810677E-002   0.0000000000000000     
   1.9292623559449430E-002   2.4558987037256282E-002   0.0000000000000000     
   2.1403255355643493E-002   2.8656057243655740E-002   0.0000000000000000     
   2.3459513106244202E-002   3.2966804144009050E-002   0.0000000000000000     
   2.5461396811251567E-002   3.7491227738316209E-002   0.0000000000000000     
   1.4955050185159168E-002   2.0169393663616114E-002   0.0000000000000000     
   1.6856633862022314E-002   2.4029747985410372E-002   0.0000000000000000     
   1.8716712409320851E-002   2.8113884426542488E-002   0.0000000000000000     
   2.0535285827054776E-002   3.2421802987012464E-002   0.0000000000000000     
   2.2312354115224090E-002   3.6953503666820306E-002   0.0000000000000000     
   3.5799065653189757E-002   3.9514678519010756E-002   0.0000000000000000     
   3.8405438687342155E-002   4.4218226589412400E-002   0.0000000000000000     
   4.0936305242011521E-002   4.9120360678286089E-002   0.0000000000000000     
   4.3391665317197861E-002   5.4221080785631849E-002   0.0000000000000000     
   4.5771518912901162E-002   5.9520386911449667E-002   0.0000000000000000     
   3.2204752580234405E-002   3.8771815164411444E-002   0.0000000000000000     
   3.4590287941357580E-002   4.3485035119319566E-002   0.0000000000000000     
   3.6909690109798839E-002   4.8401507779786940E-002   0.0000000000000000     
   3.9162959085558169E-002   5.3521233145813543E-002   0.0000000000000000     
   4.1350094868635577E-002   5.8844211217399384E-002   0.0000000000000000     
   2.8758862966255006E-002   3.8097331570846597E-002   0.0000000000000000     
   3.0925179596056063E-002   4.2820882493071311E-002   0.0000000000000000     
   3.3033211964986452E-002   4.7750343468742802E-002   0.0000000000000000     
   3.5082960073046156E-002   5.2885714497861058E-002   0.0000000000000000     
   3.7074423920235196E-002   5.8226995580426093E-002   0.0000000000000000     
   2.5461396811251567E-002   3.7491227738316209E-002   0.0000000000000000     
   2.7410113651437612E-002   4.2225768710667626E-002   0.0000000000000000     
   2.9306870807574371E-002   4.7166867745153690E-002   0.0000000000000000     
   3.1151668279661846E-002   5.2314524841774415E-002   0.0000000000000000     
   3.2944506067700031E-002   5.7668740000529781E-002   0.0000000000000000     
   2.2312354115224090E-002   3.6953503666820306E-002   0.0000000000000000     
   2.4045090107502231E-002   4.1699693772108512E-002   0.0000000000000000     
   2.5730666637562603E-002   4.6651080609019610E-002   0.0000000000000000     
   2.7369083705405216E-002   5.1807664177553593E-002   0.0000000000000000     
   2.8960341311030067E-002   5.7169444477710454E-002   0.0000000000000000     
   4.5771518912901162E-002   5.9520386911449667E-002   0.0000000000000000     
   4.8078722069642539E-002   6.5009059232996880E-002   0.0000000000000000     
   5.0316130827943083E-002   7.0677877927530899E-002   0.0000000000000000     
   5.2483745187802786E-002   7.6526842995051692E-002   0.0000000000000000     
   5.4581565149221641E-002   8.2555954435559242E-002   0.0000000000000000     
   4.1350094868635577E-002   5.8844211217399384E-002   0.0000000000000000     
   4.3471566764790505E-002   6.4357945995895657E-002   0.0000000000000000     
   4.5527844079782366E-002   7.0049941482653574E-002   0.0000000000000000     
   4.7518926813611168E-002   7.5920197677673135E-002   0.0000000000000000     
   4.9444814966276888E-002   8.1968714580954324E-002   0.0000000000000000     
   3.7074423920235196E-002   5.8226995580426093E-002   0.0000000000000000     
   3.9006859604197752E-002   6.3760299468324219E-002   0.0000000000000000     
   4.0879523222578013E-002   6.9471738913441800E-002   0.0000000000000000     
   4.2692414775375977E-002   7.5361313915778841E-002   0.0000000000000000     
   4.4445534262591638E-002   8.1429024475335329E-002   0.0000000000000000     
   3.2944506067700031E-002   5.7668740000529781E-002   0.0000000000000000     
   3.4684600587864316E-002   6.3216119650282565E-002   0.0000000000000000     
   3.6371168256330036E-002   6.8943270219895617E-002   0.0000000000000000     
   3.8004209073097234E-002   7.4850191709368838E-002   0.0000000000000000     
   3.9583723038165881E-002   8.0936884118702285E-002   0.0000000000000000     
   2.8960341311030067E-002   5.7169444477710454E-002   0.0000000000000000     
   3.0504789715790147E-002   6.2725406541770723E-002   0.0000000000000000     
   3.2002779181038429E-002   6.8464535402014928E-002   0.0000000000000000     
   3.3454309706774925E-002   7.4386831058443084E-002   0.0000000000000000     
   3.4859381292999633E-002   8.0492293511055191E-002   0.0000000000000000     
   5.4581565149221641E-002   8.2555954435559242E-002   0.0000000000000000     
   5.6603867023273739E-002   8.8752756725051216E-002   0.0000000000000000     
   5.8544927121033166E-002   9.5104794339525206E-002   0.0000000000000000     
   6.0404745442499901E-002  0.10161206727898124        0.0000000000000000     
   6.2183321987673942E-002  0.10827457554341929        0.0000000000000000     
   4.9444814966276888E-002   8.1968714580954324E-002   0.0000000000000000     
   5.1300287296280868E-002   8.8184198955198689E-002   0.0000000000000000     
   5.3080122562124389E-002   9.4555357563107775E-002   0.0000000000000000     
   5.4784320763807459E-002  0.10108219040468160        0.0000000000000000     
   5.6412881901330078E-002  0.10776469747992015        0.0000000000000000     
   4.4445534262591638E-002   8.1429024475335329E-002   0.0000000000000000     
   4.6133880968254881E-002   8.7663923079340483E-002   0.0000000000000000     
   4.7752454176395565E-002   9.4055062215023535E-002   0.0000000000000000     
   4.9301253887013702E-002  0.10060244188238451        0.0000000000000000     
   5.0780280100109272E-002  0.10730606208142338        0.0000000000000000     
   3.9583723038165881E-002   8.0936884118702285E-002   0.0000000000000000     
   4.1104648039195779E-002   8.7191929097476625E-002   0.0000000000000000     
   4.2561921963846679E-002   9.3603908295272514E-002   0.0000000000000000     
   4.3955544812118601E-002  0.10017282171208997        0.0000000000000000     
   4.5285516584011538E-002  0.10689866934792897        0.0000000000000000     
   3.4859381292999633E-002   8.0492293511055191E-002   0.0000000000000000     
   3.6212588509103562E-002   8.6768217009607088E-002   0.0000000000000000     
   3.7508525924477745E-002   9.3201895803854670E-002   0.0000000000000000     
   3.8747193539122177E-002   9.9793329893797952E-002   0.0000000000000000     
   3.9928591353036863E-002  0.10654251927943691        0.0000000000000000     
   6.2183321987673942E-002  0.10827457554341929        0.0000000000000000     
   6.3889059174826748E-002  0.11508492698838832        0.0000000000000000     
   6.5530359422229706E-002  0.12203572946943726        0.0000000000000000     
   6.7107222729882843E-002  0.12912698298656614        0.0000000000000000     
   6.8619649097786145E-002  0.13635868753977498        0.0000000000000000     
   5.6412881901330078E-002  0.10776469747992015        0.0000000000000000     
   5.7975116925102647E-002  0.11459735056579684        0.0000000000000000     
   5.9480336785535576E-002  0.12157462143928506        0.0000000000000000     
   6.0928541482628849E-002  0.12869651010038485        0.0000000000000000     
   6.2319731016382496E-002  0.13596301654909615        0.0000000000000000     
   5.0780280100109272E-002  0.10730606208142338        0.0000000000000000     
   5.2198995277989442E-002  0.11415978461065303        0.0000000000000000     
   5.3566861882961371E-002  0.12115747126858635        0.0000000000000000     
   5.4883879915025031E-002  0.12829912205522334        0.0000000000000000     
   5.6150049374180437E-002  0.13558473697056406        0.0000000000000000     
   4.5285516584011538E-002  0.10689866934792897        0.0000000000000000     
   4.6560694233487146E-002  0.11377222912295690        0.0000000000000000     
   4.7789934714507078E-002  0.12078427895734119        0.0000000000000000     
   4.8973238027071361E-002  0.12793481885108179        0.0000000000000000     
   5.0110604171179976E-002  0.13522384880417870        0.0000000000000000     
   3.9928591353036863E-002  0.10654251927943691        0.0000000000000000     
   4.1060213791595732E-002  0.11343468410270846        0.0000000000000000     
   4.2149555280172724E-002  0.12045504450554949        0.0000000000000000     
   4.3196615818767839E-002  0.12760360048796004        0.0000000000000000     
   4.4201395407381085E-002  0.13488035204994009        0.0000000000000000     
   6.8619649097786145E-002  0.13635868753977498        0.0000000000000000     
   7.0062667180850635E-002  0.14370911914801182        0.0000000000000000     
   7.1431305633987349E-002  0.15115655383022475        0.0000000000000000     
   7.2725564457196301E-002  0.15870099158641376        0.0000000000000000     
   7.3945443650477463E-002  0.16634243241657892        0.0000000000000000     
   6.2319731016382496E-002  0.13596301654909615        0.0000000000000000     
   6.3641763107219293E-002  0.14334315276360479        0.0000000000000000     
   6.4882495475562088E-002  0.15080593072209658        0.0000000000000000     
   6.6041928121410853E-002  0.15835135042457146        0.0000000000000000     
   6.7120061044765575E-002  0.16597941187102949        0.0000000000000000     
   5.6150049374180437E-002  0.13558473697056406        0.0000000000000000     
   5.7350392857618046E-002  0.14298421102323283        0.0000000000000000     
   5.8469932962528344E-002  0.15046743922185424        0.0000000000000000     
   5.9508669688911310E-002  0.15803442156642819        0.0000000000000000     
   6.0466603036766937E-002  0.16568515805695472        0.0000000000000000     
   5.0110604171179976E-002  0.13522384880417870        0.0000000000000000     
   5.1188556432046908E-002  0.14263229392689603        0.0000000000000000     
   5.2193618094886138E-002  0.15014107932949777        0.0000000000000000     
   5.3125789159697699E-002  0.15775020501198397        0.0000000000000000     
   5.3985069626481558E-002  0.16545967097435463        0.0000000000000000     
   4.4201395407381085E-002  0.13488035204994009        0.0000000000000000     
   4.5156253830505838E-002  0.14228740147459429        0.0000000000000000     
   4.6053550872635469E-002  0.14982685104502722        0.0000000000000000     
   4.6893286533770007E-002  0.15749870076123884        0.0000000000000000     
   4.7675460813909422E-002  0.16530295062322922        0.0000000000000000     
   0.0000000000000000        0.0000000000000000        0.0000000000000000     
   1.7983857642738827E-003   1.2768339983645176E-003   0.0000000000000000     
   3.6213917682573790E-003   2.9391651620504474E-003   0.0000000000000000     
   5.4690180119504892E-003   4.9869934910577885E-003   0.0000000000000000     
   7.3412644953532117E-003   7.4203189853865436E-003   0.0000000000000000     
   0.0000000000000000        0.0000000000000000        0.0000000000000000     
   1.5350525768076976E-003   1.2175077394758786E-003   0.0000000000000000     
   3.0993946214331828E-003   2.8208482626220269E-003   0.0000000000000000     
   4.6930261338764562E-003   4.8100215694384446E-003   0.0000000000000000     
   6.3159471141375169E-003   7.1850276599251320E-003   0.0000000000000000     
   0.0000000000000000        0.0000000000000000        0.0000000000000000     
   1.2878102126400357E-003   1.1699196112874796E-003   0.0000000000000000     
   2.6055032383785395E-003   2.7245728079922042E-003   0.0000000000000000     
   3.9530790772155109E-003   4.6639595901141759E-003   0.0000000000000000     
   5.3305377291509521E-003   6.9880799576533918E-003   0.0000000000000000     
   0.0000000000000000        0.0000000000000000        0.0000000000000000     
   1.0566586717708972E-003   1.1340696137993197E-003   0.0000000000000000     
   2.1397176190934481E-003   2.6503387981609799E-003   0.0000000000000000     
   3.2491768419676535E-003   4.5488075530849808E-003   0.0000000000000000     
   4.3850363403935139E-003   6.8294758785713231E-003   0.0000000000000000     
   0.0000000000000000        0.0000000000000000        0.0000000000000000     
   8.4159795420028164E-004   1.1099577470113993E-003   0.0000000000000000     
   1.7020377635779097E-003   2.5981462331283534E-003   0.0000000000000000     
   2.5813194281328836E-003   4.4645654583508618E-003   0.0000000000000000     
   3.4794429478652040E-003   6.7092154226789259E-003   0.0000000000000000     
   7.3412644953532117E-003   7.4203189853865436E-003   0.0000000000000000     
   9.2305435534092324E-003   1.0186691710517986E-002   0.0000000000000000     
   1.1129267521062230E-002   1.3233661731933397E-002   0.0000000000000000     
   1.3037436398312211E-002   1.6561229049632774E-002   0.0000000000000000     
   1.4955050185159168E-002   2.0169393663616114E-002   0.0000000000000000     
   6.3159471141375169E-003   7.1850276599251320E-003   0.0000000000000000     
   7.9554808889679592E-003   9.8961539498181612E-003   0.0000000000000000     
   9.5989507851193742E-003   1.2893687854853602E-002   0.0000000000000000     
   1.1246356802591765E-002   1.6177629375031453E-002   0.0000000000000000     
   1.2897698941385125E-002   1.9747978510351715E-002   0.0000000000000000     
   5.3305377291509521E-003   6.9880799576533918E-003   0.0000000000000000     
   6.7233775255090764E-003   9.6506324048182893E-003   0.0000000000000000     
   8.1170967976141074E-003   1.2605315425817297E-002   0.0000000000000000     
   9.5116955454660375E-003   1.5852129020650418E-002   0.0000000000000000     
   1.0907173769064877E-002   1.9391073189317647E-002   0.0000000000000000     
   4.3850363403935139E-003   6.8294758785713231E-003   0.0000000000000000     
   5.5342334630325849E-003   9.4501270755183685E-003   0.0000000000000000     
   6.6837055585464242E-003   1.2368544444824483E-002   0.0000000000000000     
   7.8334526269350363E-003   1.5584727986489664E-002   0.0000000000000000     
   8.9834746681984132E-003   1.9098677700513912E-002   0.0000000000000000     
   3.4794429478652040E-003   6.7092154226789259E-003   0.0000000000000000     
   4.3880487015384839E-003   9.2946379619184040E-003   0.0000000000000000     
   5.2987770679163325E-003   1.2183374911875162E-002   0.0000000000000000     
   6.2116280469987533E-003   1.5375426272549200E-002   0.0000000000000000     
   7.1266016387857446E-003   1.8870792043940512E-002   0.0000000000000000     
   1.4955050185159168E-002   2.0169393663616114E-002   0.0000000000000000     
   1.6856633862022314E-002   2.4029747985410372E-002   0.0000000000000000     
   1.8716712409320851E-002   2.8113884426542488E-002   0.0000000000000000     
   2.0535285827054776E-002   3.2421802987012464E-002   0.0000000000000000     
   2.2312354115224090E-002   3.6953503666820306E-002   0.0000000000000000     
   1.2897698941385125E-002   1.9747978510351715E-002   0.0000000000000000     
   1.4536630793408731E-002   2.3579119653590455E-002   0.0000000000000000     
   1.6146805950571851E-002   2.7645437197523749E-002   0.0000000000000000     
   1.7728224412874478E-002   3.1946931142151587E-002   0.0000000000000000     
   1.9280886180316627E-002   3.6483601487473982E-002   0.0000000000000000     
   1.0907173769064877E-002   1.9391073189317647E-002   0.0000000000000000     
   1.2293422898894612E-002   2.3197948414885532E-002   0.0000000000000000     
   1.3660334365439243E-002   2.7248555180420620E-002   0.0000000000000000     
   1.5007908168698774E-002   3.1542893485922895E-002   0.0000000000000000     
   1.6336144308673205E-002   3.6080963331392379E-002   0.0000000000000000     
   8.9834746681984132E-003   1.9098677700513912E-002   0.0000000000000000     
   1.0127010178479948E-002   2.2886234269295605E-002   0.0000000000000000     
   1.1257297653923031E-002   2.6923238375233090E-002   0.0000000000000000     
   1.2374337094527659E-002   3.1209690018326391E-002   0.0000000000000000     
   1.3478128500293831E-002   3.5745589198575498E-002   0.0000000000000000     
   7.1266016387857446E-003   1.8870792043940512E-002   0.0000000000000000     
   8.0373926321647485E-003   2.2643977216820654E-002   0.0000000000000000     
   8.9376958160232115E-003   2.6669486781961169E-002   0.0000000000000000     
   9.8275111903611302E-003   3.0947320739362058E-002   0.0000000000000000     
   1.0706838755178508E-002   3.5477479089023323E-002   0.0000000000000000     
   2.2312354115224090E-002   3.6953503666820306E-002   0.0000000000000000     
   2.4045090107502231E-002   4.1699693772108512E-002   0.0000000000000000     
   2.5730666637562603E-002   4.6651080609019610E-002   0.0000000000000000     
   2.7369083705405216E-002   5.1807664177553593E-002   0.0000000000000000     
   2.8960341311030067E-002   5.7169444477710454E-002   0.0000000000000000     
   1.9280886180316627E-002   3.6483601487473982E-002   0.0000000000000000     
   2.0797855927402829E-002   4.1239704623656358E-002   0.0000000000000000     
   2.2272198328637655E-002   4.6199496940864122E-002   0.0000000000000000     
   2.3703913384021089E-002   5.1362978439097290E-002   0.0000000000000000     
   2.5093001093553141E-002   5.6730149118355867E-002   0.0000000000000000     
   1.6336144308673205E-002   3.6080963331392379E-002   0.0000000000000000     
   1.7636158074292353E-002   4.0842848211573531E-002   0.0000000000000000     
   1.8899064754486050E-002   4.5808631621210807E-002   0.0000000000000000     
   2.0124864349254291E-002   5.0978313560304217E-002   0.0000000000000000     
   2.1313556858597073E-002   5.6351894028853759E-002   0.0000000000000000     
   1.3478128500293831E-002   3.5745589198575498E-002   0.0000000000000000     
   1.4559996548170792E-002   4.0509124535860044E-002   0.0000000000000000     
   1.5611265915107786E-002   4.5478484650059672E-002   0.0000000000000000     
   1.6631936601104812E-002   5.0653669541174375E-002   0.0000000000000000     
   1.7622008606161872E-002   5.6034679209204158E-002   0.0000000000000000     
   1.0706838755178508E-002   3.5477479089023323E-002   0.0000000000000000     
   1.1569371349038153E-002   4.0238533596515899E-002   0.0000000000000000     
   1.2408801810502868E-002   4.5209056027410703E-002   0.0000000000000000     
   1.3225130139572659E-002   5.0389046381707749E-002   0.0000000000000000     
   1.4018356336247524E-002   5.5778504659407036E-002   0.0000000000000000     
   2.8960341311030067E-002   5.7169444477710454E-002   0.0000000000000000     
   3.0504789715790147E-002   6.2725406541770723E-002   0.0000000000000000     
   3.2002779181038429E-002   6.8464535402014928E-002   0.0000000000000000     
   3.3454309706774925E-002   7.4386831058443084E-002   0.0000000000000000     
   3.4859381292999633E-002   8.0492293511055191E-002   0.0000000000000000     
   2.5093001093553141E-002   5.6730149118355867E-002   0.0000000000000000     
   2.6441072725008757E-002   6.2292487713277542E-002   0.0000000000000000     
   2.7749739546162895E-002   6.8041472958500049E-002   0.0000000000000000     
   2.9019001557015554E-002   7.3977104854023382E-002   0.0000000000000000     
   3.0248858757566728E-002   8.0099383399847526E-002   0.0000000000000000     
   2.1313556858597073E-002   5.6351894028853759E-002   0.0000000000000000     
   2.2467095352553611E-002   6.1921690735291912E-002   0.0000000000000000     
   2.3587432901163111E-002   6.7680021388051140E-002   0.0000000000000000     
   2.4674569504425571E-002   7.3626885987131435E-002   0.0000000000000000     
   2.5728505162340994E-002   7.9762284532532812E-002   0.0000000000000000     
   1.7622008606161872E-002   5.6034679209204158E-002   0.0000000000000000     
   1.8582857598424710E-002   6.1613015607813820E-002   0.0000000000000000     
   1.9515859246039085E-002   6.7380180690668201E-002   0.0000000000000000     
   2.0421013549004999E-002   7.3336174457767259E-002   0.0000000000000000     
   2.1298320507322454E-002   7.9480996909111007E-002   0.0000000000000000     
   1.4018356336247524E-002   5.5778504659407036E-002   0.0000000000000000     
   1.4788359462622047E-002   6.1366462330843294E-002   0.0000000000000000     
   1.5535018580790818E-002   6.7141950866351219E-002   0.0000000000000000     
   1.6258333690753832E-002   7.3104970265930852E-002   0.0000000000000000     
   1.6958304792511092E-002   7.9255520529582152E-002   0.0000000000000000     
   3.4859381292999633E-002   8.0492293511055191E-002   0.0000000000000000     
   3.6212588509103562E-002   8.6768217009607088E-002   0.0000000000000000     
   3.7508525924477745E-002   9.3201895803854670E-002   0.0000000000000000     
   3.8747193539122177E-002   9.9793329893797952E-002   0.0000000000000000     
   3.9928591353036863E-002  0.10654251927943691        0.0000000000000000     
   3.0248858757566728E-002   8.0099383399847526E-002   0.0000000000000000     
   3.1433810327472264E-002   8.6394239672742984E-002   0.0000000000000000     
   3.2568355446388010E-002   9.2847604749480214E-002   0.0000000000000000     
   3.3652494114313980E-002   9.9459478630059245E-002   0.0000000000000000     
   3.4686226331250167E-002  0.10622986131448003        0.0000000000000000     
   2.5728505162340994E-002   7.9762284532532812E-002   0.0000000000000000     
   2.6744421443795883E-002   8.6071449943895387E-002   0.0000000000000000     
   2.7717499917676733E-002   9.2539615140859330E-002   0.0000000000000000     
   2.8647740583983564E-002   9.9166780123424614E-002   0.0000000000000000     
   2.9535143442716353E-002  0.10595294489159125        0.0000000000000000     
   2.1298320507322454E-002   7.9480996909111007E-002   0.0000000000000000     
   2.2144421858074428E-002   8.5799847823064324E-002   0.0000000000000000     
   2.2955959338343917E-002   9.2277926977992003E-002   0.0000000000000000     
   2.3732932948130919E-002   9.8915234373894059E-002   0.0000000000000000     
   2.4475342687435432E-002  0.10571177001077052        0.0000000000000000     
   1.6958304792511092E-002   7.9255520529582152E-002   0.0000000000000000     
   1.7633811570307901E-002   8.5579433310249739E-002   0.0000000000000000     
   1.8283733708389555E-002   9.2062540260878234E-002   0.0000000000000000     
   1.8908071206756052E-002   9.8704841381467581E-002   0.0000000000000000     
   1.9506824065407401E-002  0.10550633667201782        0.0000000000000000     
   3.9928591353036863E-002  0.10654251927943691        0.0000000000000000     
   4.1060213791595732E-002  0.11343468410270846        0.0000000000000000     
   4.2149555280172724E-002  0.12045504450554949        0.0000000000000000     
   4.3196615818767839E-002  0.12760360048796004        0.0000000000000000     
   4.4201395407381085E-002  0.13488035204994009        0.0000000000000000     
   3.4686226331250167E-002  0.10622986131448003        0.0000000000000000     
   3.5675169583796788E-002  0.11313873052656118        0.0000000000000000     
   3.6624941358554083E-002  0.12016606399012118        0.0000000000000000     
   3.7535541655522045E-002  0.12731186170516010        0.0000000000000000     
   3.8406970474700673E-002  0.13457612367167787        0.0000000000000000     
   2.9535143442716353E-002  0.10595294489159125        0.0000000000000000     
   3.0383177241571888E-002  0.11287594937116863        0.0000000000000000     
   3.1195310728246946E-002  0.11991363348796615        0.0000000000000000     
   3.1971543902741525E-002  0.12706599724198384        0.0000000000000000     
   3.2711876765055617E-002  0.13433304063322168        0.0000000000000000     
   2.4475342687435432E-002  0.10571177001077052        0.0000000000000000     
   2.5184236764921038E-002  0.11264634063653080        0.0000000000000000     
   2.5860663389251325E-002  0.11969775299908440        0.0000000000000000     
   2.6504622560426291E-002  0.12686600709843127        0.0000000000000000     
   2.7116114278445926E-002  0.13415110293457147        0.0000000000000000     
   1.9506824065407401E-002  0.10550633667201782        0.0000000000000000     
   2.0078348153844239E-002  0.11244990432264769        0.0000000000000000     
   2.0620999341567216E-002  0.11951842252347589        0.0000000000000000     
   2.1134777628576337E-002  0.12671189127450241        0.0000000000000000     
   2.1619683014871598E-002  0.13403031057572729        0.0000000000000000     
   4.4201395407381085E-002  0.13488035204994009        0.0000000000000000     
   4.5156253830505838E-002  0.14228740147459429        0.0000000000000000     
   4.6053550872635469E-002  0.14982685104502722        0.0000000000000000     
   4.6893286533770007E-002  0.15749870076123884        0.0000000000000000     
   4.7675460813909422E-002  0.16530295062322922        0.0000000000000000     
   3.8406970474700673E-002  0.13457612367167787        0.0000000000000000     
   3.9238369011016482E-002  0.14198113374271012        0.0000000000000000     
   4.0028878459395983E-002  0.14954917577129243        0.0000000000000000     
   4.0778498819839165E-002  0.15728024975742477        0.0000000000000000     
   4.1487230092346040E-002  0.16517435570110717        0.0000000000000000     
   3.2711876765055617E-002  0.13433304063322168        0.0000000000000000     
   3.3419785931600478E-002  0.14174509080762607        0.0000000000000000     
   3.4098748018787303E-002  0.14933247491114346        0.0000000000000000     
   3.4748763026616121E-002  0.15709519294377383        0.0000000000000000     
   3.5369830955086910E-002  0.16503324490551716        0.0000000000000000     
   2.7116114278445926E-002  0.13415110293457147        0.0000000000000000     
   2.7700504592257799E-002  0.14157927266934212        0.0000000000000000     
   2.8263159550809432E-002  0.14917674846458023        0.0000000000000000     
   2.8804079154100850E-002  0.15694353032028599        0.0000000000000000     
   2.9323263402132038E-002  0.16487961823645922        0.0000000000000000     
   2.1619683014871598E-002  0.13403031057572729        0.0000000000000000     
   2.2080524992988456E-002  0.14148367932785821        0.0000000000000000     
   2.2522113055462381E-002  0.14908199643160289        0.0000000000000000     
   2.2944447202293366E-002  0.15682526188696122        0.0000000000000000     
   2.3347527433481410E-002  0.16471347569393330        0.0000000000000000     
   0.0000000000000000        0.0000000000000000        0.0000000000000000     
   8.4159795420028164E-004   1.1099577470113993E-003   0.0000000000000000     
   1.7020377635779097E-003   2.5981462331283534E-003   0.0000000000000000     
   2.5813194281328836E-003   4.4645654583508618E-003   0.0000000000000000     
   3.4794429478652040E-003   6.7092154226789259E-003   0.0000000000000000     
   0.0000000000000000        0.0000000000000000        0.0000000000000000     
   6.3373660262078994E-004   1.0939952957540343E-003   0.0000000000000000     
   1.2779401731291056E-003   2.5621208708254909E-003   0.0000000000000000     
   1.9326107115249474E-003   4.4043767252143701E-003   0.0000000000000000     
   2.5977482178083148E-003   6.6207628589206712E-003   0.0000000000000000     
   0.0000000000000000        0.0000000000000000        0.0000000000000000     
   4.2418315972502245E-004   1.0825935448575401E-003   0.0000000000000000     
   8.5290134904421940E-004   2.5363884691835593E-003   0.0000000000000000     
   1.2861545679575912E-003   4.3613847729780577E-003   0.0000000000000000     
   1.7239428164651375E-003   6.5575824562410364E-003   0.0000000000000000     
   0.0000000000000000        0.0000000000000000        0.0000000000000000     
   2.1293762551297907E-004   1.0757524943219166E-003   0.0000000000000000     
   4.2692129132325060E-004   2.5209490282025590E-003   0.0000000000000000     
   6.4195099743081466E-004   4.3355896016419263E-003   0.0000000000000000     
   8.5802674383567135E-004   6.5196742146400189E-003   0.0000000000000000     
   0.0000000000000000        0.0000000000000000        0.0000000000000000     
  -1.5340213908171529E-014   1.0734721441471643E-003   0.0000000000000000     
  -3.3800761668756341E-014   2.5158025478824895E-003   0.0000000000000000     
  -5.5381751701971682E-014   4.3269912112059742E-003   0.0000000000000000     
  -8.0083048482545993E-014   6.5070381341176204E-003   0.0000000000000000     
   3.4794429478652040E-003   6.7092154226789259E-003   0.0000000000000000     
   4.3880487015384839E-003   9.2946379619184040E-003   0.0000000000000000     
   5.2987770679163325E-003   1.2183374911875162E-002   0.0000000000000000     
   6.2116280469987533E-003   1.5375426272549200E-002   0.0000000000000000     
   7.1266016387857446E-003   1.8870792043940512E-002   0.0000000000000000     
   2.5977482178083148E-003   6.6207628589206712E-003   0.0000000000000000     
   3.2702668244334199E-003   9.1782795818895532E-003   0.0000000000000000     
   3.9470806638544752E-003   1.2043927204066173E-002   0.0000000000000000     
   4.6281897360714785E-003   1.5217705725450534E-002   0.0000000000000000     
   5.3135940410844323E-003   1.8699615146042632E-002   0.0000000000000000     
   1.7239428164651375E-003   6.5575824562410364E-003   0.0000000000000000     
   2.1663314151240442E-003   9.0951664533029750E-003   0.0000000000000000     
   2.6133856844914975E-003   1.1944321698494359E-002   0.0000000000000000     
   3.0651056245674974E-003   1.5105048191815188E-002   0.0000000000000000     
   3.5214912353520433E-003   1.8577345933265460E-002   0.0000000000000000     
   8.5802674383567135E-004   6.5196742146400189E-003   0.0000000000000000     
   1.0762424736103554E-003   9.0452985761586696E-003   0.0000000000000000     
   1.2976921298274015E-003   1.1884558395159719E-002   0.0000000000000000     
   1.5223757124868092E-003   1.5037453671643159E-002   0.0000000000000000     
   1.7502932215885791E-003   1.8503984405608995E-002   0.0000000000000000     
  -8.0083048482545993E-014   6.5070381341176204E-003   0.0000000000000000     
  -1.0764662544595488E-013   9.0286759504566404E-003   0.0000000000000000     
  -1.3781401557054138E-013   1.1864637294062249E-002   0.0000000000000000     
  -1.7058565761937216E-013   1.5014922164934448E-002   0.0000000000000000     
  -2.0596133305794684E-013   1.8479530563073235E-002   0.0000000000000000     
   7.1266016387857446E-003   1.8870792043940512E-002   0.0000000000000000     
   8.0373926321647485E-003   2.2643977216820654E-002   0.0000000000000000     
   8.9376958160232115E-003   2.6669486781961169E-002   0.0000000000000000     
   9.8275111903611302E-003   3.0947320739362058E-002   0.0000000000000000     
   1.0706838755178508E-002   3.5477479089023323E-002   0.0000000000000000     
   5.3135940410844323E-003   1.8699615146042632E-002   0.0000000000000000     
   5.9966406231901923E-003   2.2462389774146052E-002   0.0000000000000000     
   6.6706765266856174E-003   2.6478763918064387E-002   0.0000000000000000     
   7.3357017515707067E-003   3.0748737577797627E-002   0.0000000000000000     
   7.9917162978454595E-003   3.5272310753345776E-002   0.0000000000000000     
   3.5214912353520433E-003   1.8577345933265460E-002   0.0000000000000000     
   3.9768245147974619E-003   2.2332684457957164E-002   0.0000000000000000     
   4.4253874608560801E-003   2.6342533301002280E-002   0.0000000000000000     
   4.8671800735278969E-003   3.0606892462400823E-002   0.0000000000000000     
   5.3022023528129123E-003   3.5125761942152771E-002   0.0000000000000000     
   1.7502932215885791E-003   1.8503984405608995E-002   0.0000000000000000     
   1.9779443069865604E-003   2.2254861268253975E-002   0.0000000000000000     
   2.2018286185346019E-003   2.6260794930774864E-002   0.0000000000000000     
   2.4219461562327038E-003   3.0521785393171644E-002   0.0000000000000000     
   2.6382969200808666E-003   3.5037832655444322E-002   0.0000000000000000     
  -2.0596133305794684E-013   1.8479530563073235E-002   0.0000000000000000     
  -2.4251455878199213E-013   2.2228920205036497E-002   0.0000000000000000     
  -2.7881787590527951E-013   2.6233548807382115E-002   0.0000000000000000     
  -3.1487228731481853E-013   3.0493416370110087E-002   0.0000000000000000     
  -3.5067738643479451E-013   3.5008522893220415E-002   0.0000000000000000     
   1.0706838755178508E-002   3.5477479089023323E-002   0.0000000000000000     
   1.1569371349038153E-002   4.0238533596515899E-002   0.0000000000000000     
   1.2408801810502868E-002   4.5209056027410703E-002   0.0000000000000000     
   1.3225130139572659E-002   5.0389046381707749E-002   0.0000000000000000     
   1.4018356336247524E-002   5.5778504659407036E-002   0.0000000000000000     
   7.9917162978454595E-003   3.5272310753345776E-002   0.0000000000000000     
   8.6353928629703258E-003   4.0029387096753355E-002   0.0000000000000000     
   9.2634041444057558E-003   4.4999870260064856E-002   0.0000000000000000     
   9.8757501421517478E-003   5.0183760243280293E-002   0.0000000000000000     
   1.0472430856208302E-002   5.5581057046399665E-002   0.0000000000000000     
   5.3022023528129123E-003   3.5125761942152771E-002   0.0000000000000000     
   5.7291714760432204E-003   3.9879996739784679E-002   0.0000000000000000     
   6.1468046205509150E-003   4.4850451854823066E-002   0.0000000000000000     
   6.5551017863359953E-003   5.0037127287267932E-002   0.0000000000000000     
   6.9540629733984612E-003   5.5440023037119278E-002   0.0000000000000000     
   2.6382969200808666E-003   3.5037832655444322E-002   0.0000000000000000     
   2.8507071882568321E-003   3.9790362525609899E-002   0.0000000000000000     
   3.0590032389383455E-003   4.4760800811685354E-002   0.0000000000000000     
   3.2631850721254033E-003   4.9949147513670696E-002   0.0000000000000000     
   3.4632526878180083E-003   5.5355402631565902E-002   0.0000000000000000     
  -3.5067738643479451E-013   3.5008522893220415E-002   0.0000000000000000     
  -3.8883761661889782E-013   3.9760484454228986E-002   0.0000000000000000     
  -4.3195465650527898E-013   4.4730917130651693E-002   0.0000000000000000     
  -4.8002927858798589E-013   4.9919820922488541E-002   0.0000000000000000     
  -5.3306230957117506E-013   5.5327195829739509E-002   0.0000000000000000     
   1.4018356336247524E-002   5.5778504659407036E-002   0.0000000000000000     
   1.4788359462622047E-002   6.1366462330843294E-002   0.0000000000000000     
   1.5535018580790818E-002   6.7141950866351219E-002   0.0000000000000000     
   1.6258333690753832E-002   7.3104970265930852E-002   0.0000000000000000     
   1.6958304792511092E-002   7.9255520529582152E-002   0.0000000000000000     
   1.0472430856208302E-002   5.5581057046399665E-002   0.0000000000000000     
   1.1051865751191322E-002   6.1177906523097209E-002   0.0000000000000000     
   1.1612474291716714E-002   6.6960454527047145E-002   0.0000000000000000     
   1.2154256477784483E-002   7.2928701058249487E-002   0.0000000000000000     
   1.2677212309394623E-002   7.9082646116704236E-002   0.0000000000000000     
   6.9540629733984612E-003   5.5440023037119278E-002   0.0000000000000000     
   7.3416412701782247E-003   6.1043223803292461E-002   0.0000000000000000     
   7.7157897651151932E-003   6.6830814284702875E-002   0.0000000000000000     
   8.0765084582093676E-003   7.2802794481350477E-002   0.0000000000000000     
   8.4237973494607470E-003   7.8959164393235276E-002   0.0000000000000000     
   3.4632526878180083E-003   5.5355402631565902E-002   0.0000000000000000     
   3.6576860195827584E-003   6.0962414171429113E-002   0.0000000000000000     
   3.8449650009862502E-003   6.6753030139318395E-002   0.0000000000000000     
   4.0250896320284859E-003   7.2727250535233795E-002   0.0000000000000000     
   4.1980599127094658E-003   7.8885075359175272E-002   0.0000000000000000     
  -5.3306230957117506E-013   5.5327195829739509E-002   0.0000000000000000     
  -5.9508105908212539E-013   6.0935477627507090E-002   0.0000000000000000     
  -6.7011375831996234E-013   6.6727102090893733E-002   0.0000000000000000     
  -7.5816014978666996E-013   7.2702069219899426E-002   0.0000000000000000     
  -8.5922219859868587E-013   7.8860379014524210E-002   0.0000000000000000     
   1.6958304792511092E-002   7.9255520529582152E-002   0.0000000000000000     
   1.7633811570307901E-002   8.5579433310249739E-002   0.0000000000000000     
   1.8283733708389555E-002   9.2062540260878234E-002   0.0000000000000000     
   1.8908071206756052E-002   9.8704841381467581E-002   0.0000000000000000     
   1.9506824065407401E-002  0.10550633667201782        0.0000000000000000     
   1.2677212309394623E-002   7.9082646116704236E-002   0.0000000000000000     
   1.3182261618011785E-002   8.5408965190049563E-002   0.0000000000000000     
   1.3670324235100617E-002   9.1894333765923708E-002   0.0000000000000000     
   1.4141400160661118E-002   9.8538751844326630E-002   0.0000000000000000     
   1.4595489394693295E-002  0.10534221942525837        0.0000000000000000     
   8.4237973494607470E-003   7.8959164393235276E-002   0.0000000000000000     
   8.7594430387015719E-003   8.5287202247061711E-002   0.0000000000000000     
   9.0852321257640818E-003   9.1774186269534180E-002   0.0000000000000000     
   9.4011646106482768E-003   9.8420116460652698E-002   0.0000000000000000     
   9.7072404933541585E-003  0.10522499282041727        0.0000000000000000     
   4.1980599127094658E-003   7.8885075359175272E-002   0.0000000000000000     
   4.3653558323772605E-003   8.5214144481286114E-002   0.0000000000000000     
   4.5284573803799468E-003   9.1702097771709595E-002   0.0000000000000000     
   4.6873645567175248E-003   9.8348935230445744E-002   0.0000000000000000     
   4.8420773613899919E-003  0.10515465685749452        0.0000000000000000     
  -8.5922219859868587E-013   7.8860379014524210E-002   0.0000000000000000     
  -9.6114761115317915E-013   8.5189791892722813E-002   0.0000000000000000     
  -1.0517855575202517E-012   9.1678068272450008E-002   0.0000000000000000     
  -1.1311397104347629E-012   9.8325208153705781E-002   0.0000000000000000     
  -1.1992065326871248E-012  0.10513121153649016        0.0000000000000000     
   1.9506824065407401E-002  0.10550633667201782        0.0000000000000000     
   2.0078348153844239E-002  0.11244990432264769        0.0000000000000000     
   2.0620999341567216E-002  0.11951842252347589        0.0000000000000000     
   2.1134777628576337E-002  0.12671189127450241        0.0000000000000000     
   2.1619683014871598E-002  0.13403031057572729        0.0000000000000000     
   1.4595489394693295E-002  0.10534221942525837        0.0000000000000000     
   1.5028929385433414E-002  0.11229253548206965        0.0000000000000000     
   1.5438057581117760E-002  0.11937749898811131        0.0000000000000000     
   1.5822873981746324E-002  0.12659710994338330        0.0000000000000000     
   1.6183378587319119E-002  0.13395136834788565        0.0000000000000000     
   9.7072404933541585E-003  0.10522499282041727        0.0000000000000000     
   9.9993984367805037E-003  0.11218012916734707        0.0000000000000000     
   1.0273577103826091E-002  0.11927683931996130        0.0000000000000000     
   1.0529776494490916E-002  0.12651512327825995        0.0000000000000000     
   1.0767996608774982E-002  0.13389498104224307        0.0000000000000000     
   4.8420773613899919E-003  0.10515465685749452        0.0000000000000000     
   4.9897553078855012E-003  0.11211268537847992        0.0000000000000000     
   5.1275579096922040E-003  0.11921644351902588        0.0000000000000000     
   5.2554851668101012E-003  0.12646593127913239        0.0000000000000000     
   5.3735370792391927E-003  0.13386114865879950        0.0000000000000000     
  -1.1992065326871248E-012  0.10513121153649016        0.0000000000000000     
  -1.2515908448529345E-012  0.11209020411546822        0.0000000000000000     
  -1.2838918296564916E-012  0.11919631158530505        0.0000000000000000     
  -1.2961116555021412E-012  0.12644953394600064        0.0000000000000000     
  -1.2882507560707523E-012  0.13384987119755504        0.0000000000000000     
   2.1619683014871598E-002  0.13403031057572729        0.0000000000000000     
   2.2080524992988456E-002  0.14148367932785821        0.0000000000000000     
   2.2522113055462381E-002  0.14908199643160289        0.0000000000000000     
   2.2944447202293366E-002  0.15682526188696122        0.0000000000000000     
   2.3347527433481410E-002  0.16471347569393330        0.0000000000000000     
   1.6183378587319119E-002  0.13395136834788565        0.0000000000000000     
   1.6522745633921334E-002  0.14143075850263911        0.0000000000000000     
   1.6844149357638179E-002  0.14902576470866452        0.0000000000000000     
   1.7147589758469656E-002  0.15673638696596182        0.0000000000000000     
   1.7433066836415764E-002  0.16456262527453108        0.0000000000000000     
   1.0767996608774982E-002  0.13389498104224307        0.0000000000000000     
   1.0990065015185301E-002  0.14139295791314960        0.0000000000000000     
   1.1197809282228880E-002  0.14898559919221863        0.0000000000000000     
   1.1391229409905720E-002  0.15667290487945015        0.0000000000000000     
   1.1570325398215821E-002  0.16445487497484418        0.0000000000000000     
   5.3735370792391927E-003  0.13386114865879950        0.0000000000000000     
   5.4824831367803585E-003  0.14137027755938963        0.0000000000000000     
   5.5830928292344784E-003  0.14896149988226517        0.0000000000000000     
   5.6753661566015514E-003  0.15663481562742615        0.0000000000000000     
   5.7593031188815803E-003  0.16439022479487259        0.0000000000000000     
  -1.2882507560707523E-012  0.13384987119755504        0.0000000000000000     
  -1.2934930904151543E-012  0.14136271744135917        0.0000000000000000     
  -1.3450241354712178E-012  0.14895346677880411        0.0000000000000000     
  -1.4428467643747001E-012  0.15662211920988983        0.0000000000000000     
  -1.5869571282078887E-012  0.16436867473461630        0.0000000000000000     
   0.0000000000000000        0.0000000000000000        0.0000000000000000     
  -1.5340213908171529E-014   1.0734721441471643E-003   0.0000000000000000     
  -3.3800761668756341E-014   2.5158025478824895E-003   0.0000000000000000     
  -5.5381751701971682E-014   4.3269912112059742E-003   0.0000000000000000     
  -8.0083048482545993E-014   6.5070381341176204E-003   0.0000000000000000     
   0.0000000000000000        0.0000000000000000        0.0000000000000000     
  -2.1293762554317494E-004   1.0757524943328992E-003   0.0000000000000000     
  -4.2692129138982218E-004   2.5209490282228058E-003   0.0000000000000000     
  -6.4195099753994211E-004   4.3355896016697192E-003   0.0000000000000000     
  -8.5802674399353422E-004   6.5196742146736405E-003   0.0000000000000000     
   0.0000000000000000        0.0000000000000000        0.0000000000000000     
  -4.2418315975376459E-004   1.0825935448787380E-003   0.0000000000000000     
  -8.5290134910770128E-004   2.5363884692229644E-003   0.0000000000000000     
  -1.2861545680618101E-003   4.3613847730326798E-003   0.0000000000000000     
  -1.7239428166160907E-003   6.5575824563078831E-003   0.0000000000000000     
   0.0000000000000000        0.0000000000000000        0.0000000000000000     
  -6.3373660264710939E-004   1.0939952957846808E-003   0.0000000000000000     
  -1.2779401731874381E-003   2.5621208708829658E-003   0.0000000000000000     
  -1.9326107116209856E-003   4.4043767252948552E-003   0.0000000000000000     
  -2.5977482179477527E-003   6.6207628590203493E-003   0.0000000000000000     
   0.0000000000000000        0.0000000000000000        0.0000000000000000     
  -8.4159795422320926E-004   1.1099577470507277E-003   0.0000000000000000     
  -1.7020377636290320E-003   2.5981462332028095E-003   0.0000000000000000     
  -2.5813194282174688E-003   4.4645654584562445E-003   0.0000000000000000     
  -3.4794429479885190E-003   6.7092154228110346E-003   0.0000000000000000     
  -8.0083048482545993E-014   6.5070381341176204E-003   0.0000000000000000     
  -1.0764662544595488E-013   9.0286759504566404E-003   0.0000000000000000     
  -1.3781401557054138E-013   1.1864637294062249E-002   0.0000000000000000     
  -1.7058565761937216E-013   1.5014922164934448E-002   0.0000000000000000     
  -2.0596133305794684E-013   1.8479530563073235E-002   0.0000000000000000     
  -8.5802674399353422E-004   6.5196742146736405E-003   0.0000000000000000     
  -1.0762424738226888E-003   9.0452985761969897E-003   0.0000000000000000     
  -1.2976921300994946E-003   1.1884558395202189E-002   0.0000000000000000     
  -1.5223757128239527E-003   1.5037453671689235E-002   0.0000000000000000     
  -1.7502932219960628E-003   1.8503984405658133E-002   0.0000000000000000     
  -1.7239428166160907E-003   6.5575824563078831E-003   0.0000000000000000     
  -2.1663314153274986E-003   9.0951664533798302E-003   0.0000000000000000     
  -2.6133856847529871E-003   1.1944321698579766E-002   0.0000000000000000     
  -3.0651056248925581E-003   1.5105048191907697E-002   0.0000000000000000     
  -3.5214912357462093E-003   1.8577345933363621E-002   0.0000000000000000     
  -2.5977482179477527E-003   6.6207628590203493E-003   0.0000000000000000     
  -3.2702668246220759E-003   9.1782795820051534E-003   0.0000000000000000     
  -3.9470806640982898E-003   1.2043927204194983E-002   0.0000000000000000     
  -4.6281897363764004E-003   1.5217705725589833E-002   0.0000000000000000     
  -5.3135940414564013E-003   1.8699615146189702E-002   0.0000000000000000     
  -3.4794429479885190E-003   6.7092154228110346E-003   0.0000000000000000     
  -4.3880487017064190E-003   9.2946379620729679E-003   0.0000000000000000     
  -5.2987770681354055E-003   1.2183374912047837E-002   0.0000000000000000     
  -6.2116280472754798E-003   1.5375426272735644E-002   0.0000000000000000     
  -7.1266016391266403E-003   1.8870792044136383E-002   0.0000000000000000     
  -2.0596133305794684E-013   1.8479530563073235E-002   0.0000000000000000     
  -2.4251455878199213E-013   2.2228920205036497E-002   0.0000000000000000     
  -2.7881787590527951E-013   2.6233548807382115E-002   0.0000000000000000     
  -3.1487228731481853E-013   3.0493416370110087E-002   0.0000000000000000     
  -3.5067738643479451E-013   3.5008522893220415E-002   0.0000000000000000     
  -1.7502932219960628E-003   1.8503984405658133E-002   0.0000000000000000     
  -1.9779443074669193E-003   2.2254861268304522E-002   0.0000000000000000     
  -2.2018286190876170E-003   2.6260794930824054E-002   0.0000000000000000     
  -2.4219461568581566E-003   3.0521785393216729E-002   0.0000000000000000     
  -2.6382969207785368E-003   3.5037832655482541E-002   0.0000000000000000     
  -3.5214912357462093E-003   1.8577345933363621E-002   0.0000000000000000     
  -3.9768245152638120E-003   2.2332684458057847E-002   0.0000000000000000     
  -4.4253874613952322E-003   2.6342533301100694E-002   0.0000000000000000     
  -4.8671800741404703E-003   3.0606892462492149E-002   0.0000000000000000     
  -5.3022023534995280E-003   3.5125761942232214E-002   0.0000000000000000     
  -5.3135940414564013E-003   1.8699615146189702E-002   0.0000000000000000     
  -5.9966406236331912E-003   2.2462389774296473E-002   0.0000000000000000     
  -6.6706765272016638E-003   2.6478763918212012E-002   0.0000000000000000     
  -7.3357017521618146E-003   3.0748737577936332E-002   0.0000000000000000     
  -7.9917162985136507E-003   3.5272310753469427E-002   0.0000000000000000     
  -7.1266016391266403E-003   1.8870792044136383E-002   0.0000000000000000     
  -8.0373926325750591E-003   2.2643977217020401E-002   0.0000000000000000     
  -8.9376958165069079E-003   2.6669486782158032E-002   0.0000000000000000     
  -9.8275111909221901E-003   3.0947320739549283E-002   0.0000000000000000     
  -1.0706838755820902E-002   3.5477479089194158E-002   0.0000000000000000     
  -3.5067738643479451E-013   3.5008522893220415E-002   0.0000000000000000     
  -3.8883761661889782E-013   3.9760484454228986E-002   0.0000000000000000     
  -4.3195465650527898E-013   4.4730917130651693E-002   0.0000000000000000     
  -4.8002927858798589E-013   4.9919820922488541E-002   0.0000000000000000     
  -5.3306230957117506E-013   5.5327195829739509E-002   0.0000000000000000     
  -2.6382969207785368E-003   3.5037832655482541E-002   0.0000000000000000     
  -2.8507071890315101E-003   3.9790362525644218E-002   0.0000000000000000     
  -3.0590032397998274E-003   4.4760800811724462E-002   0.0000000000000000     
  -3.2631850730834885E-003   4.9949147513723265E-002   0.0000000000000000     
  -3.4632526888824927E-003   5.5355402631640634E-002   0.0000000000000000     
  -5.3022023534995280E-003   3.5125761942232214E-002   0.0000000000000000     
  -5.7291714768089082E-003   3.9879996739857849E-002   0.0000000000000000     
  -6.1468046214051180E-003   4.4850451854905986E-002   0.0000000000000000     
  -6.5551017872881572E-003   5.0037127287376630E-002   0.0000000000000000     
  -6.9540629744580269E-003   5.5440023037269796E-002   0.0000000000000000     
  -7.9917162985136507E-003   3.5272310753469427E-002   0.0000000000000000     
  -8.6353928637210309E-003   4.0029387096869866E-002   0.0000000000000000     
  -9.2634041452478288E-003   4.4999870260196292E-002   0.0000000000000000     
  -9.8757501430940357E-003   5.0183760243448672E-002   0.0000000000000000     
  -1.0472430857259662E-002   5.5581057046627011E-002   0.0000000000000000     
  -1.0706838755820902E-002   3.5477479089194158E-002   0.0000000000000000     
  -1.1569371349767878E-002   4.0238533596680302E-002   0.0000000000000000     
  -1.2408801811327957E-002   4.5209056027595361E-002   0.0000000000000000     
  -1.3225130140501128E-002   5.0389046381939348E-002   0.0000000000000000     
  -1.4018356337287402E-002   5.5778504659712250E-002   0.0000000000000000     
  -5.3306230957117506E-013   5.5327195829739509E-002   0.0000000000000000     
  -5.9508105908212539E-013   6.0935477627507090E-002   0.0000000000000000     
  -6.7011375831996234E-013   6.6727102090893733E-002   0.0000000000000000     
  -7.5816014978666996E-013   7.2702069219899426E-002   0.0000000000000000     
  -8.5922219859868587E-013   7.8860379014524210E-002   0.0000000000000000     
  -3.4632526888824927E-003   5.5355402631640634E-002   0.0000000000000000     
  -3.6576860207706355E-003   6.0962414171525377E-002   0.0000000000000000     
  -3.8449650023217102E-003   6.6753030139426323E-002   0.0000000000000000     
  -4.0250896335357169E-003   7.2727250535343416E-002   0.0000000000000000     
  -4.1980599144126572E-003   7.8885075359276718E-002   0.0000000000000000     
  -6.9540629744580269E-003   5.5440023037269796E-002   0.0000000000000000     
  -7.3416412713592479E-003   6.1043223803482961E-002   0.0000000000000000     
  -7.7157897664363456E-003   6.6830814284913609E-002   0.0000000000000000     
  -8.0765084596893209E-003   7.2802794481561767E-002   0.0000000000000000     
  -8.4237973511181764E-003   7.8959164393427400E-002   0.0000000000000000     
  -1.0472430857259662E-002   5.5581057046627011E-002   0.0000000000000000     
  -1.1051865752360918E-002   6.1177906523379823E-002   0.0000000000000000     
  -1.1612474293014022E-002   6.6960454527355634E-002   0.0000000000000000     
  -1.2154256479218976E-002   7.2928701058554438E-002   0.0000000000000000     
  -1.2677212310975785E-002   7.9082646116976227E-002   0.0000000000000000     
  -1.4018356337287402E-002   5.5778504659712250E-002   0.0000000000000000     
  -1.4788359463775649E-002   6.1366462331215961E-002   0.0000000000000000     
  -1.5535018582054742E-002   6.7141950866752370E-002   0.0000000000000000     
  -1.6258333692124687E-002   7.3104970266321470E-002   0.0000000000000000     
  -1.6958304793985478E-002   7.9255520529923240E-002   0.0000000000000000     
  -8.5922219859868587E-013   7.8860379014524210E-002   0.0000000000000000     
  -9.6114761115317915E-013   8.5189791892722813E-002   0.0000000000000000     
  -1.0517855575202517E-012   9.1678068272450008E-002   0.0000000000000000     
  -1.1311397104347629E-012   9.8325208153705781E-002   0.0000000000000000     
  -1.1992065326871248E-012  0.10513121153649016        0.0000000000000000     
  -4.1980599144126572E-003   7.8885075359276718E-002   0.0000000000000000     
  -4.3653558342784246E-003   8.5214144481366050E-002   0.0000000000000000     
  -4.5284573824589192E-003   9.1702097771751284E-002   0.0000000000000000     
  -4.6873645589541419E-003   9.8348935230432408E-002   0.0000000000000000     
  -4.8420773637640902E-003  0.10515465685740943        0.0000000000000000     
  -8.4237973511181764E-003   7.8959164393427400E-002   0.0000000000000000     
  -8.7594430405393432E-003   8.5287202247210064E-002   0.0000000000000000     
  -9.0852321277692522E-003   9.1774186269609301E-002   0.0000000000000000     
  -9.4011646128079086E-003   9.8420116460625179E-002   0.0000000000000000     
  -9.7072404956553109E-003  0.10522499282025760        0.0000000000000000     
  -1.2677212310975785E-002   7.9082646116976227E-002   0.0000000000000000     
  -1.3182261619743897E-002   8.5408965190254871E-002   0.0000000000000000     
  -1.3670324236982783E-002   9.1894333766024155E-002   0.0000000000000000     
  -1.4141400162692443E-002   9.8538751844284081E-002   0.0000000000000000     
  -1.4595489396872871E-002  0.10534221942503466        0.0000000000000000     
  -1.6958304793985478E-002   7.9255520529923240E-002   0.0000000000000000     
  -1.7633811571892092E-002   8.5579433310500427E-002   0.0000000000000000     
  -1.8283733710099510E-002   9.2062540260995737E-002   0.0000000000000000     
  -1.8908071208607741E-002   9.8704841381409114E-002   0.0000000000000000     
  -1.9506824067416766E-002  0.10550633667174063        0.0000000000000000     
  -1.1992065326871248E-012  0.10513121153649016        0.0000000000000000     
  -1.2515908448529345E-012  0.11209020411546822        0.0000000000000000     
  -1.2838918296564916E-012  0.11919631158530505        0.0000000000000000     
  -1.2961116555021412E-012  0.12644953394600064        0.0000000000000000     
  -1.2882507560707523E-012  0.13384987119755504        0.0000000000000000     
  -4.8420773637640902E-003  0.10515465685740943        0.0000000000000000     
  -4.9897553103667065E-003  0.11211268537832114        0.0000000000000000     
  -5.1275579122399334E-003  0.11921644351880629        0.0000000000000000     
  -5.2554851693837673E-003  0.12646593127886493        0.0000000000000000     
  -5.3735370817982143E-003  0.13386114865849702        0.0000000000000000     
  -9.7072404956553109E-003  0.10522499282025760        0.0000000000000000     
  -9.9993984391957835E-003  0.11218012916704784        0.0000000000000000     
  -1.0273577106313650E-002  0.11927683931953714        0.0000000000000000     
  -1.0529776497008909E-002  0.12651512327772549        0.0000000000000000     
  -1.0767996611281562E-002  0.13389498104161290        0.0000000000000000     
  -1.4595489396872871E-002  0.10534221942503466        0.0000000000000000     
  -1.5028929387738822E-002  0.11229253548164836        0.0000000000000000     
  -1.5438057583505038E-002  0.11937749898749758        0.0000000000000000     
  -1.5822873984171530E-002  0.12659710994258239        0.0000000000000000     
  -1.6183378589738295E-002  0.13395136834690272        0.0000000000000000     
  -1.9506824067416766E-002  0.10550633667174063        0.0000000000000000     
  -2.0078348155995816E-002  0.11244990432212265        0.0000000000000000     
  -2.0620999343814103E-002  0.11951842252268764        0.0000000000000000     
  -2.1134777630871637E-002  0.12671189127343555        0.0000000000000000     
  -2.1619683017168403E-002  0.13403031057436640        0.0000000000000000     
  -1.2882507560707523E-012  0.13384987119755504        0.0000000000000000     
  -1.2934930904151543E-012  0.14136271744135917        0.0000000000000000     
  -1.3450241354712178E-012  0.14895346677880411        0.0000000000000000     
  -1.4428467643747001E-012  0.15662211920988983        0.0000000000000000     
  -1.5869571282078887E-012  0.16436867473461630        0.0000000000000000     
  -5.3735370817982143E-003  0.13386114865849702        0.0000000000000000     
  -5.4824831393534869E-003  0.14137027755904780        0.0000000000000000     
  -5.5830928319198060E-003  0.14896149988186244        0.0000000000000000     
  -5.6753661594971692E-003  0.15663481562694098        0.0000000000000000     
  -5.7593031220855790E-003  0.16439022479428345        0.0000000000000000     
  -1.0767996611281562E-002  0.13389498104161290        0.0000000000000000     
  -1.0990065017716854E-002  0.14139295791244491        0.0000000000000000     
  -1.1197809284900039E-002  0.14898559919146714        0.0000000000000000     
  -1.1391229412831114E-002  0.15667290487867955        0.0000000000000000     
  -1.1570325401510078E-002  0.16445487497408209        0.0000000000000000     
  -1.6183378589738295E-002  0.13395136834690272        0.0000000000000000     
  -1.6522745636383600E-002  0.14143075850155062        0.0000000000000000     
  -1.6844149360285724E-002  0.14902576470761819        0.0000000000000000     
  -1.7147589761444676E-002  0.15673638696510542        0.0000000000000000     
  -1.7433066839860449E-002  0.16456262527401225        0.0000000000000000     
  -2.1619683017168403E-002  0.13403031057436640        0.0000000000000000     
  -2.2080524995353713E-002  0.14148367932636488        0.0000000000000000     
  -2.2522113058076873E-002  0.14908199643031561        0.0000000000000000     
  -2.2944447205337858E-002  0.15682526188621862        0.0000000000000000     
  -2.3347527437136691E-002  0.16471347569407391        0.0000000000000000     
   0.0000000000000000        0.0000000000000000        0.0000000000000000     
  -8.4159795422320926E-004   1.1099577470507277E-003   0.0000000000000000     
  -1.7020377636290320E-003   2.5981462332028095E-003   0.0000000000000000     
  -2.5813194282174688E-003   4.4645654584562445E-003   0.0000000000000000     
  -3.4794429479885190E-003   6.7092154228110346E-003   0.0000000000000000     
   0.0000000000000000        0.0000000000000000        0.0000000000000000     
  -1.0566586717894830E-003   1.1340696138467032E-003   0.0000000000000000     
  -2.1397176191353643E-003   2.6503387982511847E-003   0.0000000000000000     
  -3.2491768420376435E-003   4.5488075532134431E-003   0.0000000000000000     
  -4.3850363404963205E-003   6.8294758787334816E-003   0.0000000000000000     
   0.0000000000000000        0.0000000000000000        0.0000000000000000     
  -1.2878102126533497E-003   1.1699196113424324E-003   0.0000000000000000     
  -2.6055032384093143E-003   2.7245728080967807E-003   0.0000000000000000     
  -3.9530790772678943E-003   4.6639595902630464E-003   0.0000000000000000     
  -5.3305377292290883E-003   6.9880799578412259E-003   0.0000000000000000     
   0.0000000000000000        0.0000000000000000        0.0000000000000000     
  -1.5350525768148091E-003   1.2175077395379147E-003   0.0000000000000000     
  -3.0993946214508826E-003   2.8208482627395978E-003   0.0000000000000000     
  -4.6930261339082199E-003   4.8100215696050500E-003   0.0000000000000000     
  -6.3159471141868238E-003   7.1850276601342720E-003   0.0000000000000000     
   0.0000000000000000        0.0000000000000000        0.0000000000000000     
  -1.7983857642738612E-003   1.2768339984331506E-003   0.0000000000000000     
  -3.6213917682600691E-003   2.9391651621796366E-003   0.0000000000000000     
  -5.4690180119586233E-003   4.9869934912394574E-003   0.0000000000000000     
  -7.3412644953695233E-003   7.4203189856126136E-003   0.0000000000000000     
  -3.4794429479885190E-003   6.7092154228110346E-003   0.0000000000000000     
  -4.3880487017064190E-003   9.2946379620729679E-003   0.0000000000000000     
  -5.2987770681354055E-003   1.2183374912047837E-002   0.0000000000000000     
  -6.2116280472754798E-003   1.5375426272735644E-002   0.0000000000000000     
  -7.1266016391266403E-003   1.8870792044136383E-002   0.0000000000000000     
  -4.3850363404963205E-003   6.8294758787334816E-003   0.0000000000000000     
  -5.5342334631739995E-003   9.4501270757091915E-003   0.0000000000000000     
  -6.6837055587332800E-003   1.2368544445038472E-002   0.0000000000000000     
  -7.8334526271741627E-003   1.5584727986721319E-002   0.0000000000000000     
  -8.9834746684966521E-003   1.9098677700757734E-002   0.0000000000000000     
  -5.3305377292290883E-003   6.9880799578412259E-003   0.0000000000000000     
  -6.7233775256182833E-003   9.6506324050397423E-003   0.0000000000000000     
  -8.1170967977608598E-003   1.2605315426067017E-002   0.0000000000000000     
  -9.5116955456568206E-003   1.5852129020923051E-002   0.0000000000000000     
  -1.0907173769306161E-002   1.9391073189607835E-002   0.0000000000000000     
  -6.3159471141868238E-003   7.1850276601342720E-003   0.0000000000000000     
  -7.9554808890392702E-003   9.8961539500646272E-003   0.0000000000000000     
  -9.5989507852181459E-003   1.2893687855133479E-002   0.0000000000000000     
  -1.1246356802723446E-002   1.6177629375340841E-002   0.0000000000000000     
  -1.2897698941555173E-002   1.9747978510686697E-002   0.0000000000000000     
  -7.3412644953695233E-003   7.4203189856126136E-003   0.0000000000000000     
  -9.2305435534369637E-003   1.0186691710783839E-002   0.0000000000000000     
  -1.1129267521105136E-002   1.3233661732237861E-002   0.0000000000000000     
  -1.3037436398374045E-002   1.6561229049974684E-002   0.0000000000000000     
  -1.4955050185243689E-002   2.0169393663994308E-002   0.0000000000000000     
  -7.1266016391266403E-003   1.8870792044136383E-002   0.0000000000000000     
  -8.0373926325750591E-003   2.2643977217020401E-002   0.0000000000000000     
  -8.9376958165069079E-003   2.6669486782158032E-002   0.0000000000000000     
  -9.8275111909221901E-003   3.0947320739549283E-002   0.0000000000000000     
  -1.0706838755820902E-002   3.5477479089194158E-002   0.0000000000000000     
  -8.9834746684966521E-003   1.9098677700757734E-002   0.0000000000000000     
  -1.0127010178843826E-002   2.2886234269544836E-002   0.0000000000000000     
  -1.1257297654358775E-002   2.6923238375479747E-002   0.0000000000000000     
  -1.2374337095041502E-002   3.1209690018562462E-002   0.0000000000000000     
  -1.3478128500891999E-002   3.5745589198792990E-002   0.0000000000000000     
  -1.0907173769306161E-002   1.9391073189607835E-002   0.0000000000000000     
  -1.2293422899193903E-002   2.3197948415185000E-002   0.0000000000000000     
  -1.3660334365805068E-002   2.7248555180718160E-002   0.0000000000000000     
  -1.5007908169139652E-002   3.1542893486207313E-002   0.0000000000000000     
  -1.6336144309197650E-002   3.6080963331652456E-002   0.0000000000000000     
  -1.2897698941555173E-002   1.9747978510686697E-002   0.0000000000000000     
  -1.4536630793625297E-002   2.3579119653940890E-002   0.0000000000000000     
  -1.6146805950845784E-002   2.7645437197873272E-002   0.0000000000000000     
  -1.7728224413216642E-002   3.1946931142483828E-002   0.0000000000000000     
  -1.9280886180737863E-002   3.6483601487772563E-002   0.0000000000000000     
  -1.4955050185243689E-002   2.0169393663994308E-002   0.0000000000000000     
  -1.6856633862138003E-002   2.4029747985812512E-002   0.0000000000000000     
  -1.8716712409480928E-002   2.8113884426945086E-002   0.0000000000000000     
  -2.0535285827272477E-002   3.2421802987392008E-002   0.0000000000000000     
  -2.2312354115512627E-002   3.6953503667153310E-002   0.0000000000000000     
  -1.0706838755820902E-002   3.5477479089194158E-002   0.0000000000000000     
  -1.1569371349767878E-002   4.0238533596680302E-002   0.0000000000000000     
  -1.2408801811327957E-002   4.5209056027595361E-002   0.0000000000000000     
  -1.3225130140501128E-002   5.0389046381939348E-002   0.0000000000000000     
  -1.4018356337287402E-002   5.5778504659712250E-002   0.0000000000000000     
  -1.3478128500891999E-002   3.5745589198792990E-002   0.0000000000000000     
  -1.4559996548859167E-002   4.0509124536070064E-002   0.0000000000000000     
  -1.5611265915891900E-002   4.5478484650292403E-002   0.0000000000000000     
  -1.6631936601990197E-002   5.0653669541460049E-002   0.0000000000000000     
  -1.7622008607154054E-002   5.6034679209572946E-002   0.0000000000000000     
  -1.6336144309197650E-002   3.6080963331652456E-002   0.0000000000000000     
  -1.7636158074904609E-002   4.0842848211820069E-002   0.0000000000000000     
  -1.8899064755186063E-002   4.5808631621476609E-002   0.0000000000000000     
  -2.0124864350041998E-002   5.0978313560622102E-002   0.0000000000000000     
  -2.1313556859472432E-002   5.6351894029256520E-002   0.0000000000000000     
  -1.9280886180737863E-002   3.6483601487772563E-002   0.0000000000000000     
  -2.0797855927904202E-002   4.1239704623930340E-002   0.0000000000000000     
  -2.2272198329210430E-002   4.6199496941147992E-002   0.0000000000000000     
  -2.3703913384656543E-002   5.1362978439425534E-002   0.0000000000000000     
  -2.5093001094242534E-002   5.6730149118762965E-002   0.0000000000000000     
  -2.2312354115512627E-002   3.6953503667153310E-002   0.0000000000000000     
  -2.4045090107857957E-002   4.1699693772400855E-002   0.0000000000000000     
  -2.5730666637965013E-002   4.6651080609306526E-002   0.0000000000000000     
  -2.7369083705833814E-002   5.1807664177870333E-002   0.0000000000000000     
  -2.8960341311464355E-002   5.7169444478092274E-002   0.0000000000000000     
  -1.4018356337287402E-002   5.5778504659712250E-002   0.0000000000000000     
  -1.4788359463775649E-002   6.1366462331215961E-002   0.0000000000000000     
  -1.5535018582054742E-002   6.7141950866752370E-002   0.0000000000000000     
  -1.6258333692124687E-002   7.3104970266321470E-002   0.0000000000000000     
  -1.6958304793985478E-002   7.9255520529923240E-002   0.0000000000000000     
  -1.7622008607154054E-002   5.6034679209572946E-002   0.0000000000000000     
  -1.8582857599519668E-002   6.1613015608257923E-002   0.0000000000000000     
  -1.9515859247223225E-002   6.7380180691141767E-002   0.0000000000000000     
  -2.0421013550264721E-002   7.3336174458224435E-002   0.0000000000000000     
  -2.1298320508644164E-002   7.9480996909505983E-002   0.0000000000000000     
  -2.1313556859472432E-002   5.6351894029256520E-002   0.0000000000000000     
  -2.2467095353509207E-002   6.1921690735772278E-002   0.0000000000000000     
  -2.3587432902184190E-002   6.7680021388561773E-002   0.0000000000000000     
  -2.4674569505497367E-002   7.3626885987624985E-002   0.0000000000000000     
  -2.5728505163448750E-002   7.9762284532961969E-002   0.0000000000000000     
  -2.5093001094242534E-002   5.6730149118762965E-002   0.0000000000000000     
  -2.6441072725744277E-002   6.2292487713759011E-002   0.0000000000000000     
  -2.7749739546937643E-002   6.8041472959012389E-002   0.0000000000000000     
  -2.9019001557822631E-002   7.3977104854523135E-002   0.0000000000000000     
  -3.0248858758399239E-002   8.0099383400291227E-002   0.0000000000000000     
  -2.8960341311464355E-002   5.7169444478092274E-002   0.0000000000000000     
  -3.0504789716224862E-002   6.2725406542218115E-002   0.0000000000000000     
  -3.2002779181483573E-002   6.8464535402493643E-002   0.0000000000000000     
  -3.3454309707240497E-002   7.4386831058918856E-002   0.0000000000000000     
  -3.4859381293495625E-002   8.0492293511493743E-002   0.0000000000000000     
  -1.6958304793985478E-002   7.9255520529923240E-002   0.0000000000000000     
  -1.7633811571892092E-002   8.5579433310500427E-002   0.0000000000000000     
  -1.8283733710099510E-002   9.2062540260995737E-002   0.0000000000000000     
  -1.8908071208607741E-002   9.8704841381409114E-002   0.0000000000000000     
  -1.9506824067416766E-002  0.10550633667174063        0.0000000000000000     
  -2.1298320508644164E-002   7.9480996909505983E-002   0.0000000000000000     
  -2.2144421859466770E-002   8.5799847823350525E-002   0.0000000000000000     
  -2.2955959339837757E-002   9.2277926978122260E-002   0.0000000000000000     
  -2.3732932949757136E-002   9.8915234373821187E-002   0.0000000000000000     
  -2.4475342689224897E-002  0.10571177001044726        0.0000000000000000     
  -2.5728505163448750E-002   7.9762284532961969E-002   0.0000000000000000     
  -2.6744421444950765E-002   8.6071449944208872E-002   0.0000000000000000     
  -2.7717499918915828E-002   9.2539615141001896E-002   0.0000000000000000     
  -2.8647740585343962E-002   9.9166780123341028E-002   0.0000000000000000     
  -2.9535143444235142E-002  0.10595294489122632        0.0000000000000000     
  -3.0248858758399239E-002   8.0099383400291227E-002   0.0000000000000000     
  -3.1433810328344074E-002   8.6394239673075468E-002   0.0000000000000000     
  -3.2568355447333726E-002   9.2847604749634619E-002   0.0000000000000000     
  -3.3652494115368213E-002   9.9459478629968762E-002   0.0000000000000000     
  -3.4686226332447521E-002  0.10622986131407780        0.0000000000000000     
  -3.4859381293495625E-002   8.0492293511493743E-002   0.0000000000000000     
  -3.6212588509646704E-002   8.6768217009950299E-002   0.0000000000000000     
  -3.7508525925091449E-002   9.3201895804020482E-002   0.0000000000000000     
  -3.8747193539829895E-002   9.9793329893704263E-002   0.0000000000000000     
  -3.9928591353862015E-002  0.10654251927900170        0.0000000000000000     
  -1.9506824067416766E-002  0.10550633667174063        0.0000000000000000     
  -2.0078348155995816E-002  0.11244990432212265        0.0000000000000000     
  -2.0620999343814103E-002  0.11951842252268764        0.0000000000000000     
  -2.1134777630871637E-002  0.12671189127343555        0.0000000000000000     
  -2.1619683017168403E-002  0.13403031057436640        0.0000000000000000     
  -2.4475342689224897E-002  0.10571177001044726        0.0000000000000000     
  -2.5184236766863884E-002  0.11264634063591340        0.0000000000000000     
  -2.5860663391296945E-002  0.11969775299813243        0.0000000000000000     
  -2.6504622562524078E-002  0.12686600709710441        0.0000000000000000     
  -2.7116114280545285E-002  0.13415110293282931        0.0000000000000000     
  -2.9535143444235142E-002  0.10595294489122632        0.0000000000000000     
  -3.0383177243240127E-002  0.11287594937046322        0.0000000000000000     
  -3.1195310730009654E-002  0.11991363348685727        0.0000000000000000     
  -3.1971543904543716E-002  0.12706599724040837        0.0000000000000000     
  -3.2711876766842327E-002  0.13433304063111665        0.0000000000000000     
  -3.4686226332447521E-002  0.10622986131407780        0.0000000000000000     
  -3.5675169585124560E-002  0.11313873052577213        0.0000000000000000     
  -3.6624941359952229E-002  0.12016606398886198        0.0000000000000000     
  -3.7535541656930557E-002  0.12731186170334746        0.0000000000000000     
  -3.8406970476059510E-002  0.13457612366922847        0.0000000000000000     
  -3.9928591353862015E-002  0.10654251927900170        0.0000000000000000     
  -4.1060213792517168E-002  0.11343468410184009        0.0000000000000000     
  -4.2149555281124698E-002  0.12045504450414671        0.0000000000000000     
  -4.3196615819684585E-002  0.12760360048592159        0.0000000000000000     
  -4.4201395408196849E-002  0.13488035204716475        0.0000000000000000     
  -2.1619683017168403E-002  0.13403031057436640        0.0000000000000000     
  -2.2080524995353713E-002  0.14148367932636488        0.0000000000000000     
  -2.2522113058076873E-002  0.14908199643031561        0.0000000000000000     
  -2.2944447205337858E-002  0.15682526188621862        0.0000000000000000     
  -2.3347527437136691E-002  0.16471347569407391        0.0000000000000000     
  -2.7116114280545285E-002  0.13415110293282931        0.0000000000000000     
  -2.7700504594443481E-002  0.14157927266744394        0.0000000000000000     
  -2.8263159553301564E-002  0.14917674846308512        0.0000000000000000     
  -2.8804079157119553E-002  0.15694353031975297        0.0000000000000000     
  -2.9323263405897429E-002  0.16487961823744737        0.0000000000000000     
  -3.2711876766842327E-002  0.13433304063111665        0.0000000000000000     
  -3.3419785933469157E-002  0.14174509080534400        0.0000000000000000     
  -3.4098748020987932E-002  0.14933247490945256        0.0000000000000000     
  -3.4748763029398638E-002  0.15709519294344218        0.0000000000000000     
  -3.5369830958701283E-002  0.16503324490731300        0.0000000000000000     
  -3.8406970476059510E-002  0.13457612366922847        0.0000000000000000     
  -3.9238369012430760E-002  0.14198113374006524        0.0000000000000000     
  -4.0028878461135967E-002  0.14954917576941784        0.0000000000000000     
  -4.0778498822175123E-002  0.15728024975728638        0.0000000000000000     
  -4.1487230095548243E-002  0.16517435570367073        0.0000000000000000     
  -4.4201395408196849E-002  0.13488035204716475        0.0000000000000000     
  -4.5156253831328284E-002  0.14228740147160746        0.0000000000000000     
  -4.6053550873745672E-002  0.14982685104298099        0.0000000000000000     
  -4.6893286535449018E-002  0.15749870076128542        0.0000000000000000     
  -4.7675460816438316E-002  0.16530295062652064        0.0000000000000000     
   0.0000000000000000        0.0000000000000000        0.0000000000000000     
  -1.7983857642738612E-003   1.2768339984331506E-003   0.0000000000000000     
  -3.6213917682600691E-003   2.9391651621796366E-003   0.0000000000000000     
  -5.4690180119586233E-003   4.9869934912394574E-003   0.0000000000000000     
  -7.3412644953695233E-003   7.4203189856126136E-003   0.0000000000000000     
   0.0000000000000000        0.0000000000000000        0.0000000000000000     
  -2.0695263860236661E-003   1.3549819256744070E-003   0.0000000000000000     
  -4.1641353622265884E-003   3.0940093621293365E-003   0.0000000000000000     
  -6.2838269286087682E-003   5.2170823093647869E-003   0.0000000000000000     
  -8.4286010851702051E-003   7.7242007673807610E-003   0.0000000000000000     
   0.0000000000000000        0.0000000000000000        0.0000000000000000     
  -2.3401910530573837E-003   1.4590350589079515E-003   0.0000000000000000     
  -4.7202660867401583E-003   3.2998667183011384E-003   0.0000000000000000     
  -7.1402251010483260E-003   5.5224949781795601E-003   0.0000000000000000     
  -9.6000680959818820E-003   8.1269198385432173E-003   0.0000000000000000     
   0.0000000000000000        0.0000000000000000        0.0000000000000000     
  -2.6103797653750141E-003   1.5889933981337835E-003   0.0000000000000000     
  -5.2897839418007781E-003   3.5567372306950420E-003   0.0000000000000000     
  -8.0382125292772933E-003   5.9032314976837754E-003   0.0000000000000000     
  -1.0855665527804557E-002   8.6284761990999843E-003   0.0000000000000000     
   0.0000000000000000        0.0000000000000000        0.0000000000000000     
  -2.8800925229765565E-003   1.7448569433519035E-003   0.0000000000000000     
  -5.8726889274084470E-003   3.8646208993110480E-003   0.0000000000000000     
  -8.9777892132956710E-003   6.3592918678774327E-003   0.0000000000000000     
  -1.2195393380638228E-002   9.2288698490510575E-003   0.0000000000000000     
  -7.3412644953695233E-003   7.4203189856126136E-003   0.0000000000000000     
  -9.2305435534369637E-003   1.0186691710783839E-002   0.0000000000000000     
  -1.1129267521105136E-002   1.3233661732237861E-002   0.0000000000000000     
  -1.3037436398374045E-002   1.6561229049974684E-002   0.0000000000000000     
  -1.4955050185243689E-002   2.0169393663994308E-002   0.0000000000000000     
  -8.4286010851702051E-003   7.7242007673807610E-003   0.0000000000000000     
  -1.0590276213438783E-002   1.0558018724800753E-002   0.0000000000000000     
  -1.2760670694942394E-002   1.3661190170248260E-002   0.0000000000000000     
  -1.4939784529681031E-002   1.7033715103723281E-002   0.0000000000000000     
  -1.7127617717654701E-002   2.0675593525225820E-002   0.0000000000000000     
  -9.6000680959818820E-003   8.1269198385432173E-003   0.0000000000000000     
  -1.2076389563672156E-002   1.1045908029718747E-002   0.0000000000000000     
  -1.4545783996250467E-002   1.4212226282032787E-002   0.0000000000000000     
  -1.7008251393716815E-002   1.7625874595485334E-002   0.0000000000000000     
  -1.9463791756071207E-002   2.1286852970076389E-002   0.0000000000000000     
  -1.0855665527804557E-002   8.6284761990999843E-003   0.0000000000000000     
  -1.3688883604137081E-002   1.1650359625537818E-002   0.0000000000000000     
  -1.6484607425029357E-002   1.4886770067591433E-002   0.0000000000000000     
  -1.9242836990481401E-002   1.8337707525260823E-002   0.0000000000000000     
  -2.1963572300493207E-002   2.2003171998546001E-002   0.0000000000000000     
  -1.2195393380638228E-002   9.2288698490510575E-003   0.0000000000000000     
  -1.5427758334833555E-002   1.2371373512257968E-002   0.0000000000000000     
  -1.8577140981279071E-002   1.5684821526924207E-002   0.0000000000000000     
  -2.1643541319974789E-002   1.9169213893049774E-002   0.0000000000000000     
  -2.4626959350920703E-002   2.2824550610634670E-002   0.0000000000000000     
  -1.4955050185243689E-002   2.0169393663994308E-002   0.0000000000000000     
  -1.6856633862138003E-002   2.4029747985812512E-002   0.0000000000000000     
  -1.8716712409480928E-002   2.8113884426945086E-002   0.0000000000000000     
  -2.0535285827272477E-002   3.2421802987392008E-002   0.0000000000000000     
  -2.2312354115512627E-002   3.6953503667153310E-002   0.0000000000000000     
  -1.7127617717654701E-002   2.0675593525225820E-002   0.0000000000000000     
  -1.9292623559455730E-002   2.4558987037703497E-002   0.0000000000000000     
  -2.1403255355676463E-002   2.8656057244103923E-002   0.0000000000000000     
  -2.3459513106316898E-002   3.2966804144427098E-002   0.0000000000000000     
  -2.5461396811377029E-002   3.7491227738673021E-002   0.0000000000000000     
  -1.9463791756071207E-002   2.1286852970076389E-002   0.0000000000000000     
  -2.1883791340302196E-002   2.5175990436517474E-002   0.0000000000000000     
  -2.4239636403398355E-002   2.9274116025520110E-002   0.0000000000000000     
  -2.6531326945359670E-002   3.3581229737084294E-002   0.0000000000000000     
  -2.8758862966186155E-002   3.8097331571210022E-002   0.0000000000000000     
  -2.1963572300493207E-002   2.2003171998546001E-002   0.0000000000000000     
  -2.4630137204677393E-002   2.5880758182254451E-002   0.0000000000000000     
  -2.7225855552646588E-002   2.9968060771193648E-002   0.0000000000000000     
  -2.9750727344400790E-002   3.4265079765363610E-002   0.0000000000000000     
  -3.2204752579940009E-002   3.8771815164764321E-002   0.0000000000000000     
  -2.4626959350920703E-002   2.2824550610634670E-002   0.0000000000000000     
  -2.7531661152581325E-002   2.6673290274914416E-002   0.0000000000000000     
  -3.0361912803421182E-002   3.0737891481124539E-002   0.0000000000000000     
  -3.3117714303440265E-002   3.5018354229265032E-002   0.0000000000000000     
  -3.5799065652638573E-002   3.9514678519335905E-002   0.0000000000000000     
  -2.2312354115512627E-002   3.6953503667153310E-002   0.0000000000000000     
  -2.4045090107857957E-002   4.1699693772400855E-002   0.0000000000000000     
  -2.5730666637965013E-002   4.6651080609306526E-002   0.0000000000000000     
  -2.7369083705833814E-002   5.1807664177870333E-002   0.0000000000000000     
  -2.8960341311464355E-002   5.7169444478092274E-002   0.0000000000000000     
  -2.5461396811377029E-002   3.7491227738673021E-002   0.0000000000000000     
  -2.7410113651608278E-002   4.2225768710966151E-002   0.0000000000000000     
  -2.9306870807762064E-002   4.7166867745430940E-002   0.0000000000000000     
  -3.1151668279838375E-002   5.2314524842067403E-002   0.0000000000000000     
  -3.2944506067837220E-002   5.7668740000875525E-002   0.0000000000000000     
  -2.8758862966186155E-002   3.8097331571210022E-002   0.0000000000000000     
  -3.0925179595997599E-002   4.2820882493360767E-002   0.0000000000000000     
  -3.3033211964913801E-002   4.7750343468999978E-002   0.0000000000000000     
  -3.5082960072934752E-002   5.2885714498127671E-002   0.0000000000000000     
  -3.7074423920060454E-002   5.8226995580743825E-002   0.0000000000000000     
  -3.2204752579940009E-002   3.8771815164764321E-002   0.0000000000000000     
  -3.4590287941025921E-002   4.3485035119584702E-002   0.0000000000000000     
  -3.6909690109420232E-002   4.8401507780013626E-002   0.0000000000000000     
  -3.9162959085122941E-002   5.3521233146051110E-002   0.0000000000000000     
  -4.1350094868134055E-002   5.8844211217697152E-002   0.0000000000000000     
  -3.5799065652638573E-002   3.9514678519335905E-002   0.0000000000000000     
  -3.8405438686693230E-002   4.4218226589637935E-002   0.0000000000000000     
  -4.0936305241281362E-002   4.9120360678471885E-002   0.0000000000000000     
  -4.3391665316402962E-002   5.4221080785837747E-002   0.0000000000000000     
  -4.5771518912058023E-002   5.9520386911735529E-002   0.0000000000000000     
  -2.8960341311464355E-002   5.7169444478092274E-002   0.0000000000000000     
  -3.0504789716224862E-002   6.2725406542218115E-002   0.0000000000000000     
  -3.2002779181483573E-002   6.8464535402493643E-002   0.0000000000000000     
  -3.3454309707240497E-002   7.4386831058918856E-002   0.0000000000000000     
  -3.4859381293495625E-002   8.0492293511493743E-002   0.0000000000000000     
  -3.2944506067837220E-002   5.7668740000875525E-002   0.0000000000000000     
  -3.4684600587961148E-002   6.3216119650687311E-002   0.0000000000000000     
  -3.6371168256412692E-002   6.8943270220334765E-002   0.0000000000000000     
  -3.8004209073191859E-002   7.4850191709817909E-002   0.0000000000000000     
  -3.9583723038298650E-002   8.0936884119136715E-002   0.0000000000000000     
  -3.7074423920060454E-002   5.8226995580743825E-002   0.0000000000000000     
  -3.9006859603963308E-002   6.3760299468704332E-002   0.0000000000000000     
  -4.0879523222315688E-002   6.9471738913865086E-002   0.0000000000000000     
  -4.2692414775117593E-002   7.5361313916226066E-002   0.0000000000000000     
  -4.4445534262369038E-002   8.1429024475787301E-002   0.0000000000000000     
  -4.1350094868134055E-002   5.8844211217697152E-002   0.0000000000000000     
  -4.3471566764231334E-002   6.4357945996269178E-002   0.0000000000000000     
  -4.5527844079192553E-002   7.0049941483084563E-002   0.0000000000000000     
  -4.7518926813017698E-002   7.5920197678143342E-002   0.0000000000000000     
  -4.9444814965706796E-002   8.1968714581445529E-002   0.0000000000000000     
  -4.5771518912058023E-002   5.9520386911735529E-002   0.0000000000000000     
  -4.8078722068765241E-002   6.5009059233381822E-002   0.0000000000000000     
  -5.0316130827043296E-002   7.0677877927993238E-002   0.0000000000000000     
  -5.2483745186892188E-002   7.6526842995569749E-002   0.0000000000000000     
  -5.4581565148311931E-002   8.2555954436111370E-002   0.0000000000000000     
  -3.4859381293495625E-002   8.0492293511493743E-002   0.0000000000000000     
  -3.6212588509646704E-002   8.6768217009950299E-002   0.0000000000000000     
  -3.7508525925091449E-002   9.3201895804020482E-002   0.0000000000000000     
  -3.8747193539829895E-002   9.9793329893704263E-002   0.0000000000000000     
  -3.9928591353862015E-002  0.10654251927900170        0.0000000000000000     
  -3.9583723038298650E-002   8.0936884119136715E-002   0.0000000000000000     
  -4.1104648039384135E-002   8.7191929097834325E-002   0.0000000000000000     
  -4.2561921964099449E-002   9.3603908295453855E-002   0.0000000000000000     
  -4.3955544812444548E-002  0.10017282171199531        0.0000000000000000     
  -4.5285516584419469E-002  0.10689866934745866        0.0000000000000000     
  -4.4445534262369038E-002   8.1429024475787301E-002   0.0000000000000000     
  -4.6133880968081929E-002   8.7663923079728451E-002   0.0000000000000000     
  -4.7752454176268160E-002   9.4055062215229163E-002   0.0000000000000000     
  -4.9301253886927736E-002  0.10060244188228944        0.0000000000000000     
  -5.0780280100060686E-002  0.10730606208090930        0.0000000000000000     
  -4.9444814965706796E-002   8.1968714581445529E-002   0.0000000000000000     
  -5.1300287295740023E-002   8.8184198955632676E-002   0.0000000000000000     
  -5.3080122561597567E-002   9.4555357563346418E-002   0.0000000000000000     
  -5.4784320763279458E-002  0.10108219040458670        0.0000000000000000     
  -5.6412881900785666E-002  0.10776469747935360        0.0000000000000000     
  -5.4581565148311931E-002   8.2555954436111370E-002   0.0000000000000000     
  -5.6603867022358444E-002   8.8752756725547013E-002   0.0000000000000000     
  -5.8544927120087707E-002   9.5104794339805593E-002   0.0000000000000000     
  -6.0404745441499694E-002  0.10161206727888711        0.0000000000000000     
  -6.2183321986594417E-002  0.10827457554279155        0.0000000000000000     
  -3.9928591353862015E-002  0.10654251927900170        0.0000000000000000     
  -4.1060213792517168E-002  0.11343468410184009        0.0000000000000000     
  -4.2149555281124698E-002  0.12045504450414671        0.0000000000000000     
  -4.3196615819684585E-002  0.12760360048592159        0.0000000000000000     
  -4.4201395408196849E-002  0.13488035204716475        0.0000000000000000     
  -4.5285516584419469E-002  0.10689866934745866        0.0000000000000000     
  -4.6560694233947736E-002  0.11377222912200440        0.0000000000000000     
  -4.7789934714952909E-002  0.12078427895579291        0.0000000000000000     
  -4.8973238027434966E-002  0.12793481884882421        0.0000000000000000     
  -5.0110604171393937E-002  0.13522384880109828        0.0000000000000000     
  -5.0780280100060686E-002  0.10730606208090930        0.0000000000000000     
  -5.2198995277946005E-002  0.11415978460960231        0.0000000000000000     
  -5.3566861882862714E-002  0.12115747126688207        0.0000000000000000     
  -5.4883879914810828E-002  0.12829912205274857        0.0000000000000000     
  -5.6150049373790346E-002  0.13558473696720180        0.0000000000000000     
  -5.6412881900785666E-002  0.10776469747935360        0.0000000000000000     
  -5.7975116924511974E-002  0.11459735056463383        0.0000000000000000     
  -5.9480336784854156E-002  0.12157462143741420        0.0000000000000000     
  -6.0928541481812183E-002  0.12869651009769470        0.0000000000000000     
  -6.2319731015386085E-002  0.13596301654547535        0.0000000000000000     
  -6.2183321986594417E-002  0.10827457554279155        0.0000000000000000     
  -6.3889059173645679E-002  0.11508492698709893        0.0000000000000000     
  -6.5530359420927192E-002  0.12203572946738929        0.0000000000000000     
  -6.7107222728439025E-002  0.12912698298366260        0.0000000000000000     
  -6.8619649096181151E-002  0.13635868753591884        0.0000000000000000     
  -4.4201395408196849E-002  0.13488035204716475        0.0000000000000000     
  -4.5156253831328284E-002  0.14228740147160746        0.0000000000000000     
  -4.6053550873745672E-002  0.14982685104298099        0.0000000000000000     
  -4.6893286535449018E-002  0.15749870076128542        0.0000000000000000     
  -4.7675460816438316E-002  0.16530295062652064        0.0000000000000000     
  -5.0110604171393937E-002  0.13522384880109828        0.0000000000000000     
  -5.1188556432205087E-002  0.14263229392358531        0.0000000000000000     
  -5.2193618095243657E-002  0.15014107932725546        0.0000000000000000     
  -5.3125789160509682E-002  0.15775020501210871        0.0000000000000000     
  -5.3985069628003146E-002  0.16545967097814504        0.0000000000000000     
  -5.6150049373790346E-002  0.13558473696720180        0.0000000000000000     
  -5.7350392857104512E-002  0.14298421101961326        0.0000000000000000     
  -5.8469932962056569E-002  0.15046743921935457        0.0000000000000000     
  -5.9508669688646529E-002  0.15803442156642555        0.0000000000000000     
  -6.0466603036874379E-002  0.16568515806082634        0.0000000000000000     
  -6.2319731015386085E-002  0.13596301654547535        0.0000000000000000     
  -6.3641763106026580E-002  0.14334315275969142        0.0000000000000000     
  -6.4882495474184398E-002  0.15080593071927831        0.0000000000000000     
  -6.6041928119859525E-002  0.15835135042423601        0.0000000000000000     
  -6.7120061043052015E-002  0.16597941187456450        0.0000000000000000     
  -6.8619649096181151E-002  0.13635868753591884        0.0000000000000000     
  -7.0062667178971277E-002  0.14370911914381967        0.0000000000000000     
  -7.1431305631627140E-002  0.15115655382702675        0.0000000000000000     
  -7.2725564454148725E-002  0.15870099158553999        0.0000000000000000     
  -7.3945443646536047E-002  0.16634243241935953        0.0000000000000000     
   0.0000000000000000        0.0000000000000000        0.0000000000000000     
  -2.8800925229765565E-003   1.7448569433519035E-003   0.0000000000000000     
  -5.8726889274084470E-003   3.8646208993110480E-003   0.0000000000000000     
  -8.9777892132956710E-003   6.3592918678774327E-003   0.0000000000000000     
  -1.2195393380638228E-002   9.2288698490510575E-003   0.0000000000000000     
   0.0000000000000000        0.0000000000000000        0.0000000000000000     
  -3.2831996792600155E-003   1.9993408374477527E-003   0.0000000000000000     
  -6.6769792192628904E-003   4.3308905711682182E-003   0.0000000000000000     
  -1.0181338620008622E-002   6.9946492011613969E-003   0.0000000000000000     
  -1.3796277881497216E-002   9.9906167274272876E-003   0.0000000000000000     
   0.0000000000000000        0.0000000000000000        0.0000000000000000     
  -3.9535715876233930E-003   2.4251602233067728E-003   0.0000000000000000     
  -7.9106529930638332E-003   5.0629190932856161E-003   0.0000000000000000     
  -1.1871244216321318E-002   7.9132766099365304E-003   0.0000000000000000     
  -1.5835345257395848E-002   1.0976232773259516E-002   0.0000000000000000     
   0.0000000000000000        0.0000000000000000        0.0000000000000000     
  -4.8912082480666915E-003   3.0223151009289646E-003   0.0000000000000000     
  -9.5737102488112728E-003   6.0607064656632431E-003   0.0000000000000000     
  -1.4047506002233751E-002   9.1151740942028332E-003   0.0000000000000000     
  -1.8312595508334119E-002   1.2185717986547738E-002   0.0000000000000000     
   0.0000000000000000        0.0000000000000000        0.0000000000000000     
  -6.0961096605899080E-003   3.7908054703143274E-003   0.0000000000000000     
  -1.1666150986505214E-002   7.3242526883010965E-003   0.0000000000000000     
  -1.6710123977745919E-002   1.0600341653960307E-002   0.0000000000000000     
  -2.1228028634312026E-002   1.3619072367291960E-002   0.0000000000000000     
  -1.2195393380638228E-002   9.2288698490510575E-003   0.0000000000000000     
  -1.5427758334833555E-002   1.2371373512257968E-002   0.0000000000000000     
  -1.8577140981279071E-002   1.5684821526924207E-002   0.0000000000000000     
  -2.1643541319974789E-002   1.9169213893049774E-002   0.0000000000000000     
  -2.4626959350920703E-002   2.2824550610634670E-002   0.0000000000000000     
  -1.3796277881497216E-002   9.9906167274272876E-003   0.0000000000000000     
  -1.7404634099429495E-002   1.3220854636605947E-002   0.0000000000000000     
  -2.0889244369506284E-002   1.6587424415337435E-002   0.0000000000000000     
  -2.4250108691727570E-002   2.0090326063621752E-002   0.0000000000000000     
  -2.7487227066093366E-002   2.3729559581458892E-002   0.0000000000000000     
  -1.5835345257395848E-002   1.0976232773259516E-002   0.0000000000000000     
  -1.9731131241592828E-002   1.4210707945308506E-002   0.0000000000000000     
  -2.3486777294217661E-002   1.7575622488137446E-002   0.0000000000000000     
  -2.7102283415270347E-002   2.1070976401746336E-002   0.0000000000000000     
  -3.0577649604750880E-002   2.4696769686135173E-002   0.0000000000000000     
  -1.8312595508334119E-002   1.2185717986547738E-002   0.0000000000000000     
  -2.2407249761323546E-002   1.5340933438365647E-002   0.0000000000000000     
  -2.6369739755413207E-002   1.8649415745324242E-002   0.0000000000000000     
  -3.0200065490603105E-002   2.2111164907423535E-002   0.0000000000000000     
  -3.3898226966893243E-002   2.5726180924663514E-002   0.0000000000000000     
  -2.1228028634312026E-002   1.3619072367291960E-002   0.0000000000000000     
  -2.5432989658621657E-002   1.6611531115777362E-002   0.0000000000000000     
  -2.9538131753092937E-002   1.9808804186897819E-002   0.0000000000000000     
  -3.3543454917725868E-002   2.3210891580653339E-002   0.0000000000000000     
  -3.7448959152520445E-002   2.6817793297043917E-002   0.0000000000000000     
  -2.4626959350920703E-002   2.2824550610634670E-002   0.0000000000000000     
  -2.7531661152581325E-002   2.6673290274914416E-002   0.0000000000000000     
  -3.0361912803421182E-002   3.0737891481124539E-002   0.0000000000000000     
  -3.3117714303440265E-002   3.5018354229265032E-002   0.0000000000000000     
  -3.5799065652638573E-002   3.9514678519335905E-002   0.0000000000000000     
  -2.7487227066093366E-002   2.3729559581458892E-002   0.0000000000000000     
  -3.0623907637287194E-002   2.7547513546467013E-002   0.0000000000000000     
  -3.3683458549992600E-002   3.1586576536264274E-002   0.0000000000000000     
  -3.6665879804209565E-002   3.5846748550850668E-002   0.0000000000000000     
  -3.9571171399938092E-002   4.0328029590226203E-002   0.0000000000000000     
  -3.0577649604750880E-002   2.4696769686135173E-002   0.0000000000000000     
  -3.3942421112068216E-002   2.8497354828881872E-002   0.0000000000000000     
  -3.7226143186631311E-002   3.2517084317564338E-002   0.0000000000000000     
  -4.0428815828440184E-002   3.6755958152182577E-002   0.0000000000000000     
  -4.3550439037494816E-002   4.1213976332736602E-002   0.0000000000000000     
  -3.3898226966893243E-002   2.5726180924663514E-002   0.0000000000000000     
  -3.7487201576924381E-002   2.9522814122158986E-002   0.0000000000000000     
  -4.0989966713337350E-002   3.3529414825024743E-002   0.0000000000000000     
  -4.4406522376132122E-002   3.7745983033260773E-002   0.0000000000000000     
  -4.7736868565308704E-002   4.2172518746867088E-002   0.0000000000000000     
  -3.7448959152520445E-002   2.6817793297043917E-002   0.0000000000000000     
  -4.1258249031855702E-002   3.0623891426298358E-002   0.0000000000000000     
  -4.4974929130110676E-002   3.4623568058645471E-002   0.0000000000000000     
  -4.8598999447285379E-002   3.8816823194085241E-002   0.0000000000000000     
  -5.2130459983379791E-002   4.3203656832617697E-002   0.0000000000000000     
  -3.5799065652638573E-002   3.9514678519335905E-002   0.0000000000000000     
  -3.8405438686693230E-002   4.4218226589637935E-002   0.0000000000000000     
  -4.0936305241281362E-002   4.9120360678471885E-002   0.0000000000000000     
  -4.3391665316402962E-002   5.4221080785837747E-002   0.0000000000000000     
  -4.5771518912058023E-002   5.9520386911735529E-002   0.0000000000000000     
  -3.9571171399938092E-002   4.0328029590226203E-002   0.0000000000000000     
  -4.2395790775771866E-002   4.5017284727422495E-002   0.0000000000000000     
  -4.5136195370304520E-002   4.9901379035471163E-002   0.0000000000000000     
  -4.7792385183536075E-002   5.4980312514372222E-002   0.0000000000000000     
  -5.0364360215466530E-002   6.0254085164125656E-002   0.0000000000000000     
  -4.3550439037494816E-002   4.1213976332736602E-002   0.0000000000000000     
  -4.6586503151034117E-002   4.5879037356840374E-002   0.0000000000000000     
  -4.9532498506297054E-002   5.0739039722107908E-002   0.0000000000000000     
  -5.2388425103283585E-002   5.5793983428539209E-002   0.0000000000000000     
  -5.5154282941993746E-002   6.1043868476134258E-002   0.0000000000000000     
  -4.7736868565308704E-002   4.2172518746867088E-002   0.0000000000000000     
  -5.0977575812480011E-002   4.6803484477891587E-002   0.0000000000000000     
  -5.4125214649258936E-002   5.1633342738382125E-002   0.0000000000000000     
  -5.7179785075645487E-002   5.6662093528338717E-002   0.0000000000000000     
  -6.0141287091639663E-002   6.1889736847761341E-002   0.0000000000000000     
  -5.2130459983379791E-002   4.3203656832617697E-002   0.0000000000000000     
  -5.5569008760109527E-002   4.7790626090576112E-002   0.0000000000000000     
  -5.8914343799190194E-002   5.2584288084293780E-002   0.0000000000000000     
  -6.2166465100621786E-002   5.7584642813770716E-002   0.0000000000000000     
  -6.5325372664404302E-002   6.2791690279006912E-002   0.0000000000000000     
  -4.5771518912058023E-002   5.9520386911735529E-002   0.0000000000000000     
  -4.8078722068765241E-002   6.5009059233381822E-002   0.0000000000000000     
  -5.0316130827043296E-002   7.0677877927993238E-002   0.0000000000000000     
  -5.2483745186892188E-002   7.6526842995569749E-002   0.0000000000000000     
  -5.4581565148311931E-002   8.2555954436111370E-002   0.0000000000000000     
  -5.0364360215466530E-002   6.0254085164125656E-002   0.0000000000000000     
  -5.2856963298878908E-002   6.5716243811292541E-002   0.0000000000000000     
  -5.5275037266556255E-002   7.1360335282433934E-002   0.0000000000000000     
  -5.7618582118498574E-002   7.7186359577549851E-002   0.0000000000000000     
  -5.9887597854705855E-002   8.3194316696640250E-002   0.0000000000000000     
  -5.5154282941993746E-002   6.1043868476134258E-002   0.0000000000000000     
  -5.7834928235886228E-002   6.6482104361251557E-002   0.0000000000000000     
  -6.0435217198419759E-002   7.2102100580249517E-002   0.0000000000000000     
  -6.2955149829594353E-002   7.7903857133128238E-002   0.0000000000000000     
  -6.5394726129409997E-002   8.3887374019887648E-002   0.0000000000000000     
  -6.0141287091639663E-002   6.1889736847761341E-002   0.0000000000000000     
  -6.3012616879787209E-002   6.7306640883258842E-002   0.0000000000000000     
  -6.5796670622633835E-002   7.2903173821440057E-002   0.0000000000000000     
  -6.8493448320179562E-002   7.8679335662304922E-002   0.0000000000000000     
  -7.1102949972424390E-002   8.4635126405853481E-002   0.0000000000000000     
  -6.5325372664404302E-002   6.2791690279006912E-002   0.0000000000000000     
  -6.8390029230581822E-002   6.8189853377314452E-002   0.0000000000000000     
  -7.1359397539198441E-002   7.3763555006005455E-002   0.0000000000000000     
  -7.4233477590254157E-002   7.9512795165079905E-002   0.0000000000000000     
  -7.7012269383748971E-002   8.5437573854537804E-002   0.0000000000000000     
  -5.4581565148311931E-002   8.2555954436111370E-002   0.0000000000000000     
  -5.6603867022358444E-002   8.8752756725547013E-002   0.0000000000000000     
  -5.8544927120087707E-002   9.5104794339805593E-002   0.0000000000000000     
  -6.0404745441499694E-002  0.10161206727888711        0.0000000000000000     
  -6.2183321986594417E-002  0.10827457554279155        0.0000000000000000     
  -5.9887597854705855E-002   8.3194316696640250E-002   0.0000000000000000     
  -6.2075941432042238E-002   8.9370642487983876E-002   0.0000000000000000     
  -6.4177469807371823E-002   9.5701772799859364E-002   0.0000000000000000     
  -6.6192182980694625E-002  0.10218770763226671        0.0000000000000000     
  -6.8120080952010650E-002  0.10882844698520594        0.0000000000000000     
  -6.5394726129409997E-002   8.3887374019887648E-002   0.0000000000000000     
  -6.7747831808896375E-002   9.0038902341455701E-002   0.0000000000000000     
  -7.0008352579083194E-002   9.6344693198760351E-002   0.0000000000000000     
  -7.2176288439970412E-002  0.10280474659180162        0.0000000000000000     
  -7.4251639391558086E-002  0.10941906252057948        0.0000000000000000     
  -7.1102949972424390E-002   8.4635126405853481E-002   0.0000000000000000     
  -7.3619538152920938E-002   9.0757536285962462E-002   0.0000000000000000     
  -7.6037575435221827E-002   9.7033555536508553E-002   0.0000000000000000     
  -7.8357061819327112E-002  0.10346318415749182        0.0000000000000000     
  -8.0577997305236723E-002  0.11004642214891219        0.0000000000000000     
  -7.7012269383748971E-002   8.5437573854537804E-002   0.0000000000000000     
  -7.9691060464115851E-002   9.1526544321504172E-002   0.0000000000000000     
  -8.2265138375787722E-002   9.7768359813104000E-002   0.0000000000000000     
  -8.4734503118764626E-002  0.10416302032933732        0.0000000000000000     
  -8.7099154693046521E-002  0.11071052587020408        0.0000000000000000     
  -6.2183321986594417E-002  0.10827457554279155        0.0000000000000000     
  -6.3889059173645679E-002  0.11508492698709893        0.0000000000000000     
  -6.5530359420927192E-002  0.12203572946738929        0.0000000000000000     
  -6.7107222728439025E-002  0.12912698298366260        0.0000000000000000     
  -6.8619649096181151E-002  0.13635868753591884        0.0000000000000000     
  -6.8120080952010650E-002  0.10882844698520594        0.0000000000000000     
  -6.9969274423251016E-002  0.11561492166831895        0.0000000000000000     
  -7.1747874096346767E-002  0.12253806249124768        0.0000000000000000     
  -7.3455879971297947E-002  0.12959786945399213        0.0000000000000000     
  -7.5093292048104554E-002  0.13679434255655226        0.0000000000000000     
  -7.4251639391558086E-002  0.10941906252057948        0.0000000000000000     
  -7.6244215071231927E-002  0.11617974239961512        0.0000000000000000     
  -7.8163825116377775E-002  0.12307888764342967        0.0000000000000000     
  -8.0010469526995545E-002  0.13011649825202318        0.0000000000000000     
  -8.1784148303085294E-002  0.13729257422539559        0.0000000000000000     
  -8.0577997305236723E-002  0.11004642214891219        0.0000000000000000     
  -8.2713881117588484E-002  0.11677938918098746        0.0000000000000000     
  -8.4778212481020160E-002  0.12365820492393528        0.0000000000000000     
  -8.6770991395531821E-002  0.13068286937775569        0.0000000000000000     
  -8.8692217861123371E-002  0.13785338254244875        0.0000000000000000     
  -8.7099154693046521E-002  0.11071052587020408        0.0000000000000000     
  -8.9378272562320601E-002  0.11741386201243595        0.0000000000000000     
  -9.1591036190274019E-002  0.12427601433276451        0.0000000000000000     
  -9.3737445576906719E-002  0.13129698283118979        0.0000000000000000     
  -9.5817500722218785E-002  0.13847676750771179        0.0000000000000000     
  -6.8619649096181151E-002  0.13635868753591884        0.0000000000000000     
  -7.0062667178971277E-002  0.14370911914381967        0.0000000000000000     
  -7.1431305631627140E-002  0.15115655382702675        0.0000000000000000     
  -7.2725564454148725E-002  0.15870099158553999        0.0000000000000000     
  -7.3945443646536047E-002  0.16634243241935953        0.0000000000000000     
  -7.5093292048104554E-002  0.13679434255655226        0.0000000000000000     
  -7.6659326963368857E-002  0.14411435718793342        0.0000000000000000     
  -7.8153201353693122E-002  0.15154478873714086        0.0000000000000000     
  -7.9574915219077419E-002  0.15908563720417462        0.0000000000000000     
  -8.0924468559521665E-002  0.16673690258903459        0.0000000000000000     
  -8.1784148303085294E-002  0.13729257422539559        0.0000000000000000     
  -8.3477964346649489E-002  0.14459111390796806        0.0000000000000000     
  -8.5085020559690736E-002  0.15199611564416177        0.0000000000000000     
  -8.6605316942208896E-002  0.15950757943397664        0.0000000000000000     
  -8.8038853494204081E-002  0.16712550527741279        0.0000000000000000     
  -8.8692217861123371E-002  0.13785338254244875        0.0000000000000000     
  -9.0518579328813270E-002  0.14513938930392359        0.0000000000000000     
  -9.2226763249619856E-002  0.15251053454808944        0.0000000000000000     
  -9.3816769623543197E-002  0.15996681827494630        0.0000000000000000     
  -9.5288598450583253E-002  0.16750824048449414        0.0000000000000000     
  -9.5817500722218785E-002  0.13847676750771179        0.0000000000000000     
  -9.7781171909860076E-002  0.14575918337579996        0.0000000000000000     
  -9.9578429423480608E-002  0.15308804544892385        0.0000000000000000     
 -0.10120927326308030       0.16046335372708342        0.0000000000000000     
 -0.10267370342865920       0.16788510821027866        0.0000000000000000     
 </DataArray>
 <DataArray  type="Float64" Name="stress" NumberOfComponents="3" format="ascii">
   13417094669.916397        4025128400.9749188        2894388625.0693536     
   11766494365.573343        1889964728.3410132        1715883733.3404372     
   10313310518.016197        412855911.66013193        810561683.54908442     
   9057543127.2449570       -406198049.06772852        178422475.69529745     
   7999192193.2596245       -567197153.84256363       -180533890.22092649     
   10540085531.591600        3162025659.4774804        2225927607.8660536     
   9667534074.4669971        1589240785.1956494        1446708329.5850351     
   8943716229.3356457        512234617.55798244        863025599.91478181     
   8368631996.1975403       -68992843.435519218        474879418.85529405     
   7942281375.0526857       -154441597.78485966        282269786.40657109     
   8337898926.5719185        2501369677.9715757        1712389587.6327810     
   8021549764.3034840        1424409636.3331354        1275659270.5415595     
   7805251369.2356405        680952152.02999973        956819208.73430431     
   7689003741.3683882        270997225.06216764        755869402.21101618     
   7672806880.7017279        194544855.42963982        672809850.97169280     
   6810534854.8573503        2043160456.4572051        1353774564.3695357     
   6828541435.0828009        1395471281.7534699        1202736556.2100108     
   6897915937.7161846        919008515.07618070        1091942510.0076532     
   7018658362.7575006        613772156.42533422        1021392425.7624619     
   7190768710.2067518        479762205.80093360        991086303.47443843     
   5957993316.4478951        1787397994.9343686        1150082538.0763178     
   6088509086.8049469        1502425721.4566541        1227940186.5903883     
   6221709934.7772751        1226403706.6965251        1268395503.7348270     
   6357595860.3648777        959331950.65398109        1271448489.5096335     
   6496166863.5677557        701210453.32902169        1237099143.9148076     
   7999192193.2596245       -567197153.84256363       -180533890.22092649     
   7918030266.8957558       -198895757.57579994       -78044068.636529878     
   7795151091.7164154        30348142.639399052       -8438055.4971997123     
   7630554667.7216034        120534546.80302382        28284149.197058234     
   7424240994.9113255        71663454.915088654        32122545.446249731     
   7942281375.0526857       -154441597.78485966        282269786.40657109     
   7740023521.1215801        17216812.658726215        281294526.16330928     
   7514227220.8865480        110413735.42255068        265431511.42644015     
   7264892474.3475838        125149170.50660467        234680742.19595987     
   6992019281.5046940        61423117.910902023        189042218.47187334     
   7672806880.7017279        194544855.42963982        672809850.97169280     
   7400870396.2075615        184985469.15130091        589578111.83090138     
   7123574267.9210062        157560603.56499958        509454672.14796436     
   6840918495.8420649        112270258.67073655        432439531.92287809     
   6552903079.9707308        49114434.468511105        358532691.15564489     
   7190768710.2067518        479762205.80093360        991086303.47443843     
   6900570892.1536980        304410211.90192127        846806688.36625075     
   6623192232.8197937        171788747.06674910        723631426.66737664     
   6358632732.2050419        81897811.295416355        621560518.37781286     
   6106892390.3094463        34737404.587924957        540593963.49756420     
   6496166863.5677557        701210453.32902169        1237099143.9148076     
   6239125008.9599857        375491040.91058612        1052980255.7693536     
   6013081115.5829086        153098165.92779541        907961774.98467255     
   5818035183.4365263        34031828.380645752        802043701.56076539     
   5653987212.5208340        18292028.269142389        735226035.49763036     
   7424240994.9113255        71663454.915088654        32122545.446249731     
   7218607323.5556498       -21079517.425693512        13813979.663976137     
   7025629880.6489153       -71635061.603324890        689739.38297587016     
   6845308666.1911240       -80003177.617817402       -7250175.3967611557     
   6677643680.1822863       -46183865.469138622       -10005764.675225813     
   6992019281.5046940        61423117.910902023        189042218.47187334     
   6808381996.4336643        1039465.3206009865        179965285.09064648     
   6632835879.2097607       -32373627.779286861        175156788.02315503     
   6465380929.8329773       -38816161.388762951        174616727.26939413     
   6306017148.3033266       -18288135.507816315        178345102.82937264     
   6552903079.9707308        49114434.468511105        358532691.15564489     
   6388645354.9342556        20305053.753663301        353361486.14000219     
   6227913737.1430836        3249363.8564939499        351542828.25056052     
   6070708226.5972185       -2052635.2229921818        353076717.48732173     
   5917028823.2966509        4399056.5151908398        357963153.85028607     
   6106892390.3094463        34737404.587924957        540593963.49756420     
   5959397399.0574303        36717247.873505116        534002582.81204796     
   5810863454.4488945        35233913.304024935        529847860.06520307     
   5661290556.4838409        30287400.879483461        528129795.25702381     
   5510678705.1622725        21877710.599889040        528848388.38751358     
   5653987212.5208340        18292028.269142389        735226035.49763036     
   5520638128.8031797        50276047.680117846        721888575.10678637     
   5381685031.1271877        63580020.563298464        710071883.46707571     
   5237127919.4928551        58203946.918683529        699775960.57849824     
   5086966793.9001837        34147826.746275425        691000806.44105792     
   6677643680.1822863       -46183865.469138622       -10005764.675225813     
   6511954814.2472515       -1912164.1502907276       -958127.88083524327     
   6340110524.1367092        21841456.583529711        7142922.9186414490     
   6162110809.8506565        25076996.732306242        14297387.723211631     
   5977955671.3890905        7794456.2960553169        20505266.532878824     
   6306017148.3033266       -18288135.507816315        178345102.82937264     
   6134367786.3427887        5185151.4172337055        176609864.26692033     
   5958999301.7043896        16261362.749400377        176035848.84755626     
   5779911694.3881264        14940498.488696337        176623056.57128015     
   5597104964.3939934        1222558.6350839138        178371487.43809482     
   5917028823.2966509        4399056.5151908398        357963153.85028607     
   5745441277.1334591        8880622.5933034420        348287391.67824882     
   5572570909.7900476        9086118.0706739426        341880661.78729552     
   5398417721.2664165        5015542.9473149776        338742964.17742777     
   5222981711.5625639       -3331102.7767786980        338874298.84864157     
   5510678705.1622725        21877710.599889040        528848388.38751358     
   5345175286.6192636        9174249.3779008389        514074454.35314524     
   5180825348.3936796        315722.54733181000        504677361.73785639     
   5017628890.4855213       -4697869.8918237686        500657110.54164344     
   4855585912.8947868       -5866527.9395565987        502013700.76451272     
   5086966793.9001837        34147826.746275425        691000806.44105792     
   4933569814.8002005        6066031.7710461617        673971052.29161108     
   4783762617.5152912       -10049823.820609570        664425948.69923782     
   4637545202.0454502       -14199740.028705597        662365495.66393888     
   4494917568.3906784       -6383716.8532290459        667789693.18571126     
   5977955671.3890905        7794456.2960553169        20505266.532878824     
   5787950333.5586596       -15711821.510708809        6393717.3609811375     
   5601154039.0950451       -28521288.094749689       -1397737.2191607081     
   5417566787.9982405       -30633943.456095219       -2869097.2075681719     
   5237188580.2682610       -22049787.594686985        1979637.3957821249     
   5597104964.3939934        1222558.6350839138        178371487.43809482     
   5425644476.1294060       -11745712.440652609        169231745.82659838     
   5256153086.0980587       -18150322.738884687        165605330.81298754     
   5088630794.2999697       -17991272.259610176        167492242.39727551     
   4923077600.7351322       -11268561.002830029        174892480.57944846     
   5222981711.5625639       -3331102.7767786980        338874298.84864157     
   5067761021.4527931       -6452882.5448019505        333259762.14170814     
   4913269484.4427166       -7144151.9805197716        332351784.03881884     
   4759507100.5323238       -5404911.0839474201        336150364.53995496     
   4606473869.7216158       -1235159.8550953865        344655503.64514238     
   4855585912.8947868       -5866527.9395565987        502013700.76451272     
   4714299969.5288353        166668.17685079575        498477766.30632550     
   4572503234.1290064        4497224.1803386211        498841622.45831931     
   4430195706.6952991        7125140.0708997250        503105269.22049576     
   4287377387.2277164        8050415.8485338688        511268706.59286195     
   4494917568.3906784       -6383716.8532290459        667789693.18571126     
   4365261320.3575287        8112939.7242970467        664885758.32044494     
   4233854335.1569338        16773805.743683338        665074846.07149959     
   4100696612.7889037        19598881.204939842        668356956.43889034     
   3965788153.2534280        16588166.108050346        674732089.42260659     
   5237188580.2682610       -22049787.594686985        1979637.3957821249     
   5038788863.8838053       -13217896.580626726       -4458325.3741971627     
   4840908140.0110197       -2656030.5276858807       -6273215.2076664465     
   4643546408.6498909        9635810.5641171932       -3465032.1046314919     
   4446703669.8004179        23657626.694782734        3966223.9349019374     
   4923077600.7351322       -11268561.002830029        174892480.57944846     
   4734944565.2524939       -7652931.3214163780        168074021.58194104     
   4547260148.6794243       -2541905.2747523785        165733689.11070457     
   4360024351.0159521        4064517.1372199059        167871483.16573423     
   4173237172.2620592        12166335.914474964        174487403.74703035     
   4606473869.7216158       -1235159.8550953865        344655503.64514238     
   4428193382.5400972       -2960031.2865672112        337374445.88435221     
   4250291140.6660905       -3424085.0263340473        334426568.23959488     
   4072767144.0995922       -2627321.0744037628        335811870.71086264     
   3895621392.8406024       -569739.43077540398        341530353.29816908     
   4287377387.2277164        8050415.8485338688        511268706.59286195     
   4118535315.7466459        860803.52398657799        503442947.53303534     
   3950001115.9710102       -5302569.7824425697        499805422.17899883     
   3781774787.9008083       -10439704.070767403        500356130.53076184     
   3613856331.5360394       -14550599.340964556        505095072.58831716     
   3965788153.2534280        16588166.108050346        674732089.42260659     
   3805970364.8721228        3809573.1102156639        666279526.52798891     
   3646390074.5941806       -8177359.5430836678        661870250.92892873     
   3487047282.4195991       -19372631.851840973        661504262.62542117     
   3327941988.3483777       -29776243.816069841        665181561.61747622     
   4446703669.8004179        23657626.694782734        3966223.9349019374     
   4326065917.2448206        46198930.638302088        15500372.167208932     
   4195452903.1169014        35489362.674092054        21798297.500386514     
   4054864627.4166880       -8471077.1977748871        22859999.934448779     
   3904301090.1441479       -85682388.977387905        18685479.469389316     
   4173237172.2620592        12166335.914474964        174487403.74703035     
   4040417715.1424766        27370486.110021353        176390874.07483536     
   3901157561.0438771        21105646.375542164        175853214.65592057     
   3755456709.9662561       -6628183.2890260220        172874425.49027571     
   3603315161.9096251       -55831002.883636475        167454506.57790717     
   3895621392.8406024       -569739.43077540398        341530353.29816908     
   3758606211.5924530        9693051.1474704742        337926804.41365165     
   3618684897.9585800        10268733.773288488        334677218.93480480     
   3475857451.9389729        1157308.4466738701        331781596.86163330     
   3330123873.5336499       -17641224.832334042        329239938.19412661     
   3613856331.5360394       -14550599.340964556        505095072.58831716     
   3480631406.5947447       -6833374.2494096756        500108163.18365395     
   3348034913.8610115        2978624.8673574924        498270310.33705056     
   3216066853.3348436        14885398.009343386        499581514.04852170     
   3084727225.0162468        28886945.176546812        504041774.31805503     
   3327941988.3483777       -29776243.816069841        665181561.61747622     
   3206493300.1493464       -22208790.080589890        662934950.38483202     
   3089207608.7511749       -764680.34225225449        666632488.86264944     
   2976084914.1538553        34556085.398932338        676274177.05093288     
   2867125216.3573985        83753507.142987370        691860014.94967532     
   3904301090.1441479       -85682388.977387905        18685479.469389316     
   3552629438.8561125       -192873715.81195569       -50172856.973137364     
   3230945633.1951394       -200105557.22300625       -77200793.920682535     
   2939249673.1612034       -107377913.21059275       -62398331.373210326     
   2677541558.7543068        85309216.225296497       -5765469.3307848033     
   3603315161.9096251       -55831002.883636475        167454506.57790717     
   3359076447.1238337       -113623755.54823279        130687178.23930606     
   3133831759.1734161       -108103085.42827332        123330499.82975379     
   2927581098.0583434       -39268992.523803473        145384471.34924778     
   2740324463.7786360        92878523.165173054        196849092.79779831     
   3330123873.5336499       -17641224.832334042        329239938.19412661     
   3157833096.4902792       -36680902.954892397        311737496.03581452     
   2993542527.4905844       -29053220.931874752        311225954.24062306     
   2837252166.5345573        5241821.2367074490        327705312.80852187     
   2688962013.6222019        66204223.550874114        361175571.73954195     
   3084727225.0162468        28886945.176546812        504041774.31805503     
   2948899386.9554543        37954841.968059897        492978096.41639888     
   2810077938.1466508        37044036.266193986        486485569.31191701     
   2668262878.5898366        26154528.070945024        484564193.00459534     
   2523454208.2849984        5286317.3823044300        487213967.49444544     
   2867125216.3573985        83753507.142987370        691860014.94967532     
   2732275318.5193567        110283479.22062385        674408979.38105214     
   2583437991.1416183        90188686.165935159        649109345.04364908     
   2420613234.2241764        23469127.978897691        615961111.93747056     
   2243801047.7670279       -89875195.340481997        574964280.06251597     
   5957993316.4478951        1787397994.9343686        1150082538.0763178     
   6088509086.8049469        1502425721.4566541        1227940186.5903883     
   6221709934.7772751        1226403706.6965251        1268395503.7348270     
   6357595860.3648777        959331950.65398109        1271448489.5096335     
   6496166863.5677557        701210453.32902169        1237099143.9148076     
   5434797488.9569426        1630439246.6870825        1033564195.0844170     
   5489973496.0973234        1372603039.7559702        1113908588.5385795     
   5547329944.2376995        1122034969.4915118        1167439480.1464877     
   5606866833.3780718        878735035.89370608        1194156869.9081421     
   5668584163.5184412        642703238.96255517        1194060757.8235426     
   4895470549.9978781        1468641164.9993634        936470221.72512257     
   4905560592.5598097        1247017164.2063196        1018712617.4015508     
   4917326439.5064583        1030979178.0289985        1084730340.7551033     
   4930768090.8378258        820527206.46739972        1134523391.7857795     
   4945885546.5539074        615661249.52152276        1168091770.4935808     
   4340012499.5707006        1302003749.8712101        858800617.99843466     
   4335270376.1924086        1125668094.8077025        942352273.17930281     
   4331699420.5835533        953236332.30898547        1020268085.5606730     
   4329299632.7441378        784708462.37506032        1092548055.1425459     
   4328071012.6741552        620084485.00592554        1159192181.9249206     
   3768423337.6754131        1130527001.3026240        800555383.90435302     
   3779102846.9951196        1008555831.5601189        884827555.87183511     
   3790448887.4689837        888806432.33147383        974052714.56319797     
   3802461459.0970054        771278803.61668825        1068230859.9784408     
   3815140561.8791862        655972945.41576254        1167361992.1175640     
   6496166863.5677557        701210453.32902169        1237099143.9148076     
   6239125008.9599857        375491040.91058612        1052980255.7693536     
   6013081115.5829086        153098165.92779541        907961774.98467255     
   5818035183.4365263        34031828.380645752        802043701.56076539     
   5653987212.5208340        18292028.269142389        735226035.49763036     
   5668584163.5184412        642703238.96255517        1194060757.8235426     
   5518736442.2105846        383174069.42621255        1073326189.7102396     
   5393063538.9110470        204227626.58426571        980673568.41715300     
   5291565453.6198254        105863910.43671155        916102893.94428086     
   5214242186.3369236        88082920.983553410        879614166.29162419     
   4945885546.5539074        615661249.52152276        1168091770.4935808     
   4871750642.7158012        412877928.11822510        1102781188.6529920     
   4814967413.6636343        267933522.66807055        1054534093.0920606     
   4775535859.3974133        180828033.17106462        1023350483.8107868     
   4753455979.9171381        151561459.62720323        1009230360.8091724     
   4328071012.6741552        620084485.00592554        1159192181.9249206     
   4298167610.4756308        464602616.98662090        1141345252.5976095     
   4278792739.8406744        344215854.17921221        1129543349.0093985     
   4269946400.7692871        258924196.58370209        1123786471.1602867     
   4271628593.2614703        208727644.20008707        1124074619.0502756     
   3815140561.8791862        655972945.41576254        1167361992.1175640     
   3797987345.4900794        538348136.03140271        1189018381.5440929     
   3784539517.4421659        433074621.11768758        1205701336.1691635     
   3774797077.7354493        340152400.67462683        1217410855.9927766     
   3768760026.3699241        259581474.70220959        1224146941.0149312     
   5653987212.5208340        18292028.269142389        735226035.49763036     
   5520638128.8031797        50276047.680117846        721888575.10678637     
   5381685031.1271877        63580020.563298464        710071883.46707571     
   5237127919.4928551        58203946.918683529        699775960.57849824     
   5086966793.9001837        34147826.746275425        691000806.44105792     
   5214242186.3369236        88082920.983553410        879614166.29162419     
   5077548976.5512581        85856848.123594999        855514692.96755040     
   4938680442.8302593        76379695.479197741        835216682.90254796     
   4797636585.1739283        59651463.050360680        818720136.09661615     
   4654417403.5822659        35672150.837080956        806025052.54975832     
   4753455979.9171381        151561459.62720323        1009230360.8091724     
   4619934914.0861340        117080175.50311136        978369012.91204250     
   4487667214.3428087        86776778.337937117        953589822.78192270     
   4356652880.6871595        60651268.131680489        934892790.41881120     
   4226891913.1191821        38703644.884336472        922277915.82271135     
   4271628593.2614703        208727644.20008707        1124074619.0502756     
   4147795941.4078131        143946029.81866837        1090451534.9402645     
   4028645345.6648397        94771269.139523268        1065191303.1052021     
   3914176806.0325470        61203362.162646294        1048293923.5450832     
   3804390322.5109344        43242308.888042688        1039759396.2599168     
   3768760026.3699241        259581474.70220959        1224146941.0149312     
   3661132058.5162926        166454411.07026494        1191762259.0522158     
   3561614836.7963490        100363167.88395047        1170021123.8723836     
   3470208361.2100935        61307745.143263817        1158923535.4754355     
   3386912631.7575264        49288142.848200798        1158469493.8613746     
   5086966793.9001837        34147826.746275425        691000806.44105792     
   4933569814.8002005        6066031.7710461617        673971052.29161108     
   4783762617.5152912       -10049823.820609570        664425948.69923782     
   4637545202.0454502       -14199740.028705597        662365495.66393888     
   4494917568.3906784       -6383716.8532290459        667789693.18571126     
   4654417403.5822659        35672150.837080956        806025052.54975832     
   4521214207.2918930        14913929.700132370        793636993.50993323     
   4390328947.3451653        1882163.0419960022        787607907.49621034     
   4261761623.7420812       -3423149.1373243332        787937794.50858331     
   4135512236.4826412       -1002006.8378324509        794626654.54706049     
   4226891913.1191821        38703644.884336472        922277915.82271135     
   4110666278.1213498        24304131.130541325        913047732.17584598     
   3995486733.9957380        13391586.950811625        909050844.02410614     
   3881353280.7423439        5966012.3451395035        910287251.36749470     
   3768265918.3611689        2027407.3135309219        916756954.20600808     
   3804390322.5109344        43242308.888042688        1039759396.2599168     
   3701926027.2885790        34236636.062286615        1032203268.2893468     
   3599235977.4670134        24478447.905836344        1028754758.2829298     
   3496320173.0462418        13967744.418696404        1029413866.2406669     
   3393178614.0262623        2704525.6008646488        1034180592.1625535     
   3386912631.7575264        49288142.848200798        1158469493.8613746     
   3294993454.7935743        44711444.495357990        1151103601.8504374     
   3201576677.7589908        35142745.907075405        1146719650.2726769     
   3106662300.6537728        20582047.083343387        1145317639.1280987     
   3010250323.4779224        1029348.0241714716        1146897568.4166992     
   4494917568.3906784       -6383716.8532290459        667789693.18571126     
   4365261320.3575287        8112939.7242970467        664885758.32044494     
   4233854335.1569338        16773805.743683338        665074846.07149959     
   4100696612.7889037        19598881.204939842        668356956.43889034     
   3965788153.2534280        16588166.108050346        674732089.42260659     
   4135512236.4826412       -1002006.8378324509        794626654.54706049     
   4012083989.5331674        4815822.7741935253        787889649.16039813     
   3888019352.5386510        8512352.2360708714        784853197.44457686     
   3763318325.4990883        10087581.547801256        785517299.39960420     
   3637980908.4144783        9541510.7093768120        789881955.02547657     
   3768265918.3611689        2027407.3135309219        916756954.20600808     
   3652801475.5082750       -312849.13607501984        907486949.94074690     
   3537814989.7327375       -1059915.3278439045        902525030.40084767     
   3423306461.0345511       -213791.26176095009        901871195.58631134     
   3309275889.4137201        2225523.0621662140        905525445.49713278     
   3393178614.0262623        2704525.6008646488        1034180592.1625535     
   3287413778.2828550       -7273076.0064985752        1023677660.6614929     
   3183241246.7391987       -11942996.948032975        1018090344.9403106     
   3080661019.3952937       -11305237.223729014        1017418644.9990053     
   2979673096.2511358       -5359796.8335913420        1021662560.8375823     
   3010250323.4779224        1029348.0241714716        1146897568.4166992     
   2915920897.8569045       -16064857.837085962        1136461781.3226361     
   2824298123.5580330       -24136892.624524832        1131549141.0629673     
   2735382000.5813131       -23186756.338125110        1132159647.6376925     
   2649172528.9267411       -13214448.977895737        1138293301.0468135     
   3965788153.2534280        16588166.108050346        674732089.42260659     
   3805970364.8721228        3809573.1102156639        666279526.52798891     
   3646390074.5941806       -8177359.5430836678        661870250.92892873     
   3487047282.4195991       -19372631.851840973        661504262.62542117     
   3327941988.3483777       -29776243.816069841        665181561.61747622     
   3637980908.4144783        9541510.7093768120        789881955.02547657     
   3490451870.3834152        1855261.2327239513        781534865.40354168     
   3343240963.7022538       -4770550.4109201431        777422217.17365623     
   3196348188.3710012       -10335924.221541524        777544010.33581340     
   3049773544.3896446       -14840860.199167848        781900244.89002776     
   3309275889.4137201        2225523.0621662140        905525445.49713278     
   3174581756.2943029       -204536.52488887310        897377901.26884592     
   3040286387.7713323       -1305380.7904546261        893655952.52910221     
   2906389783.8448071       -1077009.7345342636        894359599.27789640     
   2772891944.5147285        480576.64287602901        899488841.51523566     
   2979673096.2511358       -5359796.8335913420        1021662560.8375823     
   2858360022.6047759       -2369820.1626245975        1013808634.1239082     
   2737526346.8014078        2218149.3183164597        1010571456.9952688     
   2617172068.8410239        8404111.6092015505        1011951029.4516685     
   2497297188.7236342        16188066.710071445        1017947351.4930958     
   2649172528.9267411       -13214448.977895737        1138293301.0468135     
   2541786669.3148446       -4640589.6804883480        1130827063.9687252     
   2434960840.7924833        5800039.9153741598        1128168730.5721593     
   2328695043.3596511        18107439.809666753        1130318300.8571277     
   2222989277.0163531        32281610.002407432        1137275774.8236201     
   3327941988.3483777       -29776243.816069841        665181561.61747622     
   3206493300.1493464       -22208790.080589890        662934950.38483202     
   3089207608.7511749       -764680.34225225449        666632488.86264944     
   2976084914.1538553        34556085.398932338        676274177.05093288     
   2867125216.3573985        83753507.142987370        691860014.94967532     
   3049773544.3896446       -14840860.199167848        781900244.89002776     
   2943204048.4060664       -5175468.1040381193        782717561.54866016     
   2837746388.3297806        8196043.6820702553        788552121.34880161     
   2733400564.1607904        25273675.159167647        799403924.29043841     
   2630166575.8990993        46057426.327246308        815272970.37359452     
   2772891944.5147285        480576.64287602901        899488841.51523566     
   2678553336.2638574        11449415.752821565        899810398.35599554     
   2582275403.0267234        15953838.241886139        904222291.76930118     
   2484058144.8033237        13993844.110062122        912724521.75515044     
   2383901561.5936561        5569433.3573585749        925317088.31354523     
   2497297188.7236342        16188066.710071445        1017947351.4930958     
   2412541163.7227359        27665861.490015745        1014213460.8068322     
   2322794652.8420100        22508703.337202668        1013643000.1241441     
   2228057656.0814586        716592.25164067745        1016235969.4450499     
   2128330173.4410858       -37710471.766665459        1021992368.7695395     
   2222989277.0163531        32281610.002407432        1137275774.8236201     
   2145167530.7826881        43473869.107528806        1125926748.9011652     
   2059304137.7756369        27860638.968031883        1116814246.4133432     
   1965399097.9951971       -14558080.416095376        1109938267.3601458     
   1863452411.4413743       -83782289.044825196        1105298811.7415771     
   2867125216.3573985        83753507.142987370        691860014.94967532     
   2732275318.5193567        110283479.22062385        674408979.38105214     
   2583437991.1416183        90188686.165935159        649109345.04364908     
   2420613234.2241764        23469127.978897691        615961111.93747056     
   2243801047.7670279       -89875195.340481997        574964280.06251597     
   2630166575.8990993        46057426.327246308        815272970.37359452     
   2474154220.7429256        46334466.435075045        786697790.68350875     
   2313948798.2562361        32634615.441184998        755750765.35666513     
   2149550308.4390149        4957873.3455380201        722431894.39307654     
   1980958751.2912855       -36695759.851837635        686741177.79272258     
   2383901561.5936561        5569433.3573585749        925317088.31354523     
   2222374615.2108331       -15712098.677169204        897044520.41272283     
   2066448963.7066739       -18322647.782820106        871876860.00715601     
   1916124607.0811639       -2262213.9596220255        849814107.09685826     
   1771401545.3343217        32469202.792446971        830856261.68181205     
   2128330173.4410858       -37710471.766665459        1021992368.7695395     
   1976936501.9230912       -75856216.116106510        1005449168.5686865     
   1840938487.4929392       -62683103.506076336        997487628.99511409     
   1720336130.1506240        1808866.0634078979        998107750.04881454     
   1615129429.8961437        117619692.59236079        1007309531.7298023     
   1863452411.4413743       -83782289.044825196        1105298811.7415771     
   1737839880.8796878       -134097885.88175547        1111911735.1514056     
   1637417369.6150222       -100446751.72859061        1132583072.3205285     
   1562184877.6473801        17171113.414629281        1167312823.2489491     
   1512142404.9767556        218755709.54791814        1216100987.9366679     
   3768423337.6754131        1130527001.3026240        800555383.90435302     
   3779102846.9951196        1008555831.5601189        884827555.87183511     
   3790448887.4689837        888806432.33147383        974052714.56319797     
   3802461459.0970054        771278803.61668825        1068230859.9784408     
   3815140561.8791862        655972945.41576254        1167361992.1175640     
   3207893470.7315421        962368041.21946263        756621302.87316477     
   3235854388.0194159        868118504.81186783        853023770.21102035     
   3263573644.8541031        773063433.56031775        951369341.56937611     
   3291051241.2356043        677202827.46481180        1051658016.9482319     
   3318287177.1639185        580536686.52535069        1153889796.3475885     
   2685613305.1586146        805683991.54758430        721885158.33515549     
   2722255965.5478559        736576189.01485991        829358364.16814911     
   2757748773.8765664        663635546.28036463        935764791.31826246     
   2792091730.1447453        586862063.34409833        1041104439.7854962     
   2825284834.3523922        506255740.20606077        1145377309.5698493     
   2201582840.9566307        660474852.28698933        696346950.29032552     
   2238307579.5804386        613928884.16909480        813831337.74322188     
   2272974274.5363708        560522770.49161398        927239063.80985808     
   2305582925.8244262        500256511.25454652        1036570128.4902339     
   2336133533.4446068        433130106.45789319        1141824531.7843487     
   1755802078.1255915        526740623.43767744        680006678.73867476     
   1784009230.1171651        500176590.27457273        806442690.93623841     
   1809250146.8335178        463725106.19406629        925792159.04416156     
   1831524828.2746503        417386171.19615805        1038055083.0624440     
   1850833274.4405622        361159785.28084791        1143231462.9910860     
   3815140561.8791862        655972945.41576254        1167361992.1175640     
   3797987345.4900794        538348136.03140271        1189018381.5440929     
   3784539517.4421659        433074621.11768758        1205701336.1691635     
   3774797077.7354493        340152400.67462683        1217410855.9927766     
   3768760026.3699241        259581474.70220959        1224146941.0149312     
   3318287177.1639185        580536686.52535069        1153889796.3475885     
   3293734553.9572196        473503432.71545517        1182090153.9796848     
   3272832022.9861708        378637153.02439475        1207127889.8825223     
   3255579584.2507730        295937847.45217037        1229003004.0561011     
   3241977237.7510247        225405515.99877942        1247715496.5004225     
   2825284834.3523922        506255740.20606077        1145377309.5698493     
   2798506555.9629550        411366167.46108705        1180057123.2843797     
   2775323073.7036238        328459248.48313463        1213385128.3418500     
   2755734387.5743995        257534983.27220440        1245361324.7422607     
   2739740497.5752821        198593371.82829595        1275985712.4856107     
   2336133533.4446068        433130106.45789319        1141824531.7843487     
   2312303351.5072846        351936340.26829708        1182919289.4581780     
   2292012669.5945249        282540907.49390870        1224473051.5471470     
   2275261487.7063284        224943808.13473004        1266485818.0512531     
   2262049805.8426938        179145042.19075882        1308957588.9704988     
   1850833274.4405622        361159785.28084791        1143231462.9910860     
   1835124940.5902090        295213951.13708484        1190676652.5010796     
   1822900810.6588748        240882130.05671871        1240391659.4984112     
   1814160884.6465583        198164322.03974533        1292376483.9830794     
   1808905162.5532615        167060527.08616918        1346631125.9550855     
   3768760026.3699241        259581474.70220959        1224146941.0149312     
   3661132058.5162926        166454411.07026494        1191762259.0522158     
   3561614836.7963490        100363167.88395047        1170021123.8723836     
   3470208361.2100935        61307745.143263817        1158923535.4754355     
   3386912631.7575264        49288142.848200798        1158469493.8613746     
   3241977237.7510247        225405515.99877942        1247715496.5004225     
   3164378519.2396731        150785968.06805956        1231106851.9548314     
   3093093463.5209017        97211962.779276371        1222683118.0355194     
   3028122070.5947132        64683500.132434130        1222444294.7424877     
   2969464340.4611068        53200580.127530813        1230390382.0757341     
   2739740497.5752821        198593371.82829595        1275985712.4856107     
   2685146353.6730514        140373937.17885053        1273056508.1258540     
   2635068789.2222953        97209767.367656231        1275853578.2357717     
   2589507804.2230129        69100862.394707799        1284376922.8153636     
   2548463398.6752076        56047222.260011911        1298626541.8646293     
   2262049805.8426938        179145042.19075882        1308957588.9704988     
   2223435561.8164253        135218318.40264189        1317611227.5652857     
   2187540813.9005260        100356581.64908385        1329532504.4731405     
   2154365562.0949941        74559831.930087566        1344721419.6940653     
   2123909806.3998306        57828069.245649695        1363177973.2280569     
   1808905162.5532615        167060527.08616918        1346631125.9550855     
   1779246143.6697986        135319111.73943251        1364771010.2731252     
   1750509537.5555978        106652405.62356979        1383719896.7476268     
   1722695344.2106552        81060408.738568246        1403477785.3785915     
   1695803563.6349778        58543121.084447980        1424044676.1660204     
   3386912631.7575264        49288142.848200798        1158469493.8613746     
   3294993454.7935743        44711444.495357990        1151103601.8504374     
   3201576677.7589908        35142745.907075405        1146719650.2726769     
   3106662300.6537728        20582047.083343387        1145317639.1280987     
   3010250323.4779224        1029348.0241714716        1146897568.4166992     
   2969464340.4611068        53200580.127530813        1230390382.0757341     
   2884492462.5869374        42776000.662498593        1221032647.4511740     
   2799109725.1259270        30981889.241329432        1215386559.6422343     
   2713316128.0780759        17818245.864027381        1213452118.6489148     
   2627111671.4433851        3285070.5305949450        1215229324.4712172     
   2548463398.6752076        56047222.260011911        1298626541.8646293     
   2472523695.2692232        40400224.296308994        1288544828.5242050     
   2397259872.7601924        27006162.655782580        1282904468.3818429     
   2322671931.1481123        15865037.338430762        1281705461.4375422     
   2248759870.4329886        6976848.3442580700        1284947807.6913016     
   2123909806.3998306        57828069.245649695        1363177973.2280569     
   2059087152.8404365        37584115.396799445        1353640145.0695281     
   1996027120.6617868        23215566.150434375        1349273376.4915013     
   1934729709.8638837        14722421.506555080        1350077667.4939785     
   1875194920.4467268        12104681.465162039        1356053018.0769556     
   1695803563.6349778        58543121.084447980        1424044676.1660204     
   1644182835.3005757        34327673.963969469        1416318597.0871437     
   1595411468.8307121        19610099.725285769        1414493283.9712102     
   1549489464.2253892        14390398.368400335        1418568736.8182228     
   1506416821.4846034        18668569.893309116        1428544955.6281788     
   3010250323.4779224        1029348.0241714716        1146897568.4166992     
   2915920897.8569045       -16064857.837085962        1136461781.3226361     
   2824298123.5580330       -24136892.624524832        1131549141.0629673     
   2735382000.5813131       -23186756.338125110        1132159647.6376925     
   2649172528.9267411       -13214448.977895737        1138293301.0468135     
   2627111671.4433851        3285070.5305949450        1215229324.4712172     
   2548350288.1752343       -7062087.7670962811        1208724729.9351318     
   2471287519.4559798       -11747197.568462968        1207115394.7829580     
   2395923365.2856221       -10770258.873511434        1210401319.0146930     
   2322257825.6641603       -4131271.6822351217        1218582502.6303344     
   2248759870.4329886        6976848.3442580700        1284947807.6913016     
   2183772565.3734570        2838548.3668661118        1281198362.8110719     
   2119475838.0895681        1002174.3082859516        1281716289.8642642     
   2055869688.5813217        1467726.1685161591        1286501588.8508768     
   1992954116.8487217        4235203.9475595951        1295554259.7709150     
   1875194920.4467268        12104681.465162039        1356053018.0769556     
   1822187729.4515679        13637050.564794183        1353882679.9504516     
   1768863079.4587989        14111223.005726933        1355351826.3068805     
   1715220970.4684205        13527198.787961960        1360460457.1462452     
   1661261402.4804339        11884977.911502063        1369208572.4685452     
   1506416821.4846034        18668569.893309116        1428544955.6281788     
   1463595780.4095676        25333418.826686621        1426777681.3532698     
   1419449243.5636730        27579948.523864985        1428022004.1108088     
   1373977210.9469140        25408158.984828711        1432277923.9007988     
   1327179682.5592949        18818050.209592581        1439545440.7232363     
   2649172528.9267411       -13214448.977895737        1138293301.0468135     
   2541786669.3148446       -4640589.6804883480        1130827063.9687252     
   2434960840.7924833        5800039.9153741598        1128168730.5721593     
   2328695043.3596511        18107439.809666753        1130318300.8571277     
   2222989277.0163531        32281610.002407432        1137275774.8236201     
   2322257825.6641603       -4131271.6822351217        1218582502.6303344     
   2226426270.7071095       -968501.87110424042        1211096966.5200031     
   2130988576.2916389        3507136.4119582176        1208940166.3440905     
   2035944742.4177401        9295643.1669229269        1212112102.1025975     
   1941294769.0854115        16397018.393799186        1220612773.7955220     
   1992954116.8487217        4235203.9475595951        1295554259.7709150     
   1910164958.6976421        2433311.9177637100        1287855558.9890559     
   1827603490.5401783        1390386.5333575010        1286006426.3945074     
   1745269712.3763263        1106427.7943214178        1290006861.9872715     
   1663163624.2060921        1581435.7006757259        1299856865.7673433     
   1661261402.4804339        11884977.911502063        1369208572.4685452     
   1593002733.2864408        5564851.6861112118        1361102841.3758767     
   1524805583.5381012       -550209.72042828798        1359367510.7234070     
   1456669953.2354169       -6460206.3081187010        1364002580.5111432     
   1388595842.3783867       -12165138.076964319        1375008050.7390761     
   1327179682.5592949        18818050.209592581        1439545440.7232363     
   1274939594.4735005        8426117.4339305162        1430838813.6804700     
   1222594855.2854059       -2314652.3494020700        1429023419.3307943     
   1170145464.9950047       -13404259.140421927        1434099257.6742103     
   1117591423.6023023       -24842702.939114690        1446066328.7107198     
   2222989277.0163531        32281610.002407432        1137275774.8236201     
   2145167530.7826881        43473869.107528806        1125926748.9011652     
   2059304137.7756369        27860638.968031883        1116814246.4133432     
   1965399097.9951971       -14558080.416095376        1109938267.3601458     
   1863452411.4413743       -83782289.044825196        1105298811.7415771     
   1941294769.0854115        16397018.393799186        1220612773.7955220     
   1868407498.3827410        24136907.236603498        1203384415.6125443     
   1791242654.7167559        17618219.535037398        1188511985.2331598     
   1709800238.0874538       -3159044.7109164000        1175995482.6573682     
   1624080248.4948413       -38194885.501245975        1165834907.8851659     
   1663163624.2060921        1581435.7006757259        1299856865.7673433     
   1595551984.3743088        5971300.8831291795        1281140594.7689233     
   1527426845.3892868        8649502.2214593887        1264899655.9430621     
   1458788207.2510238        9616039.7156463861        1251134049.2897546     
   1389636069.9595230        8870913.3657077551        1239843774.8090065     
   1388595842.3783867       -12165138.076964319        1375008050.7390761     
   1326600988.7573903       -11022949.952887595        1359195286.3702984     
   1267856709.7932317        954487.02730906010        1345977258.5430505     
   1212363005.4859014        23767172.863606632        1335353967.2573147     
   1160119875.8354042        57415107.556013048        1327325412.5131056     
   1117591423.6023023       -24842702.939114690        1446066328.7107198     
   1061554511.5319898       -26845845.271452248        1437548490.4166775     
   1012532247.9285891       -5466826.0474182963        1431744793.0331211     
   970524632.79209256        39294354.732962370        1428655236.5600464     
   935531666.12250113        107437697.06969297        1428279820.9974599     
   1863452411.4413743       -83782289.044825196        1105298811.7415771     
   1737839880.8796878       -134097885.88175547        1111911735.1514056     
   1637417369.6150222       -100446751.72859061        1132583072.3205285     
   1562184877.6473801        17171113.414629281        1167312823.2489491     
   1512142404.9767556        218755709.54791814        1216100987.9366679     
   1624080248.4948413       -38194885.501245975        1165834907.8851659     
   1539391421.1215928       -58800813.953010917        1195046474.1080084     
   1468290428.4739113       -34113959.986214876        1234823320.9353099     
   1410777270.5517898        35865676.399111986        1285165448.3670826     
   1366851947.3552370        151138095.20300162        1346072856.4033175     
   1389636069.9595230        8870913.3657077551        1239843774.8090065     
   1335890565.3323281        14980539.166379333        1278118101.8448305     
   1284130710.8592458        27708998.814087808        1323464576.3302882     
   1234356506.5402725        47056292.308818281        1375883198.2653804     
   1186567952.3754041        73022419.650584102        1435373967.6500926     
   1160119875.8354042        57415107.556013048        1327325412.5131056     
   1127337313.5118899        87246173.476412654        1361126618.3618841     
   1084938216.7710285        85022124.672321647        1398506838.5054536     
   1032922585.6128192        50742961.143742919        1439466072.9438314     
   971290420.03726578       -15591317.109321654        1484004321.6770034     
   935531666.12250113        107437697.06969297        1428279820.9974599     
   913731665.66028261        157996088.97710180        1444072023.6591554     
   870712946.20926237        137825417.58850330        1459950107.4608140     
   806475507.76943457        46925682.903884679        1475914072.4024391     
   721019350.34080923       -114703115.07672286        1491963918.4840329     
   1755802078.1255915        526740623.43767744        680006678.73867476     
   1784009230.1171651        500176590.27457273        806442690.93623841     
   1809250146.8335178        463725106.19406629        925792159.04416156     
   1831524828.2746503        417386171.19615805        1038055083.0624440     
   1850833274.4405622        361159785.28084791        1143231462.9910860     
   1326072514.1317494        397821754.23952484        669733038.34731567     
   1339496347.2347581        375579270.10272264        791891474.34470093     
   1350695503.8811984        345921197.77735758        908767390.12676156     
   1359669984.0710697        308847537.26342946        1020360785.6934969     
   1366419787.8043721        264358288.56093797        1126671661.0449078     
   890195646.44135761        267058693.93240729        662394723.78336048     
   893990514.58241844        250684064.99989265        781140735.53566110     
   896302265.08556211        229365710.60765380        896408250.94695246     
   897130897.95078838        203103630.75569046        1008197270.0172346     
   896476413.17809725        171897825.44400269        1116507792.7465076     
   448171475.05441642        134451442.51632494        657991735.04680932     
   447491732.16014534        125490974.96608269        774190474.50911856     
   446070430.44660866        114058644.68495482        888714741.50473440     
   443907569.91380644        100154451.67294146        1001564536.0336567     
   441003150.56173807        83778395.930041760        1112739858.0958853     
  -2.9074327652382752E-002  -8.7222982957148257E-003   656524072.13766205     
  -3.2060892402468580E-002   1.2927959984583466E-003   771040691.26507366     
  -3.5661569279090310E-002   9.2609799751058944E-003   885686861.80010760     
  -3.9876419760085401E-002   1.5182027024059457E-002   1000462583.7427634     
  -4.4705282287415854E-002   1.9056193779547554E-002   1115367857.0930414     
   1850833274.4405622        361159785.28084791        1143231462.9910860     
   1835124940.5902090        295213951.13708484        1190676652.5010796     
   1822900810.6588748        240882130.05671871        1240391659.4984112     
   1814160884.6465583        198164322.03974533        1292376483.9830794     
   1808905162.5532615        167060527.08616918        1346631125.9550855     
   1366419787.8043721        264358288.56093797        1126671661.0449078     
   1360342146.9484279        216609995.81371582        1182072760.1468549     
   1356877659.0317192        177572212.86394426        1238412834.5118072     
   1356026324.0542452        147244939.71162200        1295691884.1397669     
   1357788142.0160072        125628176.35675198        1353909909.0307333     
   896476413.17809725        171897825.44400269        1116507792.7465076     
   896227058.96133113        141206352.18675199        1178848575.2973266     
   897719806.70401692        116321885.46100703        1240797490.8868206     
   900954656.40615416        97244425.266766697        1302354539.5149894     
   905931608.06774259        83973971.604030877        1363519721.1818347     
   441003150.56173807        83778395.930041760        1112739858.0958853     
   442779676.62891859        69003020.256193474        1181004097.9524951     
   445427253.67576760        57131147.847906291        1247545628.6234496     
   448945881.70228428        48162778.705178306        1312364450.1087484     
   453335560.70846808        42097912.828007698        1375460562.4083917     
  -4.4705282287415854E-002   1.9056193779547554E-002   1115367857.0930414     
  -4.8809903005822219E-002   2.2039613151902216E-002   1188539328.1123621     
  -5.3029664565229388E-002   2.4639706769876740E-002   1258657247.7216957     
  -5.7365125985043224E-002   2.6853808925843957E-002   1325721615.9210432     
  -6.1816531746896469E-002   2.8681429941679812E-002   1389732432.7104032     
   1808905162.5532615        167060527.08616918        1346631125.9550855     
   1779246143.6697986        135319111.73943251        1364771010.2731252     
   1750509537.5555978        106652405.62356979        1383719896.7476268     
   1722695344.2106552        81060408.738568246        1403477785.3785915     
   1695803563.6349778        58543121.084447980        1424044676.1660204     
   1357788142.0160072        125628176.35675198        1353909909.0307333     
   1333128430.3565416        101097480.59801340        1373014395.5647261     
   1309160528.2737746        78872816.761604190        1393491488.6711791     
   1285884435.7677071        58954184.847525716        1415341188.3500888     
   1263300152.8383393        41341584.855780303        1438563494.6014574     
   905931608.06774259        83973971.604030877        1363519721.1818347     
   887881501.96368909        67137084.932712823        1383319772.8737946     
   870292602.24377322        51837552.875186682        1405056035.5542071     
   853164908.90799451        38075375.431452096        1428728509.2230747     
   836498421.95635390        25850552.601509392        1454337193.8803942     
   453335560.70846808        42097912.828007698        1375460562.4083917     
   443505358.49124241        33437924.743534639        1395687142.2003279     
   433905759.46559310        25546613.964316383        1418413537.3967137     
   424536763.63151902        18423980.490349621        1443639747.9975495     
   415398370.98902124        12070024.321636409        1471365774.0028329     
  -6.1816531746896469E-002   2.8681429941679812E-002   1389732432.7104032     
  -6.0798161377179506E-002   3.0480746132228051E-002   1410116503.5443282     
  -6.0766707599867846E-002   2.8990340348092000E-002   1433563994.1986976     
  -6.1720700665730710E-002   2.4215805642764550E-002   1460074904.6735122     
  -6.3660020478527479E-002   1.6155460668876666E-002   1489649234.9687715     
   1695803563.6349778        58543121.084447980        1424044676.1660204     
   1644182835.3005757        34327673.963969469        1416318597.0871437     
   1595411468.8307121        19610099.725285769        1414493283.9712102     
   1549489464.2253892        14390398.368400335        1418568736.8182228     
   1506416821.4846034        18668569.893309116        1428544955.6281788     
   1263300152.8383393        41341584.855780303        1438563494.6014574     
   1228089799.9552708        24231557.524621844        1435332787.8366077     
   1195016468.4713469        14244934.857276976        1437184968.5815339     
   1164080158.3865678        11381716.853749990        1444120036.8362389     
   1135280869.7009337        15641903.514039397        1456137992.6007195     
   836498421.95635390        25850552.601509392        1454337193.8803942     
   815361648.94414008        15144906.385524780        1454770795.5532782     
   795649556.86567760        9188196.6153785884        1459469406.2827713     
   777362145.72096503        7980423.2910651267        1468433026.0688756     
   760499415.51000285        11521586.412586421        1481661654.9115875     
   415398370.98902124        12070024.321636409        1471365774.0028329     
   405998382.26718450        7067720.5466844141        1474632620.2371571     
   397310734.01370490        4439884.9995891452        1481346597.0749235     
   389335426.22857976        4186517.6803439111        1491507704.5161312     
   382072458.91181308        6307618.5889590532        1505115942.5607827     
  -6.3660020478527479E-002   1.6155460668876666E-002   1489649234.9687715     
  -7.5598364564725448E-002   8.0904605359466558E-003   1494918261.8882427     
  -8.4572253046853410E-002   9.9080199173356524E-003   1502816540.9579890     
  -9.0586329646216254E-002   2.1590404601508482E-002   1513344072.1780100     
  -9.3637094415229508E-002   4.3151883165627444E-002   1526500855.5483053     
   1506416821.4846034        18668569.893309116        1428544955.6281788     
   1463595780.4095676        25333418.826686621        1426777681.3532698     
   1419449243.5636730        27579948.523864985        1428022004.1108088     
   1373977210.9469140        25408158.984828711        1432277923.9007988     
   1327179682.5592949        18818050.209592581        1439545440.7232363     
   1135280869.7009337        15641903.514039397        1456137992.6007195     
   1100383518.8499382        19806069.206199288        1452066198.7213511     
   1064492046.1700097        20656495.468584239        1451655034.8836899     
   1027606451.6611468        18193182.301185548        1454904501.0877380     
   989726735.32334650        12416129.703999817        1461814597.3334956     
   760499415.51000285        11521586.412586421        1481661654.9115875     
   735380134.90950346        13741382.871471852        1475671944.3600068     
   709598106.42199683        13752019.707001507        1473991896.8593955     
   683153330.04748130        11553496.919167995        1476621512.4097507     
   656045805.78595829        7145814.5079751313        1483560791.0110724     
   382072458.91181308        6307618.5889590532        1505115942.5607827     
   368585628.58826405        7139359.8225055784        1497594918.2692389     
   354767424.31963235        6866521.2391101718        1495032590.0379224     
   340617846.10592097        5489102.8387827873        1497428957.8668330     
   326136893.94712853        3007104.6215180457        1504784021.7559690     
  -9.3637094415229508E-002   4.3151883165627444E-002   1526500855.5483053     
 -0.11378265545875503        5.9289638217311945E-002   1517835120.4490473     
 -0.13708125751737416        6.4918297386103427E-002   1514777114.4192739     
 -0.16353455906298148        6.0030077291834405E-002   1517326837.4589865     
 -0.19314225127667248        4.4628609416067222E-002   1525484289.5681860     
   1327179682.5592949        18818050.209592581        1439545440.7232363     
   1274939594.4735005        8426117.4339305162        1430838813.6804700     
   1222594855.2854059       -2314652.3494020700        1429023419.3307943     
   1170145464.9950047       -13404259.140421927        1434099257.6742103     
   1117591423.6023023       -24842702.939114690        1446066328.7107198     
   989726735.32334650        12416129.703999817        1461814597.3334956     
   955192200.52703047        6015839.4975854158        1453779366.5033169     
   920579177.40250266       -646078.46953403950        1451551411.0713584     
   885887665.94976199       -7569624.1973614097        1455130731.0376143     
   851117666.16880715       -14754797.685906172        1464517326.4020920     
   656045805.78595829        7145814.5079751313        1483560791.0110724     
   636119803.43662000        3808060.6180599332        1476227479.6299245     
   616141475.53315926        295888.21440491080        1473617486.3521206     
   596110822.07557702       -3390702.7029902339        1475730811.1776581     
   576027843.06387401       -7251712.1341191232        1482567454.1065400     
   326136893.94712853        3007104.6215180457        1504784021.7559690     
   317722403.20226836        1802780.7953512371        1498183153.0602925     
   309281749.67737478        511247.70240679383        1495221645.1730840     
   300814933.37245464       -867494.65729367733        1495899498.0943413     
   292321954.28750294       -2333446.2837650925        1500216711.8240693     
 -0.19314225127667248        4.4628609416067222E-002   1525484289.5681860     
 -0.17602435077300760        2.9458555558284881E-002   1519646386.7944181     
 -0.16484750835439368       -5.5160660837529144E-003   1516363887.5342438     
 -0.15961015705083376       -6.0288124080899314E-002   1515636791.7876616     
 -0.16030958611861043      -0.13485014387189137        1517465099.5546746     
   1117591423.6023023       -24842702.939114690        1446066328.7107198     
   1061554511.5319898       -26845845.271452248        1437548490.4166775     
   1012532247.9285891       -5466826.0474182963        1431744793.0331211     
   970524632.79209256        39294354.732962370        1428655236.5600464     
   935531666.12250113        107437697.06969297        1428279820.9974599     
   851117666.16880715       -14754797.685906172        1464517326.4020920     
   803483751.91308570       -17939023.514669001        1460798712.2913971     
   761110824.00900435       -3586628.1713015437        1461102359.4729266     
   723998882.45656526        28302388.344208539        1465428267.9466791     
   692147927.25576782        77728026.031857193        1473776437.7126484     
   576027843.06387401       -7251712.1341191232        1482567454.1065400     
   540534413.42770195       -10495775.417836219        1481602125.0447211     
   508548308.02790540       -2048757.9136320353        1485967177.6568635     
   480069526.86448693        18089340.378496170        1495662611.9429650     
   455098069.93744278        49918519.458542123        1510688427.9030216     
   292321954.28750294       -2333446.2837650925        1500216711.8240693     
   272706496.07584256       -4516100.9809411466        1499958728.6766460     
   254844699.98528972       -853215.27442270517        1506339247.5849271     
   238736566.01585385        8655210.8358173370        1519358268.5489001     
   224382094.16752583        24009177.349750400        1539015791.5685673     
 -0.16030958611861043      -0.13485014387189137        1517465099.5546746     
 -0.14249604243818351      -0.20399316393591430        1515868523.1871796     
 -0.11883923332580192      -0.25366071422825942        1522218569.2571163     
  -8.9334766690379194E-002 -0.28383399110896307        1536515237.7644856     
  -5.3983191543301189E-002 -0.29451898795232012        1558758528.7092843     
   935531666.12250113        107437697.06969297        1428279820.9974599     
   913731665.66028261        157996088.97710180        1444072023.6591554     
   870712946.20926237        137825417.58850330        1459950107.4608140     
   806475507.76943457        46925682.903884679        1475914072.4024391     
   721019350.34080923       -114703115.07672286        1491963918.4840329     
   692147927.25576782        77728026.031857193        1473776437.7126484     
   668365024.25299382        113416949.15564287        1470991895.2525752     
   628668082.00410950        96059074.792398602        1470027577.8790972     
   573057100.50911832        25654402.942128509        1470883485.5922136     
   501532079.76802605       -97797066.395146728        1473559618.3919303     
   455098069.93744278        49918519.458542123        1510688427.9030216     
   434287532.81305712        72224554.324386209        1495515933.3543189     
   402867636.18525749        59166057.512184516        1483898007.8388438     
   360838380.05404490        10743029.021945238        1475834651.3565896     
   308199764.41942495       -73044531.146329254        1471325863.9075751     
   224382094.16752583        24009177.349750400        1539015791.5685673     
   211499191.34047374        34418904.483333886        1517644137.9643786     
   193311608.75270480        27146365.747863397        1501561397.3400493     
   169819346.40422001        2191561.1433398351        1490767569.6955776     
   141022404.29501554       -40445509.330250919        1485262655.0309703     
  -5.3983191543301189E-002 -0.29451898795232012        1558758528.7092843     
 -0.16475268951297051      -0.36749804207085074        1537376509.0827603     
 -0.29354952534688850      -0.50056822240354348        1523017746.3827193     
 -0.44036802592740176      -0.69370784300065902        1515682240.6091723     
 -0.60520325015203813      -0.94690876019330783        1515369991.7621150     
  -2.9074327652382752E-002  -8.7222982957148257E-003   656524072.13766205     
  -3.2060892402468580E-002   1.2927959984583466E-003   771040691.26507366     
  -3.5661569279090310E-002   9.2609799751058944E-003   885686861.80010760     
  -3.9876419760085401E-002   1.5182027024059457E-002   1000462583.7427634     
  -4.4705282287415854E-002   1.9056193779547554E-002   1115367857.0930414     
  -448171475.11160696       -134451442.53348207        657991735.05555356     
  -447491732.22366601       -125490974.96478905        774190474.51731002     
  -446070430.51740599       -114058644.66836524        888714741.51246262     
  -443907569.99282670       -100154451.64421073        1001564536.0410119     
  -441003150.64992827       -83778395.892325595        1112739858.1029572     
  -890195646.49567366       -267058693.94870210        662394723.80011833     
  -893990514.64316499       -250684064.99923912        781140735.55164194     
  -896302265.15340376       -229365710.59226736        896408250.96233559     
  -897130898.02638984       -203103630.72778702        1008197270.0322005     
  -896476413.26212347       -171897825.40579802        1116507792.7612348     
  -1326072514.1812747       -397821754.25438237        669733038.37135673     
  -1339496347.2905576       -375579270.10205734        791891474.36806941     
  -1350695503.9436550       -345921197.76244563        908767390.14972699     
  -1359669984.1405659       -308847537.23554730        1020360785.7163290     
  -1366419787.8812914       -264358288.52136263        1126671661.0678754     
  -1755802078.1684093       -526740623.45052278        680006678.76926816     
  -1784009230.1658437       -500176590.27324355        806442690.96659243     
  -1809250146.8881590       -463725106.17889965        925792159.07463562     
  -1831524828.3353546       -417386171.16749144        1038055083.0933974     
  -1850833274.5074310       -361159785.23901904        1143231463.0228782     
  -4.4705282287415854E-002   1.9056193779547554E-002   1115367857.0930414     
  -4.8809903005822219E-002   2.2039613151902216E-002   1188539328.1123621     
  -5.3029664565229388E-002   2.4639706769876740E-002   1258657247.7216957     
  -5.7365125985043224E-002   2.6853808925843957E-002   1325721615.9210432     
  -6.1816531746896469E-002   2.8681429941679812E-002   1389732432.7104032     
  -441003150.64992827       -83778395.892325595        1112739858.1029572     
  -442779676.72510314       -69003020.211270034        1181004097.9601343     
  -445427253.78040558       -57131147.797306493        1247545628.6315346     
  -448945881.81583458       -48162778.650432184        1312364450.1171589     
  -453335560.83139122       -42097912.770649046        1375460562.4170065     
  -896476413.26212347       -171897825.40579802        1116507792.7612348     
  -896227059.05348277       -141206352.14020711        1178848575.3129215     
  -897719806.80498052       -116321885.40841246        1240797490.9030421     
  -900954656.51661670       -97244425.210411370        1302354539.5315969     
  -905931608.18839216       -83973971.546208650        1363519721.1985853     
  -1366419787.8812914       -264358288.52136263        1126671661.0678754     
  -1360342147.0339477       -216609995.76476902        1182072760.1707251     
  -1356877659.1267552       -177572212.80867869        1238412834.5362189     
  -1356026324.1597123       -147244939.65308642        1295691884.1643572     
  -1357788142.1328199       -125628176.29799652        1353909909.0551393     
  -1850833274.5074310       -361159785.23901904        1143231463.0228782     
  -1835124940.6664991       -295213951.08495700        1190676652.5335438     
  -1822900810.7457285       -240882129.99810243        1240391659.5310643     
  -1814160884.7451198       -198164321.97845280        1292376484.0154383     
  -1808905162.6646736       -167060527.02601129        1346631125.9866681     
  -6.1816531746896469E-002   2.8681429941679812E-002   1389732432.7104032     
  -6.0798161377179506E-002   3.0480746132228051E-002   1410116503.5443282     
  -6.0766707599867846E-002   2.8990340348092000E-002   1433563994.1986976     
  -6.1720700665730710E-002   2.4215805642764550E-002   1460074904.6735122     
  -6.3660020478527479E-002   1.6155460668876666E-002   1489649234.9687715     
  -453335560.83139122       -42097912.770649046        1375460562.4170065     
  -443505358.61290497       -33437924.683376476        1395687142.2072470     
  -433905759.58751428       -25546613.906422019        1418413537.4015241     
  -424536763.75522077       -18423980.439791635        1443639747.9998367     
  -415398371.11602229       -12070024.283478975        1471365774.0021870     
  -905931608.18839216       -83973971.546208650        1363519721.1985853     
  -887881502.08503270       -67137084.873238236        1383319772.8876784     
  -870292602.36688030       -51837552.817624837        1405056035.5644007     
  -853164909.03393328       -38075375.379364491        1428728509.2287500     
  -836498422.08619404       -25850552.558460355        1454337193.8807285     
  -1357788142.1328199       -125628176.29799652        1353909909.0551393     
  -1333128430.4771819       -101097480.53910697        1373014395.5856240     
  -1309160528.3988616       -78872816.704609871        1393491488.6873281     
  -1285884435.8978579       -58954184.794500053        1415341188.3602524     
  -1263300152.9741724       -41341584.808784187        1438563494.6043959     
  -1808905162.6646736       -167060527.02601129        1346631125.9866681     
  -1779246143.7893534       -135319111.68098336        1364771010.3010817     
  -1750509537.6834598       -106652405.56737876        1383719896.7703063     
  -1722695344.3469944       -81060408.685201645        1403477785.3943431     
  -1695803563.7799561       -58543121.034446359        1424044676.1731915     
  -6.3660020478527479E-002   1.6155460668876666E-002   1489649234.9687715     
  -7.5598364564725448E-002   8.0904605359466558E-003   1494918261.8882427     
  -8.4572253046853410E-002   9.9080199173356524E-003   1502816540.9579890     
  -9.0586329646216254E-002   2.1590404601508482E-002   1513344072.1780100     
  -9.3637094415229508E-002   4.3151883165627444E-002   1526500855.5483053     
  -415398371.11602229       -12070024.283478975        1471365774.0021870     
  -405998382.41684479       -7067720.5213532746        1474632620.2419090     
  -397310734.18094778       -4439884.9701639414        1481346597.0852482     
  -389335426.40833545       -4186517.6299232095        1491507704.5322056     
  -382072459.09900373       -6307618.5006184876        1505115942.5827780     
  -836498422.08619404       -25850552.558460355        1454337193.8807285     
  -815361649.09492064       -15144906.351843923        1454770795.5634158     
  -795649557.03317618       -9188196.5769898593        1459469406.3030624     
  -777362145.90096009       -7980423.2338978052        1468433026.0996668     
  -760499415.69827175       -11521586.322564244        1481661654.9532304     
  -1263300152.9741724       -41341584.808784187        1438563494.6043959     
  -1228089800.1098278       -24231557.483388305        1435332787.8527627     
  -1195016468.6412590       -14244934.810574710        1437184968.6114302     
  -1164080158.5684607       -11381716.790332735        1444120036.8803988     
  -1135280869.8914387       -15641903.422677159        1456137992.6596680     
  -1695803563.7799561       -58543121.034446359        1424044676.1731915     
  -1644182835.4615657       -34327673.915981472        1416318597.1099515     
  -1595411469.0051939       -19610099.670913100        1414493284.0103533     
  -1549489464.4108400       -14390398.299238145        1418568736.8743985     
  -1506416821.6785054       -18668569.800960183        1428544955.7020845     
  -9.3637094415229508E-002   4.3151883165627444E-002   1526500855.5483053     
 -0.11378265545875503        5.9289638217311945E-002   1517835120.4490473     
 -0.13708125751737416        6.4918297386103427E-002   1514777114.4192739     
 -0.16353455906298148        6.0030077291834405E-002   1517326837.4589865     
 -0.19314225127667248        4.4628609416067222E-002   1525484289.5681860     
  -382072459.09900373       -6307618.5006184876        1505115942.5827780     
  -368585628.81384051       -7139359.7073070854        1497594918.2848668     
  -354767424.58983415       -6866521.1178532094        1495032590.0498998     
  -340617846.42698616       -5489102.7322597802        1497428957.8778729     
  -326136894.32529932       -3007104.5505367965        1504784021.7687910     
  -760499415.69827175       -11521586.322564244        1481661654.9532304     
  -735380135.12649333       -13741382.757686883        1475671944.3889973     
  -709598106.67387712       -13752019.590017110        1473991896.8811615     
  -683153330.34042263       -11553496.819553494        1476621512.4297264     
  -656045806.12613189       -7145814.4463015497        1483560791.0346923     
  -1135280869.8914387       -15641903.422677159        1456137992.6596680     
  -1100383519.0517404       -19806069.091844320        1452066198.7614377     
  -1064492046.3892064       -20656495.351562560        1451655034.9130654     
  -1027606451.9038409       -18193182.201842606        1454904501.1145489     
  -989726735.59564090       -12416129.642669201        1461814597.3658903     
  -1506416821.6785054       -18668569.800960183        1428544955.7020845     
  -1463595780.5895801       -25333418.709777832        1426777681.4021883     
  -1419449243.7358253       -27579948.402499139        1428022004.1456068     
  -1373977211.1172392       -25408158.879115939        1432277923.9323382     
  -1327179682.7338271       -18818050.139643371        1439545440.7623844     
 -0.19314225127667248        4.4628609416067222E-002   1525484289.5681860     
 -0.17602435077300760        2.9458555558284881E-002   1519646386.7944181     
 -0.16484750835439368       -5.5160660837529144E-003   1516363887.5342438     
 -0.15961015705083376       -6.0288124080899314E-002   1515636791.7876616     
 -0.16030958611861043      -0.13485014387189137        1517465099.5546746     
  -326136894.32529932       -3007104.5505367965        1504784021.7687910     
  -317722403.55174279       -1802780.7577633411        1498183153.0694273     
  -309281750.00747895       -511247.72930136323        1495221645.1749761     
  -300814933.69251108        867494.53484354913        1495899498.0854332     
  -292321954.60683382        2333446.0346834213        1500216711.8008058     
  -656045806.12613189       -7145814.4463015497        1483560791.0346923     
  -636119803.76379788       -3808060.5958820581        1476227479.6491528     
  -616141475.85411096       -295888.25428682566        1473617486.3598418     
  -596110822.39707375        3390702.5784766972        1475730811.1667604     
  -576027843.39268255        7251711.9024196565        1482567454.0699098     
  -989726735.59564090       -12416129.642669201        1461814597.3658903     
  -955192200.81219041       -6015839.4848974347        1453779366.5335934     
  -920579177.70474410        646078.41952568293        1451551411.0888431     
  -885887666.27329922        7569624.0706126690        1455130731.0316417     
  -851117666.51785660        14754797.468358219        1464517326.3619883     
  -1327179682.7338271       -18818050.139643371        1439545440.7623844     
  -1274939594.6969240       -8426117.4248251319        1430838813.7227490     
  -1222594855.5593762        2314652.2921417952        1429023419.3619804     
  -1170145465.3211880        13404259.011243045        1434099257.6800778     
  -1117591423.9823546        24842702.732496381        1446066328.6770391     
 -0.16030958611861043      -0.13485014387189137        1517465099.5546746     
 -0.14249604243818351      -0.20399316393591430        1515868523.1871796     
 -0.11883923332580192      -0.25366071422825942        1522218569.2571163     
  -8.9334766690379194E-002 -0.28383399110896307        1536515237.7644856     
  -5.3983191543301189E-002 -0.29451898795232012        1558758528.7092843     
  -292321954.60683382        2333446.0346834213        1500216711.8008058     
  -272706496.35371232        4516100.6103233248        1499958728.6594510     
  -254844700.21706921        853214.79770021141        1506339247.5744140     
  -238736566.19691256       -8655211.4032102078        1519358268.5456948     
  -224382094.29324067       -24009177.992403440        1539015791.5732906     
  -576027843.39268255        7251711.9024196565        1482567454.0699098     
  -540534413.70743430        10495775.081901401        1481602125.0119793     
  -508548308.26099670        2048757.4653452337        1485967177.6292503     
  -480069527.05337244       -18089340.947257698        1495662611.9217231     
  -455098070.08456391       -49918520.155907631        1510688427.8893995     
  -851117666.51785660        14754797.468358219        1464517326.3619883     
  -803483752.20366776        17939023.210719436        1460798712.2447639     
  -761110824.25061667        3586627.7492858171        1461102359.4216261     
  -723998882.65871191       -28302388.915969044        1465428267.8925760     
  -692147927.42794800       -77728026.785023421        1473776437.6576142     
  -1117591423.9823546        24842702.732496381        1446066328.6770391     
  -1061554511.8424102        26845844.996784687        1437548490.3578026     
  -1012532248.1859357        5466825.6495033503        1431744792.9515395     
  -970524633.01292956       -39294355.309337258        1428655236.4582481     
  -935531666.32340336       -107437697.87977719        1428279820.8779273     
  -5.3983191543301189E-002 -0.29451898795232012        1558758528.7092843     
 -0.16475268951297051      -0.36749804207085074        1537376509.0827603     
 -0.29354952534688850      -0.50056822240354348        1523017746.3827193     
 -0.44036802592740176      -0.69370784300065902        1515682240.6091723     
 -0.60520325015203813      -0.94690876019330783        1515369991.7621150     
  -224382094.29324067       -24009177.992403440        1539015791.5732906     
  -211499191.69673344       -34418905.266687319        1517644137.9478414     
  -193311609.33074909       -27146366.642713137        1501561397.2941067     
  -169819347.19528350       -2191562.1204696521        1490767569.6120887     
  -141022405.29033732        40445508.300042957        1485262654.9017901     
  -455098070.08456391       -49918520.155907631        1510688427.8893995     
  -434287533.22298688       -72224555.164158419        1495515933.3504436     
  -402867636.80442846       -59166058.315805331        1483898007.8284287     
  -360838380.82888883       -10743029.610845074        1475834651.3233609     
  -308199765.29636490        73044530.950726599        1471325863.8352394     
  -692147927.42794800       -77728026.785023421        1473776437.6576142     
  -668365024.74351072       -113416950.05991064        1470991895.2905705     
  -628668082.71458638       -96059075.519839406        1470027577.9857001     
  -573057101.34118068       -25654403.164833069        1470883485.7429953     
  -501532080.62328422        97797067.005142719        1473559618.5624740     
  -935531666.32340336       -107437697.87977719        1428279820.8779273     
  -913731666.25830662       -157996089.95394444        1444072023.7682195     
  -870712947.06122196       -137825418.25481430        1459950107.7659097     
  -806475508.73215449       -46925682.782408476        1475914072.8709974     
  -721019351.27109790        114703116.46329054        1491963919.0834918     
  -1755802078.1684093       -526740623.45052278        680006678.76926816     
  -1784009230.1658437       -500176590.27324355        806442690.96659243     
  -1809250146.8881590       -463725106.17889965        925792159.07463562     
  -1831524828.3353546       -417386171.16749144        1038055083.0933974     
  -1850833274.5074310       -361159785.23901904        1143231463.0228782     
  -2201582840.9908404       -660474852.29725206        696346950.32700109     
  -2238307579.6197128       -613928884.16587758        813831337.78007793     
  -2272974274.5810661       -560522770.47610736        927239063.84730768     
  -2305582925.8749013       -500256511.22794187        1036570128.5286909     
  -2336133533.5012178       -433130106.42138124        1141824531.8242273     
  -2685613305.1823301       -805683991.55469894        721885158.37770379     
  -2722255965.5756841       -736576189.00914228        829358364.21099865     
  -2757748773.9091201       -663635546.26385903        935764791.36188126     
  -2792091730.1826386       -586862063.31884956        1041104439.8303516     
  -2825284834.3962393       -506255740.17411399        1145377309.6164095     
  -3207893470.7428780       -962368041.22286332        756621302.92137623     
  -3235854388.0337586       -868118504.80303788        853023770.25935495     
  -3263573644.8723221       -773063433.54215527        951369341.61835623     
  -3291051241.2585673       -677202827.44021463        1051658016.9983795     
  -3318287177.1924968       -580536686.49721766        1153889796.3994253     
  -3768423337.6724844       -1130527001.3017452        800555383.95801818     
  -3779102846.9939356       -1008555831.5475643        884827555.92514682     
  -3790448887.4706697       -888806432.31099486        974052714.61673200     
  -3802461459.1026874       -771278803.59203696        1068230860.0327740     
  -3815140561.8899884       -655972945.39069164        1167361992.1732733     
  -1850833274.5074310       -361159785.23901904        1143231463.0228782     
  -1835124940.6664991       -295213951.08495700        1190676652.5335438     
  -1822900810.7457285       -240882129.99810243        1240391659.5310643     
  -1814160884.7451198       -198164321.97845280        1292376484.0154383     
  -1808905162.6646736       -167060527.02601129        1346631125.9866681     
  -2336133533.5012178       -433130106.42138124        1141824531.8242273     
  -2312303351.5747800       -351936340.22432947        1182919289.4990001     
  -2292012669.6732244       -282540907.44355422        1224473051.5889251     
  -2275261487.7965517       -224943808.07905340        1266485818.0940020     
  -2262049805.9447618       -179145042.13083076        1308957589.0142310     
  -2825284834.3962393       -506255740.17411399        1145377309.6164095     
  -2798506556.0177302       -411366167.42410225        1180057123.3331146     
  -2775323073.7688255       -328459248.43943596        1213385128.3932698     
  -2755734387.6495256       -257534983.22011781        1245361324.7968748     
  -2739740497.6598287       -198593371.76614404        1275985712.5439289     
  -3318287177.1924968       -580536686.49721766        1153889796.3994253     
  -3293734553.9953527       -473503432.68427634        1182090154.0358887     
  -3272832023.0325336       -378637152.98575079        1207127889.9440985     
  -3255579584.3040400       -295937847.40164161        1229003004.1240568     
  -3241977237.8098717       -225405515.93194962        1247715496.5757620     
  -3815140561.8899884       -655972945.39069164        1167361992.1732733     
  -3797987345.5076461       -538348136.00485265        1189018381.6073198     
  -3784539517.4643478       -433074621.08249724        1205701336.2414117     
  -3774797077.7600970       -340152400.62363112        1217410856.0755484     
  -3768760026.3948908       -259581474.62824845        1224146941.1097302     
  -1808905162.6646736       -167060527.02601129        1346631125.9866681     
  -1779246143.7893534       -135319111.68098336        1364771010.3010817     
  -1750509537.6834598       -106652405.56737876        1383719896.7703063     
  -1722695344.3469944       -81060408.685201645        1403477785.3943431     
  -1695803563.7799561       -58543121.034446359        1424044676.1731915     
  -2262049805.9447618       -179145042.13083076        1308957589.0142310     
  -2223435561.9299273       -135218318.34095991        1317611227.6073225     
  -2187540814.0268698       -100356581.59034240        1329532504.5118036     
  -2154365562.2355866       -74559831.878973007        1344721419.7276735     
  -2123909806.5560782       -57828069.206857443        1363177973.2549324     
  -2739740497.6598287       -198593371.76614404        1275985712.5439289     
  -2685146353.7724013       -140373937.11150467        1273056508.1829593     
  -2635068789.3390999       -97209767.303945303        1275853578.2899561     
  -2589507804.3599215       -69100862.343468070        1284376922.8649201     
  -2548463398.8348651       -56047222.230067253        1298626541.9078488     
  -3241977237.8098717       -225405515.93194962        1247715496.5757620     
  -3164378519.3167729       -150785967.99261856        1231106852.0279913     
  -3093093463.6201487       -97211962.708197236        1222683118.1047649     
  -3028122070.7199965       -64683500.078683734        1222444294.8060815     
  -2969464340.6163154       -53200580.104078293        1230390382.1319437     
  -3768760026.3948908       -259581474.62824845        1224146941.1097302     
  -3661132058.5630441       -166454410.98430395        1191762259.1424186     
  -3561614836.8700190       -100363167.80309701        1170021123.9562290     
  -3470208361.3158135       -61307745.084624767        1158923535.5511594     
  -3386912631.9004292       -49288142.828884840        1158469493.9272130     
  -1695803563.7799561       -58543121.034446359        1424044676.1731915     
  -1644182835.4615657       -34327673.915981472        1416318597.1099515     
  -1595411469.0051939       -19610099.670913100        1414493284.0103533     
  -1549489464.4108400       -14390398.299238145        1418568736.8743985     
  -1506416821.6785054       -18668569.800960183        1428544955.7020845     
  -2123909806.5560782       -57828069.206857443        1363177973.2549324     
  -2059087153.0106051       -37584115.369001746        1353640145.1185324     
  -1996027120.8439410       -23215566.127180338        1349273376.5656171     
  -1934729710.0560830       -14722421.481379628        1350077667.5961876     
  -1875194920.6470373       -12104681.431614637        1356053018.2102439     
  -2548463398.8348651       -56047222.230067253        1298626541.9078488     
  -2472523695.4341869       -40400224.284390926        1288544828.5953686     
  -2397259872.9291067       -27006162.657376647        1282904468.4862161     
  -2322671931.3196235       -15865037.349016070        1281705461.5803924     
  -2248759870.6057367       -6976848.3593143225        1284947807.8778973     
  -2969464340.6163154       -53200580.104078293        1230390382.1319437     
  -2884492462.7323112       -42776000.662145376        1221032647.5404608     
  -2799109725.2606916       -30981889.261496782        1215386559.7721496     
  -2713316128.2014585       -17818245.902139902        1213452118.8270094     
  -2627111671.5546136       -3285070.5840716362        1215229324.7050419     
  -3386912631.9004292       -49288142.828884840        1158469493.9272130     
  -3294993454.9049721       -44711444.502251148        1151103601.9538081     
  -3201576677.8386917       -35142745.939540863        1146719650.4234173     
  -3106662300.7015882       -20582047.140751719        1145317639.3360412     
  -3010250323.4936585       -1029348.1058758497        1146897568.6916797     
  -1506416821.6785054       -18668569.800960183        1428544955.7020845     
  -1463595780.5895801       -25333418.709777832        1426777681.4021883     
  -1419449243.7358253       -27579948.402499139        1428022004.1456068     
  -1373977211.1172392       -25408158.879115939        1432277923.9323382     
  -1327179682.7338271       -18818050.139643371        1439545440.7623844     
  -1875194920.6470373       -12104681.431614637        1356053018.2102439     
  -1822187729.6199830       -13637050.511935711        1353882680.0622442     
  -1768863079.5979607       -14111222.942358971        1355351826.4013762     
  -1715220970.5809705       -13527198.722893953        1360460457.2276413     
  -1661261402.5690103       -11884977.853530109        1369208572.5410359     
  -2248759870.6057367       -6976848.3593143225        1284947807.8778973     
  -2183772565.5153613       -2838548.3735785484        1281198362.9836216     
  -2119475838.1998792       -1002174.3041533232        1281716290.0202975     
  -2055869688.6592917       -1467726.1510422230        1286501588.9879229     
  -1992954116.8935940       -4235203.9142370224        1295554259.8864975     
  -2627111671.5546136       -3285070.5840716362        1215229324.7050419     
  -2548350288.2757211        7062087.7052801847        1208724730.1663210     
  -2471287519.5415864        11747197.512112141        1207115395.0023675     
  -2395923365.3522038        10770258.836432219        1210401319.2131827     
  -2322257825.7075748        4131271.6782352924        1218582502.7987623     
  -3010250323.4936585       -1029348.1058758497        1146897568.6916797     
  -2915920897.9010592        16064857.724645615        1136461781.6103432     
  -2824298123.6230755        24136892.506446958        1131549141.3475885     
  -2735382000.6597085        23186756.239524007        1132159647.9034219     
  -2649172529.0109563        13214448.923890710        1138293301.2778366     
  -1327179682.7338271       -18818050.139643371        1439545440.7623844     
  -1274939594.6969240       -8426117.4248251319        1430838813.7227490     
  -1222594855.5593762        2314652.2921417952        1429023419.3619804     
  -1170145465.3211880        13404259.011243045        1434099257.6800778     
  -1117591423.9823546        24842702.732496381        1446066328.6770391     
  -1661261402.5690103       -11884977.853530109        1369208572.5410359     
  -1593002733.4481566       -5564851.6743508577        1361102841.4366555     
  -1524805583.7768953        550209.67284756899        1359367510.7646737     
  -1456669953.5552278        6460206.1880713701        1364002580.5250895     
  -1388595842.7831538        12165137.871314049        1375008050.7179022     
  -1992954116.8935940       -4235203.9142370224        1295554259.8864975     
  -1910164958.8215542       -2433311.9105294943        1287855559.0754294     
  -1827603490.7493451       -1390386.5729225874        1286006426.4502909     
  -1745269712.6769657       -1106427.9014130831        1290006862.0110831     
  -1663163624.6044152       -1581435.8960052729        1299856865.7578044     
  -2322257825.7075748        4131271.6782352924        1218582502.7987623     
  -2226426270.8171167        968501.86664581299        1211096966.6390660     
  -2130988576.4767287       -3507136.4451781511        1208940166.4188292     
  -2035944742.6863992       -9295643.2571994066        1212112102.1380558     
  -1941294769.4461420       -16397018.569463372        1220612773.7967436     
  -2649172529.0109563        13214448.923890710        1138293301.2778366     
  -2541786669.4348445        4640589.6571699381        1130827064.1275673     
  -2434960840.9590397       -5800039.9439023733        1128168730.6702898     
  -2328695043.5835352       -18107439.879309535        1130318300.9060078     
  -2222989277.3083334       -32281610.149060845        1137275774.8347189     
  -1117591423.9823546        24842702.732496381        1446066328.6770391     
  -1061554511.8424102        26845844.996784687        1437548490.3578026     
  -1012532248.1859357        5466825.6495033503        1431744792.9515395     
  -970524633.01292956       -39294355.309337258        1428655236.4582481     
  -935531666.32340336       -107437697.87977719        1428279820.8779273     
  -1388595842.7831538        12165137.871314049        1375008050.7179022     
  -1326600989.0847130        11022949.681519270        1359195286.3166323     
  -1267856710.0581775       -954487.41462552547        1345977258.4598663     
  -1212363005.7035527       -23767173.417142093        1335353967.1476049     
  -1160119876.0208378       -57415108.326020062        1327325412.3798480     
  -1663163624.6044152       -1581435.8960052729        1299856865.7578044     
  -1595551984.6859581       -5971301.1414255500        1281140594.7213216     
  -1527426845.6278436       -8649502.5879951119        1264899655.8608766     
  -1458788207.4300780       -9616040.2357208729        1251134049.1764674     
  -1389636070.0926535       -8870914.0845888257        1239843774.6680965     
  -1941294769.4461420       -16397018.569463372        1220612773.7967436     
  -1868407498.6461425       -24136907.472043633        1203384415.5718729     
  -1791242654.8949301       -17618219.870577335        1188511985.1545730     
  -1709800238.1924980        3159044.2349503040        1175995482.5448413     
  -1624080248.5388498        38194884.844530582        1165834907.7426777     
  -2222989277.3083334       -32281610.149060845        1137275774.8347189     
  -2145167530.9652803       -43473869.310371280        1125926748.8682826     
  -2059304137.8594394       -27860639.262397289        1116814246.3409500     
  -1965399097.9908242        14558079.994828463        1109938267.2527211     
  -1863452411.3594239        83782288.461336851        1105298811.6035926     
  -935531666.32340336       -107437697.87977719        1428279820.8779273     
  -913731666.25830662       -157996089.95394444        1444072023.7682195     
  -870712947.06122196       -137825418.25481430        1459950107.7659097     
  -806475508.73215449       -46925682.782408476        1475914072.8709974     
  -721019351.27109790        114703116.46329054        1491963919.0834918     
  -1160119876.0208378       -57415108.326020062        1327325412.3798480     
  -1127337314.1758583       -87246174.432760775        1361126618.6364598     
  -1084938217.7775664       -85022125.361795574        1398506839.1623261     
  -1032922586.8259695       -50742961.113145888        1439466073.9574525     
  -971290421.32105756        15591318.313216329        1484004323.0218370     
  -1389636070.0926535       -8870914.0845888257        1239843774.6680965     
  -1335890566.0053363       -14980540.085165024        1278118102.2825706     
  -1284130711.9433899       -27708999.503626704        1323464577.3281593     
  -1234356507.9068038       -47056292.339980841        1375883199.8048630     
  -1186567953.8955965       -73022418.594238281        1435373969.7126875     
  -1624080248.5388498        38194884.844530582        1165834907.7426777     
  -1539391421.7467403        58800813.088867903        1195046474.7065568     
  -1468290429.5586772        34113959.319709420        1234823322.2634099     
  -1410777271.9746602       -35865676.462929726        1285165450.4132433     
  -1366851948.9946859       -151138094.25905478        1346072859.1560416     
  -1863452411.3594239        83782288.461336851        1105298811.6035926     
  -1737839881.4000747        134097885.08929503        1111911735.9084167     
  -1637417370.6234417        100446751.10820067        1132583073.9680772     
  -1562184879.0295355       -17171113.481976569        1167312825.7825768     
  -1512142406.6183522       -218755708.68124434        1216100991.3519001     
  -3768423337.6724844       -1130527001.3017452        800555383.95801818     
  -3779102846.9939356       -1008555831.5475643        884827555.92514682     
  -3790448887.4706697       -888806432.31099486        974052714.61673200     
  -3802461459.1026874       -771278803.59203696        1068230860.0327740     
  -3815140561.8899884       -655972945.39069164        1167361992.1732733     
  -4340012499.5531340       -1302003749.8659403        858800618.05598485     
  -4335270376.1766834       -1125668094.7971961        942352273.23537743     
  -4331699420.5700064       -953236332.29436016        1020268085.6161072     
  -4329299632.7330999       -784708462.35743165        1092548055.1981742     
  -4328071012.6659670       -620084484.98641050        1159192181.9815784     
  -4895470549.9668140       -1468641164.9900441        936470221.78363097     
  -4905560592.5299463       -1247017164.1979828        1018712617.4583842     
  -4917326439.4773407       -1030979178.0201247        1084730340.8113549     
  -4930768090.8089972       -820527206.45647097        1134523391.8425434     
  -4945885546.5249128       -615661249.50702035        1168091770.5519493     
  -5434797488.9135237       -1630439246.6740570        1033564195.1409572     
  -5489973496.0537243       -1372603039.7499232        1113908588.5941670     
  -5547329944.1926746       -1122034969.4882894        1167439480.2024751     
  -5606866833.3303747       -878735035.88915443        1194156869.9658811     
  -5668584163.4668245       -642703238.95251989        1194060757.8843856     
  -5957993316.3932619       -1787397994.9179788        1150082538.1279628     
  -6088509086.7480145       -1502425721.4530182        1227940186.6427259     
  -6221709934.7160053       -1226403706.6988528        1268395503.7894678     
  -6357595860.2972364       -959331950.65548384        1271448489.5681882     
  -6496166863.4917049       -701210453.32290959        1237099143.9788873     
  -3815140561.8899884       -655972945.39069164        1167361992.1732733     
  -3797987345.5076461       -538348136.00485265        1189018381.6073198     
  -3784539517.4643478       -433074621.08249724        1205701336.2414117     
  -3774797077.7600970       -340152400.62363112        1217410856.0755484     
  -3768760026.3948908       -259581474.62824845        1224146941.1097302     
  -4328071012.6659670       -620084484.98641050        1159192181.9815784     
  -4298167610.4703798       -464602616.96360147        1141345252.6642365     
  -4278792739.8369441       -344215854.14795685        1129543349.0869668     
  -4269946400.7656569       -258924196.53947687        1123786471.2497692     
  -4271628593.2565198       -208727644.13815904        1124074619.1526437     
  -4945885546.5249128       -615661249.50702035        1168091770.5519493     
  -4871750642.6874352       -412877928.09864736        1102781188.7229316     
  -4814967413.6352100       -267933522.64111662        1054534093.1740130     
  -4775535859.3682365       -180828033.13442826        1023350483.9051937     
  -4753455979.8865166       -151561459.57858157        1009230360.9164729     
  -5668584163.4668245       -642703238.95251989        1194060757.8843856     
  -5518736442.1588058       -383174069.40998769        1073326189.7834046     
  -5393063538.8591442       -204227626.56197739        980673568.50254929     
  -5291565453.5678377       -105863910.40848708        916102894.04182029     
  -5214242186.2848883       -88082920.949517250        879614166.40121865     
  -6496166863.4917049       -701210453.32290959        1237099143.9788873     
  -6239125008.8844967       -375491040.89762425        1052980255.8456551     
  -6013081115.5087471       -153098165.91053820        907961775.07257640     
  -5818035183.3644590       -34031828.361650705        802043701.65965128     
  -5653987212.4516287       -18292028.250961304        735226035.60687971     
  -3768760026.3948908       -259581474.62824845        1224146941.1097302     
  -3661132058.5630441       -166454410.98430395        1191762259.1424186     
  -3561614836.8700190       -100363167.80309701        1170021123.9562290     
  -3470208361.3158135       -61307745.084624767        1158923535.5511594     
  -3386912631.9004292       -49288142.828884840        1158469493.9272130     
  -4271628593.2565198       -208727644.13815904        1124074619.1526437     
  -4147795941.4262261       -143946029.75110674        1090451535.0328259     
  -4028645345.7111125       -94771269.081311226        1065191303.1899743     
  -3914176806.1111727       -61203362.128767014        1048293923.6240866     
  -3804390322.6264086       -43242308.893475294        1039759396.3351665     
  -4753455979.8865166       -151561459.57858157        1009230360.9164729     
  -4619934914.0696526       -117080175.45198250        978369013.00506759     
  -4487667214.3443241       -86776778.297158480        953589822.86647141     
  -4356652880.7105255       -60651268.114106178        934892790.50068510     
  -4226891913.1682591       -38703644.902828932        922277915.90770710     
  -5214242186.2848883       -88082920.949517250        879614166.40121865     
  -5077548976.4933262       -85856848.086930513        855514693.05914414     
  -4938680442.7696562       -76379695.450642109        835216682.98572254     
  -4797636585.1138716       -59651463.040645123        818720136.18095315     
  -4654417403.5259762       -35672150.856939793        806025052.64483964     
  -5653987212.4516287       -18292028.250961304        735226035.60687971     
  -5520638128.6972466       -50276047.655956268        721888575.19505441     
  -5381685030.9871082       -63580020.541763783        710071883.54772389     
  -5237127919.3212128       -58203946.908382177        699775960.66489315     
  -5086966793.6995621       -34147826.755814314        691000806.54655910     
  -3386912631.9004292       -49288142.828884840        1158469493.9272130     
  -3294993454.9049721       -44711444.502251148        1151103601.9538081     
  -3201576677.8386917       -35142745.939540863        1146719650.4234173     
  -3106662300.7015882       -20582047.140751719        1145317639.3360412     
  -3010250323.4936585       -1029348.1058758497        1146897568.6916797     
  -3804390322.6264086       -43242308.893475294        1039759396.3351665     
  -3701926027.3551369       -34236636.085022211        1032203268.4129038     
  -3599235977.4826126       -24478447.939065933        1028754758.4562976     
  -3496320173.0088387       -13967744.455607653        1029413866.4653456     
  -3393178613.9338131       -2704525.6346518993        1034180592.4400482     
  -4226891913.1682591       -38703644.902828932        922277915.90770710     
  -4110666278.1279068       -24304131.164571047        913047732.32208598     
  -3995486733.9558821       -13391586.987394094        909050844.22476137     
  -3881353280.6521797       -5966012.3712952137        910287251.61573124     
  -3768265918.2168021       -2027407.3162748814        916756954.49499691     
  -4654417403.5259762       -35672150.856939793        806025052.64483964     
  -4521214207.2232924       -14913929.740907907        793636993.68135476     
  -4390328947.2585030       -1882163.0845282078        787607907.72880757     
  -4261761623.6316147        3423149.1121881008        787937794.78719640     
  -4135512236.3426199        1002006.8492531776        794626654.85652065     
  -5086966793.6995621       -34147826.755814314        691000806.54655910     
  -4933569814.6412840       -6066031.8140225410        673971052.49070990     
  -4783762617.3904762        10049823.769531250        664425948.96843874     
  -4637545201.9471407        14199739.994846344        662365495.97974277     
  -4494917568.3112755        6383716.8619270325        667789693.52462471     
  -3010250323.4936585       -1029348.1058758497        1146897568.6916797     
  -2915920897.9010592        16064857.724645615        1136461781.6103432     
  -2824298123.6230755        24136892.506446958        1131549141.3475885     
  -2735382000.6597085        23186756.239524007        1132159647.9034219     
  -2649172529.0109563        13214448.923890710        1138293301.2778366     
  -3393178613.9338131       -2704525.6346518993        1034180592.4400482     
  -3287413778.2466145        7273075.9527885914        1023677660.9430670     
  -3183241246.7544031        11942996.890267253        1018090345.2179024     
  -3080661019.4571800        11305237.177781463        1017418645.2645577     
  -2979673096.3549509        5359796.8153306246        1021662561.0830306     
  -3768265918.2168021       -2027407.3162748814        916756954.49499691     
  -3652801475.4257607        312849.13085436821        907486950.22193444     
  -3537814989.7100844        1059915.3267824650        902525030.67392683     
  -3423306461.0697694        213791.27149868011        901871195.85097015     
  -3309275889.5048151       -2225523.0349867344        905525445.75306678     
  -4135512236.3426199        1002006.8492531776        794626654.85652065     
  -4012083989.4385037       -4815822.7411575317        787889649.44694519     
  -3888019352.4901228       -8512352.1840174198        784853197.71565652     
  -3763318325.4974699       -10087581.479318380        785517299.66265452     
  -3637980908.4605575       -9541510.6270678043        789881955.28793907     
  -4494917568.3112755        6383716.8619270325        667789693.52462471     
  -4365261320.2848396       -8112939.6632535458        664885758.61809921     
  -4233854335.0945058       -16773805.642104626        665074846.34309578     
  -4100696612.7402844       -19598881.074667454        668356956.69961393     
  -3965788153.2221680       -16588165.960912228        674732089.68765104     
  -2649172529.0109563        13214448.923890710        1138293301.2778366     
  -2541786669.4348445        4640589.6571699381        1130827064.1275673     
  -2434960840.9590397       -5800039.9439023733        1128168730.6702898     
  -2328695043.5835352       -18107439.879309535        1130318300.9060078     
  -2222989277.3083334       -32281610.149060845        1137275774.8347189     
  -2979673096.3549509        5359796.8153306246        1021662561.0830306     
  -2858360022.7172179        2369820.1718485355        1013808634.2948589     
  -2737526346.9339499       -2218149.3198531866        1010571457.1018856     
  -2617172069.0051508       -8404111.6597843170        1011951029.5041134     
  -2497297188.9308281       -16188066.847970605        1017947351.5015392     
  -3309275889.5048151       -2225523.0349867344        905525445.75306678     
  -3174581756.3705797        204536.57524979115        897377901.44712996     
  -3040286387.8449841        1305380.8233560324        893655952.63859856     
  -2906389783.9280186        1077009.7093518972        894359599.32747471     
  -2772891944.6196976       -480576.76678442955        899488841.51375318     
  -3637980908.4605575       -9541510.6270678043        789881955.28793907     
  -3490451870.3949437       -1855261.1326575279        781534865.58437634     
  -3343240963.6921377        4770550.4857320786        777422217.28042436     
  -3196348188.3521328        10335924.228119135        777544010.37608755     
  -3049773544.3749347        14840860.094487309        781900244.87135935     
  -3965788153.2221680       -16588165.960912228        674732089.68765104     
  -3805970364.7903056       -3809572.9518675804        666279526.70660114     
  -3646390074.4754171        8177359.6672649384        661870251.02736735     
  -3487047282.2774959        19372631.896512508        661504262.64995563     
  -3327941988.1965480        29776243.735842705        665181561.57435942     
  -2222989277.3083334       -32281610.149060845        1137275774.8347189     
  -2145167530.9652803       -43473869.310371280        1125926748.8682826     
  -2059304137.8594394       -27860639.262397289        1116814246.3409500     
  -1965399097.9908242        14558079.994828463        1109938267.2527211     
  -1863452411.3594239        83782288.461336851        1105298811.6035926     
  -2497297188.9308281       -16188066.847970605        1017947351.5015392     
  -2412541163.8204074       -27665861.694382191        1014213460.7650731     
  -2322794652.8351231       -22508703.624594808        1013643000.0301980     
  -2228057655.9749846       -716592.63862144947        1016235969.2969117     
  -2128330173.2399786        37710471.263566613        1021992368.5652127     
  -2772891944.6196976       -480576.76678442955        899488841.51375318     
  -2678553336.2776632       -11449415.959043264        899810398.30468500     
  -2582275402.9486914       -15953838.528173566        904222291.65969193     
  -2484058144.6327763       -13993844.474164486        912724521.57877636     
  -2383901561.3299212       -5569433.7970166206        925317088.06193304     
  -3049773544.3749347        14840860.094487309        781900244.87135935     
  -2943204048.3370414        5175467.8956612349        782717561.48711550     
  -2837746388.2001295       -8196043.9731003046        788552121.22943354     
  -2733400563.9641962       -25273675.511787295        799403924.09831023     
  -2630166575.6292443       -46057426.720422149        815272970.09375215     
  -3327941988.1965480        29776243.735842705        665181561.57435942     
  -3206493299.9985456        22208789.869727969        662934950.31236303     
  -3089207608.5894499        764680.04059743881        666632488.73941910     
  -2976084913.9692521       -34556085.751519799        676274176.85552061     
  -2867125216.1379490       -83753507.506628990        691860014.66067064     
  -1863452411.3594239        83782288.461336851        1105298811.6035926     
  -1737839881.4000747        134097885.08929503        1111911735.9084167     
  -1637417370.6234417        100446751.10820067        1132583073.9680772     
  -1562184879.0295355       -17171113.481976569        1167312825.7825768     
  -1512142406.6183522       -218755708.68124434        1216100991.3519001     
  -2128330173.2399786        37710471.263566613        1021992368.5652127     
  -1976936502.2747853        75856215.403162479        1005449169.3714215     
  -1840938488.3262038        62683102.820722342        997487630.84768510     
  -1720336131.3942161       -1808866.4837201834        998107752.99400377     
  -1615129431.4788504       -117619692.51019168        1007309535.8103728     
  -2383901561.3299212       -5569433.7970166206        925317088.06193304     
  -2222374615.3154058        15712098.067240238        897044521.22999537     
  -2066448964.1513751        18322647.096528649        871876861.98333490     
  -1916124607.8378339        2262213.2908602953        849814110.32194579     
  -1771401546.3747869       -32469203.349770546        830856266.24582660     
  -2630166575.6292443       -46057426.720422149        815272970.09375215     
  -2474154220.5219131       -46334466.918439746        786697791.48413980     
  -2313948798.0989580       -32634616.064382315        755750767.37502146     
  -2149550308.3603754       -4957874.1582224369        722431897.76639867     
  -1980958751.3061645        36695758.800024986        686741182.65826154     
  -2867125216.1379490       -83753507.506628990        691860014.66067064     
  -2732275317.8943195       -110283479.55388939        674408980.13385379     
  -2583437990.1689606       -90188686.662039161        649109347.02274537     
  -2420613232.9618473       -23469128.831012249        615961115.32735252     
  -2243801046.2729816        89875193.939175367        574964285.04767179     
  -5957993316.3932619       -1787397994.9179788        1150082538.1279628     
  -6088509086.7480145       -1502425721.4530182        1227940186.6427259     
  -6221709934.7160053       -1226403706.6988528        1268395503.7894678     
  -6357595860.2972364       -959331950.65548384        1271448489.5681882     
  -6496166863.4917049       -701210453.32290959        1237099143.9788873     
  -6810534854.7978945       -2043160456.4393682        1353774564.4145696     
  -6828541435.0168924       -1395471281.7483931        1202736556.2540483     
  -6897915937.6417456       -919008515.07693768        1091942510.0522799     
  -7018658362.6724567       -613772156.42500401        1021392425.8092639     
  -7190768710.1090240       -479762205.79258895        991086303.52500069     
  -8337898926.5192862       -2501369677.9557858        1712389587.6706989     
  -8021549764.2403202       -1424409636.3301327        1275659270.5768397     
  -7805251369.1598244       -680952152.03272390        956819208.76850712     
  -7689003741.2778034       -270997225.06356144        755869402.24570072     
  -7672806880.5942574       -194544855.42264509        672809851.00842130     
  -10540085531.557440       -3162025659.4672318        2225927607.8963504     
  -9667534074.4182930       -1589240785.1982362        1446708329.6110995     
  -8943716229.2702408       -512234617.56621218        863025599.93814886     
  -8368631996.1132784        68992843.428841114        474879418.87749821     
  -7942281374.9474058        154441597.78692436        282269786.42914844     
  -13417094669.912352       -4025128400.9737053        2894388625.0915246     
  -11766494365.550817       -1889964728.3527045        1715883733.3568282     
  -10313310517.972992       -412855911.67740011        810561683.56120634     
  -9057543127.1788769        406198049.05220938        178422475.70465791     
  -7999192193.1684704        567197153.83612108       -180533890.21281630     
  -6496166863.4917049       -701210453.32290959        1237099143.9788873     
  -6239125008.8844967       -375491040.89762425        1052980255.8456551     
  -6013081115.5087471       -153098165.91053820        907961775.07257640     
  -5818035183.3644590       -34031828.361650705        802043701.65965128     
  -5653987212.4516287       -18292028.250961304        735226035.60687971     
  -7190768710.1090240       -479762205.79258895        991086303.52500069     
  -6900570892.0551014       -304410211.88801408        846806688.42493773     
  -6623192232.7216892       -171788747.05179691        723631426.73620188     
  -6358632732.1087809       -81897811.283934355        621560518.45879340     
  -6106892390.2163858       -34737404.584432364        540593963.59271395     
  -7672806880.5942574       -194544855.42264509        672809851.00842130     
  -7400870396.0902691       -184985469.13777208        589578111.87097156     
  -7123574267.7958374       -157560603.55141640        509454672.19602406     
  -6840918495.7109613       -112270258.66357732        432439531.98357624     
  -6552903079.8356409       -49114434.474254608        358532691.23363036     
  -7942281374.9474058        154441597.78692436        282269786.42914844     
  -7740023520.9900017       -17216812.646899223        281294526.18375754     
  -7514227220.7311964       -110413735.40939903        265431511.45204121     
  -7264892474.1709948       -125149170.50057459        234680742.23400030     
  -6992019281.3093987       -61423117.920428276        189042218.52963355     
  -7999192193.1684704        567197153.83612108       -180533890.21281630     
  -7918030266.7542925        198895757.58460522       -78044068.636703610     
  -7795151091.5277634       -30348142.625749111       -8438055.4957444668     
  -7630554667.4888830       -120534546.79493046        28284149.210065618     
  -7424240994.6376562       -71663454.922947407        32122545.480722155     
  -5653987212.4516287       -18292028.250961304        735226035.60687971     
  -5520638128.6972466       -50276047.655956268        721888575.19505441     
  -5381685030.9871082       -63580020.541763783        710071883.54772389     
  -5237127919.3212128       -58203946.908382177        699775960.66489315     
  -5086966793.6995621       -34147826.755814314        691000806.54655910     
  -6106892390.2163858       -34737404.584432364        540593963.59271395     
  -5959397398.9017982       -36717247.861786127        534002582.88682681     
  -5810863454.2316570       -35233913.287289381        529847860.12560493     
  -5661290556.2059650       -30287400.860950232        528129795.30904901     
  -5510678704.8247137       -21877710.582756996        528848388.43715745     
  -6552903079.8356409       -49114434.474254608        358532691.23363036     
  -6388645354.7318001       -20305053.755247116        353361486.20011425     
  -6227913736.8726091       -3249363.8517374992        351542828.29143250     
  -6070708226.2580633        2052635.2362771034        353076717.50758088     
  -5917028822.8881674       -4399056.4911930561        357963153.84856492     
  -6992019281.3093987       -61423117.920428276        189042218.52963355     
  -6808381996.1872540       -1039465.3363456726        179965285.13491979     
  -6632835878.9099560        32373627.764895439        175156788.04520518     
  -6465380929.4775114        38816161.383305073        174616727.26049066     
  -6306017147.8899183        18288135.518879652        178345102.78077826     
  -7424240994.6376562       -71663454.922947407        32122545.480722155     
  -7218607323.2681522        21079517.394918442        13813979.691239264     
  -7025629880.3437033        71635061.562616825        689739.38692863774     
  -6845308665.8643093        80003177.580121994       -7250175.4322200911     
  -6677643679.8299656        46183865.447466850       -10005764.766197914     
  -5086966793.6995621       -34147826.755814314        691000806.54655910     
  -4933569814.6412840       -6066031.8140225410        673971052.49070990     
  -4783762617.3904762        10049823.769531250        664425948.96843874     
  -4637545201.9471407        14199739.994846344        662365495.97974277     
  -4494917568.3112755        6383716.8619270325        667789693.52462471     
  -5510678704.8247137       -21877710.582756996        528848388.43715745     
  -5345175286.3708410       -9174249.3969087601        514074454.48765868     
  -5180825348.2268887       -315722.57747411728        504677361.94487780     
  -5017628890.3928595        4697869.8755536079        500657110.80881101     
  -4855585912.8687592        5866527.9621589184        502013701.07945848     
  -5917028822.8881674       -4399056.4911930561        357963153.84856492     
  -5745441276.8297272       -8880622.5985963345        348287391.75255591     
  -5572570909.5836620       -9086118.0805859566        341880661.93640083     
  -5398417721.1499767       -5015542.9371664524        338742964.40009874     
  -5222981711.5286617        3331102.8316686153        338874299.14365268     
  -6306017147.8899183        18288135.518879652        178345102.78077826     
  -6134367786.0179434       -5185151.4190754890        176609864.28539985     
  -5958999301.4608011       -16261362.739806414        176035848.94300967     
  -5779911694.2184887       -14940498.443300724        176623056.75360888     
  -5597104964.2910061       -1222558.5295658112        178371487.71720746     
  -6677643679.8299656        46183865.447466850       -10005764.766197914     
  -6511954813.9354925        1912164.1416354179       -958127.91381463176     
  -6340110523.8583059       -21841456.555142641        7142922.9646965964     
  -6162110809.5984001       -25076996.642856598        14297387.869348340     
  -5977955671.1557770       -7794456.1215145588        20505266.800122742     
  -4494917568.3112755        6383716.8619270325        667789693.52462471     
  -4365261320.2848396       -8112939.6632535458        664885758.61809921     
  -4233854335.0945058       -16773805.642104626        665074846.34309578     
  -4100696612.7402844       -19598881.074667454        668356956.69961393     
  -3965788153.2221680       -16588165.960912228        674732089.68765104     
  -4855585912.8687592        5866527.9621589184        502013701.07945848     
  -4714299969.4721537       -166668.08671379089        498477766.59222853     
  -4572503234.0495186       -4497224.0488045216        498841622.72523034     
  -4430195706.6008453       -7125139.9241025448        503105269.47846001     
  -4287377387.1261334       -8050415.7126233578        511268706.85191822     
  -5222981711.5286617        3331102.8316686153        338874299.14365268     
  -5067761021.3655910        6452882.6779837608        333259762.41488564     
  -4913269484.3143349        7144152.1515672207        332351784.29505664     
  -4759507100.3749046        5404911.2524077892        336150364.78416711     
  -4606473869.5472965        1235159.9804997444        344655503.88220978     
  -5597104964.2910061       -1222558.5295658112        178371487.71720746     
  -5425644475.9651461        11745712.630853415        169231746.08607087     
  -5256153085.8889666        18150322.958982944        165605331.05257502     
  -5088630794.0624676        17991272.454864502        167492242.61672339     
  -4923077600.4856443        11268561.118470430        174892480.77852431     
  -5977955671.1557770       -7794456.1215145588        20505266.800122742     
  -5787950333.2708263        15711821.771867275        6393717.6057776287     
  -5601154038.7734070        28521288.373465061       -1397737.0022150159     
  -5417566787.6635227        30633943.683278084       -2869097.0238495870     
  -5237188579.9411850        22049787.701283455        1979637.5408660697     
  -3965788153.2221680       -16588165.960912228        674732089.68765104     
  -3805970364.7903056       -3809572.9518675804        666279526.70660114     
  -3646390074.4754171        8177359.6672649384        661870251.02736735     
  -3487047282.2774959        19372631.896512508        661504262.64995563     
  -3327941988.1965480        29776243.735842705        665181561.57435942     
  -4287377387.1261334       -8050415.7126233578        511268706.85191822     
  -4118535315.5798111       -860803.40160727501        503442947.69765621     
  -3950001115.7443256        5302569.8732695580        499805422.25994319     
  -3781774787.6196814        10439704.112020969        500356130.53877175     
  -3613856331.2058687        14550599.314646006        505095072.53414923     
  -4606473869.5472965        1235159.9804997444        344655503.88220978     
  -4428193382.2730026        2960031.3775355816        337374446.02856058     
  -4250291140.3034177        3424085.0922122002        334426568.30618376     
  -4072767143.6385393        2627321.1245403290        335811870.71507841     
  -3895621392.2783632        569739.47449898720        341530353.25524443     
  -4923077600.4856443        11268561.118470430        174892480.77852431     
  -4734944564.8698845        7652931.3855664730        168074021.69931030     
  -4547260148.1526842        2541905.3241124153        165733689.16608739     
  -4360024350.3340750       -4064517.0659651756        167871483.17887491     
  -4173237171.4140291       -12166335.784597158        174487403.73764947     
  -5237188579.9411850        22049787.701283455        1979637.5408660697     
  -5038788863.3704424        13217896.622515202       -4458325.2901003305     
  -4840908139.2921419        2656030.5689406395       -6273215.1603312343     
  -4643546407.7062874       -9635810.4594473839       -3465032.0698506599     
  -4446703668.6128712       -23657626.462646008        3966223.9813596467     
  -3327941988.1965480        29776243.735842705        665181561.57435942     
  -3206493299.9985456        22208789.869727969        662934950.31236303     
  -3089207608.5894499        764680.04059743881        666632488.73941910     
  -2976084913.9692521       -34556085.751519799        676274176.85552061     
  -2867125216.1379490       -83753507.506628990        691860014.66067064     
  -3613856331.2058687        14550599.314646006        505095072.53414923     
  -3480631406.3274813        6833374.1172766685        500108163.12201732     
  -3348034913.6543260       -2978625.0975232124        498270310.23604178     
  -3216066853.1863976       -14885398.329763055        499581513.87622094     
  -3084727224.9237041       -28886945.579426169        504041774.04254496     
  -3895621392.2783632        569739.47449898720        341530353.25524443     
  -3758606211.1850080       -9693051.1937386990        337926804.37393248     
  -3618684897.7132115       -10268733.933852434        334677218.85586840     
  -3475857451.8629766       -1157308.7458295822        331781596.70107114     
  -3330123873.6343012        17641224.370324135        329239937.90951777     
  -4173237171.4140291       -12166335.784597158        174487403.73764947     
  -4040417714.5711308       -27370486.063369751        176390874.06809604     
  -3901157560.7661133       -21105646.468397141        175853214.59890586     
  -3755456709.9989972        6628183.0002348423        172874425.33007458     
  -3603315162.2697549        55831002.342617035        167454506.26159513     
  -4446703668.6128712       -23657626.462646008        3966223.9813596467     
  -4326065916.4858351       -46198930.491521835        15500372.204526518     
  -4195452902.8130236       -35489362.701136112        21798297.465139709     
  -4054864627.5944228        8471076.9085345268        22859999.763231412     
  -3904301090.8300495        85682388.337464571        18685479.098772954     
  -2867125216.1379490       -83753507.506628990        691860014.66067064     
  -2732275317.8943195       -110283479.55388939        674408980.13385379     
  -2583437990.1689606       -90188686.662039161        649109347.02274537     
  -2420613232.9618473       -23469128.831012249        615961115.32735252     
  -2243801046.2729816        89875193.939175367        574964285.04767179     
  -3084727224.9237041       -28886945.579426169        504041774.04254496     
  -2948899386.0333023       -37954842.227523804        492978097.07459676     
  -2810077936.4234333       -37044036.477397323        486485571.01941651     
  -2668262876.0940938       -26154528.329034567        484564195.87699854     
  -2523454205.0452943       -5286317.7824623585        487213971.64734977     
  -3330123873.6343012        17641224.370324135        329239937.90951777     
  -3157833095.5341134        36680902.690303326        311737496.61111712     
  -2993542525.4767337        29053220.867599607        311225955.72253573     
  -2837252163.4621587       -5241821.0978105068        327705315.24377578     
  -2688962009.4904099       -66204223.205940962        361175575.17483503     
  -3603315162.2697549        55831002.342617035        167454506.26159513     
  -3359076446.3967595        113623755.19959855        130687178.74341476     
  -3133831757.3288646        108103085.37292242        123330501.13211648     
  -2927581095.0660434        39268992.862665057        145384473.42768601     
  -2740324459.6083179       -92878522.331257224        196849095.63013491     
  -3904301090.8300495        85682388.337464571        18685479.098772954     
  -3552629438.6212440        192873715.30030870       -50172856.528500728     
  -3230945631.9798088        200105557.03862977       -77200792.751858518     
  -2939249670.9057212        107377913.55240142       -62398329.571281850     
  -2677541555.3990307       -85309215.158415198       -5765466.9867675146     
 </DataArray>
 <DataArray  type="Float64" Name="VM" NumberOfComponents="1" format="ascii">
   12936267458.203575     
   11340937702.029423     
   10210188213.602158     
   9272472401.9056644     
   8303233397.7580233     
   10130550307.207476     
   9322111181.6782303     
   8826415058.8078823     
   8443498599.7906523     
   8035504524.9324093     
   7982360272.6377573     
   7734995176.0962448     
   7669234058.7507067     
   7669715445.3709383     
   7666493808.1671934     
   6491609266.6372786     
   6586881692.4893541     
   6757484205.4588661     
   6961332620.7559719     
   7171765720.0158319     
   5657847662.9055729     
   5890942589.8402338     
   6116362799.8989677     
   6331669753.0358982     
   6536661440.1768246     
   8303233397.7580233     
   8020467448.2382441     
   7780035141.1522512     
   7571165540.6957550     
   7388879401.8614578     
   8035504524.9324093     
   7746765894.3951874     
   7473786837.0448465     
   7214593187.6994505     
   6969206962.6807938     
   7666493808.1671934     
   7381114808.2615843     
   7101152950.1981936     
   6826693975.4885359     
   6557952877.7008801     
   7171765720.0158319     
   6910946727.4469538     
   6658027046.8230190     
   6409147510.0034666     
   6161162979.7035751     
   6536661440.1768246     
   6328604989.4403009     
   6142733562.1138086     
   5965108170.3362961     
   5786722308.3143702     
   7388879401.8614578     
   7229209726.8453045     
   7061720021.2442226     
   6885670293.0114346     
   6700877391.2275610     
   6969206962.6807938     
   6814994638.6177578     
   6655999437.6017122     
   6491925102.4770718     
   6322731447.2329454     
   6557952877.7008801     
   6407813433.5081234     
   6255991559.9483805     
   6102454673.3765907     
   5947237422.6836786     
   6161162979.7035751     
   6012689009.0920029     
   5865564961.7208996     
   5719827406.2178106     
   5575530400.3771458     
   5786722308.3143702     
   5636114486.8594131     
   5489719008.0550070     
   5347441838.3135900     
   5209331504.0491533     
   6700877391.2275610     
   6512911318.2770205     
   6329230152.4585524     
   6149660519.2390757     
   5974167828.7681456     
   6322731447.2329454     
   6139402294.2435770     
   5958691259.0435381     
   5780556613.6681557     
   5605014884.0730515     
   5947237422.6836786     
   5772613234.9602728     
   5599432402.0965443     
   5427716226.9563169     
   5257514119.4014530     
   5575530400.3771458     
   5414310914.0817156     
   5253895069.8710184     
   5094326898.3563633     
   4935715517.6670303     
   5209331504.0491533     
   5066846323.0089254     
   4925134239.2990541     
   4784251584.0422192     
   4644442722.4887209     
   5974167828.7681456     
   5795832796.6303329     
   5615469528.2376366     
   5432950806.9485378     
   5248249333.9309006     
   5605014884.0730515     
   5439430315.2373104     
   5273058974.6723270     
   5105898446.1516809     
   4938021687.1620064     
   5257514119.4014530     
   5103736992.0553503     
   4950428500.1041059     
   4797671619.4946337     
   4645605990.4197636     
   4935715517.6670303     
   4792627542.0902510     
   4651211817.5725880     
   4511592151.1194992     
   4373938907.8796616     
   4644442722.4887209     
   4510695769.7986813     
   4379698584.8745804     
   4251568042.9897971     
   4126470146.3350425     
   5248249333.9309006     
   5045416707.0400953     
   4842248892.1999693     
   4638739891.8169088     
   4434927501.9634514     
   4938021687.1620064     
   4747709072.7141981     
   4557580826.7903242     
   4367682448.6950769     
   4178112142.1749845     
   4645605990.4197636     
   4468050753.5299702     
   4291277578.0260100     
   4115391648.1123633     
   3940560213.5669951     
   4373938907.8796616     
   4209412434.3646612     
   4046343839.8256845     
   3884903977.6486640     
   3725334371.2396183     
   4126470146.3350425     
   3975262385.1996121     
   3826259527.9432507     
   3679699851.9392662     
   3535898421.0955977     
   4434927501.9634514     
   4303236203.9404535     
   4177991874.6684999     
   4059299904.6510901     
   3947972360.6430206     
   4178112142.1749845     
   4038375599.2684374     
   3902552033.1924520     
   3770682642.3895354     
   3643116384.5594831     
   3940560213.5669951     
   3799126981.5884571     
   3659761337.6287332     
   3522470838.8320456     
   3387326453.2033362     
   3725334371.2396183     
   3590118475.0996222     
   3456037329.5260205     
   3323278533.7063570     
   3192090614.7691832     
   3535898421.0955977     
   3416394751.2227774     
   3298297002.4931588     
   3182369240.4373870     
   3069739517.4186482     
   3947972360.6430206     
   3653920769.1990080     
   3338182437.0049005     
   2996332726.6855984     
   2635941427.9060225     
   3643116384.5594831     
   3424793896.3113160     
   3196403586.9751477     
   2958149122.8914261     
   2716566949.9693556     
   3387326453.2033362     
   3221898248.3304954     
   3056091914.4784141     
   2890904232.3576331     
   2729143171.1278253     
   3192090614.7691832     
   3051983840.8554006     
   2916130703.0851870     
   2784767685.7624912     
   2658315567.6072512     
   3069739517.4186482     
   2922438784.3158464     
   2777286049.4452019     
   2634641118.2826462     
   2497225364.3222837     
   5657847662.9055729     
   5890942589.8402338     
   6116362799.8989677     
   6331669753.0358982     
   6536661440.1768246     
   5151603012.2089100     
   5311371839.2271814     
   5467748953.4240751     
   5617847676.1397581     
   5760211779.9749584     
   4643681581.9123468     
   4755584555.7285671     
   4868601025.3418827     
   4980094323.8448067     
   5088137939.4701862     
   4134347012.1172843     
   4224417802.4685588     
   4320415142.8325348     
   4420672842.6131325     
   4523727812.1301460     
   3625116299.5309176     
   3719694394.7088642     
   3825550988.0677776     
   3942610521.7845764     
   4070770330.3409648     
   6536661440.1768246     
   6328604989.4403009     
   6142733562.1138086     
   5965108170.3362961     
   5786722308.3143702     
   5760211779.9749584     
   5651966464.3347740     
   5559729546.9292517     
   5474433289.6751051     
   5390543362.3039484     
   5088137939.4701862     
   5053846381.4006662     
   5030082986.0965128     
   5011649369.5514755     
   4995349003.4232311     
   4523727812.1301460     
   4538850893.8121996     
   4558654198.2097769     
   4580674585.9134235     
   4603194797.3806362     
   4070770330.3409648     
   4112320673.1607189     
   4151198875.6305985     
   4186532923.8620253     
   4217610886.8075070     
   5786722308.3143702     
   5636114486.8594131     
   5489719008.0550070     
   5347441838.3135900     
   5209331504.0491533     
   5390543362.3039484     
   5248680674.7959671     
   5109984754.2022419     
   4974494651.9927053     
   4842300067.6795139     
   4995349003.4232311     
   4867054690.8385153     
   4741862775.6581459     
   4619733754.8644190     
   4500700696.0908527     
   4603194797.3806362     
   4493898810.9387579     
   4388742715.0509148     
   4287391466.8734832     
   4189754623.8614597     
   4217610886.8075070     
   4133167706.0716305     
   4055190051.5604706     
   3982796171.4429412     
   3915715332.7582388     
   5209331504.0491533     
   5066846323.0089254     
   4925134239.2990541     
   4784251584.0422192     
   4644442722.4887209     
   4842300067.6795139     
   4718447869.2757454     
   4596488566.4384508     
   4476577979.3522758     
   4359002275.0629778     
   4500700696.0908527     
   4393088919.2356501     
   4288322280.2385888     
   4186603793.2494240     
   4088217493.1424298     
   4189754623.8614597     
   4095731647.1958098     
   4005247078.9701447     
   3918506458.8152556     
   3835763284.4495296     
   3915715332.7582388     
   3832332914.8201537     
   3752827455.3243389     
   3677375461.4827290     
   3606193501.6931591     
   4644442722.4887209     
   4510695769.7986813     
   4379698584.8745804     
   4251568042.9897971     
   4126470146.3350425     
   4359002275.0629778     
   4235543642.0288343     
   4114809154.7777910     
   3996975866.9284058     
   3882270573.4198012     
   4088217493.1424298     
   3976769943.8205070     
   3868273529.7329993     
   3762960803.0326538     
   3661130425.5277839     
   3835763284.4495296     
   3738288340.4527497     
   3644270676.2800331     
   3553990690.1981797     
   3467828440.8290691     
   3606193501.6931591     
   3524816698.5143018     
   3447698164.9773197     
   3375149382.4614925     
   3307632383.2196341     
   4126470146.3350425     
   3975262385.1996121     
   3826259527.9432507     
   3679699851.9392662     
   3535898421.0955977     
   3882270573.4198012     
   3742882878.0689235     
   3606437010.4504533     
   3473256375.4091139     
   3343755996.6120567     
   3661130425.5277839     
   3534753171.0445151     
   3412209641.8020439     
   3293914119.1200695     
   3180383295.7425261     
   3467828440.8290691     
   3355655714.4556623     
   3248345299.7639971     
   3146394749.3713174     
   3050406418.8334427     
   3307632383.2196341     
   3210732929.1268125     
   3119813956.0732274     
   3035430803.4888878     
   2958234324.5922651     
   3535898421.0955977     
   3416394751.2227774     
   3298297002.4931588     
   3182369240.4373870     
   3069739517.4186482     
   3343755996.6120567     
   3242784244.7764235     
   3145640918.8755875     
   3052896039.4001217     
   2965260334.0793157     
   3180383295.7425261     
   3094040635.2433476     
   3013313365.1768064     
   2938567223.9779549     
   2870257102.5700760     
   3050406418.8334427     
   2973257820.8287687     
   2902759883.3429751     
   2839163866.3974404     
   2782961901.8674765     
   2958234324.5922651     
   2883315472.0990815     
   2815307869.6531639     
   2754542949.7968259     
   2701972438.7811489     
   3069739517.4186482     
   2922438784.3158464     
   2777286049.4452019     
   2634641118.2826462     
   2497225364.3222837     
   2965260334.0793157     
   2804572626.3911557     
   2644501255.0396614     
   2485087007.9231391     
   2326602087.9279766     
   2870257102.5700760     
   2718120781.7971673     
   2566888706.7025604     
   2417110953.4257936     
   2269882831.9250565     
   2782961901.8674765     
   2663978061.5507045     
   2548200175.4086485     
   2438258611.6277938     
   2340197410.1562552     
   2701972438.7811489     
   2641998006.9831772     
   2589195182.9424963     
   2549852871.7048855     
   2537783238.8192916     
   3625116299.5309176     
   3719694394.7088642     
   3825550988.0677776     
   3942610521.7845764     
   4070770330.3409648     
   3137990758.1665187     
   3255491812.8264484     
   3382440159.4648995     
   3518361335.8924465     
   3662792674.7370315     
   2694669630.4187737     
   2830473279.8960214     
   2973620278.0553026     
   3123028331.7254181     
   3277785860.6744862     
   2298652031.0729284     
   2449435069.5097170     
   2604968490.3448234     
   2763334801.9846406     
   2923108207.5964165     
   1955165361.3063588     
   2119338420.8655806     
   2284886368.4443369     
   2448860213.1161656     
   2609311822.3414955     
   4070770330.3409648     
   4112320673.1607189     
   4151198875.6305985     
   4186532923.8620253     
   4217610886.8075070     
   3662792674.7370315     
   3702068285.6181860     
   3739926867.2556028     
   3775483224.2389073     
   3807997687.1354265     
   3277785860.6744862     
   3320731033.0107546     
   3363871804.8259130     
   3406387053.8378119     
   3447599401.5317979     
   2923108207.5964165     
   2975687573.3165259     
   3030440044.6519442     
   3086675809.4567804     
   3143857053.2897315     
   2609311822.3414955     
   2676978336.1868792     
   2749109263.5229111     
   2825182787.2177482     
   2904840206.4640827     
   4217610886.8075070     
   4133167706.0716305     
   4055190051.5604706     
   3982796171.4429412     
   3915715332.7582388     
   3807997687.1354265     
   3755763063.0305700     
   3709562464.0274882     
   3668916441.7445145     
   3633751920.8565807     
   3447599401.5317979     
   3422690438.2314553     
   3402982500.4102097     
   3388253327.9623494     
   3378500462.7332897     
   3143857053.2897315     
   3141591716.7026029     
   3143062547.7409477     
   3148181713.1805816     
   3156941226.5736752     
   2904840206.4640827     
   2920798148.7059956     
   2938197505.5153952     
   2957001408.9022303     
   2977181403.4842477     
   3915715332.7582388     
   3832332914.8201537     
   3752827455.3243389     
   3677375461.4827290     
   3606193501.6931591     
   3633751920.8565807     
   3559705279.9196467     
   3490092676.6139441     
   3425120946.7196870     
   3365032423.6111484     
   3378500462.7332897     
   3316045599.0944352     
   3258891692.7842135     
   3207259576.6287661     
   3161416293.4001579     
   3156941226.5736752     
   3108196973.5828891     
   3065932201.2721701     
   3030353282.7762966     
   3001740035.2616053     
   2977181403.4842477     
   2943798518.6072345     
   2918357394.8507652     
   2901006497.0432224     
   2892013066.8075209     
   3606193501.6931591     
   3524816698.5143018     
   3447698164.9773197     
   3375149382.4614925     
   3307632383.2196341     
   3365032423.6111484     
   3300785081.7635946     
   3241575763.7567530     
   3187723881.5337396     
   3139637288.1924734     
   3161416293.4001579     
   3112407374.5566893     
   3068948466.7353244     
   3031310589.7044048     
   2999804327.2362704     
   3001740035.2616053     
   2965585904.5922680     
   2935140647.1115708     
   2910587877.7292714     
   2892124303.9955177     
   2892013066.8075209     
   2865791367.4354405     
   2845028823.0909524     
   2829807214.8483782     
   2820223098.0242500     
   3307632383.2196341     
   3210732929.1268125     
   3119813956.0732274     
   3035430803.4888878     
   2958234324.5922651     
   3139637288.1924734     
   3059313446.1577415     
   2986345579.8119092     
   2921280409.6008945     
   2864742471.3772273     
   2999804327.2362704     
   2935950252.5998974     
   2880804221.5172668     
   2834852675.2064190     
   2798637020.0398154     
   2892124303.9955177     
   2843699471.8659186     
   2805264946.6324191     
   2777201576.0956798     
   2759923963.2646451     
   2820223098.0242500     
   2785084973.6535268     
   2761140564.8441048     
   2748640947.6396561     
   2747856477.8451033     
   2958234324.5922651     
   2883315472.0990815     
   2815307869.6531639     
   2754542949.7968259     
   2701972438.7811489     
   2864742471.3772273     
   2791206503.8353209     
   2723046889.1544251     
   2660399273.5711422     
   2603582178.3259416     
   2798637020.0398154     
   2731347275.7956409     
   2668297119.6676850     
   2609623912.4389858     
   2555479899.4803219     
   2759923963.2646451     
   2704967693.8141026     
   2653528921.3378506     
   2605971056.6430817     
   2562800122.0431380     
   2747856477.8451033     
   2712149331.3281746     
   2679639198.4895182     
   2651130574.8347106     
   2627965131.1482840     
   2701972438.7811489     
   2641998006.9831772     
   2589195182.9424963     
   2549852871.7048855     
   2537783238.8192916     
   2603582178.3259416     
   2597712296.9128957     
   2604130497.3668785     
   2626010483.9512701     
   2668385274.7120252     
   2555479899.4803219     
   2581777160.2041841     
   2620849661.7025070     
   2673374228.4061213     
   2739986313.3666201     
   2562800122.0431380     
   2595793223.6680880     
   2638094023.2686133     
   2689475430.4171414     
   2750563278.0282454     
   2627965131.1482840     
   2640366323.0617571     
   2655464828.2068014     
   2673897417.2071900     
   2700666191.1209168     
   1955165361.3063588     
   2119338420.8655806     
   2284886368.4443369     
   2448860213.1161656     
   2609311822.3414955     
   1653728210.7477586     
   1820302039.0599833     
   1988562325.1019688     
   2155821639.1272502     
   2320329942.0727916     
   1393676597.5480788     
   1571144458.8200419     
   1749579558.2787275     
   1926984586.3570957     
   2102114513.9075854     
   1207284941.6360531     
   1399268856.8868923     
   1590770784.8457921     
   1781016587.5362997     
   1969549704.1866157     
   1137133049.3344455     
   1335481651.9741361     
   1534054644.2340209     
   1732852026.1140988     
   1931873797.6143706     
   2609311822.3414955     
   2676978336.1868792     
   2749109263.5229111     
   2825182787.2177482     
   2904840206.4640827     
   2320329942.0727916     
   2407213112.9458747     
   2496538433.4937830     
   2587908967.7465448     
   2681046578.1945186     
   2102114513.9075854     
   2205824361.0557446     
   2309489643.1955457     
   2412870695.4948211     
   2515799499.4489226     
   1969549704.1866157     
   2086761644.7468050     
   2201211467.0287251     
   2312823150.7243977     
   2421544168.5365191     
   1931873797.6143706     
   2058610503.0843878     
   2180058302.3687835     
   2296217195.4675598     
   2407087182.3807144     
   2904840206.4640827     
   2920798148.7059956     
   2938197505.5153952     
   2957001408.9022303     
   2977181403.4842477     
   2681046578.1945186     
   2703364899.1709280     
   2728061696.2511997     
   2755129424.8478765     
   2784565380.1505084     
   2515799499.4489226     
   2544396186.9107289     
   2576340407.5868053     
   2611637605.2191830     
   2650295065.6595030     
   2421544168.5365191     
   2454956821.5614243     
   2492695910.8281279     
   2534765554.3810229     
   2581170150.6075335     
   2407087182.3807144     
   2442393428.7301550     
   2483005673.8535194     
   2528923917.7508082     
   2580148160.4220209     
   2977181403.4842477     
   2943798518.6072345     
   2918357394.8507652     
   2901006497.0432224     
   2892013066.8075209     
   2784565380.1505084     
   2767593509.1732049     
   2758214322.3633265     
   2756521534.5151415     
   2762673149.1283970     
   2650295065.6595030     
   2646085715.4859672     
   2648770450.4842105     
   2658390221.5310469     
   2675012846.1594405     
   2581170150.6075335     
   2585660312.1778269     
   2596011313.5288072     
   2612231869.3589063     
   2634336953.4322906     
   2580148160.4220209     
   2589274382.7529931     
   2602954603.3941517     
   2621188822.3454957     
   2643977039.6070242     
   2892013066.8075209     
   2865791367.4354405     
   2845028823.0909524     
   2829807214.8483782     
   2820223098.0242500     
   2762673149.1283970     
   2741337380.4064126     
   2726442435.2891998     
   2718060319.7362990     
   2716271405.1260076     
   2675012846.1594405     
   2657760465.2313199     
   2648002363.9645066     
   2645783894.8950047     
   2651153907.6774936     
   2634336953.4322906     
   2619474467.9630170     
   2613204621.1968884     
   2615542278.8638420     
   2626503082.9806495     
   2643977039.6070242     
   2628967546.1301765     
   2623670924.3167572     
   2628087174.1667681     
   2642216295.6802115     
   2820223098.0242500     
   2785084973.6535268     
   2761140564.8441048     
   2748640947.6396561     
   2747856477.8451033     
   2716271405.1260076     
   2692044833.7123160     
   2677511102.2403312     
   2672784395.6883073     
   2677986193.5204978     
   2651153907.6774936     
   2634384793.0250506     
   2625660599.6718664     
   2625019071.3237381     
   2632500070.1501746     
   2626503082.9806495     
   2614198973.3012891     
   2608171897.5282483     
   2608428120.0046701     
   2614974232.1515493     
   2642216295.6802115     
   2632104751.4663982     
   2626419295.9719691     
   2625159929.1969213     
   2628326651.1412611     
   2747856477.8451033     
   2712149331.3281746     
   2679639198.4895182     
   2651130574.8347106     
   2627965131.1482840     
   2677986193.5204978     
   2657465013.0469871     
   2643197436.1405993     
   2635701905.5545516     
   2635784906.2847643     
   2632500070.1501746     
   2623622593.2899151     
   2623730708.4756403     
   2633083701.6841269     
   2652060871.9609566     
   2614974232.1515493     
   2612517820.3113275     
   2621514404.4848776     
   2642035652.6622238     
   2674181249.5377555     
   2628326651.1412611     
   2625561299.7545958     
   2636559902.1781297     
   2661322458.4118629     
   2699848968.4557910     
   2627965131.1482840     
   2640366323.0617571     
   2655464828.2068014     
   2673897417.2071900     
   2700666191.1209168     
   2635784906.2847643     
   2622064597.9311142     
   2612853778.5431328     
   2608609943.1752200     
   2612332464.7147079     
   2652060871.9609566     
   2621480410.8839087     
   2597657937.0500197     
   2580834556.1926126     
   2572398549.8013558     
   2674181249.5377555     
   2635975756.1387739     
   2607090041.7060342     
   2587592526.7399831     
   2577836756.6616316     
   2699848968.4557910     
   2662814224.0942163     
   2637944117.5639205     
   2625238648.8649225     
   2624697817.9972143     
   1137133049.3344455     
   1335481651.9741361     
   1534054644.2340209     
   1732852026.1140988     
   1931873797.6143706     
   1207284941.6671226     
   1399268856.9180453     
   1590770784.8771954     
   1781016587.5681465     
   1969549704.2190914     
   1393676597.5993810     
   1571144458.8736787     
   1749579558.3346045     
   1926984586.4153535     
   2102114513.9684727     
   1653728210.8083403     
   1820302039.1258931     
   1988562325.1729145     
   2155821639.2033205     
   2320329942.1543074     
   1955165361.3686569     
   2119338420.9357090     
   2284886368.5220284     
   2448860213.2015901     
   2609311822.4351325     
   1931873797.6143706     
   2058610503.0843878     
   2180058302.3687835     
   2296217195.4675598     
   2407087182.3807144     
   1969549704.2190914     
   2086761644.7818742     
   2201211467.0660939     
   2312823150.7637472     
   2421544168.5775146     
   2102114513.9684727     
   2205824361.1217155     
   2309489643.2659669     
   2412870695.5689836     
   2515799499.5260711     
   2320329942.1543074     
   2407213113.0349455     
   2496538433.5894718     
   2587908967.8477473     
   2681046578.3000398     
   2609311822.4351325     
   2676978336.2904091     
   2749109263.6351943     
   2825182787.3373694     
   2904840206.5894518     
   2407087182.3807144     
   2442393428.7301550     
   2483005673.8535194     
   2528923917.7508082     
   2580148160.4220209     
   2421544168.5775146     
   2454956821.5989904     
   2492695910.8613830     
   2534765554.4090657     
   2581170150.6294632     
   2515799499.5260711     
   2544396186.9829240     
   2576340407.6523948     
   2611637605.2764688     
   2650295065.7067747     
   2681046578.3000398     
   2703364899.2723274     
   2728061696.3461933     
   2755129424.9341316     
   2784565380.2256417     
   2904840206.5894518     
   2920798148.8303380     
   2938197505.6359930     
   2957001409.0163012     
   2977181403.5889497     
   2580148160.4220209     
   2589274382.7529931     
   2602954603.3941517     
   2621188822.3454957     
   2643977039.6070242     
   2581170150.6294632     
   2585660312.2111716     
   2596011313.5741363     
   2612231869.4167638     
   2634336953.5031109     
   2650295065.7067747     
   2646085715.5537133     
   2648770450.5734072     
   2658390221.6426225     
   2675012846.2941651     
   2784565380.2256417     
   2767593509.2750335     
   2758214322.4931121     
   2756521534.6741133     
   2762673149.3176084     
   2977181403.5889497     
   2943798518.7419739     
   2918357395.0169787     
   2901006497.2423515     
   2892013067.0408716     
   2643977039.6070242     
   2628967546.1301765     
   2623670924.3167572     
   2628087174.1667681     
   2642216295.6802115     
   2634336953.5031109     
   2619474468.0290451     
   2613204621.2616854     
   2615542278.9309912     
   2626503083.0537543     
   2675012846.2941651     
   2657760465.3542414     
   2648002364.0827646     
   2645783895.0158749     
   2651153907.8083305     
   2762673149.3176084     
   2741337380.5725136     
   2726442435.4428306     
   2718060319.8884087     
   2716271405.2877955     
   2892013067.0408716     
   2865791367.6284637     
   2845028823.2575073     
   2829807215.0029173     
   2820223098.1817417     
   2642216295.6802115     
   2632104751.4663982     
   2626419295.9719691     
   2625159929.1969213     
   2628326651.1412611     
   2626503083.0537543     
   2614198973.3616061     
   2608171897.5690255     
   2608428120.0192060     
   2614974232.1332064     
   2651153907.8083305     
   2634384793.1387873     
   2625660599.7554889     
   2625019071.3642759     
   2632500070.1346998     
   2716271405.2877955     
   2692044833.8644514     
   2677511102.3641119     
   2672784395.7648816     
   2677986193.5308304     
   2820223098.1817417     
   2785084973.8226857     
   2761140565.0012255     
   2748640947.7603707     
   2747856477.9043345     
   2628326651.1412611     
   2625561299.7545958     
   2636559902.1781297     
   2661322458.4118629     
   2699848968.4557910     
   2614974232.1332064     
   2612517820.2909722     
   2621514404.4659977     
   2642035652.6489816     
   2674181249.5347028     
   2632500070.1346998     
   2623622593.2566881     
   2623730708.4301987     
   2633083701.6337767     
   2652060871.9148316     
   2677986193.5308304     
   2657465013.0109220     
   2643197436.0639296     
   2635701905.4463625     
   2635784906.1584449     
   2747856477.9043345     
   2712149331.3011212     
   2679639198.3802633     
   2651130574.6523886     
   2627965130.9097281     
   2699848968.4557910     
   2662814224.0942163     
   2637944117.5639205     
   2625238648.8649225     
   2624697817.9972143     
   2674181249.5347028     
   2635975756.1152720     
   2607090041.6426454     
   2587592526.6160293     
   2577836756.4562593     
   2652060871.9148316     
   2621480410.8931165     
   2597657937.0771341     
   2580834556.2036128     
   2572398549.7774801     
   2635784906.1584449     
   2622064598.0333500     
   2612853778.8201771     
   2608609943.5867019     
   2612332465.2649069     
   2627965130.9097281     
   2640366323.3191953     
   2655464828.8926053     
   2673897418.2811880     
   2700666192.6265225     
   1955165361.3686569     
   2119338420.9357090     
   2284886368.5220284     
   2448860213.2015901     
   2609311822.4351325     
   2298652031.1321445     
   2449435069.5780845     
   2604968490.4224329     
   2763334802.0717459     
   2923108207.6933780     
   2694669630.4716411     
   2830473279.9580927     
   2973620278.1270099     
   3123028331.8071370     
   3277785860.7665377     
   3137990758.2105474     
   3255491812.8788209     
   3382440159.5263367     
   3518361335.9634542     
   3662792674.8179321     
   3625116299.5640659     
   3719694394.7488399     
   3825550988.1155324     
   3942610521.8407297     
   4070770330.4058537     
   2609311822.4351325     
   2676978336.2904091     
   2749109263.6351943     
   2825182787.3373694     
   2904840206.5894518     
   2923108207.6933780     
   2975687573.4255495     
   3030440044.7727880     
   3086675809.5890822     
   3143857053.4330316     
   3277785860.7665377     
   3320731033.1164808     
   3363871804.9459262     
   3406387053.9727793     
   3447599401.6824179     
   3662792674.8179321     
   3702068285.7133951     
   3739926867.3664494     
   3775483224.3669391     
   3807997687.2823339     
   4070770330.4058537     
   4112320673.2394209     
   4151198875.7249870     
   4186532923.9743023     
   4217610886.9400859     
   2904840206.5894518     
   2920798148.8303380     
   2938197505.6359930     
   2957001409.0163012     
   2977181403.5889497     
   3143857053.4330316     
   3141591716.8525548     
   3143062547.8944950     
   3148181713.3344717     
   3156941226.7245169     
   3447599401.6824179     
   3422690438.3947349     
   3402982500.5827799     
   3388253328.1404777     
   3378500462.9130340     
   3807997687.2823339     
   3755763063.1946774     
   3709562464.2051830     
   3668916441.9316125     
   3633751921.0486159     
   4217610886.9400859     
   4133167706.2247386     
   4055190051.7303414     
   3982796171.6249881     
   3915715332.9474897     
   2977181403.5889497     
   2943798518.7419739     
   2918357395.0169787     
   2901006497.2423515     
   2892013067.0408716     
   3156941226.7245169     
   3108196973.7674885     
   3065932201.4953141     
   3030353283.0430617     
   3001740035.5773201     
   3378500462.9130340     
   3316045599.3036871     
   3258891693.0304589     
   3207259576.9200282     
   3161416293.7450476     
   3633751921.0486159     
   3559705280.1285915     
   3490092676.8492460     
   3425120946.9914961     
   3365032423.9304347     
   3915715332.9474897     
   3832332915.0055466     
   3752827455.5165968     
   3677375461.6933527     
   3606193501.9345756     
   2892013067.0408716     
   2865791367.6284637     
   2845028823.2575073     
   2829807215.0029173     
   2820223098.1817417     
   3001740035.5773201     
   2965585904.8644691     
   2935140647.3447971     
   2910587877.9283438     
   2892124304.1655836     
   3161416293.7450476     
   3112407374.8669276     
   3068948467.0084124     
   3031310589.9376721     
   2999804327.4268255     
   3365032423.9304347     
   3300785082.0712676     
   3241575764.0456028     
   3187723881.7959394     
   3139637288.4192443     
   3606193501.9345756     
   3524816698.7821932     
   3447698165.2618809     
   3375149382.7520733     
   3307632383.5039234     
   2820223098.1817417     
   2785084973.8226857     
   2761140565.0012255     
   2748640947.7603707     
   2747856477.9043345     
   2892124304.1655836     
   2843699472.0468960     
   2805264946.8092895     
   2777201576.2525821     
   2759923963.3848991     
   2999804327.4268255     
   2935950252.7964754     
   2880804221.7120886     
   2834852675.3910313     
   2798637020.2051959     
   3139637288.4192443     
   3059313446.3775945     
   2986345580.0228310     
   2921280409.8006716     
   2864742471.5636916     
   3307632383.5039234     
   3210732929.3804674     
   3119813956.2984428     
   3035430803.6882844     
   2958234324.7693825     
   2747856477.9043345     
   2712149331.3011212     
   2679639198.3802633     
   2651130574.6523886     
   2627965130.9097281     
   2759923963.3848991     
   2704967693.8267508     
   2653528921.2454205     
   2605971056.4509821     
   2562800121.7609205     
   2798637020.2051959     
   2731347275.8354926     
   2668297119.5832567     
   2609623912.2323627     
   2555479899.1544256     
   2864742471.5636916     
   2791206503.8811316     
   2723046889.0599627     
   2660399273.3359785     
   2603582177.9478464     
   2958234324.7693825     
   2883315472.1226325     
   2815307869.5231481     
   2754542949.5113182     
   2701972438.3347254     
   2627965130.9097281     
   2640366323.3191953     
   2655464828.8926053     
   2673897418.2811880     
   2700666192.6265225     
   2562800121.7609205     
   2595793224.2016912     
   2638094024.5914497     
   2689475432.5044556     
   2750563280.8813324     
   2555479899.1544256     
   2581777160.9682083     
   2620849663.5780368     
   2673374231.3953447     
   2739986317.4468112     
   2603582177.9478464     
   2597712297.8408918     
   2604130499.6782494     
   2626010487.6938581     
   2668385279.8595371     
   2701972438.3347254     
   2641998007.9936161     
   2589195185.5415945     
   2549852876.0064974     
   2537783244.8199034     
   3625116299.5640659     
   3719694394.7488399     
   3825550988.1155324     
   3942610521.8407297     
   4070770330.4058537     
   4134347012.1385803     
   4224417802.4946337     
   4320415142.8638248     
   4420672842.6500502     
   4523727812.1730890     
   4643681581.9218731     
   4755584555.7403145     
   4868601025.3557577     
   4980094323.8610430     
   5088137939.4892492     
   5151603012.2067547     
   5311371839.2242861     
   5467748953.4198494     
   5617847676.1342649     
   5760211779.9686975     
   5657847662.8916168     
   5890942589.8223314     
   6116362799.8760633     
   6331669753.0078526     
   6536661440.1440878     
   4070770330.4058537     
   4112320673.2394209     
   4151198875.7249870     
   4186532923.9743023     
   4217610886.9400859     
   4523727812.1730890     
   4538850893.8663015     
   4558654198.2763844     
   4580674585.9941139     
   4603194797.4770727     
   5088137939.4892492     
   5053846381.4281015     
   5030082986.1330671     
   5011649369.5981646     
   4995349003.4812508     
   5760211779.9686975     
   5651966464.3344746     
   5559729546.9350386     
   5474433289.6874189     
   5390543362.3235960     
   6536661440.1440878     
   6328604989.4118261     
   6142733562.0891323     
   5965108170.3152533     
   5786722308.2973289     
   4217610886.9400859     
   4133167706.2247386     
   4055190051.7303414     
   3982796171.6249881     
   3915715332.9474897     
   4603194797.4770727     
   4493898811.0518532     
   4388742715.1800776     
   4287391467.0176353     
   4189754624.0193300     
   4995349003.4812508     
   4867054690.9022045     
   4741862775.7291250     
   4619733754.9440641     
   4500700696.1804600     
   5390543362.3235960     
   5248680674.8023214     
   5109984754.1982794     
   4974494651.9813538     
   4842300067.6636982     
   5786722308.2973289     
   5636114486.8016567     
   5489719007.9600964     
   5347441838.1852732     
   5209331503.8912916     
   3915715332.9474897     
   3832332915.0055466     
   3752827455.5165968     
   3677375461.6933527     
   3606193501.9345756     
   4189754624.0193300     
   4095731647.3390222     
   4005247079.1029773     
   3918506458.9426875     
   3835763284.5773096     
   4500700696.1804600     
   4393088919.3172169     
   4288322280.3121953     
   4186603793.3157325     
   4088217493.2025461     
   4842300067.6636982     
   4718447869.2772141     
   4596488566.4549646     
   4476577979.3822031     
   4359002275.1047792     
   5209331503.8912916     
   5066846322.9128618     
   4925134239.2617340     
   4784251584.0614338     
   4644442722.5622301     
   3606193501.9345756     
   3524816698.7821932     
   3447698165.2618809     
   3375149382.7520733     
   3307632383.5039234     
   3835763284.5773096     
   3738288340.6284399     
   3644270676.5005708     
   3553990690.4599247     
   3467828441.1274128     
   4088217493.2025461     
   3976769943.9348116     
   3868273529.9029331     
   3762960803.2594171     
   3661130425.8122678     
   4359002275.1047792     
   4235543642.1147370     
   4114809154.9115887     
   3996975867.1140409     
   3882270573.6614871     
   4644442722.5622301     
   4510695769.8894539     
   4379698584.9867887     
   4251568043.1281986     
   4126470146.5051904     
   3307632383.5039234     
   3210732929.3804674     
   3119813956.2984428     
   3035430803.6882844     
   2958234324.7693825     
   3467828441.1274128     
   3355655714.7103581     
   3248345299.9745107     
   3146394749.5373192     
   3050406418.9552555     
   3661130425.8122678     
   3534753171.2714238     
   3412209641.9683833     
   3293914119.2227712     
   3180383295.7787824     
   3882270573.6614871     
   3742882878.2395587     
   3606437010.5448904     
   3473256375.4218159     
   3343755996.5373082     
   4126470146.5051904     
   3975262385.2867785     
   3826259527.9404645     
   3679699851.8388624     
   3535898420.8892941     
   2958234324.7693825     
   2883315472.1226325     
   2815307869.5231481     
   2754542949.5113182     
   2701972438.3347254     
   3050406418.9552555     
   2973257820.7838216     
   2902759883.1263156     
   2839163866.0030804     
   2782961901.2880120     
   3180383295.7787824     
   3094040635.1220059     
   3013313364.8903174     
   2938567223.5176859     
   2870257101.9262142     
   3343755996.5373082     
   3242784244.5742588     
   3145640918.5385118     
   3052896038.9190497     
   2965260333.4429660     
   3535898420.8892941     
   3416394750.9382405     
   3298297002.1256113     
   3182369239.9801359     
   3069739516.8613706     
   2701972438.3347254     
   2641998007.9936161     
   2589195185.5415945     
   2549852876.0064974     
   2537783244.8199034     
   2782961901.2880120     
   2663978062.4407792     
   2548200177.9320164     
   2438258615.9736581     
   2340197416.5023365     
   2870257101.9262142     
   2718120782.4392586     
   2566888708.7947092     
   2417110957.1619382     
   2269882837.5318584     
   2965260333.4429660     
   2804572626.6665282     
   2644501256.3684831     
   2485087010.4472833     
   2326602091.7848673     
   3069739516.8613706     
   2922438784.1212306     
   2777286049.7292657     
   2634641119.1222243     
   2497225365.7163548     
   5657847662.8916168     
   5890942589.8223314     
   6116362799.8760633     
   6331669753.0078526     
   6536661440.1440878     
   6491609266.6161747     
   6586881692.4536886     
   6757484205.4092932     
   6961332620.6947155     
   7171765719.9457016     
   7982360272.6187277     
   7734995176.0550156     
   7669234058.6885681     
   7669715445.2913313     
   7666493808.0739899     
   10130550307.199369     
   9322111181.6431065     
   8826415058.7466679     
   8443498599.7071762     
   8035504524.8307781     
   12936267458.215143     
   11340937702.011253     
   10210188213.554253     
   9272472401.8319492     
   8303233397.6630201     
   6536661440.1440878     
   6328604989.4118261     
   6142733562.0891323     
   5965108170.3152533     
   5786722308.2973289     
   7171765719.9457016     
   6910946727.3785810     
   6658027046.7561865     
   6409147509.9376888     
   6161162979.6383543     
   7666493808.0739899     
   7381114808.1614923     
   7101152950.0908728     
   6826693975.3732414     
   6557952877.5763636     
   8035504524.8307781     
   7746765894.2719793     
   7473786836.8989468     
   7214593187.5298052     
   6969206962.4857254     
   8303233397.6630201     
   8020467448.1014042     
   7780035140.9703808     
   7571165540.4671564     
   7388879401.5843830     
   5786722308.2973289     
   5636114486.8016567     
   5489719007.9600964     
   5347441838.1852732     
   5209331503.8912916     
   6161162979.6383543     
   6012689008.9638853     
   5865564961.5308990     
   5719827405.9669991     
   5575530400.0667009     
   6557952877.5763636     
   6407813433.3157539     
   6255991559.6884460     
   6102454673.0492725     
   5947237422.2890310     
   6969206962.4857254     
   6814994638.3672504     
   6655999437.2967224     
   6491925102.1185274     
   6322731446.8214693     
   7388879401.5843830     
   7229209726.5425119     
   7061720020.9183607     
   6885670292.6655741     
   6700877390.8647079     
   5209331503.8912916     
   5066846322.9128618     
   4925134239.2617340     
   4784251584.0614338     
   4644442722.5622301     
   5575530400.0667009     
   5414310913.8656406     
   5253895069.7513504     
   5094326898.3357964     
   4935715517.7486544     
   5947237422.2890310     
   5772613234.6690283     
   5599432401.9137115     
   5427716226.8872881     
   5257514119.4521084     
   6322731446.8214693     
   6139402293.9198112     
   5958691258.8135004     
   5780556613.5380468     
   5605014884.0495300     
   6700877390.8647079     
   6512911317.9609461     
   6329230152.1944256     
   6149660519.0322933     
   5974167828.6246862     
   4644442722.5622301     
   4510695769.8894539     
   4379698584.9867887     
   4251568043.1281986     
   4126470146.5051904     
   4935715517.7486544     
   4792627542.1680355     
   4651211817.6448889     
   4511592151.1849661     
   4373938907.9373856     
   5257514119.4521084     
   5103736992.0885115     
   4950428500.1133318     
   4797671619.4734612     
   4645605990.3618603     
   5605014884.0495300     
   5439430315.1927776     
   5273058974.5965729     
   5105898446.0341444     
   4938021686.9920502     
   5974167828.6246862     
   5795832796.4744205     
   5615469528.0562572     
   5432950806.7280836     
   5248249333.6576252     
   4126470146.5051904     
   3975262385.2867785     
   3826259527.9404645     
   3679699851.8388624     
   3535898420.8892941     
   4373938907.9373856     
   4209412434.3203545     
   4046343839.6786952     
   3884903977.3979073     
   3725334370.8837819     
   4645605990.3618603     
   4468050753.3429756     
   4291277577.7149014     
   4115391647.6818113     
   3940560213.0215850     
   4938021686.9920502     
   4747709072.3768663     
   4557580826.2953243     
   4367682448.0517263     
   4178112141.3924880     
   5248249333.6576252     
   5045416706.5475388     
   4842248891.5015535     
   4638739890.9254007     
   4434927500.8911819     
   3535898420.8892941     
   3416394750.9382405     
   3298297002.1256113     
   3182369239.9801359     
   3069739516.8613706     
   3725334370.8837819     
   3590118474.7501941     
   3456037329.1709061     
   3323278533.3317213     
   3192090614.3586411     
   3940560213.0215850     
   3799126981.1525092     
   3659761337.2858768     
   3522470838.5641971     
   3387326452.9900498     
   4178112141.3924880     
   4038375598.7208772     
   3902552032.8619223     
   3770682642.2558184     
   3643116384.5989747     
   4434927500.8911819     
   4303236203.2541218     
   4177991874.3507423     
   4059299904.6808577     
   3947972360.9932055     
   3069739516.8613706     
   2922438784.1212306     
   2777286049.7292657     
   2634641119.1222243     
   2497225365.7163548     
   3192090614.3586411     
   3051983840.1669559     
   2916130702.1910701     
   2784767684.7610993     
   2658315566.6294150     
   3387326452.9900498     
   3221898247.4222150     
   3056091912.9168620     
   2890904230.2411098     
   2729143168.6324234     
   3643116384.5989747     
   3424793895.4613028     
   3196403585.2572589     
   2958149120.3888116     
   2716566946.8416643     
   3947972360.9932055     
   3653920768.6703959     
   3338182435.6108131     
   2996332724.4999938     
   2635941425.0440388     
 </DataArray>
 <DataArray  type="Float64" Name="strain" NumberOfComponents="3" format="ascii">
  0.20349260249373202        0.0000000000000000       0.12542350708633865     
  0.18665841578451733       -2.7333059688849831E-002   7.4354961778085607E-002
  0.16982422907530265       -4.4685620729078793E-002   3.5124339620460326E-002
  0.15299004236608793       -5.2057683120686926E-002   7.7316406134628896E-003
  0.13615585565687324       -4.9449246863674190E-002  -7.8231352429068146E-003
  0.15985796389580595        0.0000000000000000        9.6456863007528995E-002
  0.15317936398180504       -2.1850323952407495E-002   6.2690694282018192E-002
  0.14650076406780416       -3.6181337520711843E-002   3.7397775996307211E-002
  0.13982216415380327       -4.2993040704913027E-002   2.0578108150396075E-002
  0.13314356423980239       -4.2285433505011086E-002   1.2231690744284748E-002
  0.12645813371967410        0.0000000000000000        7.4203548797420513E-002
  0.12657044789005906       -1.6367588215965165E-002   5.5278568390134245E-002
  0.12668276206044402       -2.7677054312344879E-002   4.1462165711819855E-002
  0.12679507623082897       -3.3928398289139156E-002   3.2754340762477366E-002
  0.12690739040121393       -3.5121620146347982E-002   2.9155093542106686E-002
  0.10329311196533648        0.0000000000000000        5.8663564456013215E-002
  0.10683166750927932       -1.0884852479522832E-002   5.2118584102433800E-002
  0.11037022305322218       -1.9172771103977915E-002   4.7317508766998306E-002
  0.11390877859716501       -2.4863755873365267E-002   4.4260338449706685E-002
  0.11744733414110786       -2.7957806787684863E-002   4.2947073150558998E-002
   9.0362898632793079E-002   0.0000000000000000        4.9836909983307108E-002
   9.3963022839465851E-002  -5.4021167430804993E-003   5.3210741418916831E-002
   9.7563147046138624E-002  -1.0668487895610958E-002   5.4963805161842509E-002
  0.10116327125281140       -1.5799113457591375E-002   5.5096101212084116E-002
  0.10476339545948417       -2.0793993429021756E-002   5.3607629569641657E-002
  0.13615585565687324       -4.9449246863674190E-002  -7.8231352429068146E-003
  0.13296164990280826       -4.2905080627408776E-002  -3.3819096409162946E-003
  0.12976744414874328       -3.8469953081258765E-002  -3.6564907154532089E-004
  0.12657323839467827       -3.6143864225224281E-002   1.2256464652058568E-003
  0.12337903264061331       -3.5926814059305145E-002   1.3919769693374884E-003
  0.13314356423980239       -4.2285433505011086E-002   1.2231690744284748E-002
  0.12891430795539938       -3.8413170727962465E-002   1.2189429467076737E-002
  0.12468505167099639       -3.5730907180723567E-002   1.1502032161812406E-002
  0.12045579538659337       -3.4238642863294505E-002   1.0169498828491594E-002
  0.11622653910219038       -3.3936377775675097E-002   8.1918294671145114E-003
  0.12690739040121393       -3.5121620146347982E-002   2.9155093542106686E-002
  0.12242291259103619       -3.3921260828516125E-002   2.5548384846005728E-002
  0.11793843478085844       -3.2991861280188377E-002   2.2076369126411789E-002
  0.11345395697068074       -3.2333421501364715E-002   1.8739046383324718E-002
  0.10896947916050295       -3.1945941492045132E-002   1.5536416616744611E-002
  0.11744733414110786       -2.7957806787684863E-002   4.2947073150558998E-002
  0.11348746380971869       -2.9429350929069800E-002   3.6694956495870866E-002
  0.10952759347832949       -3.0252815379653155E-002   3.1357361822252988E-002
  0.10556772314694028       -3.0428200139434938E-002   2.6934289129705226E-002
  0.10160785281555115       -2.9955505208415154E-002   2.3425738418227780E-002
  0.10476339545948417       -2.0793993429021756E-002   5.3607629569641657E-002
  0.10210796161144683       -2.4937441029623492E-002   4.5629144416671992E-002
   9.9452527763409515E-002  -2.7513769479117958E-002   3.9345010249335809E-002
   9.6797093915372209E-002  -2.8522978777505203E-002   3.4755227067633170E-002
   9.4141660067334862E-002  -2.7965068924785133E-002   3.1859794871563984E-002
  0.12337903264061331       -3.5926814059305145E-002   1.3919769693374884E-003
  0.12041551964638930       -3.6444361908206477E-002   5.9860578543896592E-004
  0.11745200665216522       -3.6322067096633326E-002   2.9888706595621040E-005
  0.11448849365794117       -3.5559929624585915E-002  -3.1417426719298341E-004
  0.11152498066371713       -3.4157949492063744E-002  -4.3358313592645192E-004
  0.11622653910219038       -3.3936377775675097E-002   8.1918294671145114E-003
  0.11346783594729140       -3.4024585560158305E-002   7.7984956872613476E-003
  0.11070913279239245       -3.3703739859036921E-002   7.5901274810033850E-003
  0.10795042963749343       -3.2973840672310933E-002   7.5667248483404122E-003
  0.10519172648259453       -3.1834887999980244E-002   7.7282877892728141E-003
  0.10896947916050295       -3.1945941492045132E-002   1.5536416616744611E-002
  0.10637589731346928       -3.1604809212110223E-002   1.5312331066066762E-002
  0.10378231546643558       -3.1085412621440517E-002   1.5233522557524290E-002
  0.10118873361940194       -3.0387751720035959E-002   1.5299991091117276E-002
   9.8595151772368231E-002  -2.9511826507896743E-002   1.5511736666845730E-002
  0.10160785281555115       -2.9955505208415154E-002   2.3425738418227780E-002
   9.9139703744922980E-002  -2.9185032864062068E-002   2.3140111921855413E-002
   9.6671554674294780E-002  -2.8467085383844057E-002   2.2960073936158801E-002
   9.4203405603666593E-002  -2.7801662767761148E-002   2.2885624461137698E-002
   9.1735256533038434E-002  -2.7188765015813215E-002   2.2916763496792256E-002
   9.4141660067334862E-002  -2.7965068924785133E-002   3.1859794871563984E-002
   9.1759255241652404E-002  -2.6765256516013934E-002   3.1281838254627409E-002
   8.9376850415969961E-002  -2.5848758146247628E-002   3.0769781616906612E-002
   8.6994445590287489E-002  -2.5215573815486211E-002   3.0323624958401591E-002
   8.4612040764605018E-002  -2.4865703523729660E-002   2.9943368279112509E-002
  0.11152498066371713       -3.4157949492063744E-002  -4.3358313592645192E-004
  0.10854214105820564       -3.2591643473741105E-002  -4.1518874836193875E-005
  0.10555930145269418       -3.1336528344291389E-002   3.0952665980779615E-004
  0.10257646184718273       -3.0392604103714842E-002   6.1955346800583733E-004
   9.9593622241671231E-002  -2.9759870752011197E-002   8.8856154975808233E-004
  0.10519172648259453       -3.1834887999980244E-002   7.7282877892728141E-003
  0.10221353734862698       -3.0585419741426714E-002   7.6530941182332141E-003
   9.9235348214659500E-002  -2.9523973796031944E-002   7.6282201167274383E-003
   9.6257159080691962E-002  -2.8650550163795696E-002   7.6536657847554729E-003
   9.3278969946724466E-002  -2.7965148844718568E-002   7.7294311223174428E-003
   9.8595151772368231E-002  -2.9511826507896743E-002   1.5511736666845730E-002
   9.5712951505924473E-002  -2.8579196009112240E-002   1.5092453639390782E-002
   9.2830751239480758E-002  -2.7711419247772338E-002   1.4814828677449474E-002
   8.9948550973037028E-002  -2.6908496223876831E-002   1.4678861781021870E-002
   8.7066350706593298E-002  -2.6170426937425800E-002   1.4684552950107801E-002
   9.1735256533038434E-002  -2.7188765015813215E-002   2.2916763496792256E-002
   8.9040383530098230E-002  -2.6572972276797974E-002   2.2276559688636295E-002
   8.6345510527157998E-002  -2.5898864699512868E-002   2.1869352341973777E-002
   8.3650637524217808E-002  -2.5166442283958004E-002   2.1695141456804550E-002
   8.0955764521277562E-002  -2.4375705030133213E-002   2.1753927033128884E-002
   8.4612040764605018E-002  -2.4865703523729660E-002   2.9943368279112509E-002
   8.2195833421148112E-002  -2.4566748544483569E-002   2.9205412265969816E-002
   7.9779626077691249E-002  -2.4086310151253287E-002   2.8791791110300308E-002
   7.7363418734234357E-002  -2.3424388344039010E-002   2.8702504812104020E-002
   7.4947211390777452E-002  -2.2580983122840542E-002   2.8937553371380820E-002
   9.9593622241671231E-002  -2.9759870752011197E-002   8.8856154975808233E-004
   9.6544398000197873E-002  -2.9201615359638444E-002   2.7706108564251597E-004
   9.3495173758724515E-002  -2.8481124997054394E-002  -6.0568612830297353E-005
   9.0445949517251156E-002  -2.7598399664259459E-002  -1.2432754566128745E-004
   8.7396725275777798E-002  -2.6553439361252762E-002   8.5784287150558747E-005
   9.3278969946724466E-002  -2.7965148844718568E-002   7.7294311223174428E-003
   9.0486136497693354E-002  -2.7323984254657901E-002   7.3333756524859295E-003
   8.7693303048662075E-002  -2.6583270809471704E-002   7.1762310018961273E-003
   8.4900469599630879E-002  -2.5743008509160017E-002   7.2579971705486052E-003
   8.2107636150599683E-002  -2.4803197353722828E-002   7.5786741584427664E-003
   8.7066350706593298E-002  -2.6170426937425800E-002   1.4684552950107801E-002
   8.4494948103603890E-002  -2.5446353149677331E-002   1.4441256359474020E-002
   8.1923545500614536E-002  -2.4685416621888910E-002   1.4401910641682149E-002
   7.9352142897625141E-002  -2.3887617354060746E-002   1.4566515796731381E-002
   7.6780740294635746E-002  -2.3052955346193005E-002   1.4935071824622836E-002
   8.0955764521277562E-002  -2.4375705030133213E-002   2.1753927033128884E-002
   7.8570832817929676E-002  -2.3568722044696663E-002   2.1600703206607438E-002
   7.6185901114581747E-002  -2.2787562434306057E-002   2.1616470306527170E-002
   7.3800969411233819E-002  -2.2032226198961499E-002   2.1801228332888150E-002
   7.1416037707885932E-002  -2.1302713338663015E-002   2.2154977285690686E-002
   7.4947211390777452E-002  -2.2580983122840542E-002   2.8937553371380820E-002
   7.2713790640670656E-002  -2.1691090939716023E-002   2.8811716193885950E-002
   7.0480369890563818E-002  -2.0889708246723281E-002   2.8819909996431650E-002
   6.8246949140457036E-002  -2.0176835043862189E-002   2.8962134779018579E-002
   6.6013528390350212E-002  -1.9552471331132970E-002   2.9238390541646286E-002
   8.7396725275777798E-002  -2.6553439361252762E-002   8.5784287150558747E-005
   8.4045903880966555E-002  -2.5414242595762804E-002  -1.9319409954854372E-004
   8.0695082486155423E-002  -2.4248807875516531E-002  -2.7183932566554603E-004
   7.7344261091344263E-002  -2.3057135200514167E-002  -1.5015139120069798E-004
   7.3993439696533048E-002  -2.1839224570755711E-002   1.7186970384575062E-004
   8.2107636150599683E-002  -2.4803197353722828E-002   7.5786741584427664E-003
   7.8954007410815319E-002  -2.3802271681619414E-002   7.2832076018841119E-003
   7.5800378671030844E-002  -2.2778665831309663E-002   7.1817931947971980E-003
   7.2646749931246424E-002  -2.1732379802792759E-002   7.2744309371818167E-003
   6.9493121191461948E-002  -2.0663413596069047E-002   7.5611208290379817E-003
   7.6780740294635746E-002  -2.3052955346193005E-002   1.4935071824622836E-002
   7.3818023198767790E-002  -2.2190300767476606E-002   1.4619559321655262E-002
   7.0855306102899848E-002  -2.1308523787102684E-002   1.4491817957049111E-002
   6.7892589007031878E-002  -2.0407624405071351E-002   1.4551847730804049E-002
   6.4929871911163922E-002  -1.9487602621382605E-002   1.4799648642920660E-002
   7.1416037707885932E-002  -2.1302713338663015E-002   2.2154977285690686E-002
   6.8637951244824164E-002  -2.0578329853333452E-002   2.1815861059764866E-002
   6.5859864781762381E-002  -1.9838381742895761E-002   2.1658234961089949E-002
   6.3081778318700640E-002  -1.9082869007350164E-002   2.1682098989666346E-002
   6.0303691855638816E-002  -1.8311791646696274E-002   2.1887453145493743E-002
   6.6013528390350212E-002  -1.9552471331132970E-002   2.9238390541646286E-002
   6.3413791548984300E-002  -1.8966358939190353E-002   2.8872112816212853E-002
   6.0814054707618428E-002  -1.8368239698688962E-002   2.8681044206920248E-002
   5.8214317866252523E-002  -1.7758113609628676E-002   2.8665184713768249E-002
   5.5614581024886645E-002  -1.7135980672009721E-002   2.8824534336757301E-002
   7.3993439696533048E-002  -2.1839224570755711E-002   1.7186970384575062E-004
   7.1870103967555499E-002  -2.0860347408919067E-002   6.7168279391238706E-004
   6.9746768238577894E-002  -2.0385775137682971E-002   9.4459289168341565E-004
   6.7623432509600345E-002  -2.0415507757046356E-002   9.9059999715944702E-004
   6.5500096780622741E-002  -2.0949545267010539E-002   8.0970411034020362E-004
   6.9493121191461948E-002  -2.0663413596069047E-002   7.5611208290379817E-003
   6.7203442821824499E-002  -1.9745913807212023E-002   7.6436045432428656E-003
   6.4913764452186912E-002  -1.9154027032293686E-002   7.6203059684232244E-003
   6.2624086082549393E-002  -1.8887753271315047E-002   7.4912251045786138E-003
   6.0334407712911930E-002  -1.8947092524275400E-002   7.2563619517093114E-003
   6.4929871911163922E-002  -1.9487602621382605E-002   1.4799648642920660E-002
   6.2594971604136865E-002  -1.8631480205504425E-002   1.4643494857924905E-002
   6.0260071297109891E-002  -1.7922278926904761E-002   1.4502679487174874E-002
   5.7925170990082847E-002  -1.7359998785583634E-002   1.4377202530670777E-002
   5.5590270683055831E-002  -1.6944639781540483E-002   1.4267063988412154E-002
   6.0303691855638816E-002  -1.8311791646696274E-002   2.1887453145493743E-002
   5.8044690314492789E-002  -1.7517046603797215E-002   2.1671353737958338E-002
   5.5785688773346741E-002  -1.6690530821515767E-002   2.1591713447938858E-002
   5.3526687232200679E-002  -1.5832244299851830E-002   2.1648532275435940E-002
   5.1267685691054714E-002  -1.4942187038805455E-002   2.1841810220449051E-002
   5.5614581024886645E-002  -1.7135980672009721E-002   2.8824534336757301E-002
   5.3552598952892050E-002  -1.6402613002089894E-002   2.8727181183342720E-002
   5.1490616880897511E-002  -1.5458782716126745E-002   2.8887407850714808E-002
   4.9428634808902930E-002  -1.4304489814120407E-002   2.9305214338873758E-002
   4.7366652736908377E-002  -1.2939734296070537E-002   2.9980600647819267E-002
   6.5500096780622741E-002  -2.0949545267010539E-002   8.0970411034020362E-004
   6.0174859226661659E-002  -2.0977709124479826E-002  -2.1741571355026190E-003
   5.4849621672700688E-002  -1.9489820786359136E-002  -3.3453677365629098E-003
   4.9524384118739689E-002  -1.6485880252649229E-002  -2.7039276928391143E-003
   4.4199146564778635E-002  -1.1965887523349927E-002  -2.4983700433400813E-004
   6.0334407712911930E-002  -1.8947092524275400E-002   7.2563619517093114E-003
   5.6552726229805061E-002  -1.8689111494756383E-002   5.6631110570365961E-003
   5.2771044746698303E-002  -1.7470876886338305E-002   5.3443216592893306E-003
   4.8989363263591407E-002  -1.5292388699021775E-002   6.2999937584674037E-003
   4.5207681780484732E-002  -1.2153646932806961E-002   8.5301273545712597E-003
   5.5590270683055831E-002  -1.6944639781540483E-002   1.4267063988412154E-002
   5.2813956122945788E-002  -1.6400513865032940E-002   1.3508624828218629E-002
   5.0037641562835786E-002  -1.5451932986317501E-002   1.3486458017093667E-002
   4.7261327002725749E-002  -1.4098897145394328E-002   1.4200563555035947E-002
   4.4485012442615657E-002  -1.2341406342263106E-002   1.5650941442046817E-002
   5.1267685691054714E-002  -1.4942187038805455E-002   2.1841810220449051E-002
   4.8958548906083942E-002  -1.4111916235309607E-002   2.1362384178043953E-002
   4.6649412121113204E-002  -1.3432989086296684E-002   2.1081041336849737E-002
   4.4340275336142550E-002  -1.2905405591766766E-002   2.0997781696865798E-002
   4.2031138551171784E-002  -1.2529165751719917E-002   2.1112605258092637E-002
   4.7366652736908377E-002  -1.2939734296070537E-002   2.9980600647819267E-002
   4.4986504579219488E-002  -1.1823318605586386E-002   2.9224389106512261E-002
   4.2606356421530628E-002  -1.1414045186275840E-002   2.8128071618558126E-002
   4.0226208263841781E-002  -1.1711914038139253E-002   2.6691648183957056E-002
   3.7846060106152879E-002  -1.2716925161176507E-002   2.4915118802709024E-002
   9.0362898632793079E-002   0.0000000000000000        4.9836909983307108E-002
   9.3963022839465851E-002  -5.4021167430804993E-003   5.3210741418916831E-002
   9.7563147046138624E-002  -1.0668487895610958E-002   5.4963805161842509E-002
  0.10116327125281140       -1.5799113457591375E-002   5.5096101212084116E-002
  0.10476339545948417       -2.0793993429021756E-002   5.3607629569641657E-002
   8.2427761915846956E-002   0.0000000000000000        4.4787781786991401E-002
   8.4636543069508866E-002  -4.5731501512204448E-003   4.8269372170005112E-002
   8.6845324223170775E-002  -9.0360668963299726E-003   5.0589044139681134E-002
   8.9054105376832657E-002  -1.3388750235328588E-002   5.1746797696019496E-002
   9.1262886530494580E-002  -1.7631200168216288E-002   5.1742632839020183E-002
   7.4247970008301148E-002   0.0000000000000000        4.0580376274755310E-002
   7.5524257388298571E-002  -3.7441835593603899E-003   4.4144213420733866E-002
   7.6800544768295995E-002  -7.4036458970489893E-003   4.7004981432721145E-002
   7.8076832148293432E-002  -1.0978387013065799E-002   4.9162680310717112E-002
   7.9353119528290841E-002  -1.4468406907410821E-002   5.0617310054721837E-002
   6.5823522910155627E-002   0.0000000000000000        3.7214693446598834E-002
   6.6626165795834968E-002  -2.9152169675003350E-003   4.0835265171103120E-002
   6.7428808681514296E-002  -5.7712248977680085E-003   4.4211617040962499E-002
   6.8231451567193652E-002  -8.5680237908030144E-003   4.7343749056176991E-002
   6.9034094452872966E-002  -1.1305613646605352E-002   5.0231661216746562E-002
   5.7154420621410434E-002   0.0000000000000000        3.4690733302521967E-002
   5.7942268292118064E-002  -2.0862503756402815E-003   3.8342527421112854E-002
   5.8730115962825694E-002  -4.1388038984870208E-003   4.2208950964405245E-002
   5.9517963633533316E-002  -6.1576605685402241E-003   4.6290003932399099E-002
   6.0305811304240953E-002  -8.1428203857998871E-003   5.0585686325094442E-002
  0.10476339545948417       -2.0793993429021756E-002   5.3607629569641657E-002
  0.10210796161144683       -2.4937441029623492E-002   4.5629144416671992E-002
   9.9452527763409515E-002  -2.7513769479117958E-002   3.9345010249335809E-002
   9.6797093915372209E-002  -2.8522978777505203E-002   3.4755227067633170E-002
   9.4141660067334862E-002  -2.7965068924785133E-002   3.1859794871563984E-002
   9.1262886530494580E-002  -1.7631200168216288E-002   5.1742632839020183E-002
   9.0063070356378672E-002  -2.1207447720616047E-002   4.6510801554110387E-002
   8.8863254182262777E-002  -2.3561523918150803E-002   4.2495854631409966E-002
   8.7663438008146868E-002  -2.4693428760820601E-002   3.9697792070918836E-002
   8.6463621834030960E-002  -2.4603162248625396E-002   3.8116613872637047E-002
   7.9353119528290841E-002  -1.4468406907410821E-002   5.0617310054721837E-002
   7.9131454404672216E-002  -1.7477454411608584E-002   4.7787184841629651E-002
   7.8909789281053550E-002  -1.9609278357183662E-002   4.5696477367322623E-002
   7.8688124157434897E-002  -2.0863878744135991E-002   4.4345187631800766E-002
   7.8466459033816285E-002  -2.1241255572465638E-002   4.3733315635064135E-002
   6.9034094452872966E-002  -1.1305613646605352E-002   5.0231661216746562E-002
   6.9313113756327413E-002  -1.3747461102601138E-002   4.9458294279229743E-002
   6.9592133059781847E-002  -1.5657032796216504E-002   4.8946878457073933E-002
   6.9871152363236280E-002  -1.7034328727451403E-002   4.8697413750279091E-002
   7.0150171666690742E-002  -1.7879348896305904E-002   4.8709900158845271E-002
   6.0305811304240953E-002  -8.1428203857998871E-003   5.0585686325094442E-002
   6.0608048411344310E-002  -1.0017467793593686E-002   5.1524129866910691E-002
   6.0910285518447661E-002  -1.1704787235249370E-002   5.2247057900663751E-002
   6.1212522625551019E-002  -1.3204778710766800E-002   5.2754470426353658E-002
   6.1514759732654356E-002  -1.4517442220146129E-002   5.3046367443980350E-002
   9.4141660067334862E-002  -2.7965068924785133E-002   3.1859794871563984E-002
   9.1759255241652404E-002  -2.6765256516013934E-002   3.1281838254627409E-002
   8.9376850415969961E-002  -2.5848758146247628E-002   3.0769781616906612E-002
   8.6994445590287489E-002  -2.5215573815486211E-002   3.0323624958401591E-002
   8.4612040764605018E-002  -2.4865703523729660E-002   2.9943368279112509E-002
   8.6463621834030960E-002  -2.4603162248625396E-002   3.8116613872637047E-002
   8.4196532035236318E-002  -2.3956797414029705E-002   3.7072303361927184E-002
   8.1929442236441663E-002  -2.3420407289498003E-002   3.6192722925777077E-002
   7.9662352437647008E-002  -2.2993991875030300E-002   3.5477872564186698E-002
   7.7395262638852352E-002  -2.2677551170626642E-002   3.4927752277156193E-002
   7.8466459033816285E-002  -2.1241255572465638E-002   4.3733315635064135E-002
   7.6413514357253354E-002  -2.1148338312045486E-002   4.2395990559521840E-002
   7.4360569680690464E-002  -2.0992056432748429E-002   4.1322225653883320E-002
   7.2307625004127588E-002  -2.0772409934574458E-002   4.0512020918148484E-002
   7.0254680327564684E-002  -2.0489398817523638E-002   3.9965376352317492E-002
   7.0150171666690742E-002  -1.7879348896305904E-002   4.8709900158845271E-002
   6.8410202207703552E-002  -1.8339879210061263E-002   4.7252899847411461E-002
   6.6670232748716377E-002  -1.8563705575998811E-002   4.6158289801225424E-002
   6.4930263289729215E-002  -1.8550827994118630E-002   4.5426070020286938E-002
   6.3190293830742025E-002  -1.8301246464420627E-002   4.5056240504596397E-002
   6.1514759732654356E-002  -1.4517442220146129E-002   5.3046367443980350E-002
   6.0186595586586893E-002  -1.5531420108077051E-002   5.1643031225596020E-002
   5.8858431440519401E-002  -1.6135354719249238E-002   5.0700915367803294E-002
   5.7530267294451910E-002  -1.6329246053662740E-002   5.0220019870602206E-002
   5.6202103148384433E-002  -1.6113094111317616E-002   5.0200344733992902E-002
   8.4612040764605018E-002  -2.4865703523729660E-002   2.9943368279112509E-002
   8.2195833421148112E-002  -2.4566748544483569E-002   2.9205412265969816E-002
   7.9779626077691249E-002  -2.4086310151253287E-002   2.8791791110300308E-002
   7.7363418734234357E-002  -2.3424388344039010E-002   2.8702504812104020E-002
   7.4947211390777452E-002  -2.2580983122840542E-002   2.8937553371380820E-002
   7.7395262638852352E-002  -2.2677551170626642E-002   3.4927752277156193E-002
   7.5279000473030891E-002  -2.2357505541457261E-002   3.4390936385430441E-002
   7.3162738307209430E-002  -2.1920275352692559E-002   3.4129675991502448E-002
   7.1046476141387982E-002  -2.1365860604332480E-002   3.4143971095371942E-002
   6.8930213975566521E-002  -2.0694261296377081E-002   3.4433821697039291E-002
   7.0254680327564684E-002  -2.0489398817523638E-002   3.9965376352317492E-002
   6.8389583979703128E-002  -2.0148262538431064E-002   3.9565401727619992E-002
   6.6524487631841572E-002  -1.9754240554131830E-002   3.9392203241044602E-002
   6.4659391283980031E-002  -1.9307332864626062E-002   3.9445780892591438E-002
   6.2794294936118489E-002  -1.8807539469913662E-002   3.9726134682260349E-002
   6.3190293830742025E-002  -1.8301246464420627E-002   4.5056240504596397E-002
   6.1527583941164886E-002  -1.7939019535404784E-002   4.4728808292538363E-002
   5.9864874051587712E-002  -1.7588205755571129E-002   4.4579372858926956E-002
   5.8202164162010545E-002  -1.7248805124919601E-002   4.4607934203762231E-002
   5.6539454272433384E-002  -1.6920817643450235E-002   4.4814492327043987E-002
   5.6202103148384433E-002  -1.6113094111317616E-002   5.0200344733992902E-002
   5.4693000357416116E-002  -1.5729776532378573E-002   4.9881156080185618E-002
   5.3183897566447806E-002  -1.5422170957010366E-002   4.9691184845149339E-002
   5.1674794775479496E-002  -1.5190277385213139E-002   4.9630431028884280E-002
   5.0165691984511179E-002  -1.5034095816986753E-002   4.9698894631390295E-002
   7.4947211390777452E-002  -2.2580983122840542E-002   2.8937553371380820E-002
   7.2713790640670656E-002  -2.1691090939716023E-002   2.8811716193885950E-002
   7.0480369890563818E-002  -2.0889708246723281E-002   2.8819909996431650E-002
   6.8246949140457036E-002  -2.0176835043862189E-002   2.8962134779018579E-002
   6.6013528390350212E-002  -1.9552471331132970E-002   2.9238390541646286E-002
   6.8930213975566521E-002  -2.0694261296377081E-002   3.4433821697039291E-002
   6.6843987378348485E-002  -1.9980156234762611E-002   3.4141884796950586E-002
   6.4757760781130491E-002  -1.9298224225425403E-002   3.4010305222598333E-002
   6.2671534183912470E-002  -1.8648465268365423E-002   3.4039082973982851E-002
   6.0585307586694420E-002  -1.8030879363582775E-002   3.4228218051103987E-002
   6.2794294936118489E-002  -1.8807539469913662E-002   3.9726134682260349E-002
   6.0881588837484964E-002  -1.8269221529809296E-002   3.9324434497432365E-002
   5.8968882738851508E-002  -1.7706740204127751E-002   3.9109417984036735E-002
   5.7056176640217990E-002  -1.7120095492868772E-002   3.9081085142073493E-002
   5.5143470541584506E-002  -1.6509287396032496E-002   3.9239435971542419E-002
   5.6539454272433384E-002  -1.6920817643450235E-002   4.4814492327043987E-002
   5.4826595018080078E-002  -1.6558286824855918E-002   4.4359365295331361E-002
   5.3113735763726813E-002  -1.6115256182829878E-002   4.4117248280746792E-002
   5.1400876509373541E-002  -1.5591725717371952E-002   4.4088141283290229E-002
   4.9688017255020221E-002  -1.4987695428482203E-002   4.4272044302961902E-002
   5.0165691984511179E-002  -1.5034095816986753E-002   4.9698894631390295E-002
   4.8679005920133842E-002  -1.4847352119902624E-002   4.9246677190647570E-002
   4.7192319855756504E-002  -1.4523772161532243E-002   4.9033796112728581E-002
   4.5705633791379180E-002  -1.4063355941875319E-002   4.9060251397633335E-002
   4.4218947727001828E-002  -1.3466103460931966E-002   4.9326043045361923E-002
   6.6013528390350212E-002  -1.9552471331132970E-002   2.9238390541646286E-002
   6.3413791548984300E-002  -1.8966358939190353E-002   2.8872112816212853E-002
   6.0814054707618428E-002  -1.8368239698688962E-002   2.8681044206920248E-002
   5.8214317866252523E-002  -1.7758113609628676E-002   2.8665184713768249E-002
   5.5614581024886645E-002  -1.7135980672009721E-002   2.8824534336757301E-002
   6.0585307586694420E-002  -1.8030879363582775E-002   3.4228218051103987E-002
   5.8164921533559968E-002  -1.7421338331371675E-002   3.3866510834153471E-002
   5.5744535480425503E-002  -1.6795713992026604E-002   3.3688296077525104E-002
   5.3324149427291058E-002  -1.6154006345547364E-002   3.3693573781218580E-002
   5.0903763374156585E-002  -1.5496215391934354E-002   3.3882343945234539E-002
   5.5143470541584506E-002  -1.6509287396032496E-002   3.9239435971542419E-002
   5.2910718620862829E-002  -1.5876317723552996E-002   3.8886375721649991E-002
   5.0677966700141144E-002  -1.5223188285364238E-002   3.8725091276261094E-002
   4.8445214779419453E-002  -1.4549899081466271E-002   3.8755582635375513E-002
   4.6212462858697761E-002  -1.3856450111859042E-002   3.8977849798993547E-002
   4.9688017255020221E-002  -1.4987695428482203E-002   4.4272044302961902E-002
   4.7651182810892721E-002  -1.4331297115734290E-002   4.3931707478702689E-002
   4.5614348366765214E-002  -1.3650662578701764E-002   4.3791429803128314E-002
   4.3577513922637728E-002  -1.2945791817385095E-002   4.3851211276238970E-002
   4.1540679478510215E-002  -1.2216684831783647E-002   4.4111051898034152E-002
   4.4218947727001828E-002  -1.3466103460931966E-002   4.9326043045361923E-002
   4.2386314103649847E-002  -1.2786276507915695E-002   4.9002506105311427E-002
   4.0553680480297852E-002  -1.2078136872039513E-002   4.8887311658126903E-002
   3.8721046856945850E-002  -1.1341684553303810E-002   4.8980459703808862E-002
   3.6888413233593847E-002  -1.0576919551708308E-002   4.9281950242356876E-002
   5.5614581024886645E-002  -1.7135980672009721E-002   2.8824534336757301E-002
   5.3552598952892050E-002  -1.6402613002089894E-002   2.8727181183342720E-002
   5.1490616880897511E-002  -1.5458782716126745E-002   2.8887407850714808E-002
   4.9428634808902930E-002  -1.4304489814120407E-002   2.9305214338873758E-002
   4.7366652736908377E-002  -1.2939734296070537E-002   2.9980600647819267E-002
   5.0903763374156585E-002  -1.5496215391934354E-002   3.3882343945234539E-002
   4.9079278147287964E-002  -1.4802278043764300E-002   3.3917761000441943E-002
   4.7254792920419328E-002  -1.4052131213614399E-002   3.4170591925114735E-002
   4.5430307693550671E-002  -1.3245774901484493E-002   3.4640836719252333E-002
   4.3605822466682098E-002  -1.2383209107374726E-002   3.5328495382855762E-002
   4.6212462858697761E-002  -1.3856450111859042E-002   3.8977849798993547E-002
   4.4585308525633513E-002  -1.3201943085438927E-002   3.8991783928759807E-002
   4.2958154192569285E-002  -1.2645479711102178E-002   3.9182965976669717E-002
   4.1330999859505085E-002  -1.2187059988848916E-002   3.9551395942723187E-002
   3.9703845526440809E-002  -1.1826683918678971E-002   4.0097073826920293E-002
   4.1540679478510215E-002  -1.2216684831783647E-002   4.4111051898034152E-002
   4.0070690087928851E-002  -1.1601608127113416E-002   4.3949249968296064E-002
   3.8600700697347487E-002  -1.1238828208590006E-002   4.3924530005379575E-002
   3.7130711306766109E-002  -1.1128345076213282E-002   4.4036892009285497E-002
   3.5660721916184759E-002  -1.1270158729983187E-002   4.4286335980013379E-002
   3.6888413233593847E-002  -1.0576919551708308E-002   4.9281950242356876E-002
   3.5535422834173824E-002  -1.0001273168787961E-002   4.8790159119050491E-002
   3.4182432434753787E-002  -9.8321767060776527E-003   4.8395284011244877E-002
   3.2829442035333757E-002  -1.0069630163577575E-002   4.8097324918939657E-002
   3.1476451635913699E-002  -1.0713633541287293E-002   4.7896281842135013E-002
   4.7366652736908377E-002  -1.2939734296070537E-002   2.9980600647819267E-002
   4.4986504579219488E-002  -1.1823318605586386E-002   2.9224389106512261E-002
   4.2606356421530628E-002  -1.1414045186275840E-002   2.8128071618558126E-002
   4.0226208263841781E-002  -1.1711914038139253E-002   2.6691648183957056E-002
   3.7846060106152879E-002  -1.2716925161176507E-002   2.4915118802709024E-002
   4.3605822466682098E-002  -1.2383209107374726E-002   3.5328495382855762E-002
   4.1004231346873393E-002  -1.1598529996463380E-002   3.4090237596285378E-002
   3.8402640227064674E-002  -1.1025833733928098E-002   3.2749199832122156E-002
   3.5801049107255893E-002  -1.0665120319769440E-002   3.1305382090366651E-002
   3.3199457987447278E-002  -1.0516389753987054E-002   2.9758784371017977E-002
   3.9703845526440809E-002  -1.1826683918678971E-002   4.0097073826920293E-002
   3.7118137413566399E-002  -1.1373741387340319E-002   3.8871929217884654E-002
   3.4532429300691996E-002  -1.0637622281580369E-002   3.7781330600310095E-002
   3.1946721187817509E-002  -9.6183266013995204E-003   3.6825277974197192E-002
   2.9361013074943126E-002  -8.3158543467974910E-003   3.6003771339545187E-002
   3.5660721916184759E-002  -1.1270158729983187E-002   4.4286335980013379E-002
   3.3328222779298720E-002  -1.1148952778217230E-002   4.3569463971309751E-002
   3.0995723642412702E-002  -1.0249410829232634E-002   4.3224463923121612E-002
   2.8663224505526694E-002  -8.5715328830296544E-003   4.3251335835448629E-002
   2.6330725368640590E-002  -6.1153189396080387E-003   4.3650079708291434E-002
   3.1476451635913699E-002  -1.0713633541287293E-002   4.7896281842135013E-002
   2.9634487444070240E-002  -1.0924164169094364E-002   4.8182841856560910E-002
   2.7792523252226656E-002  -9.8611993768849548E-003   4.9078599800556233E-002
   2.5950559060383190E-002  -7.5247391646597467E-003   5.0583555674121122E-002
   2.4108594868539668E-002  -3.9147835324184754E-003   5.2697709477255605E-002
   5.7154420621410434E-002   0.0000000000000000        3.4690733302521967E-002
   5.7942268292118064E-002  -2.0862503756402815E-003   3.8342527421112854E-002
   5.8730115962825694E-002  -4.1388038984870208E-003   4.2208950964405245E-002
   5.9517963633533316E-002  -6.1576605685402241E-003   4.6290003932399099E-002
   6.0305811304240953E-002  -8.1428203857998871E-003   5.0585686325094442E-002
   4.8653050972761722E-002   0.0000000000000000        3.2786923124503806E-002
   4.9590313942930925E-002  -1.7106301932326142E-003   3.6964363375810882E-002
   5.0527576913100135E-002  -3.4334776649318881E-003   4.1226004801339630E-002
   5.1464839883269345E-002  -5.1685424150978241E-003   4.5571847401090049E-002
   5.2402102853438555E-002  -6.9158244437304145E-003   5.0001891175062166E-002
   4.0731801794905653E-002   0.0000000000000000        3.1281690194523405E-002
   4.1688051814056631E-002  -1.3350100108249466E-003   3.5938862447286460E-002
   4.2644301833207617E-002  -2.7281514313767536E-003   4.0549807623791373E-002
   4.3600551852358595E-002  -4.1794242616554206E-003   4.5114525724038172E-002
   4.4556801871509566E-002  -5.6888285016609488E-003   4.9633016748026802E-002
   3.3390673087842236E-002   0.0000000000000000        3.0175034512580773E-002
   3.4235481905495170E-002  -9.5938982841727960E-004   3.5266024635539614E-002
   3.5080290723148111E-002  -2.0228251978216200E-003   4.0180359431760515E-002
   3.5925099540801038E-002  -3.1903061082130214E-003   4.4918038901243469E-002
   3.6769908358453979E-002  -4.4618325595914797E-003   4.9479063043988449E-002
   2.6629664851571470E-002   0.0000000000000000        2.9466956078675905E-002
   2.7232604217246555E-002  -5.8376964600961260E-004   3.4945849940570331E-002
   2.7835543582921632E-002  -1.3174989642664846E-003   4.0117660225247001E-002
   2.8438482948596716E-002  -2.2011879547706188E-003   4.4982386932705905E-002
   2.9041422314271797E-002  -3.2348366175220123E-003   4.9540030062947056E-002
   6.0305811304240953E-002  -8.1428203857998871E-003   5.0585686325094442E-002
   6.0608048411344310E-002  -1.0017467793593686E-002   5.1524129866910691E-002
   6.0910285518447661E-002  -1.1704787235249370E-002   5.2247057900663751E-002
   6.1212522625551019E-002  -1.3204778710766800E-002   5.2754470426353658E-002
   6.1514759732654356E-002  -1.4517442220146129E-002   5.3046367443980350E-002
   5.2402102853438555E-002  -6.9158244437304145E-003   5.0001891175062166E-002
   5.2528058735709718E-002  -8.5769488911951793E-003   5.1223906672453010E-002
   5.2654014617980874E-002  -1.0053540897857607E-002   5.2308875228242638E-002
   5.2779970500252030E-002  -1.1345600463717692E-002   5.3256796842431051E-002
   5.2905926382523186E-002  -1.2453127588775467E-002   5.4067671515018303E-002
   4.4556801871509566E-002  -5.6888285016609488E-003   4.9633016748026802E-002
   4.4584945095410486E-002  -7.1364299887966588E-003   5.1135808675656459E-002
   4.4613088319311385E-002  -8.4022945604658728E-003   5.2580022228146839E-002
   4.4641231543212305E-002  -9.4864222166685906E-003   5.3965657405497969E-002
   4.4669374767113225E-002  -1.0388812957404812E-002   5.5292714207709801E-002
   3.6769908358453979E-002  -4.4618325595914797E-003   4.9479063043988449E-002
   3.6778707490446594E-002  -5.6959110863981383E-003   5.1259835876521054E-002
   3.6787506622439209E-002  -6.7510482230741468E-003   5.3060498900376368E-002
   3.6796305754431817E-002  -7.6272439696194721E-003   5.4881052115554302E-002
   3.6805104886424432E-002  -8.3244983260341542E-003   5.6721495522054952E-002
   2.9041422314271797E-002  -3.2348366175220123E-003   4.9540030062947056E-002
   2.9109345920818059E-002  -4.2553921839996308E-003   5.1595988275046786E-002
   2.9177269527364318E-002  -5.0998018856823948E-003   5.3750305244931157E-002
   2.9245193133910580E-002  -5.7680657225703692E-003   5.6002980972600105E-002
   2.9313116740456849E-002  -6.2601836946634890E-003   5.8354015458053708E-002
   6.1514759732654356E-002  -1.4517442220146129E-002   5.3046367443980350E-002
   6.0186595586586893E-002  -1.5531420108077051E-002   5.1643031225596020E-002
   5.8858431440519401E-002  -1.6135354719249238E-002   5.0700915367803294E-002
   5.7530267294451910E-002  -1.6329246053662740E-002   5.0220019870602206E-002
   5.6202103148384433E-002  -1.6113094111317616E-002   5.0200344733992902E-002
   5.2905926382523186E-002  -1.2453127588775467E-002   5.4067671515018303E-002
   5.1985712146987585E-002  -1.3308793128397372E-002   5.3347963584709363E-002
   5.1065497911451985E-002  -1.3845267937949903E-002   5.2982935114872502E-002
   5.0145283675916384E-002  -1.4062552017432998E-002   5.2972586105507799E-002
   4.9225069440380791E-002  -1.3960645366846686E-002   5.3316916556615149E-002
   4.4669374767113225E-002  -1.0388812957404812E-002   5.5292714207709801E-002
   4.4050569541989937E-002  -1.1086166148717748E-002   5.5165782018787010E-002
   4.3431764316866642E-002  -1.1555181156650539E-002   5.5286988390216771E-002
   4.2812959091743340E-002  -1.1795857981203268E-002   5.5656333321999096E-002
   4.2194153866620066E-002  -1.1808196622375838E-002   5.6273816814133938E-002
   3.6805104886424432E-002  -8.3244983260341542E-003   5.6721495522054952E-002
   3.6381167771593885E-002  -8.8635391690380962E-003   5.7096486527829046E-002
   3.5957230656763345E-002  -9.2650943753512308E-003   5.7613075193836093E-002
   3.5533293541932798E-002  -9.5291639449735111E-003   5.8271261520076161E-002
   3.5109356427102265E-002  -9.6557478779049910E-003   5.9071045506549139E-002
   2.9313116740456849E-002  -6.2601836946634890E-003   5.8354015458053708E-002
   2.8977506835799482E-002  -6.6409121893584513E-003   5.9140077111835422E-002
   2.8641896931142115E-002  -6.9750075940518252E-003   5.9961195525730496E-002
   2.8306287026484748E-002  -7.2624699087438065E-003   6.0817370699738971E-002
   2.7970677121827388E-002  -7.5032991334340882E-003   6.1708602633860882E-002
   5.6202103148384433E-002  -1.6113094111317616E-002   5.0200344733992902E-002
   5.4693000357416116E-002  -1.5729776532378573E-002   4.9881156080185618E-002
   5.3183897566447806E-002  -1.5422170957010366E-002   4.9691184845149339E-002
   5.1674794775479496E-002  -1.5190277385213139E-002   4.9630431028884280E-002
   5.0165691984511179E-002  -1.5034095816986753E-002   4.9698894631390295E-002
   4.9225069440380791E-002  -1.3960645366846686E-002   5.3316916556615149E-002
   4.7860994373136463E-002  -1.3709528968559710E-002   5.2911414722884208E-002
   4.6496919305892129E-002  -1.3479183804940807E-002   5.2666750917830150E-002
   4.5132844238647801E-002  -1.3269609875989926E-002   5.2582925141452977E-002
   4.3768769171403446E-002  -1.3080807181707010E-002   5.2659937393752743E-002
   4.2194153866620066E-002  -1.1808196622375838E-002   5.6273816814133938E-002
   4.1006727133005509E-002  -1.1689281404740966E-002   5.5836942569382216E-002
   3.9819300399390960E-002  -1.1536196652871252E-002   5.5592526963213193E-002
   3.8631873665776383E-002  -1.1348942366766715E-002   5.5540569995626829E-002
   3.7444446932161854E-002  -1.1127518546427309E-002   5.5681071666623068E-002
   3.5109356427102265E-002  -9.6557478779049910E-003   5.9071045506549139E-002
   3.4130198637023275E-002  -9.6690338409221900E-003   5.8657739619679551E-002
   3.3151040846944278E-002  -9.5932095008016954E-003   5.8468512981298390E-002
   3.2171883056865289E-002  -9.4282748575435019E-003   5.8503365591405732E-002
   3.1192725266786302E-002  -9.1742299111476008E-003   5.8762297450001409E-002
   2.7970677121827388E-002  -7.5032991334340882E-003   6.1708602633860882E-002
   2.7231408885189747E-002  -7.6487862771033865E-003   6.1373805873776222E-002
   2.6492140648552109E-002  -7.6502223487321316E-003   6.1294708972085776E-002
   2.5752872411914485E-002  -7.5076073483202731E-003   6.1471311928789650E-002
   2.5013604175276843E-002  -7.2209412758678648E-003   6.1903614743887753E-002
   5.0165691984511179E-002  -1.5034095816986753E-002   4.9698894631390295E-002
   4.8679005920133842E-002  -1.4847352119902624E-002   4.9246677190647570E-002
   4.7192319855756504E-002  -1.4523772161532243E-002   4.9033796112728581E-002
   4.5705633791379180E-002  -1.4063355941875319E-002   4.9060251397633335E-002
   4.4218947727001828E-002  -1.3466103460931966E-002   4.9326043045361923E-002
   4.3768769171403446E-002  -1.3080807181707010E-002   5.2659937393752743E-002
   4.2507815241756057E-002  -1.2859452903661112E-002   5.2378071630522383E-002
   4.1246861312108647E-002  -1.2552224223420949E-002   5.2308333773928184E-002
   3.9985907382461258E-002  -1.2159121140986634E-002   5.2450723823970036E-002
   3.8724953452813848E-002  -1.1680143656358055E-002   5.2805241780647827E-002
   3.7444446932161854E-002  -1.1127518546427309E-002   5.5681071666623068E-002
   3.6382016681056617E-002  -1.0871553687419516E-002   5.5518595721813113E-002
   3.5319586429951373E-002  -1.0580676285309742E-002   5.5541039227451447E-002
   3.4257156178846115E-002  -1.0254886340098007E-002   5.5748402183538000E-002
   3.3194725927740899E-002  -9.8941838517842828E-003   5.6140684590072987E-002
   3.1192725266786302E-002  -9.1742299111476008E-003   5.8762297450001409E-002
   3.0301610238035494E-002  -8.8836544711779347E-003   5.8668249464519567E-002
   2.9410495209284682E-002  -8.6091283471985466E-003   5.8731912473298155E-002
   2.8519380180533870E-002  -8.3506515392094052E-003   5.8953286476337297E-002
   2.7628265151783057E-002  -8.1082240472104689E-003   5.9332371473636958E-002
   2.5013604175276843E-002  -7.2209412758678648E-003   6.1903614743887753E-002
   2.4266595912692694E-002  -6.8957552549363949E-003   6.1827032858641690E-002
   2.3519587650108559E-002  -6.6375804090872820E-003   6.1880953511468384E-002
   2.2772579387524423E-002  -6.4464167383207586E-003   6.2065376702367947E-002
   2.2025571124940288E-002  -6.3222642426365994E-003   6.2380302431340240E-002
   4.4218947727001828E-002  -1.3466103460931966E-002   4.9326043045361923E-002
   4.2386314103649847E-002  -1.2786276507915695E-002   4.9002506105311427E-002
   4.0553680480297852E-002  -1.2078136872039513E-002   4.8887311658126903E-002
   3.8721046856945850E-002  -1.1341684553303810E-002   4.8980459703808862E-002
   3.6888413233593847E-002  -1.0576919551708308E-002   4.9281950242356876E-002
   3.8724953452813848E-002  -1.1680143656358055E-002   5.2805241780647827E-002
   3.7111947021140679E-002  -1.1148273051387284E-002   5.2480868549200130E-002
   3.5498940589467523E-002  -1.0596490607925557E-002   5.2387407208243919E-002
   3.3885934157794388E-002  -1.0024796325973320E-002   5.2524857757779223E-002
   3.2272927726121198E-002  -9.4331902055304062E-003   5.2893220197805957E-002
   3.3194725927740899E-002  -9.8941838517842828E-003   5.6140684590072987E-002
   3.1823916085371884E-002  -9.5102695948588167E-003   5.5807074222859090E-002
   3.0453106243002851E-002  -9.1148443438116011E-003   5.5726945143761988E-002
   2.9082296400633832E-002  -8.7079080986429414E-003   5.5900297352781764E-002
   2.7711486558264824E-002  -8.2894608593525321E-003   5.6327130849918208E-002
   2.7628265151783057E-002  -8.1082240472104689E-003   5.9332371473636958E-002
   2.6522221296343455E-002  -7.8722661383303499E-003   5.8981123126287990E-002
   2.5416177440903829E-002  -7.6331980796976451E-003   5.8905925464680972E-002
   2.4310133585464209E-002  -7.3910198713123959E-003   5.9106778488816208E-002
   2.3204089730024600E-002  -7.1457315131746718E-003   5.9583682198693297E-002
   2.2025571124940288E-002  -6.3222642426365994E-003   6.2380302431340240E-002
   2.1206862654055358E-002  -6.2342626818019942E-003   6.2003015259487038E-002
   2.0388154183170443E-002  -6.1515518155837307E-003   6.1924348171001092E-002
   1.9569445712285520E-002  -6.0741316439820552E-003   6.2144301165882446E-002
   1.8750737241400611E-002  -6.0020021669967560E-003   6.2662874244131195E-002
   3.6888413233593847E-002  -1.0576919551708308E-002   4.9281950242356876E-002
   3.5535422834173824E-002  -1.0001273168787961E-002   4.8790159119050491E-002
   3.4182432434753787E-002  -9.8321767060776527E-003   4.8395284011244877E-002
   3.2829442035333757E-002  -1.0069630163577575E-002   4.8097324918939657E-002
   3.1476451635913699E-002  -1.0713633541287293E-002   4.7896281842135013E-002
   3.2272927726121198E-002  -9.4331902055304062E-003   5.2893220197805957E-002
   3.1019440436862666E-002  -8.9397557046369813E-003   5.2146658009876917E-002
   2.9765953147604080E-002  -8.6625762813331564E-003   5.1502186026770258E-002
   2.8512465858345479E-002  -8.6016519356192089E-003   5.0959804248485951E-002
   2.7258978569086920E-002  -8.7569826674949724E-003   5.0519512675023859E-002
   2.7711486558264824E-002  -8.2894608593525321E-003   5.6327130849918208E-002
   2.6562676568489499E-002  -7.8782382404860574E-003   5.5516092439986675E-002
   2.5413866578714150E-002  -7.4929758565887780E-003   5.4812318424199362E-002
   2.4265056588938828E-002  -7.1336737076610115E-003   5.4215808802556040E-002
   2.3116246599163510E-002  -6.8003317937024854E-003   5.3726563575056951E-002
   2.3204089730024600E-002  -7.1457315131746718E-003   5.9583682198693297E-002
   2.2165131229054277E-002  -6.8167207763350779E-003   5.8898462409379598E-002
   2.1126172728083984E-002  -6.3233754318443407E-003   5.8325681203532188E-002
   2.0087214227113657E-002  -5.6656954797027299E-003   5.7865338581150304E-002
   1.9048255726143340E-002  -4.8436809199101372E-003   5.7517434542234583E-002
   1.8750737241400611E-002  -6.0020021669967560E-003   6.2662874244131195E-002
   1.7826804418557093E-002  -5.7552033121841539E-003   6.2293767918056020E-002
   1.6902871595713576E-002  -5.1537750070999172E-003   6.2042274364768585E-002
   1.5978938772870065E-002  -4.1977172517444240E-003   6.1908393584268681E-002
   1.5055005950026554E-002  -2.8870300461176224E-003   6.1892125576556600E-002
   3.1476451635913699E-002  -1.0713633541287293E-002   4.7896281842135013E-002
   2.9634487444070240E-002  -1.0924164169094364E-002   4.8182841856560910E-002
   2.7792523252226656E-002  -9.8611993768849548E-003   4.9078599800556233E-002
   2.5950559060383190E-002  -7.5247391646597467E-003   5.0583555674121122E-002
   2.4108594868539668E-002  -3.9147835324184754E-003   5.2697709477255605E-002
   2.7258978569086920E-002  -8.7569826674949724E-003   5.0519512675023859E-002
   2.5950527755124936E-002  -8.6769706714914796E-003   5.1785347211347033E-002
   2.4642076941162931E-002  -7.9100181421398047E-003   5.3509010573863425E-002
   2.3333626127200937E-002  -6.4561250794404161E-003   5.5690502762573577E-002
   2.2025175313238943E-002  -4.3152914833928246E-003   5.8329823777477086E-002
   2.3116246599163510E-002  -6.8003317937024854E-003   5.3726563575056951E-002
   2.2189940059706904E-002  -6.4297771738886511E-003   5.5385117746609328E-002
   2.1263633520250323E-002  -5.9588369073947656E-003   5.7350131640979157E-002
   2.0337326980793782E-002  -5.3875109942210578E-003   5.9621605258166482E-002
   1.9411020441337148E-002  -4.7157994343672849E-003   6.2199538598170678E-002
   1.9048255726143340E-002  -4.8436809199101372E-003   5.7517434542234583E-002
   1.8352724357816104E-002  -4.1825836762859059E-003   5.8982153462348308E-002
   1.7657192989488868E-002  -4.0076556726497820E-003   6.0601963001902993E-002
   1.6961661621161604E-002  -4.3188969090017133E-003   6.2376863160899368E-002
   1.6266130252834372E-002  -5.1163073853416896E-003   6.4306853939336814E-002
   1.5055005950026554E-002  -2.8870300461176224E-003   6.1892125576556600E-002
   1.4438880649452535E-002  -1.9353901786830496E-003   6.2576454358563405E-002
   1.3822755348878522E-002  -2.0564744379045902E-003   6.3264504656635273E-002
   1.3206630048304486E-002  -3.2502828237824279E-003   6.3956276470772358E-002
   1.2590504747730435E-002  -5.5168153363160943E-003   6.4651769800974757E-002
   2.6629664851571470E-002   0.0000000000000000        2.9466956078675905E-002
   2.7232604217246555E-002  -5.8376964600961260E-004   3.4945849940570331E-002
   2.7835543582921632E-002  -1.3174989642664846E-003   4.0117660225247001E-002
   2.8438482948596716E-002  -2.2011879547706188E-003   4.4982386932705905E-002
   2.9041422314271797E-002  -3.2348366175220123E-003   4.9540030062947056E-002
   2.0112099797664866E-002   0.0000000000000000        2.9021764995050346E-002
   2.0447042770065690E-002  -4.3782723446174690E-004   3.4315297221603709E-002
   2.0781985742466518E-002  -9.8812422311669867E-004   3.9379920238826333E-002
   2.1116928714867346E-002  -1.6508909659648571E-003   4.4215634046718202E-002
   2.1451871687268177E-002  -2.4261274630062273E-003   4.8822438645279340E-002
   1.3501300637693925E-002   0.0000000000000000        2.8703771363945620E-002
   1.3646421584707510E-002  -2.9188482291388077E-004   3.3849431873211981E-002
   1.3791542531721100E-002  -6.5874948196691357E-004   3.8844357541034609E-002
   1.3936663478734687E-002  -1.1005939771591014E-003   4.3688548367413496E-002
   1.4081784425748273E-002  -1.6174183084904413E-003   4.8382004352348663E-002
   6.7972673716586492E-003   0.0000000000000000        2.8512975185361736E-002
   6.8307406611720096E-003  -1.4594241136601529E-004   3.3548253895395140E-002
   6.8642139506853708E-003  -3.2937474081712976E-004   3.8510972131871823E-002
   6.8976872401987329E-003  -5.5029698835334104E-004   4.3401129894791793E-002
   6.9311605297120923E-003  -8.0870915397466105E-004   4.8218727184155027E-002
  -4.4096063606113844E-013   0.0000000000000000        2.8449376459298691E-002
  -5.4081218670010145E-013   1.8185106198664869E-013   3.3411763288153193E-002
  -6.4066438786036795E-013   3.3265751264721644E-013   3.8379764011337997E-002
  -7.4051713112172068E-013   4.5241588253475129E-013   4.3353378628853079E-002
  -8.4036900702133543E-013   5.4112964109620521E-013   4.8332607140698459E-002
   2.9041422314271797E-002  -3.2348366175220123E-003   4.9540030062947056E-002
   2.9109345920818059E-002  -4.2553921839996308E-003   5.1595988275046786E-002
   2.9177269527364318E-002  -5.0998018856823948E-003   5.3750305244931157E-002
   2.9245193133910580E-002  -5.7680657225703692E-003   5.6002980972600105E-002
   2.9313116740456849E-002  -6.2601836946634890E-003   5.8354015458053708E-002
   2.1451871687268177E-002  -2.4261274630062273E-003   4.8822438645279340E-002
   2.1589319136738554E-002  -3.1915441378468764E-003   5.1223152939697043E-002
   2.1726766586208934E-002  -3.8248514140928587E-003   5.3664556162178315E-002
   2.1864214035679314E-002  -4.3260492917441941E-003   5.6146648312723230E-002
   2.2001661485149690E-002  -4.6951377708008349E-003   5.8669429391331775E-002
   1.4081784425748273E-002  -1.6174183084904413E-003   4.8382004352348663E-002
   1.4231085888421759E-002  -2.1276960916941224E-003   5.1083438262884147E-002
   1.4380387351095248E-002  -2.5499009425033010E-003   5.3767891271762222E-002
   1.4529688813768735E-002  -2.8840328609179922E-003   5.6435363378982875E-002
   1.4678990276442223E-002  -3.1300918469381982E-003   5.9085854584546169E-002
   6.9311605297120923E-003  -8.0870915397466105E-004   4.8218727184155027E-002
   7.0346461758676758E-003  -1.0638480455413683E-003   5.1176844244608118E-002
   7.1381318220232618E-003  -1.2749504709137333E-003   5.4060310573682817E-002
   7.2416174681788469E-003  -1.4420164300917829E-003   5.6869126171379104E-002
   7.3451031143344303E-003  -1.5650459230755458E-003   5.9603291037696980E-002
  -8.4036900702133543E-013   5.4112964109620521E-013   4.8332607140698459E-002
  -9.2369644918988136E-013   6.1137640089414802E-013   5.1503370884869032E-002
  -1.0070262766032068E-012   6.7581010232409255E-013   5.4541814067940148E-002
  -1.0903544777132734E-012   7.3438911202261536E-013   5.7447936689911869E-002
  -1.1736826788233401E-012   7.8710649109581254E-013   6.0221738750784140E-002
   2.9313116740456849E-002  -6.2601836946634890E-003   5.8354015458053708E-002
   2.8977506835799482E-002  -6.6409121893584513E-003   5.9140077111835422E-002
   2.8641896931142115E-002  -6.9750075940518252E-003   5.9961195525730496E-002
   2.8306287026484748E-002  -7.2624699087438065E-003   6.0817370699738971E-002
   2.7970677121827388E-002  -7.5032991334340882E-003   6.1708602633860882E-002
   2.2001661485149690E-002  -4.6951377708008349E-003   5.8669429391331775E-002
   2.1713319769618961E-002  -4.9806841418158186E-003   5.9497290474471470E-002
   2.1424978054088224E-002  -5.2312556953421369E-003   6.0384631175751088E-002
   2.1136636338557491E-002  -5.4468524313797742E-003   6.1331451495170518E-002
   2.0848294623026752E-002  -5.6274743499286906E-003   6.2337751432729821E-002
   1.4678990276442223E-002  -3.1300918469381982E-003   5.9085854584546169E-002
   1.4462339608064586E-002  -3.3204560942732310E-003   5.9943856824531100E-002
   1.4245688939686954E-002  -3.4875037966324218E-003   6.0885761540682308E-002
   1.4029038271309316E-002  -3.6312349540157714E-003   6.1911568732999904E-002
   1.3812387602931684E-002  -3.7516495664232791E-003   6.3021278401483749E-002
   7.3451031143344303E-003  -1.5650459230755458E-003   5.9603291037696980E-002
   7.2245663511363674E-003  -1.6602280467306347E-003   6.0479776162014214E-002
   7.1040295879383035E-003  -1.7437518979226923E-003   6.1464586620524266E-002
   6.9834928247402353E-003  -1.8156174766517678E-003   6.2557722413227143E-002
   6.8629560615421723E-003  -1.8758247829178329E-003   6.3759183540122763E-002
  -1.1736826788233401E-012   7.8710649109581254E-013   6.0221738750784140E-002
  -1.1657064202807987E-012   8.1200324242303168E-013   6.1105048486920888E-002
  -1.1577301617382574E-012   7.8700587713420589E-013   6.2121106415276899E-002
  -1.1497573726426680E-012   7.1220026404139603E-013   6.3269912535852194E-002
  -1.1417776446531747E-012   5.8755778020724847E-013   6.4551466848646766E-002
   2.7970677121827388E-002  -7.5032991334340882E-003   6.1708602633860882E-002
   2.7231408885189747E-002  -7.6487862771033865E-003   6.1373805873776222E-002
   2.6492140648552109E-002  -7.6502223487321316E-003   6.1294708972085776E-002
   2.5752872411914485E-002  -7.5076073483202731E-003   6.1471311928789650E-002
   2.5013604175276843E-002  -7.2209412758678648E-003   6.1903614743887753E-002
   2.0848294623026752E-002  -5.6274743499286906E-003   6.2337751432729821E-002
   2.0347005544964738E-002  -5.7365897076993230E-003   6.2197754139586330E-002
   1.9845716466902728E-002  -5.7376667614021173E-003   6.2278015305199802E-002
   1.9344427388840714E-002  -5.6307055110370059E-003   6.2578534929570356E-002
   1.8843138310778697E-002  -5.4157059566040111E-003   6.3099313012697847E-002
   1.3812387602931684E-002  -3.7516495664232791E-003   6.3021278401483749E-002
   1.3513636283808044E-002  -3.8243931382952873E-003   6.3040067807308725E-002
   1.3214884964684401E-002  -3.8251111740720788E-003   6.3243674272253428E-002
   1.2916133645560757E-002  -3.7538036737537394E-003   6.3632097796317941E-002
   1.2617382326437117E-002  -3.6104706373402407E-003   6.4205338379502125E-002
   6.8629560615421723E-003  -1.8758247829178329E-003   6.3759183540122763E-002
   6.7313011017196521E-003  -1.9121965688911821E-003   6.3900746876943471E-002
   6.5996461418971353E-003  -1.9125555867420384E-003   6.4191685873246682E-002
   6.4679911820746099E-003  -1.8769018364705003E-003   6.4632000529032355E-002
   6.3363362222520897E-003  -1.8052353180764147E-003   6.5221690844300587E-002
  -1.1417776446531747E-012   5.8755778020724847E-013   6.4551466848646766E-002
  -1.3004250454251576E-012   5.1283283175607153E-013   6.4779791348490517E-002
  -1.4590776503675684E-012   5.8799493052319463E-013   6.5122050108179522E-002
  -1.6177241837778134E-012   8.1277172492288940E-013   6.5578243127713765E-002
  -1.7763776560819622E-012   1.1873835248366049E-012   6.6148370407093232E-002
   2.5013604175276843E-002  -7.2209412758678648E-003   6.1903614743887753E-002
   2.4266595912692694E-002  -6.8957552549363949E-003   6.1827032858641690E-002
   2.3519587650108559E-002  -6.6375804090872820E-003   6.1880953511468384E-002
   2.2772579387524423E-002  -6.4464167383207586E-003   6.2065376702367947E-002
   2.2025571124940288E-002  -6.3222642426365994E-003   6.2380302431340240E-002
   1.8843138310778697E-002  -5.4157059566040111E-003   6.3099313012697847E-002
   1.8240694968134637E-002  -5.1718164408130346E-003   6.2922868611258551E-002
   1.7638251625490573E-002  -4.9781853063736448E-003   6.2905051511626564E-002
   1.7035808282846517E-002  -4.8348125532859734E-003   6.3045861713801984E-002
   1.6433364940202443E-002  -4.7416981815500692E-003   6.3345299217784812E-002
   1.2617382326437117E-002  -3.6104706373402407E-003   6.4205338379502125E-002
   1.2187628667467700E-002  -3.4478776266896535E-003   6.3945784255600296E-002
   1.1757875008498272E-002  -3.3187902036599590E-003   6.3872982197240469E-002
   1.1328121349528849E-002  -3.2232083682512732E-003   6.3986932204422531E-002
   1.0898367690559428E-002  -3.1611321204635390E-003   6.4287634277146469E-002
   6.3363362222520897E-003  -1.8052353180764147E-003   6.5221690844300587E-002
   6.1073970106918733E-003  -1.7239388125662274E-003   6.4895779791667024E-002
   5.8784577991316542E-003  -1.6593951009463252E-003   6.4784745568309973E-002
   5.6495185875714352E-003  -1.6116041832165582E-003   6.4888588174229433E-002
   5.4205793760112187E-003  -1.5805660593770088E-003   6.5207307609425322E-002
  -1.7763776560819622E-012   1.1873835248366049E-012   6.6148370407093232E-002
  -2.1928257820658104E-012   1.5570739142489742E-012   6.5772855219458720E-002
  -2.6092791122200865E-012   1.7673779106885945E-012   6.5640341624835202E-002
  -3.0257263708421966E-012   1.8181740835121474E-012   6.5750829623222748E-002
  -3.4421805683582107E-012   1.7095214133178160E-012   6.6104319214621399E-002
   2.2025571124940288E-002  -6.3222642426365994E-003   6.2380302431340240E-002
   2.1206862654055358E-002  -6.2342626818019942E-003   6.2003015259487038E-002
   2.0388154183170443E-002  -6.1515518155837307E-003   6.1924348171001092E-002
   1.9569445712285520E-002  -6.0741316439820552E-003   6.2144301165882446E-002
   1.8750737241400611E-002  -6.0020021669967560E-003   6.2662874244131195E-002
   1.6433364940202443E-002  -4.7416981815500692E-003   6.3345299217784812E-002
   1.5889790811295913E-002  -4.6756970110087281E-003   6.2997105881810400E-002
   1.5346216682389380E-002  -4.6136638615047465E-003   6.2900561146425532E-002
   1.4802642553482839E-002  -4.5555987330381659E-003   6.3055665011629958E-002
   1.4259068424576318E-002  -4.5015016256091389E-003   6.3462417477423982E-002
   1.0898367690559428E-002  -3.1611321204635390E-003   6.4287634277146469E-002
   1.0582956420853367E-002  -3.1171313402154344E-003   6.3969857450630066E-002
   1.0267545151147296E-002  -3.0757759074257138E-003   6.3856757741925230E-002
   9.9521338814412361E-003  -3.0370658220943893E-003   6.3948335151031849E-002
   9.6367226117351629E-003  -3.0010010842213553E-003   6.4244589677950062E-002
   5.4205793760112187E-003  -1.5805660593770088E-003   6.5207307609425322E-002
   5.2863594827277163E-003  -1.5585656694221545E-003   6.4921269965946007E-002
   5.1521395894442131E-003  -1.5378879533467608E-003   6.4792937957500310E-002
   5.0179196961607116E-003  -1.5185329111505009E-003   6.4822311584088119E-002
   4.8836998028772075E-003  -1.5005005428335993E-003   6.5009390845709669E-002
  -3.4421805683582107E-012   1.7095214133178160E-012   6.6104319214621399E-002
  -3.0810319573415512E-012   1.3710976798364527E-012   6.5851343427758113E-002
  -2.7198781421544638E-012   7.3230310704275325E-013   6.5709101793150565E-002
  -2.3587286637760663E-012  -2.0675128276081978E-013   6.5677594310798670E-002
  -1.9975757159507168E-012  -1.4459544672718039E-012   6.5756820980702568E-002
   1.8750737241400611E-002  -6.0020021669967560E-003   6.2662874244131195E-002
   1.7826804418557093E-002  -5.7552033121841539E-003   6.2293767918056020E-002
   1.6902871595713576E-002  -5.1537750070999172E-003   6.2042274364768585E-002
   1.5978938772870065E-002  -4.1977172517444240E-003   6.1908393584268681E-002
   1.5055005950026554E-002  -2.8870300461176224E-003   6.1892125576556600E-002
   1.4259068424576318E-002  -4.5015016256091389E-003   6.3462417477423982E-002
   1.3481090982791440E-002  -4.3164024848099114E-003   6.3301277532627209E-002
   1.2703113541006582E-002  -3.8653312562333814E-003   6.3314435577160155E-002
   1.1925136099221714E-002  -3.1482879398793510E-003   6.3501891611022765E-002
   1.1147158657436845E-002  -2.1652725357478864E-003   6.3863645634214761E-002
   9.6367226117351629E-003  -3.0010010842213553E-003   6.4244589677950062E-002
   9.0613857675508787E-003  -2.8776016574357799E-003   6.4202758751937913E-002
   8.4860489233665841E-003  -2.5768875053667276E-003   6.4391911031797422E-002
   7.9107120791823016E-003  -2.0988586280141653E-003   6.4812046517528490E-002
   7.3353752349980018E-003  -1.4435150253781781E-003   6.5463165209130939E-002
   4.8836998028772075E-003  -1.5005005428335993E-003   6.5009390845709669E-002
   4.5676887728354149E-003  -1.4388008300615651E-003   6.4998211575987994E-002
   4.2516777427936093E-003  -1.2884437545001605E-003   6.5274700728680177E-002
   3.9356667127518107E-003  -1.0494293161489804E-003   6.5838858303785677E-002
   3.6196556827100121E-003  -7.2175751500845597E-004   6.6690684301304579E-002
  -1.9975757159507168E-012  -1.4459544672718039E-012   6.5756820980702568E-002
  -1.3549682209568203E-012  -2.6874058534076539E-012   6.5687636004777783E-002
  -7.1235031762206802E-013  -3.6334824038419811E-012   6.5962804667808378E-002
  -6.9742822628171552E-014  -4.2838926850308212E-012   6.6582326969794381E-002
   5.7287508070658077E-013  -4.6387338414888291E-012   6.7546202910735653E-002
   1.5055005950026554E-002  -2.8870300461176224E-003   6.1892125576556600E-002
   1.4438880649452535E-002  -1.9353901786830496E-003   6.2576454358563405E-002
   1.3822755348878522E-002  -2.0564744379045902E-003   6.3264504656635273E-002
   1.3206630048304486E-002  -3.2502828237824279E-003   6.3956276470772358E-002
   1.2590504747730435E-002  -5.5168153363160943E-003   6.4651769800974757E-002
   1.1147158657436845E-002  -2.1652725357478864E-003   6.3863645634214761E-002
   1.0572332325105016E-002  -1.4515426353375882E-003   6.3742982127611592E-002
   9.9975059927731660E-003  -1.5423558301472379E-003   6.3701195041427544E-002
   9.4226796604413299E-003  -2.4377121201767833E-003   6.3738284375662591E-002
   8.8478533281095006E-003  -4.1376115054259088E-003   6.3854250130316981E-002
   7.3353752349980018E-003  -1.4435150253781781E-003   6.5463165209130939E-002
   6.8770027752623544E-003  -9.6769509199218229E-004   6.4805690445353822E-002
   6.4186303155267018E-003  -1.0282372223898786E-003   6.4302247006349900E-002
   5.9602578557910223E-003  -1.6251414165711370E-003   6.3952834892118879E-002
   5.5018853960553948E-003  -2.7584076745359454E-003   6.3757454102661593E-002
   3.6196556827100121E-003  -7.2175751500845597E-004   6.6690684301304579E-002
   3.3528919999245600E-003  -4.8384754864680413E-004   6.5764579311789736E-002
   3.0861283171390963E-003  -5.1411861463246736E-004   6.5067660551402132E-002
   2.8193646343536343E-003  -8.1257071296543613E-004   6.4599928020141695E-002
   2.5526009515681805E-003  -1.3792038436459264E-003   6.4361381718008717E-002
   5.7287508070658077E-013  -4.6387338414888291E-012   6.7546202910735653E-002
  -9.0838794819525503E-013  -5.3012039202826600E-012   6.6619648726919611E-002
  -2.3896509770970908E-012  -6.8750560799912819E-012   6.5997435676584504E-002
  -3.8709278837867345E-012  -9.3599572537073072E-012   6.5679563759730802E-002
  -5.3521770349007625E-012  -1.2755796419128274E-011   6.5666032976358313E-002
  -4.4096063606113844E-013   0.0000000000000000        2.8449376459298691E-002
  -5.4081218670010145E-013   1.8185106198664869E-013   3.3411763288153193E-002
  -6.4066438786036795E-013   3.3265751264721644E-013   3.8379764011337997E-002
  -7.4051713112172068E-013   4.5241588253475129E-013   4.3353378628853079E-002
  -8.4036900702133543E-013   5.4112964109620521E-013   4.8332607140698459E-002
  -6.7972673725260387E-003   0.0000000000000000        2.8512975185740655E-002
  -6.8307406622371549E-003   1.4594241170517910E-004   3.3548253895750099E-002
  -6.8642139519482738E-003   3.2937474144760937E-004   3.8510972132206715E-002
  -6.8976872416593917E-003   5.5029698922728822E-004   4.3401129895110517E-002
  -6.9311605313705105E-003   8.0870915504421478E-004   4.8218727184461484E-002
  -1.3501300638517717E-002   0.0000000000000000        2.8703771364671796E-002
  -1.3646421585723221E-002   2.9188482322850626E-004   3.3849431873904483E-002
  -1.3791542532928726E-002   6.5874948256256297E-004   3.8844357541701208E-002
  -1.3936663480134229E-002   1.1005939780021658E-003   4.3688548368062019E-002
  -1.4081784427339735E-002   1.6174183095473173E-003   4.8382004352986840E-002
  -2.0112099798415998E-002   0.0000000000000000        2.9021764996092124E-002
  -2.0447042770999010E-002   4.3782723475183343E-004   3.4315297222616344E-002
  -2.0781985743582022E-002   9.8812422367751396E-004   3.9379920239821502E-002
  -2.1116928716165030E-002   1.6508909667770407E-003   4.4215634047707592E-002
  -2.1451871688748042E-002   2.4261274640504128E-003   4.8822438646274599E-002
  -2.6629664852220875E-002   0.0000000000000000        2.9466956080001619E-002
  -2.7232604218064511E-002   5.8376964627516060E-004   3.4945849941885675E-002
  -2.7835543583908152E-002   1.3174989647924684E-003   4.0117660226567542E-002
  -2.8438482949751785E-002   2.2011879555519157E-003   4.4982386934047221E-002
  -2.9041422315595426E-002   3.2348366185535066E-003   4.9540030064324725E-002
  -8.4036900702133543E-013   5.4112964109620521E-013   4.8332607140698459E-002
  -9.2369644918988136E-013   6.1137640089414802E-013   5.1503370884869032E-002
  -1.0070262766032068E-012   6.7581010232409255E-013   5.4541814067940148E-002
  -1.0903544777132734E-012   7.3438911202261536E-013   5.7447936689911869E-002
  -1.1736826788233401E-012   7.8710649109581254E-013   6.0221738750784140E-002
  -6.9311605313705105E-003   8.0870915504421478E-004   4.8218727184461484E-002
  -7.0346461776953691E-003   1.0638480467710151E-003   5.1176844244939151E-002
  -7.1381318240202269E-003   1.2749504722802526E-003   5.4060310574033162E-002
  -7.2416174703450820E-003   1.4420164315719697E-003   5.6869126171743549E-002
  -7.3451031166699415E-003   1.5650459246461385E-003   5.9603291038070286E-002
  -1.4081784427339735E-002   1.6174183095473173E-003   4.8382004352986840E-002
  -1.4231085890190344E-002   2.1276960929306290E-003   5.1083438263559933E-002
  -1.4380387353040947E-002   2.5499009438846951E-003   5.3767891272465153E-002
  -1.4529688815891556E-002   2.8840328624095608E-003   5.6435363379702536E-002
  -1.4678990278742159E-002   3.1300918485051496E-003   5.9085854585272032E-002
  -2.1451871688748042E-002   2.4261274640504128E-003   4.8822438646274599E-002
  -2.1589319138408617E-002   3.1915441390902551E-003   5.1223152940731424E-002
  -2.1726766588069192E-002   3.8248514154891307E-003   5.3664556163236149E-002
  -2.1864214037729774E-002   4.3260492932471221E-003   5.6146648313788808E-002
  -2.2001661487390349E-002   4.6951377723641573E-003   5.8669429392389373E-002
  -2.9041422315595426E-002   3.2348366185535066E-003   4.9540030064324725E-002
  -2.9109345922350198E-002   4.2553921852498781E-003   5.1595988276453564E-002
  -2.9177269529104963E-002   5.0998018870936027E-003   5.3750305246346115E-002
  -2.9245193135859732E-002   5.7680657240847177E-003   5.6002980974002324E-002
  -2.9313116742614501E-002   6.2601836962231788E-003   5.8354015459422287E-002
  -1.1736826788233401E-012   7.8710649109581254E-013   6.0221738750784140E-002
  -1.1657064202807987E-012   8.1200324242303168E-013   6.1105048486920888E-002
  -1.1577301617382574E-012   7.8700587713420589E-013   6.2121106415276899E-002
  -1.1497573726426680E-012   7.1220026404139603E-013   6.3269912535852194E-002
  -1.1417776446531747E-012   5.8755778020724847E-013   6.4551466848646766E-002
  -7.3451031166699415E-003   1.5650459246461385E-003   5.9603291038070286E-002
  -7.2245663534648676E-003   1.6602280483415839E-003   6.0479776162314036E-002
  -7.1040295902597937E-003   1.7437518994972041E-003   6.1464586620732710E-002
  -6.9834928270547216E-003   1.8156174781129098E-003   6.2557722413326258E-002
  -6.8629560638496442E-003   1.8758247841887954E-003   6.3759183540094772E-002
  -1.4678990278742159E-002   3.1300918485051496E-003   5.9085854585272032E-002
  -1.4462339610384354E-002   3.3204560958711923E-003   5.9943856825132730E-002
  -1.4245688942026546E-002   3.4875037982073209E-003   6.0885761541124031E-002
  -1.4029038273668732E-002   3.6312349555135920E-003   6.1911568733245832E-002
  -1.3812387605310932E-002   3.7516495677899636E-003   6.3021278401498237E-002
  -2.2001661487390349E-002   4.6951377723641573E-003   5.8669429392389373E-002
  -2.1713319771924165E-002   4.9806841434007938E-003   5.9497290475377045E-002
  -2.1424978056457981E-002   5.2312556969174783E-003   6.0384631176450883E-002
  -2.1136636340991798E-002   5.4468524329142880E-003   6.1331451495610936E-002
  -2.0848294625525617E-002   5.6274743513911249E-003   6.2337751432857157E-002
  -2.9313116742614501E-002   6.2601836962231788E-003   5.8354015459422287E-002
  -2.8977506838084307E-002   6.6409121909303780E-003   5.9140077113046877E-002
  -2.8641896933554102E-002   6.9750075956276532E-003   5.9961195526713272E-002
  -2.8306287029023901E-002   7.2624699103149464E-003   6.0817370700421536E-002
  -2.7970677124493703E-002   7.5032991349923417E-003   6.1708602634171633E-002
  -1.1417776446531747E-012   5.8755778020724847E-013   6.4551466848646766E-002
  -1.3004250454251576E-012   5.1283283175607153E-013   6.4779791348490517E-002
  -1.4590776503675684E-012   5.8799493052319463E-013   6.5122050108179522E-002
  -1.6177241837778134E-012   8.1277172492288940E-013   6.5578243127713765E-002
  -1.7763776560819622E-012   1.1873835248366049E-012   6.6148370407093232E-002
  -6.8629560638496442E-003   1.8758247841887954E-003   6.3759183540094772E-002
  -6.7313011043406467E-003   1.9121965700616694E-003   6.3900746877149389E-002
  -6.5996461448316439E-003   1.9125555880686734E-003   6.4191685873694088E-002
  -6.4679911853226411E-003   1.8769018382096235E-003   6.4632000529728909E-002
  -6.3363362258136366E-003   1.8052353204847105E-003   6.5221690845253713E-002
  -1.3812387605310932E-002   3.7516495677899636E-003   6.3021278401498237E-002
  -1.3513636286489456E-002   3.8243931396105373E-003   6.3040067807748013E-002
  -1.3214884967667987E-002   3.8251111755493832E-003   6.3243674273132711E-002
  -1.2916133648846513E-002   3.7538036756065039E-003   6.3632097797652235E-002
  -1.2617382330025040E-002   3.6104706397819541E-003   6.4205338381306654E-002
  -2.0848294625525617E-002   5.6274743513911249E-003   6.2337751432857157E-002
  -2.0347005547746856E-002   5.7365897091593340E-003   6.2197754140286388E-002
  -1.9845716469968109E-002   5.7376667630300495E-003   6.2278015306495307E-002
  -1.9344427392189351E-002   5.6307055130034259E-003   6.2578534931483951E-002
  -1.8843138314410590E-002   5.4157059590792395E-003   6.3099313015252276E-002
  -2.7970677124493703E-002   7.5032991349923417E-003   6.1708602634171633E-002
  -2.7231408888112856E-002   7.6487862787081376E-003   6.1373805874764570E-002
  -2.6492140651731999E-002   7.6502223505107506E-003   6.1294708973781975E-002
  -2.5752872415351142E-002   7.5076073504002309E-003   6.1471311931223939E-002
  -2.5013604178970292E-002   7.2209412783765248E-003   6.1903614747090330E-002
  -1.7763776560819622E-012   1.1873835248366049E-012   6.6148370407093232E-002
  -2.1928257820658104E-012   1.5570739142489742E-012   6.5772855219458720E-002
  -2.6092791122200865E-012   1.7673779106885945E-012   6.5640341624835202E-002
  -3.0257263708421966E-012   1.8181740835121474E-012   6.5750829623222748E-002
  -3.4421805683582107E-012   1.7095214133178160E-012   6.6104319214621399E-002
  -6.3363362258136366E-003   1.8052353204847105E-003   6.5221690845253713E-002
  -6.1073970150274728E-003   1.7239388156140845E-003   6.4895779792344233E-002
  -5.8784578042413039E-003   1.6593951043182842E-003   6.4784745568828989E-002
  -5.6495185934551375E-003   1.6116041865972680E-003   6.4888588174707829E-002
  -5.4205793826689712E-003   1.5805660624508833E-003   6.5207307609980947E-002
  -1.2617382330025040E-002   3.6104706397819541E-003   6.4205338381306654E-002
  -1.2187628671653121E-002   3.4478776296710187E-003   6.3945784256856555E-002
  -1.1757875013281200E-002   3.3187902068691003E-003   6.3872982198183659E-002
  -1.1328121354909276E-002   3.2232083713762214E-003   6.3986932205288144E-002
  -1.0898367696537358E-002   3.1611321231923006E-003   6.4287634278169997E-002
  -1.8843138314410590E-002   5.4157059590792395E-003   6.3099313015252276E-002
  -1.8240694972069784E-002   5.1718164437279633E-003   6.2922868612995633E-002
  -1.7638251629728961E-002   4.9781853094199892E-003   6.2905051512899504E-002
  -1.7035808287388137E-002   4.8348125561551618E-003   6.3045861714963791E-002
  -1.6433364945047334E-002   4.7416981839337180E-003   6.3345299219188578E-002
  -2.5013604178970292E-002   7.2209412783765248E-003   6.1903614747090330E-002
  -2.4266595916277445E-002   6.8957552577849357E-003   6.1827032860761494E-002
  -2.3519587653584594E-002   6.6375804119708087E-003   6.1880953512976289E-002
  -2.2772579390891744E-002   6.4464167409342653E-003   6.2065376703734659E-002
  -2.2025571128198904E-002   6.3222642446750799E-003   6.2380302433036661E-002
  -3.4421805683582107E-012   1.7095214133178160E-012   6.6104319214621399E-002
  -3.0810319573415512E-012   1.3710976798364527E-012   6.5851343427758113E-002
  -2.7198781421544638E-012   7.3230310704275325E-013   6.5709101793150565E-002
  -2.3587286637760663E-012  -2.0675128276081978E-013   6.5677594310798670E-002
  -1.9975757159507168E-012  -1.4459544672718039E-012   6.5756820980702568E-002
  -5.4205793826689712E-003   1.5805660624508833E-003   6.5207307609980947E-002
  -5.2863594887402297E-003   1.5585656717959917E-003   6.4921269966341844E-002
  -5.1521395948114761E-003   1.5378879545490387E-003   6.4792937957582300E-002
  -5.0179197008827356E-003   1.5185329107099479E-003   6.4822311583702108E-002
  -4.8836998069539811E-003   1.5005005402788929E-003   6.5009390844701587E-002
  -1.0898367696537358E-002   3.1611321231923006E-003   6.4287634278169997E-002
  -1.0582956426417220E-002   3.1171313422209551E-003   6.3969857451463288E-002
  -1.0267545156297082E-002   3.0757759083657743E-003   6.3856757742259809E-002
  -9.9521338861769462E-003   3.0370658216266472E-003   6.3948335150559615E-002
  -9.6367226160568066E-003   3.0010010820037403E-003   6.4244589676362762E-002
  -1.6433364945047334E-002   4.7416981839337180E-003   6.3345299219188578E-002
  -1.5889790816112019E-002   4.6756970126459949E-003   6.2997105883122378E-002
  -1.5346216687176699E-002   4.6136638621824821E-003   6.2900561147183204E-002
  -1.4802642558241383E-002   4.5555987325433742E-003   6.3055665011371137E-002
  -1.4259068429306070E-002   4.5015016237285876E-003   6.3462417475686164E-002
  -2.2025571128198904E-002   6.3222642446750799E-003   6.2380302433036661E-002
  -2.1206862657824607E-002   6.2342626830708681E-003   6.2003015261319128E-002
  -2.0388154187450314E-002   6.1515518159992455E-003   6.1924348172352484E-002
  -1.9569445717076014E-002   6.0741316434599901E-003   6.2144301166136701E-002
  -1.8750737246701725E-002   6.0020021654533795E-003   6.2662874242671696E-002
  -1.9975757159507168E-012  -1.4459544672718039E-012   6.5756820980702568E-002
  -1.3549682209568203E-012  -2.6874058534076539E-012   6.5687636004777783E-002
  -7.1235031762206802E-013  -3.6334824038419811E-012   6.5962804667808378E-002
  -6.9742822628171552E-014  -4.2838926850308212E-012   6.6582326969794381E-002
   5.7287508070658077E-013  -4.6387338414888291E-012   6.7546202910735653E-002
  -4.8836998069539811E-003   1.5005005402788929E-003   6.5009390844701587E-002
  -4.5676887756134887E-003   1.4388008252739504E-003   6.4998211575242881E-002
  -4.2516777442729876E-003   1.2884437477136829E-003   6.5274700728224611E-002
  -3.9356667129324917E-003   1.0494293075977261E-003   6.5838858303646774E-002
  -3.6196556815919941E-003   7.2175750492614599E-004   6.6690684301509262E-002
  -9.6367226160568066E-003   3.0010010820037403E-003   6.4244589676362762E-002
  -9.0613857705334130E-003   2.8776016532355286E-003   6.4202758750519104E-002
  -8.4860489250100039E-003   2.5768874990607371E-003   6.4391911030600851E-002
  -7.9107120794865860E-003   2.0988586194792339E-003   6.4812046516608005E-002
  -7.3353752339631942E-003   1.4435150144910258E-003   6.5463165208540647E-002
  -1.4259068429306070E-002   4.5015016237285876E-003   6.3462417475686164E-002
  -1.3481090986114727E-002   4.3164024811969959E-003   6.3301277530606437E-002
  -1.2703113542923373E-002   3.8653312504078469E-003   6.3314435574937128E-002
  -1.1925136099732019E-002   3.1482879313607416E-003   6.3501891608678293E-002
  -1.1147158656540684E-002   2.1652725240560167E-003   6.3863645631829946E-002
  -1.8750737246701725E-002   6.0020021654533795E-003   6.2662874242671696E-002
  -1.7826804422357428E-002   5.7552033091584631E-003   6.2293767915504783E-002
  -1.6902871598013115E-002   5.1537750017547346E-003   6.2042274361233385E-002
  -1.5978938773668808E-002   4.1977172432423604E-003   6.1908393579857418E-002
  -1.5055005949324504E-002   2.8870300336207300E-003   6.1892125571376855E-002
   5.7287508070658077E-013  -4.6387338414888291E-012   6.7546202910735653E-002
  -9.0838794819525503E-013  -5.3012039202826600E-012   6.6619648726919611E-002
  -2.3896509770970908E-012  -6.8750560799912819E-012   6.5997435676584504E-002
  -3.8709278837867345E-012  -9.3599572537073072E-012   6.5679563759730802E-002
  -5.3521770349007625E-012  -1.2755796419128274E-011   6.5666032976358313E-002
  -3.6196556815919941E-003   7.2175750492614599E-004   6.6690684301509262E-002
  -3.3528920019454539E-003   4.8384753737221176E-004   6.5764579311073129E-002
  -3.0861283222989189E-003   5.1411860260852649E-004   6.5067660549411294E-002
  -2.8193646426523770E-003   8.1257070063525672E-004   6.4599928016523839E-002
  -2.5526009630058369E-003   1.3792038314524024E-003   6.4361381712410903E-002
  -7.3353752339631942E-003   1.4435150144910258E-003   6.5463165208540647E-002
  -6.8770027778956560E-003   9.6769508004562743E-004   6.4805690445185887E-002
  -6.4186303218281143E-003   1.0282372120920535E-003   6.4302247005898580E-002
  -5.9602578657605891E-003   1.6251414106303597E-003   6.3952834890678975E-002
  -5.5018854096930483E-003   2.7584076756606013E-003   6.3757454099527044E-002
  -1.1147158656540684E-002   2.1652725240560167E-003   6.3863645631829946E-002
  -1.0572332328758960E-002   1.4515426227190431E-003   6.3742982129258052E-002
  -9.9975060009772423E-003   1.5423558215756084E-003   6.3701195046047002E-002
  -9.4226796731955113E-003   2.4377121206253516E-003   6.3738284382196461E-002
  -8.8478533454137854E-003   4.1376115198688002E-003   6.3854250137707208E-002
  -1.5055005949324504E-002   2.8870300336207300E-003   6.1892125571376855E-002
  -1.4438880654535389E-002   1.9353901653924588E-003   6.2576454363289513E-002
  -1.3822755359746294E-002   2.0564744310592048E-003   6.3264504669856086E-002
  -1.3206630064957200E-002   3.2502828306206315E-003   6.3956276491076561E-002
  -1.2590504770168084E-002   5.5168153640769990E-003   6.4651769826951311E-002
  -2.6629664852220875E-002   0.0000000000000000        2.9466956080001619E-002
  -2.7232604218064511E-002   5.8376964627516060E-004   3.4945849941885675E-002
  -2.7835543583908152E-002   1.3174989647924684E-003   4.0117660226567542E-002
  -2.8438482949751785E-002   2.2011879555519157E-003   4.4982386934047221E-002
  -2.9041422315595426E-002   3.2348366185535066E-003   4.9540030064324725E-002
  -3.3390673088361078E-002   0.0000000000000000        3.0175034514170050E-002
  -3.4235481906165828E-002   9.5938982866727255E-004   3.5266024637136711E-002
  -3.5080290723970564E-002   2.0228251983035418E-003   4.0180359433383335E-002
  -3.5925099541775307E-002   3.1903061089088060E-003   4.4918038902909942E-002
  -3.6769908359580057E-002   4.4618325604830686E-003   4.9479063045716518E-002
  -4.0731801795265338E-002   0.0000000000000000        3.1281690196367166E-002
  -4.1688051814549029E-002   1.3350100110593845E-003   3.5938862449143273E-002
  -4.2644301833832707E-002   2.7281514318146169E-003   4.0549807625681521E-002
  -4.3600551853116398E-002   4.1794242622656998E-003   4.5114525725981902E-002
  -4.4556801872400083E-002   5.6888285024126297E-003   4.9633016750044417E-002
  -4.8653050972933647E-002   0.0000000000000000        3.2786923126592968E-002
  -4.9590313943214122E-002   1.7106301934514952E-003   3.6964363377905381E-002
  -5.0527576913494590E-002   3.4334776653256894E-003   4.1226004803462106E-002
  -5.1464839883775045E-002   5.1685424156225918E-003   4.5571847403263109E-002
  -5.2402102854055527E-002   6.9158244443421907E-003   5.0001891177308425E-002
  -5.7154420621366012E-002   0.0000000000000000        3.4690733304847454E-002
  -5.7942268292161106E-002   2.0862503758436067E-003   3.8342527423423027E-002
  -5.8730115962956186E-002   4.1388038988367671E-003   4.2208950966725056E-002
  -5.9517963633751274E-002   6.1576605689794856E-003   4.6290003934753542E-002
  -6.0305811304546347E-002   8.1428203862717492E-003   5.0585686327508511E-002
  -2.9041422315595426E-002   3.2348366185535066E-003   4.9540030064324725E-002
  -2.9109345922350198E-002   4.2553921852498781E-003   5.1595988276453564E-002
  -2.9177269529104963E-002   5.0998018870936027E-003   5.3750305246346115E-002
  -2.9245193135859732E-002   5.7680657240847177E-003   5.6002980974002324E-002
  -2.9313116742614501E-002   6.2601836962231788E-003   5.8354015459422287E-002
  -3.6769908359580057E-002   4.4618325604830686E-003   4.9479063045716518E-002
  -3.6778707491791351E-002   5.6959110874684089E-003   5.1259835878290000E-002
  -3.6787506624002632E-002   6.7510482243068846E-003   5.3060498902186753E-002
  -3.6796305756213926E-002   7.6272439709985347E-003   5.4881052117406758E-002
  -3.6805104888425214E-002   8.3244983275432977E-003   5.6721495523950005E-002
  -4.4556801872400083E-002   5.6888285024126297E-003   4.9633016750044417E-002
  -4.4584945096508330E-002   7.1364299896869484E-003   5.1135808677768305E-002
  -4.4613088320616577E-002   8.4022945615201943E-003   5.2580022230375022E-002
  -4.4641231544724838E-002   9.4864222179123318E-003   5.3965657407864576E-002
  -4.4669374768833092E-002   1.0388812958863410E-002   5.5292714210236918E-002
  -5.2402102854055527E-002   6.9158244443421907E-003   5.0001891177308425E-002
  -5.2528058736501168E-002   8.5769488919054913E-003   5.1223906674888506E-002
  -5.2654014618946809E-002   1.0053540898733488E-002   5.2308875230910934E-002
  -5.2779970501392458E-002   1.1345600464826173E-002   5.3256796845375792E-002
  -5.2905926383838113E-002   1.2453127590183532E-002   5.4067671518283025E-002
  -6.0305811304546347E-002   8.1428203862717492E-003   5.0585686327508511E-002
  -6.0608048411769838E-002   1.0017467794124019E-002   5.1524129869650527E-002
  -6.0910285518993315E-002   1.1704787235946788E-002   5.2247057903794511E-002
  -6.1212522626216792E-002   1.3204778711739966E-002   5.2754470429940428E-002
  -6.1514759733440276E-002   1.4517442221503647E-002   5.3046367448088307E-002
  -2.9313116742614501E-002   6.2601836962231788E-003   5.8354015459422287E-002
  -2.8977506838084307E-002   6.6409121909303780E-003   5.9140077113046877E-002
  -2.8641896933554102E-002   6.9750075956276532E-003   5.9961195526713272E-002
  -2.8306287029023901E-002   7.2624699103149464E-003   6.0817370700421536E-002
  -2.7970677124493703E-002   7.5032991349923417E-003   6.1708602634171633E-002
  -3.6805104888425214E-002   8.3244983275432977E-003   5.6721495523950005E-002
  -3.6381167773793993E-002   8.8635391706336393E-003   5.7096486529650645E-002
  -3.5957230659162787E-002   9.2650943769619770E-003   5.7613075195511496E-002
  -3.5533293544531580E-002   9.5291639465283837E-003   5.8271261521532523E-002
  -3.5109356429900346E-002   9.6557478793327656E-003   5.9071045507713742E-002
  -4.4669374768833092E-002   1.0388812958863410E-002   5.5292714210236918E-002
  -4.4050569543982503E-002   1.1086166150336930E-002   5.5165782021261572E-002
  -4.3431764319131934E-002   1.1555181158296410E-002   5.5286988392564761E-002
  -4.2812959094281351E-002   1.1795857982741806E-002   5.5656333324146538E-002
  -4.2194153869430748E-002   1.1808196623673203E-002   5.6273816816006787E-002
  -5.2905926383838113E-002   1.2453127590183532E-002   5.4067671518283025E-002
  -5.1985712148649790E-002   1.3308793130040221E-002   5.3347963587879625E-002
  -5.1065497913461488E-002   1.3845267939630788E-002   5.2982935117873144E-002
  -5.0145283678273186E-002   1.4062552018955251E-002   5.2972586108263532E-002
  -4.9225069443084871E-002   1.3960645368013606E-002   5.3316916559050895E-002
  -6.1514759733440276E-002   1.4517442221503647E-002   5.3046367448088307E-002
  -6.0186595587795884E-002   1.5531420109743489E-002   5.1643031229504810E-002
  -5.8858431442151499E-002   1.6135354720965146E-002   5.0700915371436589E-002
  -5.7530267296507107E-002   1.6329246055168656E-002   5.0220019873883574E-002
  -5.6202103150862728E-002   1.6113094112354065E-002   5.0200344736845898E-002
  -2.7970677124493703E-002   7.5032991349923417E-003   6.1708602634171633E-002
  -2.7231408888112856E-002   7.6487862787081376E-003   6.1373805874764570E-002
  -2.6492140651731999E-002   7.6502223505107506E-003   6.1294708973781975E-002
  -2.5752872415351142E-002   7.5076073504002309E-003   6.1471311931223939E-002
  -2.5013604178970292E-002   7.2209412783765248E-003   6.1903614747090330E-002
  -3.5109356429900346E-002   9.6557478793327656E-003   5.9071045507713742E-002
  -3.4130198639998409E-002   9.6690338422363298E-003   5.8657739621803068E-002
  -3.3151040850096451E-002   9.5932095021000335E-003   5.8468512984510071E-002
  -3.2171883060194487E-002   9.4282748589240885E-003   5.8503365595834793E-002
  -3.1192725270292550E-002   9.1742299127082760E-003   5.8762297455777240E-002
  -4.2194153869430748E-002   1.1808196623673203E-002   5.6273816816006787E-002
  -4.1006727135814498E-002   1.1689281405764421E-002   5.5836942572465978E-002
  -3.9819300402198235E-002   1.1536196653689258E-002   5.5592526967736033E-002
  -3.8631873668581972E-002   1.1348942367447847E-002   5.5540570001817002E-002
  -3.7444446934965708E-002   1.1127518547040111E-002   5.5681071674708885E-002
  -4.9225069443084871E-002   1.3960645368013606E-002   5.3316916559050895E-002
  -4.7860994375561128E-002   1.3709528969292466E-002   5.2911414726753300E-002
  -4.6496919308037378E-002   1.3479183805278511E-002   5.2666750923459814E-002
  -4.5132844240513614E-002   1.3269609875971628E-002   5.2582925149170415E-002
  -4.3768769172989871E-002   1.3080807181371876E-002   5.2659937403885151E-002
  -5.6202103150862728E-002   1.6113094112354065E-002   5.0200344736845898E-002
  -5.4693000359238284E-002   1.5729776532820677E-002   4.9881156084665021E-002
  -5.3183897567613825E-002   1.5422170956867778E-002   4.9691184851681419E-002
  -5.1674794775989380E-002   1.5190277384495413E-002   4.9630431037895120E-002
  -5.0165691984364935E-002   1.5034095815703696E-002   4.9698894643306124E-002
  -2.5013604178970292E-002   7.2209412783765248E-003   6.1903614747090330E-002
  -2.4266595916277445E-002   6.8957552577849357E-003   6.1827032860761494E-002
  -2.3519587653584594E-002   6.6375804119708087E-003   6.1880953512976289E-002
  -2.2772579390891744E-002   6.4464167409342653E-003   6.2065376703734659E-002
  -2.2025571128198904E-002   6.3222642446750799E-003   6.2380302433036661E-002
  -3.1192725270292550E-002   9.1742299127082760E-003   5.8762297455777240E-002
  -3.0301610241106704E-002   8.8836544729009870E-003   5.8668249469363914E-002
  -2.9410495211920882E-002   8.6091283489504872E-003   5.8731912477392970E-002
  -2.8519380182735043E-002   8.3506515408566205E-003   5.8953286479864454E-002
  -2.7628265153549186E-002   8.1082240486195500E-003   5.9332371476778223E-002
  -3.7444446934965708E-002   1.1127518547040111E-002   5.5681071674708885E-002
  -3.6382016683388127E-002   1.0871553688017163E-002   5.5518595729290271E-002
  -3.5319586431810553E-002   1.0580676285930173E-002   5.5541039234212893E-002
  -3.4257156180232985E-002   1.0254886340779088E-002   5.5748402189476659E-002
  -3.3194725928655383E-002   9.8941838525640202E-003   5.6140684595081564E-002
  -4.3768769172989871E-002   1.3080807181371876E-002   5.2659937403885151E-002
  -4.2507815243121756E-002   1.2859452903133277E-002   5.2378071640540577E-002
  -4.1246861313253662E-002   1.2552224222909799E-002   5.2308333783435926E-002
  -3.9985907383385560E-002   1.2159121140701556E-002   5.2450723832571253E-002
  -3.8724953453517424E-002   1.1680143656508463E-002   5.2805241787946364E-002
  -5.0165691984364935E-002   1.5034095815703696E-002   4.9698894643306124E-002
  -4.8679005920307550E-002   1.4847352118249391E-002   4.9246677203114875E-002
  -4.7192319856250164E-002   1.4523772159889495E-002   4.9033796125062173E-002
  -4.5705633792192765E-002   1.4063355940623943E-002   4.9060251409148284E-002
  -4.4218947728135394E-002   1.3466103460452961E-002   4.9326043055372915E-002
  -2.2025571128198904E-002   6.3222642446750799E-003   6.2380302433036661E-002
  -2.1206862657824607E-002   6.2342626830708681E-003   6.2003015261319128E-002
  -2.0388154187450314E-002   6.1515518159992455E-003   6.1924348172352484E-002
  -1.9569445717076014E-002   6.0741316434599901E-003   6.2144301166136701E-002
  -1.8750737246701725E-002   6.0020021654533795E-003   6.2662874242671696E-002
  -2.7628265153549186E-002   8.1082240486195500E-003   5.9332371476778223E-002
  -2.6522221299097523E-002   7.8722661393349352E-003   5.8981123128921745E-002
  -2.5416177444645825E-002   7.6331980800986021E-003   5.8905925466469194E-002
  -2.4310133590194152E-002   7.3910198709106617E-003   5.9106778489420544E-002
  -2.3204089735742464E-002   7.1457315117710030E-003   5.9583682197775767E-002
  -3.3194725928655383E-002   9.8941838525640202E-003   5.6140684595081564E-002
  -3.1823916087473259E-002   9.5102695955989469E-003   5.5807074226601944E-002
  -3.0453106246291137E-002   9.1148443441980143E-003   5.5726945146179277E-002
  -2.9082296405109030E-002   8.7079080983612778E-003   5.5900297353813605E-002
  -2.7711486563926892E-002   8.2894608580886542E-003   5.6327130849504858E-002
  -3.8724953453517424E-002   1.1680143656508463E-002   5.2805241787946364E-002
  -3.7111947022951841E-002   1.1148273051863014E-002   5.2480868554359530E-002
  -3.5498940592386258E-002   1.0596490608297343E-002   5.2387407211482599E-002
  -3.3885934161820654E-002   1.0024796325812005E-002   5.2524857759315750E-002
  -3.2272927731255049E-002   9.4331902044063193E-003   5.2893220197858887E-002
  -4.4218947728135394E-002   1.3466103460452961E-002   4.9326043055372915E-002
  -4.2386314105533257E-002   1.2786276508127054E-002   4.9002506112194588E-002
  -4.0553680482931148E-002   1.2078136872396825E-002   4.8887311662379224E-002
  -3.8721046860329046E-002   1.1341684553262520E-002   4.8980459705927001E-002
  -3.6888413237726916E-002   1.0576919550723984E-002   4.9281950242837824E-002
  -1.8750737246701725E-002   6.0020021654533795E-003   6.2662874242671696E-002
  -1.7826804422357428E-002   5.7552033091584631E-003   6.2293767915504783E-002
  -1.6902871598013115E-002   5.1537750017547346E-003   6.2042274361233385E-002
  -1.5978938773668808E-002   4.1977172432423604E-003   6.1908393579857418E-002
  -1.5055005949324504E-002   2.8870300336207300E-003   6.1892125571376855E-002
  -2.3204089735742464E-002   7.1457315117710030E-003   5.9583682197775767E-002
  -2.2165131233152814E-002   6.8167207734488866E-003   5.8898462407054070E-002
  -2.1126172730563164E-002   6.3233754267137954E-003   5.8325681199927537E-002
  -2.0087214227973504E-002   5.6656954715653962E-003   5.7865338576396211E-002
  -1.9048255725383864E-002   4.8436809080038556E-003   5.7517434536460077E-002
  -2.7711486563926892E-002   8.2894608580886542E-003   5.6327130849504858E-002
  -2.6562676572392176E-002   7.8782382377393656E-003   5.5516092437923936E-002
  -2.5413866580857421E-002   7.4929758516726341E-003   5.4812318420637982E-002
  -2.4265056589322698E-002   7.1336736998883765E-003   5.4215808797646925E-002
  -2.3116246597787948E-002   6.8003317823867870E-003   5.3726563568950850E-002
  -3.2272927731255049E-002   9.4331902044063193E-003   5.2893220197858887E-002
  -3.1019440440075489E-002   8.9397557020299834E-003   5.2146658008114494E-002
  -2.9765953148895949E-002   8.6625762766316949E-003   5.1502186023364829E-002
  -2.8512465857716385E-002   8.6016519282116621E-003   5.0959804243609789E-002
  -2.7258978566536817E-002   8.7569826567697601E-003   5.0519512668849367E-002
  -3.6888413237726916E-002   1.0576919550723984E-002   4.9281950242837824E-002
  -3.5535422836202812E-002   1.0001273166320213E-002   4.8790159117625576E-002
  -3.4182432434678674E-002   9.8321767015905753E-003   4.8395284008107831E-002
  -3.2829442033154549E-002   1.0069630156534597E-002   4.8097324914284575E-002
  -3.1476451631630417E-002   1.0713633531152733E-002   4.7896281836155685E-002
  -1.5055005949324504E-002   2.8870300336207300E-003   6.1892125571376855E-002
  -1.4438880654535389E-002   1.9353901653924588E-003   6.2576454363289513E-002
  -1.3822755359746294E-002   2.0564744310592048E-003   6.3264504669856086E-002
  -1.3206630064957200E-002   3.2502828306206315E-003   6.3956276491076561E-002
  -1.2590504770168084E-002   5.5168153640769990E-003   6.4651769826951311E-002
  -1.9048255725383864E-002   4.8436809080038556E-003   5.7517434536460077E-002
  -1.8352724364100501E-002   4.1825836636666114E-003   5.8982153474246596E-002
  -1.7657193002817130E-002   4.0076556661912399E-003   6.0601963030367467E-002
  -1.6961661641533760E-002   4.3188969155774151E-003   6.2376863204822941E-002
  -1.6266130280250375E-002   5.1163074118255603E-003   6.4306853997612934E-002
  -2.3116246597787948E-002   6.8003317823867870E-003   5.3726563568950850E-002
  -2.2189940066329780E-002   6.4297771619405975E-003   5.5385117765578057E-002
  -2.1263633534871700E-002   5.9588369013231710E-003   5.7350131684220242E-002
  -2.0337327003413494E-002   5.3875110005343393E-003   5.9621605324877397E-002
  -1.9411020471955413E-002   4.7157994595740105E-003   6.2199538687549794E-002
  -2.7258978566536817E-002   8.7569826567697601E-003   5.0519512668849367E-002
  -2.5950527761223346E-002   8.6769706602148333E-003   5.1785347237284125E-002
  -2.4642076955909833E-002   7.9100181364552095E-003   5.3509010631414423E-002
  -2.3333626150596351E-002   6.4561250854911377E-003   5.5690502851240539E-002
  -2.2025175345282824E-002   4.3152915073225162E-003   5.8329823896761807E-002
  -3.1476451631630417E-002   1.0713633531152733E-002   4.7896281836155685E-002
  -2.9634487448781055E-002   1.0924164158488625E-002   4.8182841889364725E-002
  -2.7792523265931700E-002   9.8611993715872204E-003   4.9078599871950013E-002
  -2.5950559083082376E-002   7.5247391704480679E-003   5.0583555783911660E-002
  -2.4108594900232982E-002   3.9147835550710219E-003   5.2697709625249001E-002
  -5.7154420621366012E-002   0.0000000000000000        3.4690733304847454E-002
  -5.7942268292161106E-002   2.0862503758436067E-003   3.8342527423423027E-002
  -5.8730115962956186E-002   4.1388038988367671E-003   4.2208950966725056E-002
  -5.9517963633751274E-002   6.1576605689794856E-003   4.6290003934753542E-002
  -6.0305811304546347E-002   8.1428203862717492E-003   5.0585686327508511E-002
  -6.5823522909889201E-002   0.0000000000000000        3.7214693449092680E-002
  -6.6626165795625414E-002   2.9152169675968134E-003   4.0835265173533024E-002
  -6.7428808681361641E-002   5.7712248979440300E-003   4.4211617043364647E-002
  -6.8231451567097853E-002   8.5680237910416429E-003   4.7343749058587556E-002
  -6.9034094452834066E-002   1.1305613646889661E-002   5.0231661219201730E-002
  -7.4247970007830011E-002   0.0000000000000000        4.0580376277290678E-002
  -7.5524257387842533E-002   3.7441835593500215E-003   4.4144213423196646E-002
  -7.6800544767855056E-002   7.4036458970512913E-003   4.7004981435158709E-002
  -7.8076832147867592E-002   1.0978387013103802E-002   4.9162680313176881E-002
  -7.9353119527880114E-002   1.4468406907507560E-002   5.0617310057251140E-002
  -8.2427761915188441E-002   0.0000000000000000        4.4787781789441483E-002
  -8.4636543068812450E-002   4.5731501511032313E-003   4.8269372172413900E-002
  -8.6845324222436460E-002   9.0360668961585507E-003   5.0589044142107249E-002
  -8.9054105376060469E-002   1.3388750235165966E-002   5.1746797698521516E-002
  -9.1262886529684478E-002   1.7631200168125461E-002   5.1742632841656706E-002
  -9.0362898631964478E-002   0.0000000000000000        4.9836909985545054E-002
  -9.3963022838535151E-002   5.4021167428564363E-003   5.3210741421184794E-002
  -9.7563147045105825E-002   1.0668487895265815E-002   5.4963805164210268E-002
 -0.10116327125167653        1.5799113457228120E-002   5.5096101214621489E-002
 -0.10476339545824720        2.0793993428743364E-002   5.3607629572418450E-002
  -6.0305811304546347E-002   8.1428203862717492E-003   5.0585686327508511E-002
  -6.0608048411769838E-002   1.0017467794124019E-002   5.1524129869650527E-002
  -6.0910285518993315E-002   1.1704787235946788E-002   5.2247057903794511E-002
  -6.1212522626216792E-002   1.3204778711739966E-002   5.2754470429940428E-002
  -6.1514759733440276E-002   1.4517442221503647E-002   5.3046367448088307E-002
  -6.9034094452834066E-002   1.1305613646889661E-002   5.0231661219201730E-002
  -6.9313113756355002E-002   1.3747461102958543E-002   4.9458294282116920E-002
  -6.9592133059875952E-002   1.5657032796718772E-002   4.8946878460435231E-002
  -6.9871152363396902E-002   1.7034328728170338E-002   4.8697413754156663E-002
  -7.0150171666917865E-002   1.7879348897313282E-002   4.8709900163281229E-002
  -7.9353119527880114E-002   1.4468406907507560E-002   5.0617310057251140E-002
  -7.9131454404297336E-002   1.7477454411793047E-002   4.7787184844660366E-002
  -7.8909789280714585E-002   1.9609278357490774E-002   4.5696477370873900E-002
  -7.8688124157131806E-002   2.0863878744600713E-002   4.4345187635891729E-002
  -7.8466459033549027E-002   2.1241255573122887E-002   4.3733315639713825E-002
  -9.1262886529684478E-002   1.7631200168125461E-002   5.1742632841656706E-002
  -9.0063070355596839E-002   2.1207447720627569E-002   4.6510801557280865E-002
  -8.8863254181509185E-002   2.3561523918262765E-002   4.2495854635110471E-002
  -8.7663438007421518E-002   2.4693428761031068E-002   3.9697792075145545E-002
  -8.6463621833333892E-002   2.4603162248932491E-002   3.8116613877386143E-002
 -0.10476339545824720        2.0793993428743364E-002   5.3607629572418450E-002
 -0.10210796161025348        2.4937441029462076E-002   4.5629144419978389E-002
  -9.9452527762259768E-002   2.7513769479034767E-002   3.9345010253144977E-002
  -9.6797093914266066E-002   2.8522978777461450E-002   3.4755227071918221E-002
  -9.4141660066272337E-002   2.7965068924742119E-002   3.1859794876298121E-002
  -6.1514759733440276E-002   1.4517442221503647E-002   5.3046367448088307E-002
  -6.0186595587795884E-002   1.5531420109743489E-002   5.1643031229504810E-002
  -5.8858431442151499E-002   1.6135354720965146E-002   5.0700915371436589E-002
  -5.7530267296507107E-002   1.6329246055168656E-002   5.0220019873883574E-002
  -5.6202103150862728E-002   1.6113094112354065E-002   5.0200344736845898E-002
  -7.0150171666917865E-002   1.7879348897313282E-002   4.8709900163281229E-002
  -6.8410202208348245E-002   1.8339879211279355E-002   4.7252899851422461E-002
  -6.6670232749778652E-002   1.8563705577200378E-002   4.6158289804898889E-002
  -6.4930263291209045E-002   1.8550827995076416E-002   4.5426070023710421E-002
  -6.3190293832639438E-002   1.8301246464907453E-002   4.5056240507857212E-002
  -7.8466459033549027E-002   2.1241255573122887E-002   4.3733315639713825E-002
  -7.6413514357234300E-002   2.1148338312815224E-002   4.2395990563552928E-002
  -7.4360569680919614E-002   2.0992056433435647E-002   4.1322225657547097E-002
  -7.2307625004604886E-002   2.0772409934984186E-002   4.0512020921696354E-002
  -7.0254680328290173E-002   2.0489398817460813E-002   3.9965376356000643E-002
  -8.6463621833333892E-002   2.4603162248932491E-002   3.8116613877386143E-002
  -8.4196532034454125E-002   2.3956797414351125E-002   3.7072303365896245E-002
  -8.1929442235574385E-002   2.3420407289670913E-002   3.6192722929381312E-002
  -7.9662352436694631E-002   2.2993991874891938E-002   3.5477872567841302E-002
  -7.7395262637814904E-002   2.2677551170014215E-002   3.4927752281276384E-002
  -9.4141660066272337E-002   2.7965068924742119E-002   3.1859794876298121E-002
  -9.1759255240007664E-002   2.6765256515886963E-002   3.1281838258452356E-002
  -8.9376850413742992E-002   2.5848758145906148E-002   3.0769781620401369E-002
  -8.6994445587478292E-002   2.5215573814799691E-002   3.0323624962145371E-002
  -8.4612040761213633E-002   2.4865703522567575E-002   2.9943368283684227E-002
  -5.6202103150862728E-002   1.6113094112354065E-002   5.0200344736845898E-002
  -5.4693000359238284E-002   1.5729776532820677E-002   4.9881156084665021E-002
  -5.3183897567613825E-002   1.5422170956867778E-002   4.9691184851681419E-002
  -5.1674794775989380E-002   1.5190277384495413E-002   4.9630431037895120E-002
  -5.0165691984364935E-002   1.5034095815703696E-002   4.9698894643306124E-002
  -6.3190293832639438E-002   1.8301246464907453E-002   4.5056240507857212E-002
  -6.1527583942160506E-002   1.7939019535358647E-002   4.4728808297892497E-002
  -5.9864874051681546E-002   1.7588205755095298E-002   4.4579372866439565E-002
  -5.8202164161202607E-002   1.7248805124117399E-002   4.4607934213498311E-002
  -5.6539454270723627E-002   1.6920817642424868E-002   4.4814492339068757E-002
  -7.0254680328290173E-002   2.0489398817460813E-002   3.9965376356000643E-002
  -6.8389583979642260E-002   2.0148262537896686E-002   3.9565401733957062E-002
  -6.6524487630994403E-002   1.9754240553322845E-002   3.9392203249739660E-002
  -6.4659391282346518E-002   1.9307332863739313E-002   3.9445780903348354E-002
  -6.2794294933698661E-002   1.8807539469146095E-002   3.9726134694783199E-002
  -7.7395262637814904E-002   2.2677551170014215E-002   3.4927752281276384E-002
  -7.5279000471683663E-002   2.2357505540434662E-002   3.4390936392858708E-002
  -7.3162738305552408E-002   2.1920275351550379E-002   3.4129676001581663E-002
  -7.1046476139421180E-002   2.1365860603361209E-002   3.4143971107445180E-002
  -6.8930213973289939E-002   2.0694261295867322E-002   3.4433821710449231E-002
  -8.4612040761213633E-002   2.4865703522567575E-002   2.9943368283684227E-002
  -8.2195833418284611E-002   2.4566748542972708E-002   2.9205412274597428E-002
  -7.9779626075355603E-002   2.4086310149777902E-002   2.8791791121965678E-002
  -7.7363418732426581E-002   2.3424388342983143E-002   2.8702504825788854E-002
  -7.4947211389497559E-002   2.2580983122588494E-002   2.8937553386067072E-002
  -5.0165691984364935E-002   1.5034095815703696E-002   4.9698894643306124E-002
  -4.8679005920307550E-002   1.4847352118249391E-002   4.9246677203114875E-002
  -4.7192319856250164E-002   1.4523772159889495E-002   4.9033796125062173E-002
  -4.5705633792192765E-002   1.4063355940623943E-002   4.9060251409148284E-002
  -4.4218947728135394E-002   1.3466103460452961E-002   4.9326043055372915E-002
  -5.6539454270723627E-002   1.6920817642424868E-002   4.4814492339068757E-002
  -5.4826595017207519E-002   1.6558286823779550E-002   4.4359365307532900E-002
  -5.3113735763691383E-002   1.6115256181943136E-002   4.4117248292775774E-002
  -5.1400876510175247E-002   1.5591725716915594E-002   4.4088141294797503E-002
  -4.9688017256659174E-002   1.4987695428696934E-002   4.4272044313597991E-002
  -6.2794294933698661E-002   1.8807539469146095E-002   3.9726134694783199E-002
  -6.0881588836083619E-002   1.8269221529309709E-002   3.9324434509617159E-002
  -5.8968882738468655E-002   1.7706740203996797E-002   3.9109417995870165E-002
  -5.7056176640853648E-002   1.7120095493207158E-002   3.9081085153542042E-002
  -5.5143470543238648E-002   1.6509287396940964E-002   3.9239435982632895E-002
  -6.8930213973289939E-002   2.0694261295867322E-002   3.4433821710449231E-002
  -6.6843987376935948E-002   1.9980156234839896E-002   3.4141884809367626E-002
  -6.4757760780581958E-002   1.9298224226050324E-002   3.4010305234345117E-002
  -6.2671534184227912E-002   1.8648465269498711E-002   3.4039082985381698E-002
  -6.0585307587873956E-002   1.8030879365184993E-002   3.4228218062477361E-002
  -7.4947211389497559E-002   2.2580983122588494E-002   2.8937553386067072E-002
  -7.2713790639764395E-002   2.1691090940369973E-002   2.8811716206784299E-002
  -7.0480369890031230E-002   2.0889708248104114E-002   2.8819910008200819E-002
  -6.8246949140298066E-002   2.0176835045790296E-002   2.8962134790316604E-002
  -6.6013528390564902E-002   1.9552471333428967E-002   2.9238390553131544E-002
  -4.4218947728135394E-002   1.3466103460452961E-002   4.9326043055372915E-002
  -4.2386314105533257E-002   1.2786276508127054E-002   4.9002506112194588E-002
  -4.0553680482931148E-002   1.2078136872396825E-002   4.8887311662379224E-002
  -3.8721046860329046E-002   1.1341684553262520E-002   4.8980459705927001E-002
  -3.6888413237726916E-002   1.0576919550723984E-002   4.9281950242837824E-002
  -4.9688017256659174E-002   1.4987695428696934E-002   4.4272044313597991E-002
  -4.7651182812812873E-002   1.4331297116450231E-002   4.3931707486110555E-002
  -4.5614348368966565E-002   1.3650662579338863E-002   4.3791429807748375E-002
  -4.3577513925120256E-002   1.2945791817362683E-002   4.3851211278511583E-002
  -4.1540679481273948E-002   1.2216684830521296E-002   4.4111051898400033E-002
  -5.5143470543238648E-002   1.6509287396940964E-002   3.9239435982632895E-002
  -5.2910718622385909E-002   1.5876317724773728E-002   3.8886375729375630E-002
  -5.0677966701533177E-002   1.5223188286280852E-002   3.8725091281005937E-002
  -4.8445214780680403E-002   1.4549899081462625E-002   3.8755582637523905E-002
  -4.6212462859827705E-002   1.3856450110318747E-002   3.8977849798929307E-002
  -6.0585307587873956E-002   1.8030879365184993E-002   3.4228218062477361E-002
  -5.8164921534252442E-002   1.7421338333097093E-002   3.3866510841989640E-002
  -5.5744535480630963E-002   1.6795713993222893E-002   3.3688296082151722E-002
  -5.3324149427009478E-002   1.6154006345562650E-002   3.3693573782963795E-002
  -5.0903763373388013E-002   1.5496215390116128E-002   3.3882343944425575E-002
  -6.6013528390564902E-002   1.9552471333428967E-002   2.9238390553131544E-002
  -6.3413791548412424E-002   1.8966358941420403E-002   2.8872112823952717E-002
  -6.0814054706259946E-002   1.8368239700164837E-002   2.8681044211185919E-002
  -5.8214317864107495E-002   1.7758113609662691E-002   2.8665184714831413E-002
  -5.5614581021955017E-002   1.7135980669913453E-002   2.8824534334888907E-002
  -3.6888413237726916E-002   1.0576919550723984E-002   4.9281950242837824E-002
  -3.5535422836202812E-002   1.0001273166320213E-002   4.8790159117625576E-002
  -3.4182432434678674E-002   9.8321767015905753E-003   4.8395284008107831E-002
  -3.2829442033154549E-002   1.0069630156534597E-002   4.8097324914284575E-002
  -3.1476451631630417E-002   1.0713633531152733E-002   4.7896281836155685E-002
  -4.1540679481273948E-002   1.2216684830521296E-002   4.4111051898400033E-002
  -4.0070690088534880E-002   1.1601608124195667E-002   4.3949249966486498E-002
  -3.8600700695795749E-002   1.1238828203765705E-002   4.3924530001308582E-002
  -3.7130711303056632E-002   1.1128345069231230E-002   4.4036892002866174E-002
  -3.5660721910317481E-002   1.1270158720592671E-002   4.4286335971159219E-002
  -4.6212462859827705E-002   1.3856450110318747E-002   3.8977849798929307E-002
  -4.4585308524832501E-002   1.3201943082070927E-002   3.8991783926536350E-002
  -4.2958154189837325E-002   1.2645479705940564E-002   3.9182965971919982E-002
  -4.1330999854842121E-002   1.2187059981927808E-002   3.9551395935080308E-002
  -3.9703845519846945E-002   1.1826683910032665E-002   4.0097073816017098E-002
  -5.0903763373388013E-002   1.5496215390116128E-002   3.3882343944425575E-002
  -4.9079278145095669E-002   1.4802278039946229E-002   3.3917760997775007E-002
  -4.7254792916803325E-002   1.4052131208115642E-002   3.4170591919942123E-002
  -4.5430307688511001E-002   1.3245774894624526E-002   3.4640836710926777E-002
  -4.3605822460218630E-002   1.2383209099472520E-002   3.5328495370729261E-002
  -5.5614581021955017E-002   1.7135980669913453E-002   2.8824534334888907E-002
  -5.3552598949324404E-002   1.6402612997821531E-002   2.8727181180202399E-002
  -5.1490616876693818E-002   1.5458782710290539E-002   2.8887407845374830E-002
  -4.9428634804063273E-002   1.4304489807320932E-002   2.9305214330405893E-002
  -4.7366652731432674E-002   1.2939734288912597E-002   2.9980600635295729E-002
  -3.1476451631630417E-002   1.0713633531152733E-002   4.7896281836155685E-002
  -2.9634487448781055E-002   1.0924164158488625E-002   4.8182841889364725E-002
  -2.7792523265931700E-002   9.8611993715872204E-003   4.9078599871950013E-002
  -2.5950559083082376E-002   7.5247391704480679E-003   5.0583555783911660E-002
  -2.4108594900232982E-002   3.9147835550710219E-003   5.2697709625249001E-002
  -3.5660721910317481E-002   1.1270158720592671E-002   4.4286335971159219E-002
  -3.3328222781595571E-002   1.1148952768093301E-002   4.3569464006094932E-002
  -3.0995723652873675E-002   1.0249410821976390E-002   4.3224464003399687E-002
  -2.8663224524151668E-002   8.5715328822424108E-003   4.3251335963073498E-002
  -2.6330725395429883E-002   6.1153189488910575E-003   4.3650079885116155E-002
  -3.9703845519846945E-002   1.1826683910032665E-002   4.0097073816017098E-002
  -3.7118137412259632E-002   1.1373741377697699E-002   3.8871929253299797E-002
  -3.4532429304672228E-002   1.0637622272365685E-002   3.7781330685944511E-002
  -3.1946721197084867E-002   9.6183265940368405E-003   3.6825278113950984E-002
  -2.9361013089497595E-002   8.3158543427110931E-003   3.6003771537319151E-002
  -4.3605822460218630E-002   1.2383209099472520E-002   3.5328495370729261E-002
  -4.1004231340773023E-002   1.1598529987302236E-002   3.4090237630979389E-002
  -3.8402640221327389E-002   1.1025833722755084E-002   3.2749199919584263E-002
  -3.5801049101881817E-002   1.0665120305831504E-002   3.1305382236543944E-002
  -3.3199457982436203E-002   1.0516389736531240E-002   2.9758784581858003E-002
  -4.7366652731432674E-002   1.2939734288912597E-002   2.9980600635295729E-002
  -4.4986504567135877E-002   1.1823318596906773E-002   2.9224389139133666E-002
  -4.2606356402839149E-002   1.1414045173144149E-002   2.8128071704318969E-002
  -4.0226208238542387E-002   1.1711914017625696E-002   2.6691648330851941E-002
  -3.7846060074245569E-002   1.2716925130351164E-002   2.4915119018732446E-002
  -9.0362898631964478E-002   0.0000000000000000        4.9836909985545054E-002
  -9.3963022838535151E-002   5.4021167428564363E-003   5.3210741421184794E-002
  -9.7563147045105825E-002   1.0668487895265815E-002   5.4963805164210268E-002
 -0.10116327125167653        1.5799113457228120E-002   5.5096101214621489E-002
 -0.10476339545824720        2.0793993428743364E-002   5.3607629572418450E-002
 -0.10329311196443473        0.0000000000000000        5.8663564457964681E-002
 -0.10683166750820625        1.0884852479277915E-002   5.2118584104342100E-002
 -0.11037022305197773        1.9172771103593094E-002   4.7317508768932127E-002
 -0.11390877859574926        2.4863755872945554E-002   4.4260338451734771E-002
 -0.11744733413952078        2.7957806787335303E-002   4.2947073152750030E-002
 -0.12645813371887585        0.0000000000000000        7.4203548799063615E-002
 -0.12657044788902133        1.6367588215699391E-002   5.5278568391663056E-002
 -0.12668276205916679        2.7677054311920388E-002   4.1462165713301975E-002
 -0.12679507622931224        3.3928398288662988E-002   3.2754340763980365E-002
 -0.12690739039945773        3.5121620145927200E-002   2.9155093543698257E-002
 -0.15985796389528784        0.0000000000000000        9.6456863008841848E-002
 -0.15317936398098037        2.1850323952120863E-002   6.2690694283147649E-002
 -0.14650076406667295        3.6181337520247665E-002   3.7397775997319783E-002
 -0.13982216415236551        4.2993040704380411E-002   2.0578108151358257E-002
 -0.13314356423805807        4.2285433504519111E-002   1.2231690745263099E-002
 -0.20349260249367065        0.0000000000000000       0.12542350708729941     
 -0.18665841578408343        2.7333059688542344E-002   7.4354961778795886E-002
 -0.16982422907449621        4.4685620728574960E-002   3.5124339620985608E-002
 -0.15299004236490898        5.2057683120097870E-002   7.7316406138685095E-003
 -0.13615585565532179        4.9449246863111043E-002  -7.8231352425553735E-003
 -0.10476339545824720        2.0793993428743364E-002   5.3607629572418450E-002
 -0.10210796161025348        2.4937441029462076E-002   4.5629144419978389E-002
  -9.9452527762259768E-002   2.7513769479034767E-002   3.9345010253144977E-002
  -9.6797093914266066E-002   2.8522978777461450E-002   3.4755227071918221E-002
  -9.4141660066272337E-002   2.7965068924742119E-002   3.1859794876298121E-002
 -0.11744733413952078        2.7957806787335303E-002   4.2947073152750030E-002
 -0.11348746380814496        2.9429350928808606E-002   3.6694956498413971E-002
 -0.10952759347676917        3.0252815379411831E-002   3.1357361825235415E-002
 -0.10556772314539335        3.0428200139145004E-002   2.6934289133214381E-002
 -0.10160785281401760        2.9955505208008056E-002   2.3425738422350937E-002
 -0.12690739039945773        3.5121620145927200E-002   2.9155093543698257E-002
 -0.12242291258914896        3.3921260828155143E-002   2.5548384847742103E-002
 -0.11793843477884022        3.2991861279788912E-002   2.2076369128494377E-002
 -0.11345395696853147        3.2333421500828519E-002   1.8739046385954972E-002
 -0.10896947915822273        3.1945941491273958E-002   1.5536416620123982E-002
 -0.13314356423805807        4.2285433504519111E-002   1.2231690745263099E-002
 -0.12891430795326553        3.8413170727501687E-002   1.2189429467962826E-002
 -0.12468505166847293        3.5730907180165992E-002   1.1502032162921786E-002
 -0.12045579538368037        3.4238642862512061E-002   1.0169498830140013E-002
 -0.11622653909888783        3.3936377774539853E-002   8.1918294696174537E-003
 -0.13615585565532179        4.9449246863111043E-002  -7.8231352425553735E-003
 -0.13296164990049456        4.2905080626848210E-002  -3.3819096409238233E-003
 -0.12976744414566732        3.8469953080543004E-002  -3.6564907148226022E-004
 -0.12657323839084006        3.6143864224195570E-002   1.2256464657695101E-003
 -0.12337903263601285        3.5926814057805817E-002   1.3919769708312935E-003
  -9.4141660066272337E-002   2.7965068924742119E-002   3.1859794876298121E-002
  -9.1759255240007664E-002   2.6765256515886963E-002   3.1281838258452356E-002
  -8.9376850413742992E-002   2.5848758145906148E-002   3.0769781620401369E-002
  -8.6994445587478292E-002   2.5215573814799691E-002   3.0323624962145371E-002
  -8.4612040761213633E-002   2.4865703522567575E-002   2.9943368283684227E-002
 -0.10160785281401760        2.9955505208008056E-002   2.3425738422350937E-002
  -9.9139703742387703E-002   2.9185032863479222E-002   2.3140111925095828E-002
  -9.6671554670757845E-002   2.8467085383036800E-002   2.2960073938776214E-002
  -9.4203405599128001E-002   2.7801662766680654E-002   2.2885624463392124E-002
  -9.1735256527498102E-002   2.7188765014410948E-002   2.2916763498943490E-002
 -0.10896947915822273        3.1945941491273958E-002   1.5536416620123982E-002
 -0.10637589731008709        3.1604809211071547E-002   1.5312331068671617E-002
 -0.10378231546195148        3.1085412620167424E-002   1.5233522559295408E-002
 -0.10118873361381578        3.0387751718561604E-002   1.5299991091995171E-002
  -9.8595151765680164E-002   2.9511826506254286E-002   1.5511736666771147E-002
 -0.11622653909888783        3.3936377774539853E-002   8.1918294696174537E-003
 -0.11346783594310583        3.4024585558663840E-002   7.7984956891798581E-003
 -0.11070913278732375        3.3703739857298035E-002   7.5901274819588915E-003
 -0.10795042963154171        3.2973840670442643E-002   7.5667248479545958E-003
 -0.10519172647575969        3.1834887998097583E-002   7.7282877871670584E-003
 -0.12337903263601285        3.5926814057805817E-002   1.3919769708312935E-003
 -0.12041551964144381        3.6444361906256079E-002   5.9860578662036812E-004
 -0.11745200664687480        3.6322067094428791E-002   2.9888706766907636E-005
 -0.11448849365230576        3.5559929622323579E-002  -3.1417426872953728E-004
 -0.11152498065773675        3.4157949489940942E-002  -4.3358313986857633E-004
  -8.4612040761213633E-002   2.4865703522567575E-002   2.9943368283684227E-002
  -8.2195833418284611E-002   2.4566748542972708E-002   2.9205412274597428E-002
  -7.9779626075355603E-002   2.4086310149777902E-002   2.8791791121965678E-002
  -7.7363418732426581E-002   2.3424388342983143E-002   2.8702504825788854E-002
  -7.4947211389497559E-002   2.2580983122588494E-002   2.8937553386067072E-002
  -9.1735256527498102E-002   2.7188765014410948E-002   2.2916763498943490E-002
  -8.9040383525862798E-002   2.6572972275239054E-002   2.2276559694465209E-002
  -8.6345510524227453E-002   2.5898864698176545E-002   2.1869352350944705E-002
  -8.3650637522592095E-002   2.5166442283223525E-002   2.1695141468381810E-002
  -8.0955764520956791E-002   2.4375705030379780E-002   2.1753927046776533E-002
  -9.8595151765680164E-002   2.9511826506254286E-002   1.5511736666771147E-002
  -9.5712951500835808E-002   2.8579196007505366E-002   1.5092453642610755E-002
  -9.2830751235991438E-002   2.7711419246575213E-002   1.4814828683910703E-002
  -8.9948550971147109E-002   2.6908496223463772E-002   1.4678861790670947E-002
  -8.7066350706302711E-002   2.6170426938171121E-002   1.4684552962891617E-002
 -0.10519172647575969        3.1834887998097583E-002   7.7282877871670584E-003
 -0.10221353734320368        3.0585419739771792E-002   7.6530941190339936E-003
  -9.9235348210647653E-002   2.9523973794973898E-002   7.6282201208637528E-003
  -9.6257159078091639E-002   2.8650550163704099E-002   7.6536657926563846E-003
  -9.3278969945535611E-002   2.7965148845962268E-002   7.7294311344123234E-003
 -0.11152498065773675        3.4157949489940942E-002  -4.3358313986857633E-004
 -0.10854214105296639        3.2591643472038051E-002  -4.1518876265300708E-005
 -0.10555930144819606        3.1336528343372486E-002   3.0952666180351918E-004
 -0.10257646184342571        3.0392604103944388E-002   6.1955347433842803E-004
  -9.9593622238655366E-002   2.9759870753753637E-002   8.8856156133865216E-004
  -7.4947211389497559E-002   2.2580983122588494E-002   2.8937553386067072E-002
  -7.2713790639764395E-002   2.1691090940369973E-002   2.8811716206784299E-002
  -7.0480369890031230E-002   2.0889708248104114E-002   2.8819910008200819E-002
  -6.8246949140298066E-002   2.0176835045790296E-002   2.8962134790316604E-002
  -6.6013528390564902E-002   1.9552471333428967E-002   2.9238390553131544E-002
  -8.0955764520956791E-002   2.4375705030379780E-002   2.1753927046776533E-002
  -7.8570832817435654E-002   2.3568722045915536E-002   2.1600703218996570E-002
  -7.6185901113914614E-002   2.2787562436100847E-002   2.1616470318093314E-002
  -7.3800969410393574E-002   2.2032226200935850E-002   2.1801228344066600E-002
  -7.1416037706872437E-002   2.1302713340420276E-002   2.2154977296916456E-002
  -8.7066350706302711E-002   2.6170426938171121E-002   1.4684552962891617E-002
  -8.4494948102816436E-002   2.5446353151461015E-002   1.4441256371311710E-002
  -8.1923545499330092E-002   2.4685416624097796E-002   1.4401910652785788E-002
  -7.9352142895843775E-002   2.3887617356081317E-002   1.4566515807313909E-002
  -7.6780740292357430E-002   2.3052955347411475E-002   1.4935071834895758E-002
  -9.3278969945535611E-002   2.7965148845962268E-002   7.7294311344123234E-003
  -9.0486136495906699E-002   2.7323984257006620E-002   7.3333756637297375E-003
  -8.7693303046277704E-002   2.6583270812094554E-002   7.1762310122782513E-003
  -8.4900469596648792E-002   2.5743008511226746E-002   7.2579971800580132E-003
  -8.2107636147019755E-002   2.4803197354402728E-002   7.5786741670693866E-003
  -9.9593622238655366E-002   2.9759870753753637E-002   8.8856156133865216E-004
  -9.6544397996706444E-002   2.9201615362551919E-002   2.7706109625036390E-004
  -9.3495173754757438E-002   2.8481125000091451E-002  -6.0568603429317358E-005
  -9.0445949512808446E-002   2.7598399666372252E-002  -1.2432753770014876E-004
  -8.7396725270859510E-002   2.6553439361393982E-002   8.5784293437529691E-005
  -6.6013528390564902E-002   1.9552471333428967E-002   2.9238390553131544E-002
  -6.3413791548412424E-002   1.8966358941420403E-002   2.8872112823952717E-002
  -6.0814054706259946E-002   1.8368239700164837E-002   2.8681044211185919E-002
  -5.8214317864107495E-002   1.7758113609662691E-002   2.8665184714831413E-002
  -5.5614581021955017E-002   1.7135980669913453E-002   2.8824534334888907E-002
  -7.1416037706872437E-002   2.1302713340420276E-002   2.2154977296916456E-002
  -6.8637951242655482E-002   2.0578329854538932E-002   2.1815861066898437E-002
  -6.5859864778438443E-002   1.9838381743276123E-002   2.1658234964597539E-002
  -6.3081778314221459E-002   1.9082869006632086E-002   2.1682098990013443E-002
  -6.0303691850004379E-002   1.8311791644606779E-002   2.1887453143146468E-002
  -7.6780740292357430E-002   2.3052955347411475E-002   1.4935071834895758E-002
  -7.3818023194771043E-002   2.2190300767657267E-002   1.4619559327904291E-002
  -7.0855306097184684E-002   2.1308523786387291E-002   1.4491817959934629E-002
  -6.7892588999598352E-002   2.0407624403601700E-002   1.4551847730986733E-002
  -6.4929871902011882E-002   1.9487602619300132E-002   1.4799648641060592E-002
  -8.2107636147019755E-002   2.4803197354402728E-002   7.5786741670693866E-003
  -7.8954007404759247E-002   2.3802271680775533E-002   7.2832076069701129E-003
  -7.5800378662498641E-002   2.2778665829498630E-002   7.1817931971971203E-003
  -7.2646749920238091E-002   2.1732379800570956E-002   7.2744309377512457E-003
  -6.9493121177977499E-002   2.0663413593993527E-002   7.5611208286314770E-003
  -8.7396725270859510E-002   2.6553439361393982E-002   8.5784293437529691E-005
  -8.4045903872619954E-002   2.5414242593894132E-002  -1.9319409590434766E-004
  -8.0695082474380397E-002   2.4248807872609718E-002  -2.7183932361435348E-004
  -7.7344261076140897E-002   2.3057135197540650E-002  -1.5015138969352859E-004
  -7.3993439677901285E-002   2.1839224568686921E-002   1.7186970585891803E-004
  -5.5614581021955017E-002   1.7135980669913453E-002   2.8824534334888907E-002
  -5.3552598949324404E-002   1.6402612997821531E-002   2.8727181180202399E-002
  -5.1490616876693818E-002   1.5458782710290539E-002   2.8887407845374830E-002
  -4.9428634804063273E-002   1.4304489807320932E-002   2.9305214330405893E-002
  -4.7366652731432674E-002   1.2939734288912597E-002   2.9980600635295729E-002
  -6.0303691850004379E-002   1.8311791644606779E-002   2.1887453143146468E-002
  -5.8044690309377742E-002   1.7517046600258684E-002   2.1671353735287419E-002
  -5.5785688768751153E-002   1.6690530816646246E-002   2.1591713443561811E-002
  -5.3526687228124481E-002   1.5832244293769272E-002   2.1648532267969575E-002
  -5.1267685687497941E-002   1.4942187031628085E-002   2.1841810208510282E-002
  -6.4929871902011882E-002   1.9487602619300132E-002   1.4799648641060592E-002
  -6.2594971597114774E-002   1.8631480202696060E-002   1.4643494856203740E-002
  -6.0260071292217596E-002   1.7922278923001848E-002   1.4502679483754298E-002
  -5.7925170987320460E-002   1.7359998780217725E-002   1.4377202523713082E-002
  -5.5590270682423303E-002   1.6944639774343573E-002   1.4267063976079103E-002
  -6.9493121177977499E-002   2.0663413593993527E-002   7.5611208286314770E-003
  -6.7203442812535333E-002   1.9745913805132825E-002   7.6436045429508284E-003
  -6.4913764447093236E-002   1.9154027029357281E-002   7.6203059659525878E-003
  -6.2624086081651126E-002   1.8887753266665565E-002   7.4912250976365653E-003
  -6.0334407716209001E-002   1.8947092517059061E-002   7.2563619380024563E-003
  -7.3993439677901285E-002   2.1839224568686921E-002   1.7186970585891803E-004
  -7.1870103955639641E-002   2.0860347407570479E-002   6.7168279552948240E-004
  -6.9746768233378054E-002   2.0385775135712852E-002   9.4459289015605408E-004
  -6.7623432511116383E-002   2.0415507753114355E-002   9.9059998974002778E-004
  -6.5500096788854822E-002   2.0949545259774660E-002   8.0970409428016143E-004
  -4.7366652731432674E-002   1.2939734288912597E-002   2.9980600635295729E-002
  -4.4986504567135877E-002   1.1823318596906773E-002   2.9224389139133666E-002
  -4.2606356402839149E-002   1.1414045173144149E-002   2.8128071704318969E-002
  -4.0226208238542387E-002   1.1711914017625696E-002   2.6691648330851941E-002
  -3.7846060074245569E-002   1.2716925130351164E-002   2.4915119018732446E-002
  -5.1267685687497941E-002   1.4942187031628085E-002   2.1841810208510282E-002
  -4.8958548889417419E-002   1.4111916226374449E-002   2.1362384206565860E-002
  -4.6649412091336905E-002   1.3432989074160545E-002   2.1081041410841383E-002
  -4.4340275293256390E-002   1.2905405574986560E-002   2.0997781821336603E-002
  -4.2031138495175924E-002   1.2529165728852099E-002   2.1112605438051824E-002
  -5.5590270682423303E-002   1.6944639774343573E-002   1.4267063976079103E-002
  -5.2813956105686739E-002   1.6400513855842291E-002   1.3508624853148410E-002
  -5.0037641528950225E-002   1.5451932975176996E-002   1.3486458081309882E-002
  -4.7261326952213592E-002   1.4098897132347285E-002   1.4200563660563617E-002
  -4.4485012375477126E-002   1.2341406327353033E-002   1.5650941590909517E-002
  -6.0334407716209001E-002   1.8947092517059061E-002   7.2563619380024563E-003
  -5.6552726215943989E-002   1.8689111485310439E-002   5.6631110788813062E-003
  -5.2771044715679026E-002   1.7470876876193031E-002   5.3443217157250478E-003
  -4.8989363215414049E-002   1.5292388689707968E-002   6.2999938485330600E-003
  -4.5207681715149009E-002   1.2153646925853967E-002   8.5301274773058461E-003
  -6.5500096788854822E-002   2.0949545259774660E-002   8.0970409428016143E-004
  -6.0174859220188948E-002   2.0977709114778031E-002  -2.1741571162350315E-003
  -5.4849621651523295E-002   1.9489820777209538E-002  -3.3453676859138692E-003
  -4.9524384082857364E-002   1.6485880247068631E-002  -2.7039276147555469E-003
  -4.4199146514191767E-002   1.1965887524354901E-002  -2.4983690275992565E-004
 </DataArray>
 </PointData>
 </Piece>
 <Piece  NumberOfPoints="          1600 "  NumberOfCells="         1024 ">
 <Points>
 <DataArray  type="Float64" NumberOfComponents="3"  format="ascii" >
  0.50000000000000000        0.0000000000000000        0.0000000000000000     
  0.53125000000000000        0.0000000000000000        0.0000000000000000     
  0.56250000000000000        0.0000000000000000        0.0000000000000000     
  0.59375000000000000        0.0000000000000000        0.0000000000000000     
  0.62500000000000000        0.0000000000000000        0.0000000000000000     
  0.50000000000000000        3.1250000000000000E-002   0.0000000000000000     
  0.53125000000000000        3.1250000000000000E-002   0.0000000000000000     
  0.56250000000000000        3.1250000000000000E-002   0.0000000000000000     
  0.59375000000000000        3.1250000000000000E-002   0.0000000000000000     
  0.62500000000000000        3.1250000000000000E-002   0.0000000000000000     
  0.50000000000000000        6.2500000000000000E-002   0.0000000000000000     
  0.53125000000000000        6.2500000000000000E-002   0.0000000000000000     
  0.56250000000000000        6.2500000000000000E-002   0.0000000000000000     
  0.59375000000000000        6.2500000000000000E-002   0.0000000000000000     
  0.62500000000000000        6.2500000000000000E-002   0.0000000000000000     
  0.50000000000000000        9.3750000000000000E-002   0.0000000000000000     
  0.53125000000000000        9.3750000000000000E-002   0.0000000000000000     
  0.56250000000000000        9.3750000000000000E-002   0.0000000000000000     
  0.59375000000000000        9.3750000000000000E-002   0.0000000000000000     
  0.62500000000000000        9.3750000000000000E-002   0.0000000000000000     
  0.50000000000000000       0.12500000000000000        0.0000000000000000     
  0.53125000000000000       0.12500000000000000        0.0000000000000000     
  0.56250000000000000       0.12500000000000000        0.0000000000000000     
  0.59375000000000000       0.12500000000000000        0.0000000000000000     
  0.62500000000000000       0.12500000000000000        0.0000000000000000     
  0.62500000000000000        0.0000000000000000        0.0000000000000000     
  0.65625000000000000        0.0000000000000000        0.0000000000000000     
  0.68750000000000000        0.0000000000000000        0.0000000000000000     
  0.71875000000000000        0.0000000000000000        0.0000000000000000     
  0.75000000000000000        0.0000000000000000        0.0000000000000000     
  0.62500000000000000        3.1250000000000000E-002   0.0000000000000000     
  0.65625000000000000        3.1250000000000000E-002   0.0000000000000000     
  0.68750000000000000        3.1250000000000000E-002   0.0000000000000000     
  0.71875000000000000        3.1250000000000000E-002   0.0000000000000000     
  0.75000000000000000        3.1250000000000000E-002   0.0000000000000000     
  0.62500000000000000        6.2500000000000000E-002   0.0000000000000000     
  0.65625000000000000        6.2500000000000000E-002   0.0000000000000000     
  0.68750000000000000        6.2500000000000000E-002   0.0000000000000000     
  0.71875000000000000        6.2500000000000000E-002   0.0000000000000000     
  0.75000000000000000        6.2500000000000000E-002   0.0000000000000000     
  0.62500000000000000        9.3750000000000000E-002   0.0000000000000000     
  0.65625000000000000        9.3750000000000000E-002   0.0000000000000000     
  0.68750000000000000        9.3750000000000000E-002   0.0000000000000000     
  0.71875000000000000        9.3750000000000000E-002   0.0000000000000000     
  0.75000000000000000        9.3750000000000000E-002   0.0000000000000000     
  0.62500000000000000       0.12500000000000000        0.0000000000000000     
  0.65625000000000000       0.12500000000000000        0.0000000000000000     
  0.68750000000000000       0.12500000000000000        0.0000000000000000     
  0.71875000000000000       0.12500000000000000        0.0000000000000000     
  0.75000000000000000       0.12500000000000000        0.0000000000000000     
  0.75000000000000000        0.0000000000000000        0.0000000000000000     
  0.78125000000000000        0.0000000000000000        0.0000000000000000     
  0.81250000000000000        0.0000000000000000        0.0000000000000000     
  0.84375000000000000        0.0000000000000000        0.0000000000000000     
  0.87500000000000000        0.0000000000000000        0.0000000000000000     
  0.75000000000000000        3.1250000000000000E-002   0.0000000000000000     
  0.78125000000000000        3.1250000000000000E-002   0.0000000000000000     
  0.81250000000000000        3.1250000000000000E-002   0.0000000000000000     
  0.84375000000000000        3.1250000000000000E-002   0.0000000000000000     
  0.87500000000000000        3.1250000000000000E-002   0.0000000000000000     
  0.75000000000000000        6.2500000000000000E-002   0.0000000000000000     
  0.78125000000000000        6.2500000000000000E-002   0.0000000000000000     
  0.81250000000000000        6.2500000000000000E-002   0.0000000000000000     
  0.84375000000000000        6.2500000000000000E-002   0.0000000000000000     
  0.87500000000000000        6.2500000000000000E-002   0.0000000000000000     
  0.75000000000000000        9.3750000000000000E-002   0.0000000000000000     
  0.78125000000000000        9.3750000000000000E-002   0.0000000000000000     
  0.81250000000000000        9.3750000000000000E-002   0.0000000000000000     
  0.84375000000000000        9.3750000000000000E-002   0.0000000000000000     
  0.87500000000000000        9.3750000000000000E-002   0.0000000000000000     
  0.75000000000000000       0.12500000000000000        0.0000000000000000     
  0.78125000000000000       0.12500000000000000        0.0000000000000000     
  0.81250000000000000       0.12500000000000000        0.0000000000000000     
  0.84375000000000000       0.12500000000000000        0.0000000000000000     
  0.87500000000000000       0.12500000000000000        0.0000000000000000     
  0.87500000000000000        0.0000000000000000        0.0000000000000000     
  0.90625000000000000        0.0000000000000000        0.0000000000000000     
  0.93750000000000000        0.0000000000000000        0.0000000000000000     
  0.96875000000000000        0.0000000000000000        0.0000000000000000     
   1.0000000000000000        0.0000000000000000        0.0000000000000000     
  0.87500000000000000        3.1250000000000000E-002   0.0000000000000000     
  0.90625000000000000        3.1250000000000000E-002   0.0000000000000000     
  0.93750000000000000        3.1250000000000000E-002   0.0000000000000000     
  0.96875000000000000        3.1250000000000000E-002   0.0000000000000000     
   1.0000000000000000        3.1250000000000000E-002   0.0000000000000000     
  0.87500000000000000        6.2500000000000000E-002   0.0000000000000000     
  0.90625000000000000        6.2500000000000000E-002   0.0000000000000000     
  0.93750000000000000        6.2500000000000000E-002   0.0000000000000000     
  0.96875000000000000        6.2500000000000000E-002   0.0000000000000000     
   1.0000000000000000        6.2500000000000000E-002   0.0000000000000000     
  0.87500000000000000        9.3750000000000000E-002   0.0000000000000000     
  0.90625000000000000        9.3750000000000000E-002   0.0000000000000000     
  0.93750000000000000        9.3750000000000000E-002   0.0000000000000000     
  0.96875000000000000        9.3750000000000000E-002   0.0000000000000000     
   1.0000000000000000        9.3750000000000000E-002   0.0000000000000000     
  0.87500000000000000       0.12500000000000000        0.0000000000000000     
  0.90625000000000000       0.12500000000000000        0.0000000000000000     
  0.93750000000000000       0.12500000000000000        0.0000000000000000     
  0.96875000000000000       0.12500000000000000        0.0000000000000000     
   1.0000000000000000       0.12500000000000000        0.0000000000000000     
   1.0000000000000000        0.0000000000000000        0.0000000000000000     
   1.0312500000000000        0.0000000000000000        0.0000000000000000     
   1.0625000000000000        0.0000000000000000        0.0000000000000000     
   1.0937500000000000        0.0000000000000000        0.0000000000000000     
   1.1250000000000000        0.0000000000000000        0.0000000000000000     
   1.0000000000000000        3.1250000000000000E-002   0.0000000000000000     
   1.0312500000000000        3.1250000000000000E-002   0.0000000000000000     
   1.0625000000000000        3.1250000000000000E-002   0.0000000000000000     
   1.0937500000000000        3.1250000000000000E-002   0.0000000000000000     
   1.1250000000000000        3.1250000000000000E-002   0.0000000000000000     
   1.0000000000000000        6.2500000000000000E-002   0.0000000000000000     
   1.0312500000000000        6.2500000000000000E-002   0.0000000000000000     
   1.0625000000000000        6.2500000000000000E-002   0.0000000000000000     
   1.0937500000000000        6.2500000000000000E-002   0.0000000000000000     
   1.1250000000000000        6.2500000000000000E-002   0.0000000000000000     
   1.0000000000000000        9.3750000000000000E-002   0.0000000000000000     
   1.0312500000000000        9.3750000000000000E-002   0.0000000000000000     
   1.0625000000000000        9.3750000000000000E-002   0.0000000000000000     
   1.0937500000000000        9.3750000000000000E-002   0.0000000000000000     
   1.1250000000000000        9.3750000000000000E-002   0.0000000000000000     
   1.0000000000000000       0.12500000000000000        0.0000000000000000     
   1.0312500000000000       0.12500000000000000        0.0000000000000000     
   1.0625000000000000       0.12500000000000000        0.0000000000000000     
   1.0937500000000000       0.12500000000000000        0.0000000000000000     
   1.1250000000000000       0.12500000000000000        0.0000000000000000     
   1.1250000000000000        0.0000000000000000        0.0000000000000000     
   1.1562500000000000        0.0000000000000000        0.0000000000000000     
   1.1875000000000000        0.0000000000000000        0.0000000000000000     
   1.2187500000000000        0.0000000000000000        0.0000000000000000     
   1.2500000000000000        0.0000000000000000        0.0000000000000000     
   1.1250000000000000        3.1250000000000000E-002   0.0000000000000000     
   1.1562500000000000        3.1250000000000000E-002   0.0000000000000000     
   1.1875000000000000        3.1250000000000000E-002   0.0000000000000000     
   1.2187500000000000        3.1250000000000000E-002   0.0000000000000000     
   1.2500000000000000        3.1250000000000000E-002   0.0000000000000000     
   1.1250000000000000        6.2500000000000000E-002   0.0000000000000000     
   1.1562500000000000        6.2500000000000000E-002   0.0000000000000000     
   1.1875000000000000        6.2500000000000000E-002   0.0000000000000000     
   1.2187500000000000        6.2500000000000000E-002   0.0000000000000000     
   1.2500000000000000        6.2500000000000000E-002   0.0000000000000000     
   1.1250000000000000        9.3750000000000000E-002   0.0000000000000000     
   1.1562500000000000        9.3750000000000000E-002   0.0000000000000000     
   1.1875000000000000        9.3750000000000000E-002   0.0000000000000000     
   1.2187500000000000        9.3750000000000000E-002   0.0000000000000000     
   1.2500000000000000        9.3750000000000000E-002   0.0000000000000000     
   1.1250000000000000       0.12500000000000000        0.0000000000000000     
   1.1562500000000000       0.12500000000000000        0.0000000000000000     
   1.1875000000000000       0.12500000000000000        0.0000000000000000     
   1.2187500000000000       0.12500000000000000        0.0000000000000000     
   1.2500000000000000       0.12500000000000000        0.0000000000000000     
   1.2500000000000000        0.0000000000000000        0.0000000000000000     
   1.2812500000000000        0.0000000000000000        0.0000000000000000     
   1.3125000000000000        0.0000000000000000        0.0000000000000000     
   1.3437500000000000        0.0000000000000000        0.0000000000000000     
   1.3750000000000000        0.0000000000000000        0.0000000000000000     
   1.2500000000000000        3.1250000000000000E-002   0.0000000000000000     
   1.2812500000000000        3.1250000000000000E-002   0.0000000000000000     
   1.3125000000000000        3.1250000000000000E-002   0.0000000000000000     
   1.3437500000000000        3.1250000000000000E-002   0.0000000000000000     
   1.3750000000000000        3.1250000000000000E-002   0.0000000000000000     
   1.2500000000000000        6.2500000000000000E-002   0.0000000000000000     
   1.2812500000000000        6.2500000000000000E-002   0.0000000000000000     
   1.3125000000000000        6.2500000000000000E-002   0.0000000000000000     
   1.3437500000000000        6.2500000000000000E-002   0.0000000000000000     
   1.3750000000000000        6.2500000000000000E-002   0.0000000000000000     
   1.2500000000000000        9.3750000000000000E-002   0.0000000000000000     
   1.2812500000000000        9.3750000000000000E-002   0.0000000000000000     
   1.3125000000000000        9.3750000000000000E-002   0.0000000000000000     
   1.3437500000000000        9.3750000000000000E-002   0.0000000000000000     
   1.3750000000000000        9.3750000000000000E-002   0.0000000000000000     
   1.2500000000000000       0.12500000000000000        0.0000000000000000     
   1.2812500000000000       0.12500000000000000        0.0000000000000000     
   1.3125000000000000       0.12500000000000000        0.0000000000000000     
   1.3437500000000000       0.12500000000000000        0.0000000000000000     
   1.3750000000000000       0.12500000000000000        0.0000000000000000     
   1.3750000000000000        0.0000000000000000        0.0000000000000000     
   1.4062500000000000        0.0000000000000000        0.0000000000000000     
   1.4375000000000000        0.0000000000000000        0.0000000000000000     
   1.4687500000000000        0.0000000000000000        0.0000000000000000     
   1.5000000000000000        0.0000000000000000        0.0000000000000000     
   1.3750000000000000        3.1250000000000000E-002   0.0000000000000000     
   1.4062500000000000        3.1250000000000000E-002   0.0000000000000000     
   1.4375000000000000        3.1250000000000000E-002   0.0000000000000000     
   1.4687500000000000        3.1250000000000000E-002   0.0000000000000000     
   1.5000000000000000        3.1250000000000000E-002   0.0000000000000000     
   1.3750000000000000        6.2500000000000000E-002   0.0000000000000000     
   1.4062500000000000        6.2500000000000000E-002   0.0000000000000000     
   1.4375000000000000        6.2500000000000000E-002   0.0000000000000000     
   1.4687500000000000        6.2500000000000000E-002   0.0000000000000000     
   1.5000000000000000        6.2500000000000000E-002   0.0000000000000000     
   1.3750000000000000        9.3750000000000000E-002   0.0000000000000000     
   1.4062500000000000        9.3750000000000000E-002   0.0000000000000000     
   1.4375000000000000        9.3750000000000000E-002   0.0000000000000000     
   1.4687500000000000        9.3750000000000000E-002   0.0000000000000000     
   1.5000000000000000        9.3750000000000000E-002   0.0000000000000000     
   1.3750000000000000       0.12500000000000000        0.0000000000000000     
   1.4062500000000000       0.12500000000000000        0.0000000000000000     
   1.4375000000000000       0.12500000000000000        0.0000000000000000     
   1.4687500000000000       0.12500000000000000        0.0000000000000000     
   1.5000000000000000       0.12500000000000000        0.0000000000000000     
  0.50000000000000000       0.12500000000000000        0.0000000000000000     
  0.53125000000000000       0.12500000000000000        0.0000000000000000     
  0.56250000000000000       0.12500000000000000        0.0000000000000000     
  0.59375000000000000       0.12500000000000000        0.0000000000000000     
  0.62500000000000000       0.12500000000000000        0.0000000000000000     
  0.50000000000000000       0.15625000000000000        0.0000000000000000     
  0.53125000000000000       0.15625000000000000        0.0000000000000000     
  0.56250000000000000       0.15625000000000000        0.0000000000000000     
  0.59375000000000000       0.15625000000000000        0.0000000000000000     
  0.62500000000000000       0.15625000000000000        0.0000000000000000     
  0.50000000000000000       0.18750000000000000        0.0000000000000000     
  0.53125000000000000       0.18750000000000000        0.0000000000000000     
  0.56250000000000000       0.18750000000000000        0.0000000000000000     
  0.59375000000000000       0.18750000000000000        0.0000000000000000     
  0.62500000000000000       0.18750000000000000        0.0000000000000000     
  0.50000000000000000       0.21875000000000000        0.0000000000000000     
  0.53125000000000000       0.21875000000000000        0.0000000000000000     
  0.56250000000000000       0.21875000000000000        0.0000000000000000     
  0.59375000000000000       0.21875000000000000        0.0000000000000000     
  0.62500000000000000       0.21875000000000000        0.0000000000000000     
  0.50000000000000000       0.25000000000000000        0.0000000000000000     
  0.53125000000000000       0.25000000000000000        0.0000000000000000     
  0.56250000000000000       0.25000000000000000        0.0000000000000000     
  0.59375000000000000       0.25000000000000000        0.0000000000000000     
  0.62500000000000000       0.25000000000000000        0.0000000000000000     
  0.62500000000000000       0.12500000000000000        0.0000000000000000     
  0.65625000000000000       0.12500000000000000        0.0000000000000000     
  0.68750000000000000       0.12500000000000000        0.0000000000000000     
  0.71875000000000000       0.12500000000000000        0.0000000000000000     
  0.75000000000000000       0.12500000000000000        0.0000000000000000     
  0.62500000000000000       0.15625000000000000        0.0000000000000000     
  0.65625000000000000       0.15625000000000000        0.0000000000000000     
  0.68750000000000000       0.15625000000000000        0.0000000000000000     
  0.71875000000000000       0.15625000000000000        0.0000000000000000     
  0.75000000000000000       0.15625000000000000        0.0000000000000000     
  0.62500000000000000       0.18750000000000000        0.0000000000000000     
  0.65625000000000000       0.18750000000000000        0.0000000000000000     
  0.68750000000000000       0.18750000000000000        0.0000000000000000     
  0.71875000000000000       0.18750000000000000        0.0000000000000000     
  0.75000000000000000       0.18750000000000000        0.0000000000000000     
  0.62500000000000000       0.21875000000000000        0.0000000000000000     
  0.65625000000000000       0.21875000000000000        0.0000000000000000     
  0.68750000000000000       0.21875000000000000        0.0000000000000000     
  0.71875000000000000       0.21875000000000000        0.0000000000000000     
  0.75000000000000000       0.21875000000000000        0.0000000000000000     
  0.62500000000000000       0.25000000000000000        0.0000000000000000     
  0.65625000000000000       0.25000000000000000        0.0000000000000000     
  0.68750000000000000       0.25000000000000000        0.0000000000000000     
  0.71875000000000000       0.25000000000000000        0.0000000000000000     
  0.75000000000000000       0.25000000000000000        0.0000000000000000     
  0.75000000000000000       0.12500000000000000        0.0000000000000000     
  0.78125000000000000       0.12500000000000000        0.0000000000000000     
  0.81250000000000000       0.12500000000000000        0.0000000000000000     
  0.84375000000000000       0.12500000000000000        0.0000000000000000     
  0.87500000000000000       0.12500000000000000        0.0000000000000000     
  0.75000000000000000       0.15625000000000000        0.0000000000000000     
  0.78125000000000000       0.15625000000000000        0.0000000000000000     
  0.81250000000000000       0.15625000000000000        0.0000000000000000     
  0.84375000000000000       0.15625000000000000        0.0000000000000000     
  0.87500000000000000       0.15625000000000000        0.0000000000000000     
  0.75000000000000000       0.18750000000000000        0.0000000000000000     
  0.78125000000000000       0.18750000000000000        0.0000000000000000     
  0.81250000000000000       0.18750000000000000        0.0000000000000000     
  0.84375000000000000       0.18750000000000000        0.0000000000000000     
  0.87500000000000000       0.18750000000000000        0.0000000000000000     
  0.75000000000000000       0.21875000000000000        0.0000000000000000     
  0.78125000000000000       0.21875000000000000        0.0000000000000000     
  0.81250000000000000       0.21875000000000000        0.0000000000000000     
  0.84375000000000000       0.21875000000000000        0.0000000000000000     
  0.87500000000000000       0.21875000000000000        0.0000000000000000     
  0.75000000000000000       0.25000000000000000        0.0000000000000000     
  0.78125000000000000       0.25000000000000000        0.0000000000000000     
  0.81250000000000000       0.25000000000000000        0.0000000000000000     
  0.84375000000000000       0.25000000000000000        0.0000000000000000     
  0.87500000000000000       0.25000000000000000        0.0000000000000000     
  0.87500000000000000       0.12500000000000000        0.0000000000000000     
  0.90625000000000000       0.12500000000000000        0.0000000000000000     
  0.93750000000000000       0.12500000000000000        0.0000000000000000     
  0.96875000000000000       0.12500000000000000        0.0000000000000000     
   1.0000000000000000       0.12500000000000000        0.0000000000000000     
  0.87500000000000000       0.15625000000000000        0.0000000000000000     
  0.90625000000000000       0.15625000000000000        0.0000000000000000     
  0.93750000000000000       0.15625000000000000        0.0000000000000000     
  0.96875000000000000       0.15625000000000000        0.0000000000000000     
   1.0000000000000000       0.15625000000000000        0.0000000000000000     
  0.87500000000000000       0.18750000000000000        0.0000000000000000     
  0.90625000000000000       0.18750000000000000        0.0000000000000000     
  0.93750000000000000       0.18750000000000000        0.0000000000000000     
  0.96875000000000000       0.18750000000000000        0.0000000000000000     
   1.0000000000000000       0.18750000000000000        0.0000000000000000     
  0.87500000000000000       0.21875000000000000        0.0000000000000000     
  0.90625000000000000       0.21875000000000000        0.0000000000000000     
  0.93750000000000000       0.21875000000000000        0.0000000000000000     
  0.96875000000000000       0.21875000000000000        0.0000000000000000     
   1.0000000000000000       0.21875000000000000        0.0000000000000000     
  0.87500000000000000       0.25000000000000000        0.0000000000000000     
  0.90625000000000000       0.25000000000000000        0.0000000000000000     
  0.93750000000000000       0.25000000000000000        0.0000000000000000     
  0.96875000000000000       0.25000000000000000        0.0000000000000000     
   1.0000000000000000       0.25000000000000000        0.0000000000000000     
   1.0000000000000000       0.12500000000000000        0.0000000000000000     
   1.0312500000000000       0.12500000000000000        0.0000000000000000     
   1.0625000000000000       0.12500000000000000        0.0000000000000000     
   1.0937500000000000       0.12500000000000000        0.0000000000000000     
   1.1250000000000000       0.12500000000000000        0.0000000000000000     
   1.0000000000000000       0.15625000000000000        0.0000000000000000     
   1.0312500000000000       0.15625000000000000        0.0000000000000000     
   1.0625000000000000       0.15625000000000000        0.0000000000000000     
   1.0937500000000000       0.15625000000000000        0.0000000000000000     
   1.1250000000000000       0.15625000000000000        0.0000000000000000     
   1.0000000000000000       0.18750000000000000        0.0000000000000000     
   1.0312500000000000       0.18750000000000000        0.0000000000000000     
   1.0625000000000000       0.18750000000000000        0.0000000000000000     
   1.0937500000000000       0.18750000000000000        0.0000000000000000     
   1.1250000000000000       0.18750000000000000        0.0000000000000000     
   1.0000000000000000       0.21875000000000000        0.0000000000000000     
   1.0312500000000000       0.21875000000000000        0.0000000000000000     
   1.0625000000000000       0.21875000000000000        0.0000000000000000     
   1.0937500000000000       0.21875000000000000        0.0000000000000000     
   1.1250000000000000       0.21875000000000000        0.0000000000000000     
   1.0000000000000000       0.25000000000000000        0.0000000000000000     
   1.0312500000000000       0.25000000000000000        0.0000000000000000     
   1.0625000000000000       0.25000000000000000        0.0000000000000000     
   1.0937500000000000       0.25000000000000000        0.0000000000000000     
   1.1250000000000000       0.25000000000000000        0.0000000000000000     
   1.1250000000000000       0.12500000000000000        0.0000000000000000     
   1.1562500000000000       0.12500000000000000        0.0000000000000000     
   1.1875000000000000       0.12500000000000000        0.0000000000000000     
   1.2187500000000000       0.12500000000000000        0.0000000000000000     
   1.2500000000000000       0.12500000000000000        0.0000000000000000     
   1.1250000000000000       0.15625000000000000        0.0000000000000000     
   1.1562500000000000       0.15625000000000000        0.0000000000000000     
   1.1875000000000000       0.15625000000000000        0.0000000000000000     
   1.2187500000000000       0.15625000000000000        0.0000000000000000     
   1.2500000000000000       0.15625000000000000        0.0000000000000000     
   1.1250000000000000       0.18750000000000000        0.0000000000000000     
   1.1562500000000000       0.18750000000000000        0.0000000000000000     
   1.1875000000000000       0.18750000000000000        0.0000000000000000     
   1.2187500000000000       0.18750000000000000        0.0000000000000000     
   1.2500000000000000       0.18750000000000000        0.0000000000000000     
   1.1250000000000000       0.21875000000000000        0.0000000000000000     
   1.1562500000000000       0.21875000000000000        0.0000000000000000     
   1.1875000000000000       0.21875000000000000        0.0000000000000000     
   1.2187500000000000       0.21875000000000000        0.0000000000000000     
   1.2500000000000000       0.21875000000000000        0.0000000000000000     
   1.1250000000000000       0.25000000000000000        0.0000000000000000     
   1.1562500000000000       0.25000000000000000        0.0000000000000000     
   1.1875000000000000       0.25000000000000000        0.0000000000000000     
   1.2187500000000000       0.25000000000000000        0.0000000000000000     
   1.2500000000000000       0.25000000000000000        0.0000000000000000     
   1.2500000000000000       0.12500000000000000        0.0000000000000000     
   1.2812500000000000       0.12500000000000000        0.0000000000000000     
   1.3125000000000000       0.12500000000000000        0.0000000000000000     
   1.3437500000000000       0.12500000000000000        0.0000000000000000     
   1.3750000000000000       0.12500000000000000        0.0000000000000000     
   1.2500000000000000       0.15625000000000000        0.0000000000000000     
   1.2812500000000000       0.15625000000000000        0.0000000000000000     
   1.3125000000000000       0.15625000000000000        0.0000000000000000     
   1.3437500000000000       0.15625000000000000        0.0000000000000000     
   1.3750000000000000       0.15625000000000000        0.0000000000000000     
   1.2500000000000000       0.18750000000000000        0.0000000000000000     
   1.2812500000000000       0.18750000000000000        0.0000000000000000     
   1.3125000000000000       0.18750000000000000        0.0000000000000000     
   1.3437500000000000       0.18750000000000000        0.0000000000000000     
   1.3750000000000000       0.18750000000000000        0.0000000000000000     
   1.2500000000000000       0.21875000000000000        0.0000000000000000     
   1.2812500000000000       0.21875000000000000        0.0000000000000000     
   1.3125000000000000       0.21875000000000000        0.0000000000000000     
   1.3437500000000000       0.21875000000000000        0.0000000000000000     
   1.3750000000000000       0.21875000000000000        0.0000000000000000     
   1.2500000000000000       0.25000000000000000        0.0000000000000000     
   1.2812500000000000       0.25000000000000000        0.0000000000000000     
   1.3125000000000000       0.25000000000000000        0.0000000000000000     
   1.3437500000000000       0.25000000000000000        0.0000000000000000     
   1.3750000000000000       0.25000000000000000        0.0000000000000000     
   1.3750000000000000       0.12500000000000000        0.0000000000000000     
   1.4062500000000000       0.12500000000000000        0.0000000000000000     
   1.4375000000000000       0.12500000000000000        0.0000000000000000     
   1.4687500000000000       0.12500000000000000        0.0000000000000000     
   1.5000000000000000       0.12500000000000000        0.0000000000000000     
   1.3750000000000000       0.15625000000000000        0.0000000000000000     
   1.4062500000000000       0.15625000000000000        0.0000000000000000     
   1.4375000000000000       0.15625000000000000        0.0000000000000000     
   1.4687500000000000       0.15625000000000000        0.0000000000000000     
   1.5000000000000000       0.15625000000000000        0.0000000000000000     
   1.3750000000000000       0.18750000000000000        0.0000000000000000     
   1.4062500000000000       0.18750000000000000        0.0000000000000000     
   1.4375000000000000       0.18750000000000000        0.0000000000000000     
   1.4687500000000000       0.18750000000000000        0.0000000000000000     
   1.5000000000000000       0.18750000000000000        0.0000000000000000     
   1.3750000000000000       0.21875000000000000        0.0000000000000000     
   1.4062500000000000       0.21875000000000000        0.0000000000000000     
   1.4375000000000000       0.21875000000000000        0.0000000000000000     
   1.4687500000000000       0.21875000000000000        0.0000000000000000     
   1.5000000000000000       0.21875000000000000        0.0000000000000000     
   1.3750000000000000       0.25000000000000000        0.0000000000000000     
   1.4062500000000000       0.25000000000000000        0.0000000000000000     
   1.4375000000000000       0.25000000000000000        0.0000000000000000     
   1.4687500000000000       0.25000000000000000        0.0000000000000000     
   1.5000000000000000       0.25000000000000000        0.0000000000000000     
  0.50000000000000000       0.25000000000000000        0.0000000000000000     
  0.53125000000000000       0.25000000000000000        0.0000000000000000     
  0.56250000000000000       0.25000000000000000        0.0000000000000000     
  0.59375000000000000       0.25000000000000000        0.0000000000000000     
  0.62500000000000000       0.25000000000000000        0.0000000000000000     
  0.50000000000000000       0.28125000000000000        0.0000000000000000     
  0.53125000000000000       0.28125000000000000        0.0000000000000000     
  0.56250000000000000       0.28125000000000000        0.0000000000000000     
  0.59375000000000000       0.28125000000000000        0.0000000000000000     
  0.62500000000000000       0.28125000000000000        0.0000000000000000     
  0.50000000000000000       0.31250000000000000        0.0000000000000000     
  0.53125000000000000       0.31250000000000000        0.0000000000000000     
  0.56250000000000000       0.31250000000000000        0.0000000000000000     
  0.59375000000000000       0.31250000000000000        0.0000000000000000     
  0.62500000000000000       0.31250000000000000        0.0000000000000000     
  0.50000000000000000       0.34375000000000000        0.0000000000000000     
  0.53125000000000000       0.34375000000000000        0.0000000000000000     
  0.56250000000000000       0.34375000000000000        0.0000000000000000     
  0.59375000000000000       0.34375000000000000        0.0000000000000000     
  0.62500000000000000       0.34375000000000000        0.0000000000000000     
  0.50000000000000000       0.37500000000000000        0.0000000000000000     
  0.53125000000000000       0.37500000000000000        0.0000000000000000     
  0.56250000000000000       0.37500000000000000        0.0000000000000000     
  0.59375000000000000       0.37500000000000000        0.0000000000000000     
  0.62500000000000000       0.37500000000000000        0.0000000000000000     
  0.62500000000000000       0.25000000000000000        0.0000000000000000     
  0.65625000000000000       0.25000000000000000        0.0000000000000000     
  0.68750000000000000       0.25000000000000000        0.0000000000000000     
  0.71875000000000000       0.25000000000000000        0.0000000000000000     
  0.75000000000000000       0.25000000000000000        0.0000000000000000     
  0.62500000000000000       0.28125000000000000        0.0000000000000000     
  0.65625000000000000       0.28125000000000000        0.0000000000000000     
  0.68750000000000000       0.28125000000000000        0.0000000000000000     
  0.71875000000000000       0.28125000000000000        0.0000000000000000     
  0.75000000000000000       0.28125000000000000        0.0000000000000000     
  0.62500000000000000       0.31250000000000000        0.0000000000000000     
  0.65625000000000000       0.31250000000000000        0.0000000000000000     
  0.68750000000000000       0.31250000000000000        0.0000000000000000     
  0.71875000000000000       0.31250000000000000        0.0000000000000000     
  0.75000000000000000       0.31250000000000000        0.0000000000000000     
  0.62500000000000000       0.34375000000000000        0.0000000000000000     
  0.65625000000000000       0.34375000000000000        0.0000000000000000     
  0.68750000000000000       0.34375000000000000        0.0000000000000000     
  0.71875000000000000       0.34375000000000000        0.0000000000000000     
  0.75000000000000000       0.34375000000000000        0.0000000000000000     
  0.62500000000000000       0.37500000000000000        0.0000000000000000     
  0.65625000000000000       0.37500000000000000        0.0000000000000000     
  0.68750000000000000       0.37500000000000000        0.0000000000000000     
  0.71875000000000000       0.37500000000000000        0.0000000000000000     
  0.75000000000000000       0.37500000000000000        0.0000000000000000     
  0.75000000000000000       0.25000000000000000        0.0000000000000000     
  0.78125000000000000       0.25000000000000000        0.0000000000000000     
  0.81250000000000000       0.25000000000000000        0.0000000000000000     
  0.84375000000000000       0.25000000000000000        0.0000000000000000     
  0.87500000000000000       0.25000000000000000        0.0000000000000000     
  0.75000000000000000       0.28125000000000000        0.0000000000000000     
  0.78125000000000000       0.28125000000000000        0.0000000000000000     
  0.81250000000000000       0.28125000000000000        0.0000000000000000     
  0.84375000000000000       0.28125000000000000        0.0000000000000000     
  0.87500000000000000       0.28125000000000000        0.0000000000000000     
  0.75000000000000000       0.31250000000000000        0.0000000000000000     
  0.78125000000000000       0.31250000000000000        0.0000000000000000     
  0.81250000000000000       0.31250000000000000        0.0000000000000000     
  0.84375000000000000       0.31250000000000000        0.0000000000000000     
  0.87500000000000000       0.31250000000000000        0.0000000000000000     
  0.75000000000000000       0.34375000000000000        0.0000000000000000     
  0.78125000000000000       0.34375000000000000        0.0000000000000000     
  0.81250000000000000       0.34375000000000000        0.0000000000000000     
  0.84375000000000000       0.34375000000000000        0.0000000000000000     
  0.87500000000000000       0.34375000000000000        0.0000000000000000     
  0.75000000000000000       0.37500000000000000        0.0000000000000000     
  0.78125000000000000       0.37500000000000000        0.0000000000000000     
  0.81250000000000000       0.37500000000000000        0.0000000000000000     
  0.84375000000000000       0.37500000000000000        0.0000000000000000     
  0.87500000000000000       0.37500000000000000        0.0000000000000000     
  0.87500000000000000       0.25000000000000000        0.0000000000000000     
  0.90625000000000000       0.25000000000000000        0.0000000000000000     
  0.93750000000000000       0.25000000000000000        0.0000000000000000     
  0.96875000000000000       0.25000000000000000        0.0000000000000000     
   1.0000000000000000       0.25000000000000000        0.0000000000000000     
  0.87500000000000000       0.28125000000000000        0.0000000000000000     
  0.90625000000000000       0.28125000000000000        0.0000000000000000     
  0.93750000000000000       0.28125000000000000        0.0000000000000000     
  0.96875000000000000       0.28125000000000000        0.0000000000000000     
   1.0000000000000000       0.28125000000000000        0.0000000000000000     
  0.87500000000000000       0.31250000000000000        0.0000000000000000     
  0.90625000000000000       0.31250000000000000        0.0000000000000000     
  0.93750000000000000       0.31250000000000000        0.0000000000000000     
  0.96875000000000000       0.31250000000000000        0.0000000000000000     
   1.0000000000000000       0.31250000000000000        0.0000000000000000     
  0.87500000000000000       0.34375000000000000        0.0000000000000000     
  0.90625000000000000       0.34375000000000000        0.0000000000000000     
  0.93750000000000000       0.34375000000000000        0.0000000000000000     
  0.96875000000000000       0.34375000000000000        0.0000000000000000     
   1.0000000000000000       0.34375000000000000        0.0000000000000000     
  0.87500000000000000       0.37500000000000000        0.0000000000000000     
  0.90625000000000000       0.37500000000000000        0.0000000000000000     
  0.93750000000000000       0.37500000000000000        0.0000000000000000     
  0.96875000000000000       0.37500000000000000        0.0000000000000000     
   1.0000000000000000       0.37500000000000000        0.0000000000000000     
   1.0000000000000000       0.25000000000000000        0.0000000000000000     
   1.0312500000000000       0.25000000000000000        0.0000000000000000     
   1.0625000000000000       0.25000000000000000        0.0000000000000000     
   1.0937500000000000       0.25000000000000000        0.0000000000000000     
   1.1250000000000000       0.25000000000000000        0.0000000000000000     
   1.0000000000000000       0.28125000000000000        0.0000000000000000     
   1.0312500000000000       0.28125000000000000        0.0000000000000000     
   1.0625000000000000       0.28125000000000000        0.0000000000000000     
   1.0937500000000000       0.28125000000000000        0.0000000000000000     
   1.1250000000000000       0.28125000000000000        0.0000000000000000     
   1.0000000000000000       0.31250000000000000        0.0000000000000000     
   1.0312500000000000       0.31250000000000000        0.0000000000000000     
   1.0625000000000000       0.31250000000000000        0.0000000000000000     
   1.0937500000000000       0.31250000000000000        0.0000000000000000     
   1.1250000000000000       0.31250000000000000        0.0000000000000000     
   1.0000000000000000       0.34375000000000000        0.0000000000000000     
   1.0312500000000000       0.34375000000000000        0.0000000000000000     
   1.0625000000000000       0.34375000000000000        0.0000000000000000     
   1.0937500000000000       0.34375000000000000        0.0000000000000000     
   1.1250000000000000       0.34375000000000000        0.0000000000000000     
   1.0000000000000000       0.37500000000000000        0.0000000000000000     
   1.0312500000000000       0.37500000000000000        0.0000000000000000     
   1.0625000000000000       0.37500000000000000        0.0000000000000000     
   1.0937500000000000       0.37500000000000000        0.0000000000000000     
   1.1250000000000000       0.37500000000000000        0.0000000000000000     
   1.1250000000000000       0.25000000000000000        0.0000000000000000     
   1.1562500000000000       0.25000000000000000        0.0000000000000000     
   1.1875000000000000       0.25000000000000000        0.0000000000000000     
   1.2187500000000000       0.25000000000000000        0.0000000000000000     
   1.2500000000000000       0.25000000000000000        0.0000000000000000     
   1.1250000000000000       0.28125000000000000        0.0000000000000000     
   1.1562500000000000       0.28125000000000000        0.0000000000000000     
   1.1875000000000000       0.28125000000000000        0.0000000000000000     
   1.2187500000000000       0.28125000000000000        0.0000000000000000     
   1.2500000000000000       0.28125000000000000        0.0000000000000000     
   1.1250000000000000       0.31250000000000000        0.0000000000000000     
   1.1562500000000000       0.31250000000000000        0.0000000000000000     
   1.1875000000000000       0.31250000000000000        0.0000000000000000     
   1.2187500000000000       0.31250000000000000        0.0000000000000000     
   1.2500000000000000       0.31250000000000000        0.0000000000000000     
   1.1250000000000000       0.34375000000000000        0.0000000000000000     
   1.1562500000000000       0.34375000000000000        0.0000000000000000     
   1.1875000000000000       0.34375000000000000        0.0000000000000000     
   1.2187500000000000       0.34375000000000000        0.0000000000000000     
   1.2500000000000000       0.34375000000000000        0.0000000000000000     
   1.1250000000000000       0.37500000000000000        0.0000000000000000     
   1.1562500000000000       0.37500000000000000        0.0000000000000000     
   1.1875000000000000       0.37500000000000000        0.0000000000000000     
   1.2187500000000000       0.37500000000000000        0.0000000000000000     
   1.2500000000000000       0.37500000000000000        0.0000000000000000     
   1.2500000000000000       0.25000000000000000        0.0000000000000000     
   1.2812500000000000       0.25000000000000000        0.0000000000000000     
   1.3125000000000000       0.25000000000000000        0.0000000000000000     
   1.3437500000000000       0.25000000000000000        0.0000000000000000     
   1.3750000000000000       0.25000000000000000        0.0000000000000000     
   1.2500000000000000       0.28125000000000000        0.0000000000000000     
   1.2812500000000000       0.28125000000000000        0.0000000000000000     
   1.3125000000000000       0.28125000000000000        0.0000000000000000     
   1.3437500000000000       0.28125000000000000        0.0000000000000000     
   1.3750000000000000       0.28125000000000000        0.0000000000000000     
   1.2500000000000000       0.31250000000000000        0.0000000000000000     
   1.2812500000000000       0.31250000000000000        0.0000000000000000     
   1.3125000000000000       0.31250000000000000        0.0000000000000000     
   1.3437500000000000       0.31250000000000000        0.0000000000000000     
   1.3750000000000000       0.31250000000000000        0.0000000000000000     
   1.2500000000000000       0.34375000000000000        0.0000000000000000     
   1.2812500000000000       0.34375000000000000        0.0000000000000000     
   1.3125000000000000       0.34375000000000000        0.0000000000000000     
   1.3437500000000000       0.34375000000000000        0.0000000000000000     
   1.3750000000000000       0.34375000000000000        0.0000000000000000     
   1.2500000000000000       0.37500000000000000        0.0000000000000000     
   1.2812500000000000       0.37500000000000000        0.0000000000000000     
   1.3125000000000000       0.37500000000000000        0.0000000000000000     
   1.3437500000000000       0.37500000000000000        0.0000000000000000     
   1.3750000000000000       0.37500000000000000        0.0000000000000000     
   1.3750000000000000       0.25000000000000000        0.0000000000000000     
   1.4062500000000000       0.25000000000000000        0.0000000000000000     
   1.4375000000000000       0.25000000000000000        0.0000000000000000     
   1.4687500000000000       0.25000000000000000        0.0000000000000000     
   1.5000000000000000       0.25000000000000000        0.0000000000000000     
   1.3750000000000000       0.28125000000000000        0.0000000000000000     
   1.4062500000000000       0.28125000000000000        0.0000000000000000     
   1.4375000000000000       0.28125000000000000        0.0000000000000000     
   1.4687500000000000       0.28125000000000000        0.0000000000000000     
   1.5000000000000000       0.28125000000000000        0.0000000000000000     
   1.3750000000000000       0.31250000000000000        0.0000000000000000     
   1.4062500000000000       0.31250000000000000        0.0000000000000000     
   1.4375000000000000       0.31250000000000000        0.0000000000000000     
   1.4687500000000000       0.31250000000000000        0.0000000000000000     
   1.5000000000000000       0.31250000000000000        0.0000000000000000     
   1.3750000000000000       0.34375000000000000        0.0000000000000000     
   1.4062500000000000       0.34375000000000000        0.0000000000000000     
   1.4375000000000000       0.34375000000000000        0.0000000000000000     
   1.4687500000000000       0.34375000000000000        0.0000000000000000     
   1.5000000000000000       0.34375000000000000        0.0000000000000000     
   1.3750000000000000       0.37500000000000000        0.0000000000000000     
   1.4062500000000000       0.37500000000000000        0.0000000000000000     
   1.4375000000000000       0.37500000000000000        0.0000000000000000     
   1.4687500000000000       0.37500000000000000        0.0000000000000000     
   1.5000000000000000       0.37500000000000000        0.0000000000000000     
  0.50000000000000000       0.37500000000000000        0.0000000000000000     
  0.53125000000000000       0.37500000000000000        0.0000000000000000     
  0.56250000000000000       0.37500000000000000        0.0000000000000000     
  0.59375000000000000       0.37500000000000000        0.0000000000000000     
  0.62500000000000000       0.37500000000000000        0.0000000000000000     
  0.50000000000000000       0.40625000000000000        0.0000000000000000     
  0.53125000000000000       0.40625000000000000        0.0000000000000000     
  0.56250000000000000       0.40625000000000000        0.0000000000000000     
  0.59375000000000000       0.40625000000000000        0.0000000000000000     
  0.62500000000000000       0.40625000000000000        0.0000000000000000     
  0.50000000000000000       0.43750000000000000        0.0000000000000000     
  0.53125000000000000       0.43750000000000000        0.0000000000000000     
  0.56250000000000000       0.43750000000000000        0.0000000000000000     
  0.59375000000000000       0.43750000000000000        0.0000000000000000     
  0.62500000000000000       0.43750000000000000        0.0000000000000000     
  0.50000000000000000       0.46875000000000000        0.0000000000000000     
  0.53125000000000000       0.46875000000000000        0.0000000000000000     
  0.56250000000000000       0.46875000000000000        0.0000000000000000     
  0.59375000000000000       0.46875000000000000        0.0000000000000000     
  0.62500000000000000       0.46875000000000000        0.0000000000000000     
  0.50000000000000000       0.50000000000000000        0.0000000000000000     
  0.53125000000000000       0.50000000000000000        0.0000000000000000     
  0.56250000000000000       0.50000000000000000        0.0000000000000000     
  0.59375000000000000       0.50000000000000000        0.0000000000000000     
  0.62500000000000000       0.50000000000000000        0.0000000000000000     
  0.62500000000000000       0.37500000000000000        0.0000000000000000     
  0.65625000000000000       0.37500000000000000        0.0000000000000000     
  0.68750000000000000       0.37500000000000000        0.0000000000000000     
  0.71875000000000000       0.37500000000000000        0.0000000000000000     
  0.75000000000000000       0.37500000000000000        0.0000000000000000     
  0.62500000000000000       0.40625000000000000        0.0000000000000000     
  0.65625000000000000       0.40625000000000000        0.0000000000000000     
  0.68750000000000000       0.40625000000000000        0.0000000000000000     
  0.71875000000000000       0.40625000000000000        0.0000000000000000     
  0.75000000000000000       0.40625000000000000        0.0000000000000000     
  0.62500000000000000       0.43750000000000000        0.0000000000000000     
  0.65625000000000000       0.43750000000000000        0.0000000000000000     
  0.68750000000000000       0.43750000000000000        0.0000000000000000     
  0.71875000000000000       0.43750000000000000        0.0000000000000000     
  0.75000000000000000       0.43750000000000000        0.0000000000000000     
  0.62500000000000000       0.46875000000000000        0.0000000000000000     
  0.65625000000000000       0.46875000000000000        0.0000000000000000     
  0.68750000000000000       0.46875000000000000        0.0000000000000000     
  0.71875000000000000       0.46875000000000000        0.0000000000000000     
  0.75000000000000000       0.46875000000000000        0.0000000000000000     
  0.62500000000000000       0.50000000000000000        0.0000000000000000     
  0.65625000000000000       0.50000000000000000        0.0000000000000000     
  0.68750000000000000       0.50000000000000000        0.0000000000000000     
  0.71875000000000000       0.50000000000000000        0.0000000000000000     
  0.75000000000000000       0.50000000000000000        0.0000000000000000     
  0.75000000000000000       0.37500000000000000        0.0000000000000000     
  0.78125000000000000       0.37500000000000000        0.0000000000000000     
  0.81250000000000000       0.37500000000000000        0.0000000000000000     
  0.84375000000000000       0.37500000000000000        0.0000000000000000     
  0.87500000000000000       0.37500000000000000        0.0000000000000000     
  0.75000000000000000       0.40625000000000000        0.0000000000000000     
  0.78125000000000000       0.40625000000000000        0.0000000000000000     
  0.81250000000000000       0.40625000000000000        0.0000000000000000     
  0.84375000000000000       0.40625000000000000        0.0000000000000000     
  0.87500000000000000       0.40625000000000000        0.0000000000000000     
  0.75000000000000000       0.43750000000000000        0.0000000000000000     
  0.78125000000000000       0.43750000000000000        0.0000000000000000     
  0.81250000000000000       0.43750000000000000        0.0000000000000000     
  0.84375000000000000       0.43750000000000000        0.0000000000000000     
  0.87500000000000000       0.43750000000000000        0.0000000000000000     
  0.75000000000000000       0.46875000000000000        0.0000000000000000     
  0.78125000000000000       0.46875000000000000        0.0000000000000000     
  0.81250000000000000       0.46875000000000000        0.0000000000000000     
  0.84375000000000000       0.46875000000000000        0.0000000000000000     
  0.87500000000000000       0.46875000000000000        0.0000000000000000     
  0.75000000000000000       0.50000000000000000        0.0000000000000000     
  0.78125000000000000       0.50000000000000000        0.0000000000000000     
  0.81250000000000000       0.50000000000000000        0.0000000000000000     
  0.84375000000000000       0.50000000000000000        0.0000000000000000     
  0.87500000000000000       0.50000000000000000        0.0000000000000000     
  0.87500000000000000       0.37500000000000000        0.0000000000000000     
  0.90625000000000000       0.37500000000000000        0.0000000000000000     
  0.93750000000000000       0.37500000000000000        0.0000000000000000     
  0.96875000000000000       0.37500000000000000        0.0000000000000000     
   1.0000000000000000       0.37500000000000000        0.0000000000000000     
  0.87500000000000000       0.40625000000000000        0.0000000000000000     
  0.90625000000000000       0.40625000000000000        0.0000000000000000     
  0.93750000000000000       0.40625000000000000        0.0000000000000000     
  0.96875000000000000       0.40625000000000000        0.0000000000000000     
   1.0000000000000000       0.40625000000000000        0.0000000000000000     
  0.87500000000000000       0.43750000000000000        0.0000000000000000     
  0.90625000000000000       0.43750000000000000        0.0000000000000000     
  0.93750000000000000       0.43750000000000000        0.0000000000000000     
  0.96875000000000000       0.43750000000000000        0.0000000000000000     
   1.0000000000000000       0.43750000000000000        0.0000000000000000     
  0.87500000000000000       0.46875000000000000        0.0000000000000000     
  0.90625000000000000       0.46875000000000000        0.0000000000000000     
  0.93750000000000000       0.46875000000000000        0.0000000000000000     
  0.96875000000000000       0.46875000000000000        0.0000000000000000     
   1.0000000000000000       0.46875000000000000        0.0000000000000000     
  0.87500000000000000       0.50000000000000000        0.0000000000000000     
  0.90625000000000000       0.50000000000000000        0.0000000000000000     
  0.93750000000000000       0.50000000000000000        0.0000000000000000     
  0.96875000000000000       0.50000000000000000        0.0000000000000000     
   1.0000000000000000       0.50000000000000000        0.0000000000000000     
   1.0000000000000000       0.37500000000000000        0.0000000000000000     
   1.0312500000000000       0.37500000000000000        0.0000000000000000     
   1.0625000000000000       0.37500000000000000        0.0000000000000000     
   1.0937500000000000       0.37500000000000000        0.0000000000000000     
   1.1250000000000000       0.37500000000000000        0.0000000000000000     
   1.0000000000000000       0.40625000000000000        0.0000000000000000     
   1.0312500000000000       0.40625000000000000        0.0000000000000000     
   1.0625000000000000       0.40625000000000000        0.0000000000000000     
   1.0937500000000000       0.40625000000000000        0.0000000000000000     
   1.1250000000000000       0.40625000000000000        0.0000000000000000     
   1.0000000000000000       0.43750000000000000        0.0000000000000000     
   1.0312500000000000       0.43750000000000000        0.0000000000000000     
   1.0625000000000000       0.43750000000000000        0.0000000000000000     
   1.0937500000000000       0.43750000000000000        0.0000000000000000     
   1.1250000000000000       0.43750000000000000        0.0000000000000000     
   1.0000000000000000       0.46875000000000000        0.0000000000000000     
   1.0312500000000000       0.46875000000000000        0.0000000000000000     
   1.0625000000000000       0.46875000000000000        0.0000000000000000     
   1.0937500000000000       0.46875000000000000        0.0000000000000000     
   1.1250000000000000       0.46875000000000000        0.0000000000000000     
   1.0000000000000000       0.50000000000000000        0.0000000000000000     
   1.0312500000000000       0.50000000000000000        0.0000000000000000     
   1.0625000000000000       0.50000000000000000        0.0000000000000000     
   1.0937500000000000       0.50000000000000000        0.0000000000000000     
   1.1250000000000000       0.50000000000000000        0.0000000000000000     
   1.1250000000000000       0.37500000000000000        0.0000000000000000     
   1.1562500000000000       0.37500000000000000        0.0000000000000000     
   1.1875000000000000       0.37500000000000000        0.0000000000000000     
   1.2187500000000000       0.37500000000000000        0.0000000000000000     
   1.2500000000000000       0.37500000000000000        0.0000000000000000     
   1.1250000000000000       0.40625000000000000        0.0000000000000000     
   1.1562500000000000       0.40625000000000000        0.0000000000000000     
   1.1875000000000000       0.40625000000000000        0.0000000000000000     
   1.2187500000000000       0.40625000000000000        0.0000000000000000     
   1.2500000000000000       0.40625000000000000        0.0000000000000000     
   1.1250000000000000       0.43750000000000000        0.0000000000000000     
   1.1562500000000000       0.43750000000000000        0.0000000000000000     
   1.1875000000000000       0.43750000000000000        0.0000000000000000     
   1.2187500000000000       0.43750000000000000        0.0000000000000000     
   1.2500000000000000       0.43750000000000000        0.0000000000000000     
   1.1250000000000000       0.46875000000000000        0.0000000000000000     
   1.1562500000000000       0.46875000000000000        0.0000000000000000     
   1.1875000000000000       0.46875000000000000        0.0000000000000000     
   1.2187500000000000       0.46875000000000000        0.0000000000000000     
   1.2500000000000000       0.46875000000000000        0.0000000000000000     
   1.1250000000000000       0.50000000000000000        0.0000000000000000     
   1.1562500000000000       0.50000000000000000        0.0000000000000000     
   1.1875000000000000       0.50000000000000000        0.0000000000000000     
   1.2187500000000000       0.50000000000000000        0.0000000000000000     
   1.2500000000000000       0.50000000000000000        0.0000000000000000     
   1.2500000000000000       0.37500000000000000        0.0000000000000000     
   1.2812500000000000       0.37500000000000000        0.0000000000000000     
   1.3125000000000000       0.37500000000000000        0.0000000000000000     
   1.3437500000000000       0.37500000000000000        0.0000000000000000     
   1.3750000000000000       0.37500000000000000        0.0000000000000000     
   1.2500000000000000       0.40625000000000000        0.0000000000000000     
   1.2812500000000000       0.40625000000000000        0.0000000000000000     
   1.3125000000000000       0.40625000000000000        0.0000000000000000     
   1.3437500000000000       0.40625000000000000        0.0000000000000000     
   1.3750000000000000       0.40625000000000000        0.0000000000000000     
   1.2500000000000000       0.43750000000000000        0.0000000000000000     
   1.2812500000000000       0.43750000000000000        0.0000000000000000     
   1.3125000000000000       0.43750000000000000        0.0000000000000000     
   1.3437500000000000       0.43750000000000000        0.0000000000000000     
   1.3750000000000000       0.43750000000000000        0.0000000000000000     
   1.2500000000000000       0.46875000000000000        0.0000000000000000     
   1.2812500000000000       0.46875000000000000        0.0000000000000000     
   1.3125000000000000       0.46875000000000000        0.0000000000000000     
   1.3437500000000000       0.46875000000000000        0.0000000000000000     
   1.3750000000000000       0.46875000000000000        0.0000000000000000     
   1.2500000000000000       0.50000000000000000        0.0000000000000000     
   1.2812500000000000       0.50000000000000000        0.0000000000000000     
   1.3125000000000000       0.50000000000000000        0.0000000000000000     
   1.3437500000000000       0.50000000000000000        0.0000000000000000     
   1.3750000000000000       0.50000000000000000        0.0000000000000000     
   1.3750000000000000       0.37500000000000000        0.0000000000000000     
   1.4062500000000000       0.37500000000000000        0.0000000000000000     
   1.4375000000000000       0.37500000000000000        0.0000000000000000     
   1.4687500000000000       0.37500000000000000        0.0000000000000000     
   1.5000000000000000       0.37500000000000000        0.0000000000000000     
   1.3750000000000000       0.40625000000000000        0.0000000000000000     
   1.4062500000000000       0.40625000000000000        0.0000000000000000     
   1.4375000000000000       0.40625000000000000        0.0000000000000000     
   1.4687500000000000       0.40625000000000000        0.0000000000000000     
   1.5000000000000000       0.40625000000000000        0.0000000000000000     
   1.3750000000000000       0.43750000000000000        0.0000000000000000     
   1.4062500000000000       0.43750000000000000        0.0000000000000000     
   1.4375000000000000       0.43750000000000000        0.0000000000000000     
   1.4687500000000000       0.43750000000000000        0.0000000000000000     
   1.5000000000000000       0.43750000000000000        0.0000000000000000     
   1.3750000000000000       0.46875000000000000        0.0000000000000000     
   1.4062500000000000       0.46875000000000000        0.0000000000000000     
   1.4375000000000000       0.46875000000000000        0.0000000000000000     
   1.4687500000000000       0.46875000000000000        0.0000000000000000     
   1.5000000000000000       0.46875000000000000        0.0000000000000000     
   1.3750000000000000       0.50000000000000000        0.0000000000000000     
   1.4062500000000000       0.50000000000000000        0.0000000000000000     
   1.4375000000000000       0.50000000000000000        0.0000000000000000     
   1.4687500000000000       0.50000000000000000        0.0000000000000000     
   1.5000000000000000       0.50000000000000000        0.0000000000000000     
  0.50000000000000000       0.50000000000000000        0.0000000000000000     
  0.53125000000000000       0.50000000000000000        0.0000000000000000     
  0.56250000000000000       0.50000000000000000        0.0000000000000000     
  0.59375000000000000       0.50000000000000000        0.0000000000000000     
  0.62500000000000000       0.50000000000000000        0.0000000000000000     
  0.50000000000000000       0.53125000000000000        0.0000000000000000     
  0.53125000000000000       0.53125000000000000        0.0000000000000000     
  0.56250000000000000       0.53125000000000000        0.0000000000000000     
  0.59375000000000000       0.53125000000000000        0.0000000000000000     
  0.62500000000000000       0.53125000000000000        0.0000000000000000     
  0.50000000000000000       0.56250000000000000        0.0000000000000000     
  0.53125000000000000       0.56250000000000000        0.0000000000000000     
  0.56250000000000000       0.56250000000000000        0.0000000000000000     
  0.59375000000000000       0.56250000000000000        0.0000000000000000     
  0.62500000000000000       0.56250000000000000        0.0000000000000000     
  0.50000000000000000       0.59375000000000000        0.0000000000000000     
  0.53125000000000000       0.59375000000000000        0.0000000000000000     
  0.56250000000000000       0.59375000000000000        0.0000000000000000     
  0.59375000000000000       0.59375000000000000        0.0000000000000000     
  0.62500000000000000       0.59375000000000000        0.0000000000000000     
  0.50000000000000000       0.62500000000000000        0.0000000000000000     
  0.53125000000000000       0.62500000000000000        0.0000000000000000     
  0.56250000000000000       0.62500000000000000        0.0000000000000000     
  0.59375000000000000       0.62500000000000000        0.0000000000000000     
  0.62500000000000000       0.62500000000000000        0.0000000000000000     
  0.62500000000000000       0.50000000000000000        0.0000000000000000     
  0.65625000000000000       0.50000000000000000        0.0000000000000000     
  0.68750000000000000       0.50000000000000000        0.0000000000000000     
  0.71875000000000000       0.50000000000000000        0.0000000000000000     
  0.75000000000000000       0.50000000000000000        0.0000000000000000     
  0.62500000000000000       0.53125000000000000        0.0000000000000000     
  0.65625000000000000       0.53125000000000000        0.0000000000000000     
  0.68750000000000000       0.53125000000000000        0.0000000000000000     
  0.71875000000000000       0.53125000000000000        0.0000000000000000     
  0.75000000000000000       0.53125000000000000        0.0000000000000000     
  0.62500000000000000       0.56250000000000000        0.0000000000000000     
  0.65625000000000000       0.56250000000000000        0.0000000000000000     
  0.68750000000000000       0.56250000000000000        0.0000000000000000     
  0.71875000000000000       0.56250000000000000        0.0000000000000000     
  0.75000000000000000       0.56250000000000000        0.0000000000000000     
  0.62500000000000000       0.59375000000000000        0.0000000000000000     
  0.65625000000000000       0.59375000000000000        0.0000000000000000     
  0.68750000000000000       0.59375000000000000        0.0000000000000000     
  0.71875000000000000       0.59375000000000000        0.0000000000000000     
  0.75000000000000000       0.59375000000000000        0.0000000000000000     
  0.62500000000000000       0.62500000000000000        0.0000000000000000     
  0.65625000000000000       0.62500000000000000        0.0000000000000000     
  0.68750000000000000       0.62500000000000000        0.0000000000000000     
  0.71875000000000000       0.62500000000000000        0.0000000000000000     
  0.75000000000000000       0.62500000000000000        0.0000000000000000     
  0.75000000000000000       0.50000000000000000        0.0000000000000000     
  0.78125000000000000       0.50000000000000000        0.0000000000000000     
  0.81250000000000000       0.50000000000000000        0.0000000000000000     
  0.84375000000000000       0.50000000000000000        0.0000000000000000     
  0.87500000000000000       0.50000000000000000        0.0000000000000000     
  0.75000000000000000       0.53125000000000000        0.0000000000000000     
  0.78125000000000000       0.53125000000000000        0.0000000000000000     
  0.81250000000000000       0.53125000000000000        0.0000000000000000     
  0.84375000000000000       0.53125000000000000        0.0000000000000000     
  0.87500000000000000       0.53125000000000000        0.0000000000000000     
  0.75000000000000000       0.56250000000000000        0.0000000000000000     
  0.78125000000000000       0.56250000000000000        0.0000000000000000     
  0.81250000000000000       0.56250000000000000        0.0000000000000000     
  0.84375000000000000       0.56250000000000000        0.0000000000000000     
  0.87500000000000000       0.56250000000000000        0.0000000000000000     
  0.75000000000000000       0.59375000000000000        0.0000000000000000     
  0.78125000000000000       0.59375000000000000        0.0000000000000000     
  0.81250000000000000       0.59375000000000000        0.0000000000000000     
  0.84375000000000000       0.59375000000000000        0.0000000000000000     
  0.87500000000000000       0.59375000000000000        0.0000000000000000     
  0.75000000000000000       0.62500000000000000        0.0000000000000000     
  0.78125000000000000       0.62500000000000000        0.0000000000000000     
  0.81250000000000000       0.62500000000000000        0.0000000000000000     
  0.84375000000000000       0.62500000000000000        0.0000000000000000     
  0.87500000000000000       0.62500000000000000        0.0000000000000000     
  0.87500000000000000       0.50000000000000000        0.0000000000000000     
  0.90625000000000000       0.50000000000000000        0.0000000000000000     
  0.93750000000000000       0.50000000000000000        0.0000000000000000     
  0.96875000000000000       0.50000000000000000        0.0000000000000000     
   1.0000000000000000       0.50000000000000000        0.0000000000000000     
  0.87500000000000000       0.53125000000000000        0.0000000000000000     
  0.90625000000000000       0.53125000000000000        0.0000000000000000     
  0.93750000000000000       0.53125000000000000        0.0000000000000000     
  0.96875000000000000       0.53125000000000000        0.0000000000000000     
   1.0000000000000000       0.53125000000000000        0.0000000000000000     
  0.87500000000000000       0.56250000000000000        0.0000000000000000     
  0.90625000000000000       0.56250000000000000        0.0000000000000000     
  0.93750000000000000       0.56250000000000000        0.0000000000000000     
  0.96875000000000000       0.56250000000000000        0.0000000000000000     
   1.0000000000000000       0.56250000000000000        0.0000000000000000     
  0.87500000000000000       0.59375000000000000        0.0000000000000000     
  0.90625000000000000       0.59375000000000000        0.0000000000000000     
  0.93750000000000000       0.59375000000000000        0.0000000000000000     
  0.96875000000000000       0.59375000000000000        0.0000000000000000     
   1.0000000000000000       0.59375000000000000        0.0000000000000000     
  0.87500000000000000       0.62500000000000000        0.0000000000000000     
  0.90625000000000000       0.62500000000000000        0.0000000000000000     
  0.93750000000000000       0.62500000000000000        0.0000000000000000     
  0.96875000000000000       0.62500000000000000        0.0000000000000000     
   1.0000000000000000       0.62500000000000000        0.0000000000000000     
   1.0000000000000000       0.50000000000000000        0.0000000000000000     
   1.0312500000000000       0.50000000000000000        0.0000000000000000     
   1.0625000000000000       0.50000000000000000        0.0000000000000000     
   1.0937500000000000       0.50000000000000000        0.0000000000000000     
   1.1250000000000000       0.50000000000000000        0.0000000000000000     
   1.0000000000000000       0.53125000000000000        0.0000000000000000     
   1.0312500000000000       0.53125000000000000        0.0000000000000000     
   1.0625000000000000       0.53125000000000000        0.0000000000000000     
   1.0937500000000000       0.53125000000000000        0.0000000000000000     
   1.1250000000000000       0.53125000000000000        0.0000000000000000     
   1.0000000000000000       0.56250000000000000        0.0000000000000000     
   1.0312500000000000       0.56250000000000000        0.0000000000000000     
   1.0625000000000000       0.56250000000000000        0.0000000000000000     
   1.0937500000000000       0.56250000000000000        0.0000000000000000     
   1.1250000000000000       0.56250000000000000        0.0000000000000000     
   1.0000000000000000       0.59375000000000000        0.0000000000000000     
   1.0312500000000000       0.59375000000000000        0.0000000000000000     
   1.0625000000000000       0.59375000000000000        0.0000000000000000     
   1.0937500000000000       0.59375000000000000        0.0000000000000000     
   1.1250000000000000       0.59375000000000000        0.0000000000000000     
   1.0000000000000000       0.62500000000000000        0.0000000000000000     
   1.0312500000000000       0.62500000000000000        0.0000000000000000     
   1.0625000000000000       0.62500000000000000        0.0000000000000000     
   1.0937500000000000       0.62500000000000000        0.0000000000000000     
   1.1250000000000000       0.62500000000000000        0.0000000000000000     
   1.1250000000000000       0.50000000000000000        0.0000000000000000     
   1.1562500000000000       0.50000000000000000        0.0000000000000000     
   1.1875000000000000       0.50000000000000000        0.0000000000000000     
   1.2187500000000000       0.50000000000000000        0.0000000000000000     
   1.2500000000000000       0.50000000000000000        0.0000000000000000     
   1.1250000000000000       0.53125000000000000        0.0000000000000000     
   1.1562500000000000       0.53125000000000000        0.0000000000000000     
   1.1875000000000000       0.53125000000000000        0.0000000000000000     
   1.2187500000000000       0.53125000000000000        0.0000000000000000     
   1.2500000000000000       0.53125000000000000        0.0000000000000000     
   1.1250000000000000       0.56250000000000000        0.0000000000000000     
   1.1562500000000000       0.56250000000000000        0.0000000000000000     
   1.1875000000000000       0.56250000000000000        0.0000000000000000     
   1.2187500000000000       0.56250000000000000        0.0000000000000000     
   1.2500000000000000       0.56250000000000000        0.0000000000000000     
   1.1250000000000000       0.59375000000000000        0.0000000000000000     
   1.1562500000000000       0.59375000000000000        0.0000000000000000     
   1.1875000000000000       0.59375000000000000        0.0000000000000000     
   1.2187500000000000       0.59375000000000000        0.0000000000000000     
   1.2500000000000000       0.59375000000000000        0.0000000000000000     
   1.1250000000000000       0.62500000000000000        0.0000000000000000     
   1.1562500000000000       0.62500000000000000        0.0000000000000000     
   1.1875000000000000       0.62500000000000000        0.0000000000000000     
   1.2187500000000000       0.62500000000000000        0.0000000000000000     
   1.2500000000000000       0.62500000000000000        0.0000000000000000     
   1.2500000000000000       0.50000000000000000        0.0000000000000000     
   1.2812500000000000       0.50000000000000000        0.0000000000000000     
   1.3125000000000000       0.50000000000000000        0.0000000000000000     
   1.3437500000000000       0.50000000000000000        0.0000000000000000     
   1.3750000000000000       0.50000000000000000        0.0000000000000000     
   1.2500000000000000       0.53125000000000000        0.0000000000000000     
   1.2812500000000000       0.53125000000000000        0.0000000000000000     
   1.3125000000000000       0.53125000000000000        0.0000000000000000     
   1.3437500000000000       0.53125000000000000        0.0000000000000000     
   1.3750000000000000       0.53125000000000000        0.0000000000000000     
   1.2500000000000000       0.56250000000000000        0.0000000000000000     
   1.2812500000000000       0.56250000000000000        0.0000000000000000     
   1.3125000000000000       0.56250000000000000        0.0000000000000000     
   1.3437500000000000       0.56250000000000000        0.0000000000000000     
   1.3750000000000000       0.56250000000000000        0.0000000000000000     
   1.2500000000000000       0.59375000000000000        0.0000000000000000     
   1.2812500000000000       0.59375000000000000        0.0000000000000000     
   1.3125000000000000       0.59375000000000000        0.0000000000000000     
   1.3437500000000000       0.59375000000000000        0.0000000000000000     
   1.3750000000000000       0.59375000000000000        0.0000000000000000     
   1.2500000000000000       0.62500000000000000        0.0000000000000000     
   1.2812500000000000       0.62500000000000000        0.0000000000000000     
   1.3125000000000000       0.62500000000000000        0.0000000000000000     
   1.3437500000000000       0.62500000000000000        0.0000000000000000     
   1.3750000000000000       0.62500000000000000        0.0000000000000000     
   1.3750000000000000       0.50000000000000000        0.0000000000000000     
   1.4062500000000000       0.50000000000000000        0.0000000000000000     
   1.4375000000000000       0.50000000000000000        0.0000000000000000     
   1.4687500000000000       0.50000000000000000        0.0000000000000000     
   1.5000000000000000       0.50000000000000000        0.0000000000000000     
   1.3750000000000000       0.53125000000000000        0.0000000000000000     
   1.4062500000000000       0.53125000000000000        0.0000000000000000     
   1.4375000000000000       0.53125000000000000        0.0000000000000000     
   1.4687500000000000       0.53125000000000000        0.0000000000000000     
   1.5000000000000000       0.53125000000000000        0.0000000000000000     
   1.3750000000000000       0.56250000000000000        0.0000000000000000     
   1.4062500000000000       0.56250000000000000        0.0000000000000000     
   1.4375000000000000       0.56250000000000000        0.0000000000000000     
   1.4687500000000000       0.56250000000000000        0.0000000000000000     
   1.5000000000000000       0.56250000000000000        0.0000000000000000     
   1.3750000000000000       0.59375000000000000        0.0000000000000000     
   1.4062500000000000       0.59375000000000000        0.0000000000000000     
   1.4375000000000000       0.59375000000000000        0.0000000000000000     
   1.4687500000000000       0.59375000000000000        0.0000000000000000     
   1.5000000000000000       0.59375000000000000        0.0000000000000000     
   1.3750000000000000       0.62500000000000000        0.0000000000000000     
   1.4062500000000000       0.62500000000000000        0.0000000000000000     
   1.4375000000000000       0.62500000000000000        0.0000000000000000     
   1.4687500000000000       0.62500000000000000        0.0000000000000000     
   1.5000000000000000       0.62500000000000000        0.0000000000000000     
  0.50000000000000000       0.62500000000000000        0.0000000000000000     
  0.53125000000000000       0.62500000000000000        0.0000000000000000     
  0.56250000000000000       0.62500000000000000        0.0000000000000000     
  0.59375000000000000       0.62500000000000000        0.0000000000000000     
  0.62500000000000000       0.62500000000000000        0.0000000000000000     
  0.50000000000000000       0.65625000000000000        0.0000000000000000     
  0.53125000000000000       0.65625000000000000        0.0000000000000000     
  0.56250000000000000       0.65625000000000000        0.0000000000000000     
  0.59375000000000000       0.65625000000000000        0.0000000000000000     
  0.62500000000000000       0.65625000000000000        0.0000000000000000     
  0.50000000000000000       0.68750000000000000        0.0000000000000000     
  0.53125000000000000       0.68750000000000000        0.0000000000000000     
  0.56250000000000000       0.68750000000000000        0.0000000000000000     
  0.59375000000000000       0.68750000000000000        0.0000000000000000     
  0.62500000000000000       0.68750000000000000        0.0000000000000000     
  0.50000000000000000       0.71875000000000000        0.0000000000000000     
  0.53125000000000000       0.71875000000000000        0.0000000000000000     
  0.56250000000000000       0.71875000000000000        0.0000000000000000     
  0.59375000000000000       0.71875000000000000        0.0000000000000000     
  0.62500000000000000       0.71875000000000000        0.0000000000000000     
  0.50000000000000000       0.75000000000000000        0.0000000000000000     
  0.53125000000000000       0.75000000000000000        0.0000000000000000     
  0.56250000000000000       0.75000000000000000        0.0000000000000000     
  0.59375000000000000       0.75000000000000000        0.0000000000000000     
  0.62500000000000000       0.75000000000000000        0.0000000000000000     
  0.62500000000000000       0.62500000000000000        0.0000000000000000     
  0.65625000000000000       0.62500000000000000        0.0000000000000000     
  0.68750000000000000       0.62500000000000000        0.0000000000000000     
  0.71875000000000000       0.62500000000000000        0.0000000000000000     
  0.75000000000000000       0.62500000000000000        0.0000000000000000     
  0.62500000000000000       0.65625000000000000        0.0000000000000000     
  0.65625000000000000       0.65625000000000000        0.0000000000000000     
  0.68750000000000000       0.65625000000000000        0.0000000000000000     
  0.71875000000000000       0.65625000000000000        0.0000000000000000     
  0.75000000000000000       0.65625000000000000        0.0000000000000000     
  0.62500000000000000       0.68750000000000000        0.0000000000000000     
  0.65625000000000000       0.68750000000000000        0.0000000000000000     
  0.68750000000000000       0.68750000000000000        0.0000000000000000     
  0.71875000000000000       0.68750000000000000        0.0000000000000000     
  0.75000000000000000       0.68750000000000000        0.0000000000000000     
  0.62500000000000000       0.71875000000000000        0.0000000000000000     
  0.65625000000000000       0.71875000000000000        0.0000000000000000     
  0.68750000000000000       0.71875000000000000        0.0000000000000000     
  0.71875000000000000       0.71875000000000000        0.0000000000000000     
  0.75000000000000000       0.71875000000000000        0.0000000000000000     
  0.62500000000000000       0.75000000000000000        0.0000000000000000     
  0.65625000000000000       0.75000000000000000        0.0000000000000000     
  0.68750000000000000       0.75000000000000000        0.0000000000000000     
  0.71875000000000000       0.75000000000000000        0.0000000000000000     
  0.75000000000000000       0.75000000000000000        0.0000000000000000     
  0.75000000000000000       0.62500000000000000        0.0000000000000000     
  0.78125000000000000       0.62500000000000000        0.0000000000000000     
  0.81250000000000000       0.62500000000000000        0.0000000000000000     
  0.84375000000000000       0.62500000000000000        0.0000000000000000     
  0.87500000000000000       0.62500000000000000        0.0000000000000000     
  0.75000000000000000       0.65625000000000000        0.0000000000000000     
  0.78125000000000000       0.65625000000000000        0.0000000000000000     
  0.81250000000000000       0.65625000000000000        0.0000000000000000     
  0.84375000000000000       0.65625000000000000        0.0000000000000000     
  0.87500000000000000       0.65625000000000000        0.0000000000000000     
  0.75000000000000000       0.68750000000000000        0.0000000000000000     
  0.78125000000000000       0.68750000000000000        0.0000000000000000     
  0.81250000000000000       0.68750000000000000        0.0000000000000000     
  0.84375000000000000       0.68750000000000000        0.0000000000000000     
  0.87500000000000000       0.68750000000000000        0.0000000000000000     
  0.75000000000000000       0.71875000000000000        0.0000000000000000     
  0.78125000000000000       0.71875000000000000        0.0000000000000000     
  0.81250000000000000       0.71875000000000000        0.0000000000000000     
  0.84375000000000000       0.71875000000000000        0.0000000000000000     
  0.87500000000000000       0.71875000000000000        0.0000000000000000     
  0.75000000000000000       0.75000000000000000        0.0000000000000000     
  0.78125000000000000       0.75000000000000000        0.0000000000000000     
  0.81250000000000000       0.75000000000000000        0.0000000000000000     
  0.84375000000000000       0.75000000000000000        0.0000000000000000     
  0.87500000000000000       0.75000000000000000        0.0000000000000000     
  0.87500000000000000       0.62500000000000000        0.0000000000000000     
  0.90625000000000000       0.62500000000000000        0.0000000000000000     
  0.93750000000000000       0.62500000000000000        0.0000000000000000     
  0.96875000000000000       0.62500000000000000        0.0000000000000000     
   1.0000000000000000       0.62500000000000000        0.0000000000000000     
  0.87500000000000000       0.65625000000000000        0.0000000000000000     
  0.90625000000000000       0.65625000000000000        0.0000000000000000     
  0.93750000000000000       0.65625000000000000        0.0000000000000000     
  0.96875000000000000       0.65625000000000000        0.0000000000000000     
   1.0000000000000000       0.65625000000000000        0.0000000000000000     
  0.87500000000000000       0.68750000000000000        0.0000000000000000     
  0.90625000000000000       0.68750000000000000        0.0000000000000000     
  0.93750000000000000       0.68750000000000000        0.0000000000000000     
  0.96875000000000000       0.68750000000000000        0.0000000000000000     
   1.0000000000000000       0.68750000000000000        0.0000000000000000     
  0.87500000000000000       0.71875000000000000        0.0000000000000000     
  0.90625000000000000       0.71875000000000000        0.0000000000000000     
  0.93750000000000000       0.71875000000000000        0.0000000000000000     
  0.96875000000000000       0.71875000000000000        0.0000000000000000     
   1.0000000000000000       0.71875000000000000        0.0000000000000000     
  0.87500000000000000       0.75000000000000000        0.0000000000000000     
  0.90625000000000000       0.75000000000000000        0.0000000000000000     
  0.93750000000000000       0.75000000000000000        0.0000000000000000     
  0.96875000000000000       0.75000000000000000        0.0000000000000000     
   1.0000000000000000       0.75000000000000000        0.0000000000000000     
   1.0000000000000000       0.62500000000000000        0.0000000000000000     
   1.0312500000000000       0.62500000000000000        0.0000000000000000     
   1.0625000000000000       0.62500000000000000        0.0000000000000000     
   1.0937500000000000       0.62500000000000000        0.0000000000000000     
   1.1250000000000000       0.62500000000000000        0.0000000000000000     
   1.0000000000000000       0.65625000000000000        0.0000000000000000     
   1.0312500000000000       0.65625000000000000        0.0000000000000000     
   1.0625000000000000       0.65625000000000000        0.0000000000000000     
   1.0937500000000000       0.65625000000000000        0.0000000000000000     
   1.1250000000000000       0.65625000000000000        0.0000000000000000     
   1.0000000000000000       0.68750000000000000        0.0000000000000000     
   1.0312500000000000       0.68750000000000000        0.0000000000000000     
   1.0625000000000000       0.68750000000000000        0.0000000000000000     
   1.0937500000000000       0.68750000000000000        0.0000000000000000     
   1.1250000000000000       0.68750000000000000        0.0000000000000000     
   1.0000000000000000       0.71875000000000000        0.0000000000000000     
   1.0312500000000000       0.71875000000000000        0.0000000000000000     
   1.0625000000000000       0.71875000000000000        0.0000000000000000     
   1.0937500000000000       0.71875000000000000        0.0000000000000000     
   1.1250000000000000       0.71875000000000000        0.0000000000000000     
   1.0000000000000000       0.75000000000000000        0.0000000000000000     
   1.0312500000000000       0.75000000000000000        0.0000000000000000     
   1.0625000000000000       0.75000000000000000        0.0000000000000000     
   1.0937500000000000       0.75000000000000000        0.0000000000000000     
   1.1250000000000000       0.75000000000000000        0.0000000000000000     
   1.1250000000000000       0.62500000000000000        0.0000000000000000     
   1.1562500000000000       0.62500000000000000        0.0000000000000000     
   1.1875000000000000       0.62500000000000000        0.0000000000000000     
   1.2187500000000000       0.62500000000000000        0.0000000000000000     
   1.2500000000000000       0.62500000000000000        0.0000000000000000     
   1.1250000000000000       0.65625000000000000        0.0000000000000000     
   1.1562500000000000       0.65625000000000000        0.0000000000000000     
   1.1875000000000000       0.65625000000000000        0.0000000000000000     
   1.2187500000000000       0.65625000000000000        0.0000000000000000     
   1.2500000000000000       0.65625000000000000        0.0000000000000000     
   1.1250000000000000       0.68750000000000000        0.0000000000000000     
   1.1562500000000000       0.68750000000000000        0.0000000000000000     
   1.1875000000000000       0.68750000000000000        0.0000000000000000     
   1.2187500000000000       0.68750000000000000        0.0000000000000000     
   1.2500000000000000       0.68750000000000000        0.0000000000000000     
   1.1250000000000000       0.71875000000000000        0.0000000000000000     
   1.1562500000000000       0.71875000000000000        0.0000000000000000     
   1.1875000000000000       0.71875000000000000        0.0000000000000000     
   1.2187500000000000       0.71875000000000000        0.0000000000000000     
   1.2500000000000000       0.71875000000000000        0.0000000000000000     
   1.1250000000000000       0.75000000000000000        0.0000000000000000     
   1.1562500000000000       0.75000000000000000        0.0000000000000000     
   1.1875000000000000       0.75000000000000000        0.0000000000000000     
   1.2187500000000000       0.75000000000000000        0.0000000000000000     
   1.2500000000000000       0.75000000000000000        0.0000000000000000     
   1.2500000000000000       0.62500000000000000        0.0000000000000000     
   1.2812500000000000       0.62500000000000000        0.0000000000000000     
   1.3125000000000000       0.62500000000000000        0.0000000000000000     
   1.3437500000000000       0.62500000000000000        0.0000000000000000     
   1.3750000000000000       0.62500000000000000        0.0000000000000000     
   1.2500000000000000       0.65625000000000000        0.0000000000000000     
   1.2812500000000000       0.65625000000000000        0.0000000000000000     
   1.3125000000000000       0.65625000000000000        0.0000000000000000     
   1.3437500000000000       0.65625000000000000        0.0000000000000000     
   1.3750000000000000       0.65625000000000000        0.0000000000000000     
   1.2500000000000000       0.68750000000000000        0.0000000000000000     
   1.2812500000000000       0.68750000000000000        0.0000000000000000     
   1.3125000000000000       0.68750000000000000        0.0000000000000000     
   1.3437500000000000       0.68750000000000000        0.0000000000000000     
   1.3750000000000000       0.68750000000000000        0.0000000000000000     
   1.2500000000000000       0.71875000000000000        0.0000000000000000     
   1.2812500000000000       0.71875000000000000        0.0000000000000000     
   1.3125000000000000       0.71875000000000000        0.0000000000000000     
   1.3437500000000000       0.71875000000000000        0.0000000000000000     
   1.3750000000000000       0.71875000000000000        0.0000000000000000     
   1.2500000000000000       0.75000000000000000        0.0000000000000000     
   1.2812500000000000       0.75000000000000000        0.0000000000000000     
   1.3125000000000000       0.75000000000000000        0.0000000000000000     
   1.3437500000000000       0.75000000000000000        0.0000000000000000     
   1.3750000000000000       0.75000000000000000        0.0000000000000000     
   1.3750000000000000       0.62500000000000000        0.0000000000000000     
   1.4062500000000000       0.62500000000000000        0.0000000000000000     
   1.4375000000000000       0.62500000000000000        0.0000000000000000     
   1.4687500000000000       0.62500000000000000        0.0000000000000000     
   1.5000000000000000       0.62500000000000000        0.0000000000000000     
   1.3750000000000000       0.65625000000000000        0.0000000000000000     
   1.4062500000000000       0.65625000000000000        0.0000000000000000     
   1.4375000000000000       0.65625000000000000        0.0000000000000000     
   1.4687500000000000       0.65625000000000000        0.0000000000000000     
   1.5000000000000000       0.65625000000000000        0.0000000000000000     
   1.3750000000000000       0.68750000000000000        0.0000000000000000     
   1.4062500000000000       0.68750000000000000        0.0000000000000000     
   1.4375000000000000       0.68750000000000000        0.0000000000000000     
   1.4687500000000000       0.68750000000000000        0.0000000000000000     
   1.5000000000000000       0.68750000000000000        0.0000000000000000     
   1.3750000000000000       0.71875000000000000        0.0000000000000000     
   1.4062500000000000       0.71875000000000000        0.0000000000000000     
   1.4375000000000000       0.71875000000000000        0.0000000000000000     
   1.4687500000000000       0.71875000000000000        0.0000000000000000     
   1.5000000000000000       0.71875000000000000        0.0000000000000000     
   1.3750000000000000       0.75000000000000000        0.0000000000000000     
   1.4062500000000000       0.75000000000000000        0.0000000000000000     
   1.4375000000000000       0.75000000000000000        0.0000000000000000     
   1.4687500000000000       0.75000000000000000        0.0000000000000000     
   1.5000000000000000       0.75000000000000000        0.0000000000000000     
  0.50000000000000000       0.75000000000000000        0.0000000000000000     
  0.53125000000000000       0.75000000000000000        0.0000000000000000     
  0.56250000000000000       0.75000000000000000        0.0000000000000000     
  0.59375000000000000       0.75000000000000000        0.0000000000000000     
  0.62500000000000000       0.75000000000000000        0.0000000000000000     
  0.50000000000000000       0.78125000000000000        0.0000000000000000     
  0.53125000000000000       0.78125000000000000        0.0000000000000000     
  0.56250000000000000       0.78125000000000000        0.0000000000000000     
  0.59375000000000000       0.78125000000000000        0.0000000000000000     
  0.62500000000000000       0.78125000000000000        0.0000000000000000     
  0.50000000000000000       0.81250000000000000        0.0000000000000000     
  0.53125000000000000       0.81250000000000000        0.0000000000000000     
  0.56250000000000000       0.81250000000000000        0.0000000000000000     
  0.59375000000000000       0.81250000000000000        0.0000000000000000     
  0.62500000000000000       0.81250000000000000        0.0000000000000000     
  0.50000000000000000       0.84375000000000000        0.0000000000000000     
  0.53125000000000000       0.84375000000000000        0.0000000000000000     
  0.56250000000000000       0.84375000000000000        0.0000000000000000     
  0.59375000000000000       0.84375000000000000        0.0000000000000000     
  0.62500000000000000       0.84375000000000000        0.0000000000000000     
  0.50000000000000000       0.87500000000000000        0.0000000000000000     
  0.53125000000000000       0.87500000000000000        0.0000000000000000     
  0.56250000000000000       0.87500000000000000        0.0000000000000000     
  0.59375000000000000       0.87500000000000000        0.0000000000000000     
  0.62500000000000000       0.87500000000000000        0.0000000000000000     
  0.62500000000000000       0.75000000000000000        0.0000000000000000     
  0.65625000000000000       0.75000000000000000        0.0000000000000000     
  0.68750000000000000       0.75000000000000000        0.0000000000000000     
  0.71875000000000000       0.75000000000000000        0.0000000000000000     
  0.75000000000000000       0.75000000000000000        0.0000000000000000     
  0.62500000000000000       0.78125000000000000        0.0000000000000000     
  0.65625000000000000       0.78125000000000000        0.0000000000000000     
  0.68750000000000000       0.78125000000000000        0.0000000000000000     
  0.71875000000000000       0.78125000000000000        0.0000000000000000     
  0.75000000000000000       0.78125000000000000        0.0000000000000000     
  0.62500000000000000       0.81250000000000000        0.0000000000000000     
  0.65625000000000000       0.81250000000000000        0.0000000000000000     
  0.68750000000000000       0.81250000000000000        0.0000000000000000     
  0.71875000000000000       0.81250000000000000        0.0000000000000000     
  0.75000000000000000       0.81250000000000000        0.0000000000000000     
  0.62500000000000000       0.84375000000000000        0.0000000000000000     
  0.65625000000000000       0.84375000000000000        0.0000000000000000     
  0.68750000000000000       0.84375000000000000        0.0000000000000000     
  0.71875000000000000       0.84375000000000000        0.0000000000000000     
  0.75000000000000000       0.84375000000000000        0.0000000000000000     
  0.62500000000000000       0.87500000000000000        0.0000000000000000     
  0.65625000000000000       0.87500000000000000        0.0000000000000000     
  0.68750000000000000       0.87500000000000000        0.0000000000000000     
  0.71875000000000000       0.87500000000000000        0.0000000000000000     
  0.75000000000000000       0.87500000000000000        0.0000000000000000     
  0.75000000000000000       0.75000000000000000        0.0000000000000000     
  0.78125000000000000       0.75000000000000000        0.0000000000000000     
  0.81250000000000000       0.75000000000000000        0.0000000000000000     
  0.84375000000000000       0.75000000000000000        0.0000000000000000     
  0.87500000000000000       0.75000000000000000        0.0000000000000000     
  0.75000000000000000       0.78125000000000000        0.0000000000000000     
  0.78125000000000000       0.78125000000000000        0.0000000000000000     
  0.81250000000000000       0.78125000000000000        0.0000000000000000     
  0.84375000000000000       0.78125000000000000        0.0000000000000000     
  0.87500000000000000       0.78125000000000000        0.0000000000000000     
  0.75000000000000000       0.81250000000000000        0.0000000000000000     
  0.78125000000000000       0.81250000000000000        0.0000000000000000     
  0.81250000000000000       0.81250000000000000        0.0000000000000000     
  0.84375000000000000       0.81250000000000000        0.0000000000000000     
  0.87500000000000000       0.81250000000000000        0.0000000000000000     
  0.75000000000000000       0.84375000000000000        0.0000000000000000     
  0.78125000000000000       0.84375000000000000        0.0000000000000000     
  0.81250000000000000       0.84375000000000000        0.0000000000000000     
  0.84375000000000000       0.84375000000000000        0.0000000000000000     
  0.87500000000000000       0.84375000000000000        0.0000000000000000     
  0.75000000000000000       0.87500000000000000        0.0000000000000000     
  0.78125000000000000       0.87500000000000000        0.0000000000000000     
  0.81250000000000000       0.87500000000000000        0.0000000000000000     
  0.84375000000000000       0.87500000000000000        0.0000000000000000     
  0.87500000000000000       0.87500000000000000        0.0000000000000000     
  0.87500000000000000       0.75000000000000000        0.0000000000000000     
  0.90625000000000000       0.75000000000000000        0.0000000000000000     
  0.93750000000000000       0.75000000000000000        0.0000000000000000     
  0.96875000000000000       0.75000000000000000        0.0000000000000000     
   1.0000000000000000       0.75000000000000000        0.0000000000000000     
  0.87500000000000000       0.78125000000000000        0.0000000000000000     
  0.90625000000000000       0.78125000000000000        0.0000000000000000     
  0.93750000000000000       0.78125000000000000        0.0000000000000000     
  0.96875000000000000       0.78125000000000000        0.0000000000000000     
   1.0000000000000000       0.78125000000000000        0.0000000000000000     
  0.87500000000000000       0.81250000000000000        0.0000000000000000     
  0.90625000000000000       0.81250000000000000        0.0000000000000000     
  0.93750000000000000       0.81250000000000000        0.0000000000000000     
  0.96875000000000000       0.81250000000000000        0.0000000000000000     
   1.0000000000000000       0.81250000000000000        0.0000000000000000     
  0.87500000000000000       0.84375000000000000        0.0000000000000000     
  0.90625000000000000       0.84375000000000000        0.0000000000000000     
  0.93750000000000000       0.84375000000000000        0.0000000000000000     
  0.96875000000000000       0.84375000000000000        0.0000000000000000     
   1.0000000000000000       0.84375000000000000        0.0000000000000000     
  0.87500000000000000       0.87500000000000000        0.0000000000000000     
  0.90625000000000000       0.87500000000000000        0.0000000000000000     
  0.93750000000000000       0.87500000000000000        0.0000000000000000     
  0.96875000000000000       0.87500000000000000        0.0000000000000000     
   1.0000000000000000       0.87500000000000000        0.0000000000000000     
   1.0000000000000000       0.75000000000000000        0.0000000000000000     
   1.0312500000000000       0.75000000000000000        0.0000000000000000     
   1.0625000000000000       0.75000000000000000        0.0000000000000000     
   1.0937500000000000       0.75000000000000000        0.0000000000000000     
   1.1250000000000000       0.75000000000000000        0.0000000000000000     
   1.0000000000000000       0.78125000000000000        0.0000000000000000     
   1.0312500000000000       0.78125000000000000        0.0000000000000000     
   1.0625000000000000       0.78125000000000000        0.0000000000000000     
   1.0937500000000000       0.78125000000000000        0.0000000000000000     
   1.1250000000000000       0.78125000000000000        0.0000000000000000     
   1.0000000000000000       0.81250000000000000        0.0000000000000000     
   1.0312500000000000       0.81250000000000000        0.0000000000000000     
   1.0625000000000000       0.81250000000000000        0.0000000000000000     
   1.0937500000000000       0.81250000000000000        0.0000000000000000     
   1.1250000000000000       0.81250000000000000        0.0000000000000000     
   1.0000000000000000       0.84375000000000000        0.0000000000000000     
   1.0312500000000000       0.84375000000000000        0.0000000000000000     
   1.0625000000000000       0.84375000000000000        0.0000000000000000     
   1.0937500000000000       0.84375000000000000        0.0000000000000000     
   1.1250000000000000       0.84375000000000000        0.0000000000000000     
   1.0000000000000000       0.87500000000000000        0.0000000000000000     
   1.0312500000000000       0.87500000000000000        0.0000000000000000     
   1.0625000000000000       0.87500000000000000        0.0000000000000000     
   1.0937500000000000       0.87500000000000000        0.0000000000000000     
   1.1250000000000000       0.87500000000000000        0.0000000000000000     
   1.1250000000000000       0.75000000000000000        0.0000000000000000     
   1.1562500000000000       0.75000000000000000        0.0000000000000000     
   1.1875000000000000       0.75000000000000000        0.0000000000000000     
   1.2187500000000000       0.75000000000000000        0.0000000000000000     
   1.2500000000000000       0.75000000000000000        0.0000000000000000     
   1.1250000000000000       0.78125000000000000        0.0000000000000000     
   1.1562500000000000       0.78125000000000000        0.0000000000000000     
   1.1875000000000000       0.78125000000000000        0.0000000000000000     
   1.2187500000000000       0.78125000000000000        0.0000000000000000     
   1.2500000000000000       0.78125000000000000        0.0000000000000000     
   1.1250000000000000       0.81250000000000000        0.0000000000000000     
   1.1562500000000000       0.81250000000000000        0.0000000000000000     
   1.1875000000000000       0.81250000000000000        0.0000000000000000     
   1.2187500000000000       0.81250000000000000        0.0000000000000000     
   1.2500000000000000       0.81250000000000000        0.0000000000000000     
   1.1250000000000000       0.84375000000000000        0.0000000000000000     
   1.1562500000000000       0.84375000000000000        0.0000000000000000     
   1.1875000000000000       0.84375000000000000        0.0000000000000000     
   1.2187500000000000       0.84375000000000000        0.0000000000000000     
   1.2500000000000000       0.84375000000000000        0.0000000000000000     
   1.1250000000000000       0.87500000000000000        0.0000000000000000     
   1.1562500000000000       0.87500000000000000        0.0000000000000000     
   1.1875000000000000       0.87500000000000000        0.0000000000000000     
   1.2187500000000000       0.87500000000000000        0.0000000000000000     
   1.2500000000000000       0.87500000000000000        0.0000000000000000     
   1.2500000000000000       0.75000000000000000        0.0000000000000000     
   1.2812500000000000       0.75000000000000000        0.0000000000000000     
   1.3125000000000000       0.75000000000000000        0.0000000000000000     
   1.3437500000000000       0.75000000000000000        0.0000000000000000     
   1.3750000000000000       0.75000000000000000        0.0000000000000000     
   1.2500000000000000       0.78125000000000000        0.0000000000000000     
   1.2812500000000000       0.78125000000000000        0.0000000000000000     
   1.3125000000000000       0.78125000000000000        0.0000000000000000     
   1.3437500000000000       0.78125000000000000        0.0000000000000000     
   1.3750000000000000       0.78125000000000000        0.0000000000000000     
   1.2500000000000000       0.81250000000000000        0.0000000000000000     
   1.2812500000000000       0.81250000000000000        0.0000000000000000     
   1.3125000000000000       0.81250000000000000        0.0000000000000000     
   1.3437500000000000       0.81250000000000000        0.0000000000000000     
   1.3750000000000000       0.81250000000000000        0.0000000000000000     
   1.2500000000000000       0.84375000000000000        0.0000000000000000     
   1.2812500000000000       0.84375000000000000        0.0000000000000000     
   1.3125000000000000       0.84375000000000000        0.0000000000000000     
   1.3437500000000000       0.84375000000000000        0.0000000000000000     
   1.3750000000000000       0.84375000000000000        0.0000000000000000     
   1.2500000000000000       0.87500000000000000        0.0000000000000000     
   1.2812500000000000       0.87500000000000000        0.0000000000000000     
   1.3125000000000000       0.87500000000000000        0.0000000000000000     
   1.3437500000000000       0.87500000000000000        0.0000000000000000     
   1.3750000000000000       0.87500000000000000        0.0000000000000000     
   1.3750000000000000       0.75000000000000000        0.0000000000000000     
   1.4062500000000000       0.75000000000000000        0.0000000000000000     
   1.4375000000000000       0.75000000000000000        0.0000000000000000     
   1.4687500000000000       0.75000000000000000        0.0000000000000000     
   1.5000000000000000       0.75000000000000000        0.0000000000000000     
   1.3750000000000000       0.78125000000000000        0.0000000000000000     
   1.4062500000000000       0.78125000000000000        0.0000000000000000     
   1.4375000000000000       0.78125000000000000        0.0000000000000000     
   1.4687500000000000       0.78125000000000000        0.0000000000000000     
   1.5000000000000000       0.78125000000000000        0.0000000000000000     
   1.3750000000000000       0.81250000000000000        0.0000000000000000     
   1.4062500000000000       0.81250000000000000        0.0000000000000000     
   1.4375000000000000       0.81250000000000000        0.0000000000000000     
   1.4687500000000000       0.81250000000000000        0.0000000000000000     
   1.5000000000000000       0.81250000000000000        0.0000000000000000     
   1.3750000000000000       0.84375000000000000        0.0000000000000000     
   1.4062500000000000       0.84375000000000000        0.0000000000000000     
   1.4375000000000000       0.84375000000000000        0.0000000000000000     
   1.4687500000000000       0.84375000000000000        0.0000000000000000     
   1.5000000000000000       0.84375000000000000        0.0000000000000000     
   1.3750000000000000       0.87500000000000000        0.0000000000000000     
   1.4062500000000000       0.87500000000000000        0.0000000000000000     
   1.4375000000000000       0.87500000000000000        0.0000000000000000     
   1.4687500000000000       0.87500000000000000        0.0000000000000000     
   1.5000000000000000       0.87500000000000000        0.0000000000000000     
  0.50000000000000000       0.87500000000000000        0.0000000000000000     
  0.53125000000000000       0.87500000000000000        0.0000000000000000     
  0.56250000000000000       0.87500000000000000        0.0000000000000000     
  0.59375000000000000       0.87500000000000000        0.0000000000000000     
  0.62500000000000000       0.87500000000000000        0.0000000000000000     
  0.50000000000000000       0.90625000000000000        0.0000000000000000     
  0.53125000000000000       0.90625000000000000        0.0000000000000000     
  0.56250000000000000       0.90625000000000000        0.0000000000000000     
  0.59375000000000000       0.90625000000000000        0.0000000000000000     
  0.62500000000000000       0.90625000000000000        0.0000000000000000     
  0.50000000000000000       0.93750000000000000        0.0000000000000000     
  0.53125000000000000       0.93750000000000000        0.0000000000000000     
  0.56250000000000000       0.93750000000000000        0.0000000000000000     
  0.59375000000000000       0.93750000000000000        0.0000000000000000     
  0.62500000000000000       0.93750000000000000        0.0000000000000000     
  0.50000000000000000       0.96875000000000000        0.0000000000000000     
  0.53125000000000000       0.96875000000000000        0.0000000000000000     
  0.56250000000000000       0.96875000000000000        0.0000000000000000     
  0.59375000000000000       0.96875000000000000        0.0000000000000000     
  0.62500000000000000       0.96875000000000000        0.0000000000000000     
  0.50000000000000000        1.0000000000000000        0.0000000000000000     
  0.53125000000000000        1.0000000000000000        0.0000000000000000     
  0.56250000000000000        1.0000000000000000        0.0000000000000000     
  0.59375000000000000        1.0000000000000000        0.0000000000000000     
  0.62500000000000000        1.0000000000000000        0.0000000000000000     
  0.62500000000000000       0.87500000000000000        0.0000000000000000     
  0.65625000000000000       0.87500000000000000        0.0000000000000000     
  0.68750000000000000       0.87500000000000000        0.0000000000000000     
  0.71875000000000000       0.87500000000000000        0.0000000000000000     
  0.75000000000000000       0.87500000000000000        0.0000000000000000     
  0.62500000000000000       0.90625000000000000        0.0000000000000000     
  0.65625000000000000       0.90625000000000000        0.0000000000000000     
  0.68750000000000000       0.90625000000000000        0.0000000000000000     
  0.71875000000000000       0.90625000000000000        0.0000000000000000     
  0.75000000000000000       0.90625000000000000        0.0000000000000000     
  0.62500000000000000       0.93750000000000000        0.0000000000000000     
  0.65625000000000000       0.93750000000000000        0.0000000000000000     
  0.68750000000000000       0.93750000000000000        0.0000000000000000     
  0.71875000000000000       0.93750000000000000        0.0000000000000000     
  0.75000000000000000       0.93750000000000000        0.0000000000000000     
  0.62500000000000000       0.96875000000000000        0.0000000000000000     
  0.65625000000000000       0.96875000000000000        0.0000000000000000     
  0.68750000000000000       0.96875000000000000        0.0000000000000000     
  0.71875000000000000       0.96875000000000000        0.0000000000000000     
  0.75000000000000000       0.96875000000000000        0.0000000000000000     
  0.62500000000000000        1.0000000000000000        0.0000000000000000     
  0.65625000000000000        1.0000000000000000        0.0000000000000000     
  0.68750000000000000        1.0000000000000000        0.0000000000000000     
  0.71875000000000000        1.0000000000000000        0.0000000000000000     
  0.75000000000000000        1.0000000000000000        0.0000000000000000     
  0.75000000000000000       0.87500000000000000        0.0000000000000000     
  0.78125000000000000       0.87500000000000000        0.0000000000000000     
  0.81250000000000000       0.87500000000000000        0.0000000000000000     
  0.84375000000000000       0.87500000000000000        0.0000000000000000     
  0.87500000000000000       0.87500000000000000        0.0000000000000000     
  0.75000000000000000       0.90625000000000000        0.0000000000000000     
  0.78125000000000000       0.90625000000000000        0.0000000000000000     
  0.81250000000000000       0.90625000000000000        0.0000000000000000     
  0.84375000000000000       0.90625000000000000        0.0000000000000000     
  0.87500000000000000       0.90625000000000000        0.0000000000000000     
  0.75000000000000000       0.93750000000000000        0.0000000000000000     
  0.78125000000000000       0.93750000000000000        0.0000000000000000     
  0.81250000000000000       0.93750000000000000        0.0000000000000000     
  0.84375000000000000       0.93750000000000000        0.0000000000000000     
  0.87500000000000000       0.93750000000000000        0.0000000000000000     
  0.75000000000000000       0.96875000000000000        0.0000000000000000     
  0.78125000000000000       0.96875000000000000        0.0000000000000000     
  0.81250000000000000       0.96875000000000000        0.0000000000000000     
  0.84375000000000000       0.96875000000000000        0.0000000000000000     
  0.87500000000000000       0.96875000000000000        0.0000000000000000     
  0.75000000000000000        1.0000000000000000        0.0000000000000000     
  0.78125000000000000        1.0000000000000000        0.0000000000000000     
  0.81250000000000000        1.0000000000000000        0.0000000000000000     
  0.84375000000000000        1.0000000000000000        0.0000000000000000     
  0.87500000000000000        1.0000000000000000        0.0000000000000000     
  0.87500000000000000       0.87500000000000000        0.0000000000000000     
  0.90625000000000000       0.87500000000000000        0.0000000000000000     
  0.93750000000000000       0.87500000000000000        0.0000000000000000     
  0.96875000000000000       0.87500000000000000        0.0000000000000000     
   1.0000000000000000       0.87500000000000000        0.0000000000000000     
  0.87500000000000000       0.90625000000000000        0.0000000000000000     
  0.90625000000000000       0.90625000000000000        0.0000000000000000     
  0.93750000000000000       0.90625000000000000        0.0000000000000000     
  0.96875000000000000       0.90625000000000000        0.0000000000000000     
   1.0000000000000000       0.90625000000000000        0.0000000000000000     
  0.87500000000000000       0.93750000000000000        0.0000000000000000     
  0.90625000000000000       0.93750000000000000        0.0000000000000000     
  0.93750000000000000       0.93750000000000000        0.0000000000000000     
  0.96875000000000000       0.93750000000000000        0.0000000000000000     
   1.0000000000000000       0.93750000000000000        0.0000000000000000     
  0.87500000000000000       0.96875000000000000        0.0000000000000000     
  0.90625000000000000       0.96875000000000000        0.0000000000000000     
  0.93750000000000000       0.96875000000000000        0.0000000000000000     
  0.96875000000000000       0.96875000000000000        0.0000000000000000     
   1.0000000000000000       0.96875000000000000        0.0000000000000000     
  0.87500000000000000        1.0000000000000000        0.0000000000000000     
  0.90625000000000000        1.0000000000000000        0.0000000000000000     
  0.93750000000000000        1.0000000000000000        0.0000000000000000     
  0.96875000000000000        1.0000000000000000        0.0000000000000000     
   1.0000000000000000        1.0000000000000000        0.0000000000000000     
   1.0000000000000000       0.87500000000000000        0.0000000000000000     
   1.0312500000000000       0.87500000000000000        0.0000000000000000     
   1.0625000000000000       0.87500000000000000        0.0000000000000000     
   1.0937500000000000       0.87500000000000000        0.0000000000000000     
   1.1250000000000000       0.87500000000000000        0.0000000000000000     
   1.0000000000000000       0.90625000000000000        0.0000000000000000     
   1.0312500000000000       0.90625000000000000        0.0000000000000000     
   1.0625000000000000       0.90625000000000000        0.0000000000000000     
   1.0937500000000000       0.90625000000000000        0.0000000000000000     
   1.1250000000000000       0.90625000000000000        0.0000000000000000     
   1.0000000000000000       0.93750000000000000        0.0000000000000000     
   1.0312500000000000       0.93750000000000000        0.0000000000000000     
   1.0625000000000000       0.93750000000000000        0.0000000000000000     
   1.0937500000000000       0.93750000000000000        0.0000000000000000     
   1.1250000000000000       0.93750000000000000        0.0000000000000000     
   1.0000000000000000       0.96875000000000000        0.0000000000000000     
   1.0312500000000000       0.96875000000000000        0.0000000000000000     
   1.0625000000000000       0.96875000000000000        0.0000000000000000     
   1.0937500000000000       0.96875000000000000        0.0000000000000000     
   1.1250000000000000       0.96875000000000000        0.0000000000000000     
   1.0000000000000000        1.0000000000000000        0.0000000000000000     
   1.0312500000000000        1.0000000000000000        0.0000000000000000     
   1.0625000000000000        1.0000000000000000        0.0000000000000000     
   1.0937500000000000        1.0000000000000000        0.0000000000000000     
   1.1250000000000000        1.0000000000000000        0.0000000000000000     
   1.1250000000000000       0.87500000000000000        0.0000000000000000     
   1.1562500000000000       0.87500000000000000        0.0000000000000000     
   1.1875000000000000       0.87500000000000000        0.0000000000000000     
   1.2187500000000000       0.87500000000000000        0.0000000000000000     
   1.2500000000000000       0.87500000000000000        0.0000000000000000     
   1.1250000000000000       0.90625000000000000        0.0000000000000000     
   1.1562500000000000       0.90625000000000000        0.0000000000000000     
   1.1875000000000000       0.90625000000000000        0.0000000000000000     
   1.2187500000000000       0.90625000000000000        0.0000000000000000     
   1.2500000000000000       0.90625000000000000        0.0000000000000000     
   1.1250000000000000       0.93750000000000000        0.0000000000000000     
   1.1562500000000000       0.93750000000000000        0.0000000000000000     
   1.1875000000000000       0.93750000000000000        0.0000000000000000     
   1.2187500000000000       0.93750000000000000        0.0000000000000000     
   1.2500000000000000       0.93750000000000000        0.0000000000000000     
   1.1250000000000000       0.96875000000000000        0.0000000000000000     
   1.1562500000000000       0.96875000000000000        0.0000000000000000     
   1.1875000000000000       0.96875000000000000        0.0000000000000000     
   1.2187500000000000       0.96875000000000000        0.0000000000000000     
   1.2500000000000000       0.96875000000000000        0.0000000000000000     
   1.1250000000000000        1.0000000000000000        0.0000000000000000     
   1.1562500000000000        1.0000000000000000        0.0000000000000000     
   1.1875000000000000        1.0000000000000000        0.0000000000000000     
   1.2187500000000000        1.0000000000000000        0.0000000000000000     
   1.2500000000000000        1.0000000000000000        0.0000000000000000     
   1.2500000000000000       0.87500000000000000        0.0000000000000000     
   1.2812500000000000       0.87500000000000000        0.0000000000000000     
   1.3125000000000000       0.87500000000000000        0.0000000000000000     
   1.3437500000000000       0.87500000000000000        0.0000000000000000     
   1.3750000000000000       0.87500000000000000        0.0000000000000000     
   1.2500000000000000       0.90625000000000000        0.0000000000000000     
   1.2812500000000000       0.90625000000000000        0.0000000000000000     
   1.3125000000000000       0.90625000000000000        0.0000000000000000     
   1.3437500000000000       0.90625000000000000        0.0000000000000000     
   1.3750000000000000       0.90625000000000000        0.0000000000000000     
   1.2500000000000000       0.93750000000000000        0.0000000000000000     
   1.2812500000000000       0.93750000000000000        0.0000000000000000     
   1.3125000000000000       0.93750000000000000        0.0000000000000000     
   1.3437500000000000       0.93750000000000000        0.0000000000000000     
   1.3750000000000000       0.93750000000000000        0.0000000000000000     
   1.2500000000000000       0.96875000000000000        0.0000000000000000     
   1.2812500000000000       0.96875000000000000        0.0000000000000000     
   1.3125000000000000       0.96875000000000000        0.0000000000000000     
   1.3437500000000000       0.96875000000000000        0.0000000000000000     
   1.3750000000000000       0.96875000000000000        0.0000000000000000     
   1.2500000000000000        1.0000000000000000        0.0000000000000000     
   1.2812500000000000        1.0000000000000000        0.0000000000000000     
   1.3125000000000000        1.0000000000000000        0.0000000000000000     
   1.3437500000000000        1.0000000000000000        0.0000000000000000     
   1.3750000000000000        1.0000000000000000        0.0000000000000000     
   1.3750000000000000       0.87500000000000000        0.0000000000000000     
   1.4062500000000000       0.87500000000000000        0.0000000000000000     
   1.4375000000000000       0.87500000000000000        0.0000000000000000     
   1.4687500000000000       0.87500000000000000        0.0000000000000000     
   1.5000000000000000       0.87500000000000000        0.0000000000000000     
   1.3750000000000000       0.90625000000000000        0.0000000000000000     
   1.4062500000000000       0.90625000000000000        0.0000000000000000     
   1.4375000000000000       0.90625000000000000        0.0000000000000000     
   1.4687500000000000       0.90625000000000000        0.0000000000000000     
   1.5000000000000000       0.90625000000000000        0.0000000000000000     
   1.3750000000000000       0.93750000000000000        0.0000000000000000     
   1.4062500000000000       0.93750000000000000        0.0000000000000000     
   1.4375000000000000       0.93750000000000000        0.0000000000000000     
   1.4687500000000000       0.93750000000000000        0.0000000000000000     
   1.5000000000000000       0.93750000000000000        0.0000000000000000     
   1.3750000000000000       0.96875000000000000        0.0000000000000000     
   1.4062500000000000       0.96875000000000000        0.0000000000000000     
   1.4375000000000000       0.96875000000000000        0.0000000000000000     
   1.4687500000000000       0.96875000000000000        0.0000000000000000     
   1.5000000000000000       0.96875000000000000        0.0000000000000000     
   1.3750000000000000        1.0000000000000000        0.0000000000000000     
   1.4062500000000000        1.0000000000000000        0.0000000000000000     
   1.4375000000000000        1.0000000000000000        0.0000000000000000     
   1.4687500000000000        1.0000000000000000        0.0000000000000000     
   1.5000000000000000        1.0000000000000000        0.0000000000000000     
 </DataArray>
 </Points>
 <Cells>
 <DataArray  type="Int32"  Name="connectivity"  format="ascii">
           0           1           6           5
           1           2           7           6
           2           3           8           7
           3           4           9           8
           5           6          11          10
           6           7          12          11
           7           8          13          12
           8           9          14          13
          10          11          16          15
          11          12          17          16
          12          13          18          17
          13          14          19          18
          15          16          21          20
          16          17          22          21
          17          18          23          22
          18          19          24          23
          25          26          31          30
          26          27          32          31
          27          28          33          32
          28          29          34          33
          30          31          36          35
          31          32          37          36
          32          33          38          37
          33          34          39          38
          35          36          41          40
          36          37          42          41
          37          38          43          42
          38          39          44          43
          40          41          46          45
          41          42          47          46
          42          43          48          47
          43          44          49          48
          50          51          56          55
          51          52          57          56
          52          53          58          57
          53          54          59          58
          55          56          61          60
          56          57          62          61
          57          58          63          62
          58          59          64          63
          60          61          66          65
          61          62          67          66
          62          63          68          67
          63          64          69          68
          65          66          71          70
          66          67          72          71
          67          68          73          72
          68          69          74          73
          75          76          81          80
          76          77          82          81
          77          78          83          82
          78          79          84          83
          80          81          86          85
          81          82          87          86
          82          83          88          87
          83          84          89          88
          85          86          91          90
          86          87          92          91
          87          88          93          92
          88          89          94          93
          90          91          96          95
          91          92          97          96
          92          93          98          97
          93          94          99          98
         100         101         106         105
         101         102         107         106
         102         103         108         107
         103         104         109         108
         105         106         111         110
         106         107         112         111
         107         108         113         112
         108         109         114         113
         110         111         116         115
         111         112         117         116
         112         113         118         117
         113         114         119         118
         115         116         121         120
         116         117         122         121
         117         118         123         122
         118         119         124         123
         125         126         131         130
         126         127         132         131
         127         128         133         132
         128         129         134         133
         130         131         136         135
         131         132         137         136
         132         133         138         137
         133         134         139         138
         135         136         141         140
         136         137         142         141
         137         138         143         142
         138         139         144         143
         140         141         146         145
         141         142         147         146
         142         143         148         147
         143         144         149         148
         150         151         156         155
         151         152         157         156
         152         153         158         157
         153         154         159         158
         155         156         161         160
         156         157         162         161
         157         158         163         162
         158         159         164         163
         160         161         166         165
         161         162         167         166
         162         163         168         167
         163         164         169         168
         165         166         171         170
         166         167         172         171
         167         168         173         172
         168         169         174         173
         175         176         181         180
         176         177         182         181
         177         178         183         182
         178         179         184         183
         180         181         186         185
         181         182         187         186
         182         183         188         187
         183         184         189         188
         185         186         191         190
         186         187         192         191
         187         188         193         192
         188         189         194         193
         190         191         196         195
         191         192         197         196
         192         193         198         197
         193         194         199         198
         200         201         206         205
         201         202         207         206
         202         203         208         207
         203         204         209         208
         205         206         211         210
         206         207         212         211
         207         208         213         212
         208         209         214         213
         210         211         216         215
         211         212         217         216
         212         213         218         217
         213         214         219         218
         215         216         221         220
         216         217         222         221
         217         218         223         222
         218         219         224         223
         225         226         231         230
         226         227         232         231
         227         228         233         232
         228         229         234         233
         230         231         236         235
         231         232         237         236
         232         233         238         237
         233         234         239         238
         235         236         241         240
         236         237         242         241
         237         238         243         242
         238         239         244         243
         240         241         246         245
         241         242         247         246
         242         243         248         247
         243         244         249         248
         250         251         256         255
         251         252         257         256
         252         253         258         257
         253         254         259         258
         255         256         261         260
         256         257         262         261
         257         258         263         262
         258         259         264         263
         260         261         266         265
         261         262         267         266
         262         263         268         267
         263         264         269         268
         265         266         271         270
         266         267         272         271
         267         268         273         272
         268         269         274         273
         275         276         281         280
         276         277         282         281
         277         278         283         282
         278         279         284         283
         280         281         286         285
         281         282         287         286
         282         283         288         287
         283         284         289         288
         285         286         291         290
         286         287         292         291
         287         288         293         292
         288         289         294         293
         290         291         296         295
         291         292         297         296
         292         293         298         297
         293         294         299         298
         300         301         306         305
         301         302         307         306
         302         303         308         307
         303         304         309         308
         305         306         311         310
         306         307         312         311
         307         308         313         312
         308         309         314         313
         310         311         316         315
         311         312         317         316
         312         313         318         317
         313         314         319         318
         315         316         321         320
         316         317         322         321
         317         318         323         322
         318         319         324         323
         325         326         331         330
         326         327         332         331
         327         328         333         332
         328         329         334         333
         330         331         336         335
         331         332         337         336
         332         333         338         337
         333         334         339         338
         335         336         341         340
         336         337         342         341
         337         338         343         342
         338         339         344         343
         340         341         346         345
         341         342         347         346
         342         343         348         347
         343         344         349         348
         350         351         356         355
         351         352         357         356
         352         353         358         357
         353         354         359         358
         355         356         361         360
         356         357         362         361
         357         358         363         362
         358         359         364         363
         360         361         366         365
         361         362         367         366
         362         363         368         367
         363         364         369         368
         365         366         371         370
         366         367         372         371
         367         368         373         372
         368         369         374         373
         375         376         381         380
         376         377         382         381
         377         378         383         382
         378         379         384         383
         380         381         386         385
         381         382         387         386
         382         383         388         387
         383         384         389         388
         385         386         391         390
         386         387         392         391
         387         388         393         392
         388         389         394         393
         390         391         396         395
         391         392         397         396
         392         393         398         397
         393         394         399         398
         400         401         406         405
         401         402         407         406
         402         403         408         407
         403         404         409         408
         405         406         411         410
         406         407         412         411
         407         408         413         412
         408         409         414         413
         410         411         416         415
         411         412         417         416
         412         413         418         417
         413         414         419         418
         415         416         421         420
         416         417         422         421
         417         418         423         422
         418         419         424         423
         425         426         431         430
         426         427         432         431
         427         428         433         432
         428         429         434         433
         430         431         436         435
         431         432         437         436
         432         433         438         437
         433         434         439         438
         435         436         441         440
         436         437         442         441
         437         438         443         442
         438         439         444         443
         440         441         446         445
         441         442         447         446
         442         443         448         447
         443         444         449         448
         450         451         456         455
         451         452         457         456
         452         453         458         457
         453         454         459         458
         455         456         461         460
         456         457         462         461
         457         458         463         462
         458         459         464         463
         460         461         466         465
         461         462         467         466
         462         463         468         467
         463         464         469         468
         465         466         471         470
         466         467         472         471
         467         468         473         472
         468         469         474         473
         475         476         481         480
         476         477         482         481
         477         478         483         482
         478         479         484         483
         480         481         486         485
         481         482         487         486
         482         483         488         487
         483         484         489         488
         485         486         491         490
         486         487         492         491
         487         488         493         492
         488         489         494         493
         490         491         496         495
         491         492         497         496
         492         493         498         497
         493         494         499         498
         500         501         506         505
         501         502         507         506
         502         503         508         507
         503         504         509         508
         505         506         511         510
         506         507         512         511
         507         508         513         512
         508         509         514         513
         510         511         516         515
         511         512         517         516
         512         513         518         517
         513         514         519         518
         515         516         521         520
         516         517         522         521
         517         518         523         522
         518         519         524         523
         525         526         531         530
         526         527         532         531
         527         528         533         532
         528         529         534         533
         530         531         536         535
         531         532         537         536
         532         533         538         537
         533         534         539         538
         535         536         541         540
         536         537         542         541
         537         538         543         542
         538         539         544         543
         540         541         546         545
         541         542         547         546
         542         543         548         547
         543         544         549         548
         550         551         556         555
         551         552         557         556
         552         553         558         557
         553         554         559         558
         555         556         561         560
         556         557         562         561
         557         558         563         562
         558         559         564         563
         560         561         566         565
         561         562         567         566
         562         563         568         567
         563         564         569         568
         565         566         571         570
         566         567         572         571
         567         568         573         572
         568         569         574         573
         575         576         581         580
         576         577         582         581
         577         578         583         582
         578         579         584         583
         580         581         586         585
         581         582         587         586
         582         583         588         587
         583         584         589         588
         585         586         591         590
         586         587         592         591
         587         588         593         592
         588         589         594         593
         590         591         596         595
         591         592         597         596
         592         593         598         597
         593         594         599         598
         600         601         606         605
         601         602         607         606
         602         603         608         607
         603         604         609         608
         605         606         611         610
         606         607         612         611
         607         608         613         612
         608         609         614         613
         610         611         616         615
         611         612         617         616
         612         613         618         617
         613         614         619         618
         615         616         621         620
         616         617         622         621
         617         618         623         622
         618         619         624         623
         625         626         631         630
         626         627         632         631
         627         628         633         632
         628         629         634         633
         630         631         636         635
         631         632         637         636
         632         633         638         637
         633         634         639         638
         635         636         641         640
         636         637         642         641
         637         638         643         642
         638         639         644         643
         640         641         646         645
         641         642         647         646
         642         643         648         647
         643         644         649         648
         650         651         656         655
         651         652         657         656
         652         653         658         657
         653         654         659         658
         655         656         661         660
         656         657         662         661
         657         658         663         662
         658         659         664         663
         660         661         666         665
         661         662         667         666
         662         663         668         667
         663         664         669         668
         665         666         671         670
         666         667         672         671
         667         668         673         672
         668         669         674         673
         675         676         681         680
         676         677         682         681
         677         678         683         682
         678         679         684         683
         680         681         686         685
         681         682         687         686
         682         683         688         687
         683         684         689         688
         685         686         691         690
         686         687         692         691
         687         688         693         692
         688         689         694         693
         690         691         696         695
         691         692         697         696
         692         693         698         697
         693         694         699         698
         700         701         706         705
         701         702         707         706
         702         703         708         707
         703         704         709         708
         705         706         711         710
         706         707         712         711
         707         708         713         712
         708         709         714         713
         710         711         716         715
         711         712         717         716
         712         713         718         717
         713         714         719         718
         715         716         721         720
         716         717         722         721
         717         718         723         722
         718         719         724         723
         725         726         731         730
         726         727         732         731
         727         728         733         732
         728         729         734         733
         730         731         736         735
         731         732         737         736
         732         733         738         737
         733         734         739         738
         735         736         741         740
         736         737         742         741
         737         738         743         742
         738         739         744         743
         740         741         746         745
         741         742         747         746
         742         743         748         747
         743         744         749         748
         750         751         756         755
         751         752         757         756
         752         753         758         757
         753         754         759         758
         755         756         761         760
         756         757         762         761
         757         758         763         762
         758         759         764         763
         760         761         766         765
         761         762         767         766
         762         763         768         767
         763         764         769         768
         765         766         771         770
         766         767         772         771
         767         768         773         772
         768         769         774         773
         775         776         781         780
         776         777         782         781
         777         778         783         782
         778         779         784         783
         780         781         786         785
         781         782         787         786
         782         783         788         787
         783         784         789         788
         785         786         791         790
         786         787         792         791
         787         788         793         792
         788         789         794         793
         790         791         796         795
         791         792         797         796
         792         793         798         797
         793         794         799         798
         800         801         806         805
         801         802         807         806
         802         803         808         807
         803         804         809         808
         805         806         811         810
         806         807         812         811
         807         808         813         812
         808         809         814         813
         810         811         816         815
         811         812         817         816
         812         813         818         817
         813         814         819         818
         815         816         821         820
         816         817         822         821
         817         818         823         822
         818         819         824         823
         825         826         831         830
         826         827         832         831
         827         828         833         832
         828         829         834         833
         830         831         836         835
         831         832         837         836
         832         833         838         837
         833         834         839         838
         835         836         841         840
         836         837         842         841
         837         838         843         842
         838         839         844         843
         840         841         846         845
         841         842         847         846
         842         843         848         847
         843         844         849         848
         850         851         856         855
         851         852         857         856
         852         853         858         857
         853         854         859         858
         855         856         861         860
         856         857         862         861
         857         858         863         862
         858         859         864         863
         860         861         866         865
         861         862         867         866
         862         863         868         867
         863         864         869         868
         865         866         871         870
         866         867         872         871
         867         868         873         872
         868         869         874         873
         875         876         881         880
         876         877         882         881
         877         878         883         882
         878         879         884         883
         880         881         886         885
         881         882         887         886
         882         883         888         887
         883         884         889         888
         885         886         891         890
         886         887         892         891
         887         888         893         892
         888         889         894         893
         890         891         896         895
         891         892         897         896
         892         893         898         897
         893         894         899         898
         900         901         906         905
         901         902         907         906
         902         903         908         907
         903         904         909         908
         905         906         911         910
         906         907         912         911
         907         908         913         912
         908         909         914         913
         910         911         916         915
         911         912         917         916
         912         913         918         917
         913         914         919         918
         915         916         921         920
         916         917         922         921
         917         918         923         922
         918         919         924         923
         925         926         931         930
         926         927         932         931
         927         928         933         932
         928         929         934         933
         930         931         936         935
         931         932         937         936
         932         933         938         937
         933         934         939         938
         935         936         941         940
         936         937         942         941
         937         938         943         942
         938         939         944         943
         940         941         946         945
         941         942         947         946
         942         943         948         947
         943         944         949         948
         950         951         956         955
         951         952         957         956
         952         953         958         957
         953         954         959         958
         955         956         961         960
         956         957         962         961
         957         958         963         962
         958         959         964         963
         960         961         966         965
         961         962         967         966
         962         963         968         967
         963         964         969         968
         965         966         971         970
         966         967         972         971
         967         968         973         972
         968         969         974         973
         975         976         981         980
         976         977         982         981
         977         978         983         982
         978         979         984         983
         980         981         986         985
         981         982         987         986
         982         983         988         987
         983         984         989         988
         985         986         991         990
         986         987         992         991
         987         988         993         992
         988         989         994         993
         990         991         996         995
         991         992         997         996
         992         993         998         997
         993         994         999         998
        1000        1001        1006        1005
        1001        1002        1007        1006
        1002        1003        1008        1007
        1003        1004        1009        1008
        1005        1006        1011        1010
        1006        1007        1012        1011
        1007        1008        1013        1012
        1008        1009        1014        1013
        1010        1011        1016        1015
        1011        1012        1017        1016
        1012        1013        1018        1017
        1013        1014        1019        1018
        1015        1016        1021        1020
        1016        1017        1022        1021
        1017        1018        1023        1022
        1018        1019        1024        1023
        1025        1026        1031        1030
        1026        1027        1032        1031
        1027        1028        1033        1032
        1028        1029        1034        1033
        1030        1031        1036        1035
        1031        1032        1037        1036
        1032        1033        1038        1037
        1033        1034        1039        1038
        1035        1036        1041        1040
        1036        1037        1042        1041
        1037        1038        1043        1042
        1038        1039        1044        1043
        1040        1041        1046        1045
        1041        1042        1047        1046
        1042        1043        1048        1047
        1043        1044        1049        1048
        1050        1051        1056        1055
        1051        1052        1057        1056
        1052        1053        1058        1057
        1053        1054        1059        1058
        1055        1056        1061        1060
        1056        1057        1062        1061
        1057        1058        1063        1062
        1058        1059        1064        1063
        1060        1061        1066        1065
        1061        1062        1067        1066
        1062        1063        1068        1067
        1063        1064        1069        1068
        1065        1066        1071        1070
        1066        1067        1072        1071
        1067        1068        1073        1072
        1068        1069        1074        1073
        1075        1076        1081        1080
        1076        1077        1082        1081
        1077        1078        1083        1082
        1078        1079        1084        1083
        1080        1081        1086        1085
        1081        1082        1087        1086
        1082        1083        1088        1087
        1083        1084        1089        1088
        1085        1086        1091        1090
        1086        1087        1092        1091
        1087        1088        1093        1092
        1088        1089        1094        1093
        1090        1091        1096        1095
        1091        1092        1097        1096
        1092        1093        1098        1097
        1093        1094        1099        1098
        1100        1101        1106        1105
        1101        1102        1107        1106
        1102        1103        1108        1107
        1103        1104        1109        1108
        1105        1106        1111        1110
        1106        1107        1112        1111
        1107        1108        1113        1112
        1108        1109        1114        1113
        1110        1111        1116        1115
        1111        1112        1117        1116
        1112        1113        1118        1117
        1113        1114        1119        1118
        1115        1116        1121        1120
        1116        1117        1122        1121
        1117        1118        1123        1122
        1118        1119        1124        1123
        1125        1126        1131        1130
        1126        1127        1132        1131
        1127        1128        1133        1132
        1128        1129        1134        1133
        1130        1131        1136        1135
        1131        1132        1137        1136
        1132        1133        1138        1137
        1133        1134        1139        1138
        1135        1136        1141        1140
        1136        1137        1142        1141
        1137        1138        1143        1142
        1138        1139        1144        1143
        1140        1141        1146        1145
        1141        1142        1147        1146
        1142        1143        1148        1147
        1143        1144        1149        1148
        1150        1151        1156        1155
        1151        1152        1157        1156
        1152        1153        1158        1157
        1153        1154        1159        1158
        1155        1156        1161        1160
        1156        1157        1162        1161
        1157        1158        1163        1162
        1158        1159        1164        1163
        1160        1161        1166        1165
        1161        1162        1167        1166
        1162        1163        1168        1167
        1163        1164        1169        1168
        1165        1166        1171        1170
        1166        1167        1172        1171
        1167        1168        1173        1172
        1168        1169        1174        1173
        1175        1176        1181        1180
        1176        1177        1182        1181
        1177        1178        1183        1182
        1178        1179        1184        1183
        1180        1181        1186        1185
        1181        1182        1187        1186
        1182        1183        1188        1187
        1183        1184        1189        1188
        1185        1186        1191        1190
        1186        1187        1192        1191
        1187        1188        1193        1192
        1188        1189        1194        1193
        1190        1191        1196        1195
        1191        1192        1197        1196
        1192        1193        1198        1197
        1193        1194        1199        1198
        1200        1201        1206        1205
        1201        1202        1207        1206
        1202        1203        1208        1207
        1203        1204        1209        1208
        1205        1206        1211        1210
        1206        1207        1212        1211
        1207        1208        1213        1212
        1208        1209        1214        1213
        1210        1211        1216        1215
        1211        1212        1217        1216
        1212        1213        1218        1217
        1213        1214        1219        1218
        1215        1216        1221        1220
        1216        1217        1222        1221
        1217        1218        1223        1222
        1218        1219        1224        1223
        1225        1226        1231        1230
        1226        1227        1232        1231
        1227        1228        1233        1232
        1228        1229        1234        1233
        1230        1231        1236        1235
        1231        1232        1237        1236
        1232        1233        1238        1237
        1233        1234        1239        1238
        1235        1236        1241        1240
        1236        1237        1242        1241
        1237        1238        1243        1242
        1238        1239        1244        1243
        1240        1241        1246        1245
        1241        1242        1247        1246
        1242        1243        1248        1247
        1243        1244        1249        1248
        1250        1251        1256        1255
        1251        1252        1257        1256
        1252        1253        1258        1257
        1253        1254        1259        1258
        1255        1256        1261        1260
        1256        1257        1262        1261
        1257        1258        1263        1262
        1258        1259        1264        1263
        1260        1261        1266        1265
        1261        1262        1267        1266
        1262        1263        1268        1267
        1263        1264        1269        1268
        1265        1266        1271        1270
        1266        1267        1272        1271
        1267        1268        1273        1272
        1268        1269        1274        1273
        1275        1276        1281        1280
        1276        1277        1282        1281
        1277        1278        1283        1282
        1278        1279        1284        1283
        1280        1281        1286        1285
        1281        1282        1287        1286
        1282        1283        1288        1287
        1283        1284        1289        1288
        1285        1286        1291        1290
        1286        1287        1292        1291
        1287        1288        1293        1292
        1288        1289        1294        1293
        1290        1291        1296        1295
        1291        1292        1297        1296
        1292        1293        1298        1297
        1293        1294        1299        1298
        1300        1301        1306        1305
        1301        1302        1307        1306
        1302        1303        1308        1307
        1303        1304        1309        1308
        1305        1306        1311        1310
        1306        1307        1312        1311
        1307        1308        1313        1312
        1308        1309        1314        1313
        1310        1311        1316        1315
        1311        1312        1317        1316
        1312        1313        1318        1317
        1313        1314        1319        1318
        1315        1316        1321        1320
        1316        1317        1322        1321
        1317        1318        1323        1322
        1318        1319        1324        1323
        1325        1326        1331        1330
        1326        1327        1332        1331
        1327        1328        1333        1332
        1328        1329        1334        1333
        1330        1331        1336        1335
        1331        1332        1337        1336
        1332        1333        1338        1337
        1333        1334        1339        1338
        1335        1336        1341        1340
        1336        1337        1342        1341
        1337        1338        1343        1342
        1338        1339        1344        1343
        1340        1341        1346        1345
        1341        1342        1347        1346
        1342        1343        1348        1347
        1343        1344        1349        1348
        1350        1351        1356        1355
        1351        1352        1357        1356
        1352        1353        1358        1357
        1353        1354        1359        1358
        1355        1356        1361        1360
        1356        1357        1362        1361
        1357        1358        1363        1362
        1358        1359        1364        1363
        1360        1361        1366        1365
        1361        1362        1367        1366
        1362        1363        1368        1367
        1363        1364        1369        1368
        1365        1366        1371        1370
        1366        1367        1372        1371
        1367        1368        1373        1372
        1368        1369        1374        1373
        1375        1376        1381        1380
        1376        1377        1382        1381
        1377        1378        1383        1382
        1378        1379        1384        1383
        1380        1381        1386        1385
        1381        1382        1387        1386
        1382        1383        1388        1387
        1383        1384        1389        1388
        1385        1386        1391        1390
        1386        1387        1392        1391
        1387        1388        1393        1392
        1388        1389        1394        1393
        1390        1391        1396        1395
        1391        1392        1397        1396
        1392        1393        1398        1397
        1393        1394        1399        1398
        1400        1401        1406        1405
        1401        1402        1407        1406
        1402        1403        1408        1407
        1403        1404        1409        1408
        1405        1406        1411        1410
        1406        1407        1412        1411
        1407        1408        1413        1412
        1408        1409        1414        1413
        1410        1411        1416        1415
        1411        1412        1417        1416
        1412        1413        1418        1417
        1413        1414        1419        1418
        1415        1416        1421        1420
        1416        1417        1422        1421
        1417        1418        1423        1422
        1418        1419        1424        1423
        1425        1426        1431        1430
        1426        1427        1432        1431
        1427        1428        1433        1432
        1428        1429        1434        1433
        1430        1431        1436        1435
        1431        1432        1437        1436
        1432        1433        1438        1437
        1433        1434        1439        1438
        1435        1436        1441        1440
        1436        1437        1442        1441
        1437        1438        1443        1442
        1438        1439        1444        1443
        1440        1441        1446        1445
        1441        1442        1447        1446
        1442        1443        1448        1447
        1443        1444        1449        1448
        1450        1451        1456        1455
        1451        1452        1457        1456
        1452        1453        1458        1457
        1453        1454        1459        1458
        1455        1456        1461        1460
        1456        1457        1462        1461
        1457        1458        1463        1462
        1458        1459        1464        1463
        1460        1461        1466        1465
        1461        1462        1467        1466
        1462        1463        1468        1467
        1463        1464        1469        1468
        1465        1466        1471        1470
        1466        1467        1472        1471
        1467        1468        1473        1472
        1468        1469        1474        1473
        1475        1476        1481        1480
        1476        1477        1482        1481
        1477        1478        1483        1482
        1478        1479        1484        1483
        1480        1481        1486        1485
        1481        1482        1487        1486
        1482        1483        1488        1487
        1483        1484        1489        1488
        1485        1486        1491        1490
        1486        1487        1492        1491
        1487        1488        1493        1492
        1488        1489        1494        1493
        1490        1491        1496        1495
        1491        1492        1497        1496
        1492        1493        1498        1497
        1493        1494        1499        1498
        1500        1501        1506        1505
        1501        1502        1507        1506
        1502        1503        1508        1507
        1503        1504        1509        1508
        1505        1506        1511        1510
        1506        1507        1512        1511
        1507        1508        1513        1512
        1508        1509        1514        1513
        1510        1511        1516        1515
        1511        1512        1517        1516
        1512        1513        1518        1517
        1513        1514        1519        1518
        1515        1516        1521        1520
        1516        1517        1522        1521
        1517        1518        1523        1522
        1518        1519        1524        1523
        1525        1526        1531        1530
        1526        1527        1532        1531
        1527        1528        1533        1532
        1528        1529        1534        1533
        1530        1531        1536        1535
        1531        1532        1537        1536
        1532        1533        1538        1537
        1533        1534        1539        1538
        1535        1536        1541        1540
        1536        1537        1542        1541
        1537        1538        1543        1542
        1538        1539        1544        1543
        1540        1541        1546        1545
        1541        1542        1547        1546
        1542        1543        1548        1547
        1543        1544        1549        1548
        1550        1551        1556        1555
        1551        1552        1557        1556
        1552        1553        1558        1557
        1553        1554        1559        1558
        1555        1556        1561        1560
        1556        1557        1562        1561
        1557        1558        1563        1562
        1558        1559        1564        1563
        1560        1561        1566        1565
        1561        1562        1567        1566
        1562        1563        1568        1567
        1563        1564        1569        1568
        1565        1566        1571        1570
        1566        1567        1572        1571
        1567        1568        1573        1572
        1568        1569        1574        1573
        1575        1576        1581        1580
        1576        1577        1582        1581
        1577        1578        1583        1582
        1578        1579        1584        1583
        1580        1581        1586        1585
        1581        1582        1587        1586
        1582        1583        1588        1587
        1583        1584        1589        1588
        1585        1586        1591        1590
        1586        1587        1592        1591
        1587        1588        1593        1592
        1588        1589        1594        1593
        1590        1591        1596        1595
        1591        1592        1597        1596
        1592        1593        1598        1597
        1593        1594        1599        1598
 </DataArray>
 <DataArray  type="Int32"  Name="offsets"  format="ascii"> 
           4
           8
          12
          16
          20
          24
          28
          32
          36
          40
          44
          48
          52
          56
          60
          64
          68
          72
          76
          80
          84
          88
          92
          96
         100
         104
         108
         112
         116
         120
         124
         128
         132
         136
         140
         144
         148
         152
         156
         160
         164
         168
         172
         176
         180
         184
         188
         192
         196
         200
         204
         208
         212
         216
         220
         224
         228
         232
         236
         240
         244
         248
         252
         256
         260
         264
         268
         272
         276
         280
         284
         288
         292
         296
         300
         304
         308
         312
         316
         320
         324
         328
         332
         336
         340
         344
         348
         352
         356
         360
         364
         368
         372
         376
         380
         384
         388
         392
         396
         400
         404
         408
         412
         416
         420
         424
         428
         432
         436
         440
         444
         448
         452
         456
         460
         464
         468
         472
         476
         480
         484
         488
         492
         496
         500
         504
         508
         512
         516
         520
         524
         528
         532
         536
         540
         544
         548
         552
         556
         560
         564
         568
         572
         576
         580
         584
         588
         592
         596
         600
         604
         608
         612
         616
         620
         624
         628
         632
         636
         640
         644
         648
         652
         656
         660
         664
         668
         672
         676
         680
         684
         688
         692
         696
         700
         704
         708
         712
         716
         720
         724
         728
         732
         736
         740
         744
         748
         752
         756
         760
         764
         768
         772
         776
         780
         784
         788
         792
         796
         800
         804
         808
         812
         816
         820
         824
         828
         832
         836
         840
         844
         848
         852
         856
         860
         864
         868
         872
         876
         880
         884
         888
         892
         896
         900
         904
         908
         912
         916
         920
         924
         928
         932
         936
         940
         944
         948
         952
         956
         960
         964
         968
         972
         976
         980
         984
         988
         992
         996
        1000
        1004
        1008
        1012
        1016
        1020
        1024
        1028
        1032
        1036
        1040
        1044
        1048
        1052
        1056
        1060
        1064
        1068
        1072
        1076
        1080
        1084
        1088
        1092
        1096
        1100
        1104
        1108
        1112
        1116
        1120
        1124
        1128
        1132
        1136
        1140
        1144
        1148
        1152
        1156
        1160
        1164
        1168
        1172
        1176
        1180
        1184
        1188
        1192
        1196
        1200
        1204
        1208
        1212
        1216
        1220
        1224
        1228
        1232
        1236
        1240
        1244
        1248
        1252
        1256
        1260
        1264
        1268
        1272
        1276
        1280
        1284
        1288
        1292
        1296
        1300
        1304
        1308
        1312
        1316
        1320
        1324
        1328
        1332
        1336
        1340
        1344
        1348
        1352
        1356
        1360
        1364
        1368
        1372
        1376
        1380
        1384
        1388
        1392
        1396
        1400
        1404
        1408
        1412
        1416
        1420
        1424
        1428
        1432
        1436
        1440
        1444
        1448
        1452
        1456
        1460
        1464
        1468
        1472
        1476
        1480
        1484
        1488
        1492
        1496
        1500
        1504
        1508
        1512
        1516
        1520
        1524
        1528
        1532
        1536
        1540
        1544
        1548
        1552
        1556
        1560
        1564
        1568
        1572
        1576
        1580
        1584
        1588
        1592
        1596
        1600
        1604
        1608
        1612
        1616
        1620
        1624
        1628
        1632
        1636
        1640
        1644
        1648
        1652
        1656
        1660
        1664
        1668
        1672
        1676
        1680
        1684
        1688
        1692
        1696
        1700
        1704
        1708
        1712
        1716
        1720
        1724
        1728
        1732
        1736
        1740
        1744
        1748
        1752
        1756
        1760
        1764
        1768
        1772
        1776
        1780
        1784
        1788
        1792
        1796
        1800
        1804
        1808
        1812
        1816
        1820
        1824
        1828
        1832
        1836
        1840
        1844
        1848
        1852
        1856
        1860
        1864
        1868
        1872
        1876
        1880
        1884
        1888
        1892
        1896
        1900
        1904
        1908
        1912
        1916
        1920
        1924
        1928
        1932
        1936
        1940
        1944
        1948
        1952
        1956
        1960
        1964
        1968
        1972
        1976
        1980
        1984
        1988
        1992
        1996
        2000
        2004
        2008
        2012
        2016
        2020
        2024
        2028
        2032
        2036
        2040
        2044
        2048
        2052
        2056
        2060
        2064
        2068
        2072
        2076
        2080
        2084
        2088
        2092
        2096
        2100
        2104
        2108
        2112
        2116
        2120
        2124
        2128
        2132
        2136
        2140
        2144
        2148
        2152
        2156
        2160
        2164
        2168
        2172
        2176
        2180
        2184
        2188
        2192
        2196
        2200
        2204
        2208
        2212
        2216
        2220
        2224
        2228
        2232
        2236
        2240
        2244
        2248
        2252
        2256
        2260
        2264
        2268
        2272
        2276
        2280
        2284
        2288
        2292
        2296
        2300
        2304
        2308
        2312
        2316
        2320
        2324
        2328
        2332
        2336
        2340
        2344
        2348
        2352
        2356
        2360
        2364
        2368
        2372
        2376
        2380
        2384
        2388
        2392
        2396
        2400
        2404
        2408
        2412
        2416
        2420
        2424
        2428
        2432
        2436
        2440
        2444
        2448
        2452
        2456
        2460
        2464
        2468
        2472
        2476
        2480
        2484
        2488
        2492
        2496
        2500
        2504
        2508
        2512
        2516
        2520
        2524
        2528
        2532
        2536
        2540
        2544
        2548
        2552
        2556
        2560
        2564
        2568
        2572
        2576
        2580
        2584
        2588
        2592
        2596
        2600
        2604
        2608
        2612
        2616
        2620
        2624
        2628
        2632
        2636
        2640
        2644
        2648
        2652
        2656
        2660
        2664
        2668
        2672
        2676
        2680
        2684
        2688
        2692
        2696
        2700
        2704
        2708
        2712
        2716
        2720
        2724
        2728
        2732
        2736
        2740
        2744
        2748
        2752
        2756
        2760
        2764
        2768
        2772
        2776
        2780
        2784
        2788
        2792
        2796
        2800
        2804
        2808
        2812
        2816
        2820
        2824
        2828
        2832
        2836
        2840
        2844
        2848
        2852
        2856
        2860
        2864
        2868
        2872
        2876
        2880
        2884
        2888
        2892
        2896
        2900
        2904
        2908
        2912
        2916
        2920
        2924
        2928
        2932
        2936
        2940
        2944
        2948
        2952
        2956
        2960
        2964
        2968
        2972
        2976
        2980
        2984
        2988
        2992
        2996
        3000
        3004
        3008
        3012
        3016
        3020
        3024
        3028
        3032
        3036
        3040
        3044
        3048
        3052
        3056
        3060
        3064
        3068
        3072
        3076
        3080
        3084
        3088
        3092
        3096
        3100
        3104
        3108
        3112
        3116
        3120
        3124
        3128
        3132
        3136
        3140
        3144
        3148
        3152
        3156
        3160
        3164
        3168
        3172
        3176
        3180
        3184
        3188
        3192
        3196
        3200
        3204
        3208
        3212
        3216
        3220
        3224
        3228
        3232
        3236
        3240
        3244
        3248
        3252
        3256
        3260
        3264
        3268
        3272
        3276
        3280
        3284
        3288
        3292
        3296
        3300
        3304
        3308
        3312
        3316
        3320
        3324
        3328
        3332
        3336
        3340
        3344
        3348
        3352
        3356
        3360
        3364
        3368
        3372
        3376
        3380
        3384
        3388
        3392
        3396
        3400
        3404
        3408
        3412
        3416
        3420
        3424
        3428
        3432
        3436
        3440
        3444
        3448
        3452
        3456
        3460
        3464
        3468
        3472
        3476
        3480
        3484
        3488
        3492
        3496
        3500
        3504
        3508
        3512
        3516
        3520
        3524
        3528
        3532
        3536
        3540
        3544
        3548
        3552
        3556
        3560
        3564
        3568
        3572
        3576
        3580
        3584
        3588
        3592
        3596
        3600
        3604
        3608
        3612
        3616
        3620
        3624
        3628
        3632
        3636
        3640
        3644
        3648
        3652
        3656
        3660
        3664
        3668
        3672
        3676
        3680
        3684
        3688
        3692
        3696
        3700
        3704
        3708
        3712
        3716
        3720
        3724
        3728
        3732
        3736
        3740
        3744
        3748
        3752
        3756
        3760
        3764
        3768
        3772
        3776
        3780
        3784
        3788
        3792
        3796
        3800
        3804
        3808
        3812
        3816
        3820
        3824
        3828
        3832
        3836
        3840
        3844
        3848
        3852
        3856
        3860
        3864
        3868
        3872
        3876
        3880
        3884
        3888
        3892
        3896
        3900
        3904
        3908
        3912
        3916
        3920
        3924
        3928
        3932
        3936
        3940
        3944
        3948
        3952
        3956
        3960
        3964
        3968
        3972
        3976
        3980
        3984
        3988
        3992
        3996
        4000
        4004
        4008
        4012
        4016
        4020
        4024
        4028
        4032
        4036
        4040
        4044
        4048
        4052
        4056
        4060
        4064
        4068
        4072
        4076
        4080
        4084
        4088
        4092
        4096
 </DataArray>
 <DataArray  type="UInt8"  Name="types"  format="ascii">
 9
 9
 9
 9
 9
 9
 9
 9
 9
 9
 9
 9
 9
 9
 9
 9
 9
 9
 9
 9
 9
 9
 9
 9
 9
 9
 9
 9
 9
 9
 9
 9
 9
 9
 9
 9
 9
 9
 9
 9
 9
 9
 9
 9
 9
 9
 9
 9
 9
 9
 9
 9
 9
 9
 9
 9
 9
 9
 9
 9
 9
 9
 9
 9
 9
 9
 9
 9
 9
 9
 9
 9
 9
 9
 9
 9
 9
 9
 9
 9
 9
 9
 9
 9
 9
 9
 9
 9
 9
 9
 9
 9
 9
 9
 9
 9
 9
 9
 9
 9
 9
 9
 9
 9
 9
 9
 9
 9
 9
 9
 9
 9
 9
 9
 9
 9
 9
 9
 9
 9
 9
 9
 9
 9
 9
 9
 9
 9
 9
 9
 9
 9
 9
 9
 9
 9
 9
 9
 9
 9
 9
 9
 9
 9
 9
 9
 9
 9
 9
 9
 9
 9
 9
 9
 9
 9
 9
 9
 9
 9
 9
 9
 9
 9
 9
 9
 9
 9
 9
 9
 9
 9
 9
 9
 9
 9
 9
 9
 9
 9
 9
 9
 9
 9
 9
 9
 9
 9
 9
 9
 9
 9
 9
 9
 9
 9
 9
 9
 9
 9
 9
 9
 9
 9
 9
 9
 9
 9
 9
 9
 9
 9
 9
 9
 9
 9
 9
 9
 9
 9
 9
 9
 9
 9
 9
 9
 9
 9
 9
 9
 9
 9
 9
 9
 9
 9
 9
 9
 9
 9
 9
 9
 9
 9
 9
 9
 9
 9
 9
 9
 9
 9
 9
 9
 9
 9
 9
 9
 9
 9
 9
 9
 9
 9
 9
 9
 9
 9
 9
 9
 9
 9
 9
 9
 9
 9
 9
 9
 9
 9
 9
 9
 9
 9
 9
 9
 9
 9
 9
 9
 9
 9
 9
 9
 9
 9
 9
 9
 9
 9
 9
 9
 9
 9
 9
 9
 9
 9
 9
 9
 9
 9
 9
 9
 9
 9
 9
 9
 9
 9
 9
 9
 9
 9
 9
 9
 9
 9
 9
 9
 9
 9
 9
 9
 9
 9
 9
 9
 9
 9
 9
 9
 9
 9
 9
 9
 9
 9
 9
 9
 9
 9
 9
 9
 9
 9
 9
 9
 9
 9
 9
 9
 9
 9
 9
 9
 9
 9
 9
 9
 9
 9
 9
 9
 9
 9
 9
 9
 9
 9
 9
 9
 9
 9
 9
 9
 9
 9
 9
 9
 9
 9
 9
 9
 9
 9
 9
 9
 9
 9
 9
 9
 9
 9
 9
 9
 9
 9
 9
 9
 9
 9
 9
 9
 9
 9
 9
 9
 9
 9
 9
 9
 9
 9
 9
 9
 9
 9
 9
 9
 9
 9
 9
 9
 9
 9
 9
 9
 9
 9
 9
 9
 9
 9
 9
 9
 9
 9
 9
 9
 9
 9
 9
 9
 9
 9
 9
 9
 9
 9
 9
 9
 9
 9
 9
 9
 9
 9
 9
 9
 9
 9
 9
 9
 9
 9
 9
 9
 9
 9
 9
 9
 9
 9
 9
 9
 9
 9
 9
 9
 9
 9
 9
 9
 9
 9
 9
 9
 9
 9
 9
 9
 9
 9
 9
 9
 9
 9
 9
 9
 9
 9
 9
 9
 9
 9
 9
 9
 9
 9
 9
 9
 9
 9
 9
 9
 9
 9
 9
 9
 9
 9
 9
 9
 9
 9
 9
 9
 9
 9
 9
 9
 9
 9
 9
 9
 9
 9
 9
 9
 9
 9
 9
 9
 9
 9
 9
 9
 9
 9
 9
 9
 9
 9
 9
 9
 9
 9
 9
 9
 9
 9
 9
 9
 9
 9
 9
 9
 9
 9
 9
 9
 9
 9
 9
 9
 9
 9
 9
 9
 9
 9
 9
 9
 9
 9
 9
 9
 9
 9
 9
 9
 9
 9
 9
 9
 9
 9
 9
 9
 9
 9
 9
 9
 9
 9
 9
 9
 9
 9
 9
 9
 9
 9
 9
 9
 9
 9
 9
 9
 9
 9
 9
 9
 9
 9
 9
 9
 9
 9
 9
 9
 9
 9
 9
 9
 9
 9
 9
 9
 9
 9
 9
 9
 9
 9
 9
 9
 9
 9
 9
 9
 9
 9
 9
 9
 9
 9
 9
 9
 9
 9
 9
 9
 9
 9
 9
 9
 9
 9
 9
 9
 9
 9
 9
 9
 9
 9
 9
 9
 9
 9
 9
 9
 9
 9
 9
 9
 9
 9
 9
 9
 9
 9
 9
 9
 9
 9
 9
 9
 9
 9
 9
 9
 9
 9
 9
 9
 9
 9
 9
 9
 9
 9
 9
 9
 9
 9
 9
 9
 9
 9
 9
 9
 9
 9
 9
 9
 9
 9
 9
 9
 9
 9
 9
 9
 9
 9
 9
 9
 9
 9
 9
 9
 9
 9
 9
 9
 9
 9
 9
 9
 9
 9
 9
 9
 9
 9
 9
 9
 9
 9
 9
 9
 9
 9
 9
 9
 9
 9
 9
 9
 9
 9
 9
 9
 9
 9
 9
 9
 9
 9
 9
 9
 9
 9
 9
 9
 9
 9
 9
 9
 9
 9
 9
 9
 9
 9
 9
 9
 9
 9
 9
 9
 9
 9
 9
 9
 9
 9
 9
 9
 9
 9
 9
 9
 9
 9
 9
 9
 9
 9
 9
 9
 9
 9
 9
 9
 9
 9
 9
 9
 9
 9
 9
 9
 9
 9
 9
 9
 9
 9
 9
 9
 9
 9
 9
 9
 9
 9
 9
 9
 9
 9
 9
 9
 9
 9
 9
 9
 9
 9
 9
 9
 9
 9
 9
 9
 9
 9
 9
 9
 9
 9
 9
 9
 9
 9
 9
 9
 9
 9
 9
 9
 9
 9
 9
 9
 9
 9
 9
 9
 9
 9
 9
 9
 9
 9
 9
 9
 9
 9
 9
 9
 9
 9
 9
 9
 9
 9
 9
 9
 9
 9
 9
 9
 9
 9
 9
 9
 9
 9
 9
 9
 9
 9
 9
 9
 9
 9
 9
 9
 9
 9
 9
 9
 9
 9
 9
 9
 9
 9
 9
 9
 9
 9
 9
 9
 9
 9
 9
 9
 9
 9
 9
 9
 9
 9
 9
 9
 9
 9
 9
 9
 9
 9
 9
 9
 9
 9
 9
 9
 9
 9
 9
 9
 9
 9
 9
 9
 9
 9
 9
 9
 9
 9
 9
 9
 9
 9
 9
 9
 9
 9
 9
 9
 9
 9
 9
 9
 9
 9
 9
 9
 9
 9
 9
 9
 9
 9
 9
 9
 9
 9
 </DataArray>
 </Cells> 
 <PointData>
 <DataArray  type="Float64" Name="disp" NumberOfComponents="3" format="ascii">
   6.5524284510461356E-002   6.2884988814597809E-002   0.0000000000000000     
   6.8408503441007920E-002   6.8186716295609406E-002   0.0000000000000000     
   7.1260511790856726E-002   7.3700125772439645E-002   0.0000000000000000     
   7.4080309560007759E-002   7.9425217245088525E-002   0.0000000000000000     
   7.6867896748461034E-002   8.5361990713556032E-002   0.0000000000000000     
   6.0186793763046677E-002   6.1916470846136176E-002   0.0000000000000000     
   6.3026162435492916E-002   6.7317429227199771E-002   0.0000000000000000     
   6.5784325362702123E-002   7.2899888089156664E-002   0.0000000000000000     
   6.8461282544674276E-002   7.8663847432006898E-002   0.0000000000000000     
   7.1057033981409390E-002   8.4609307255750429E-002   0.0000000000000000     
   5.5112401481252675E-002   6.1037249887879785E-002   0.0000000000000000     
   5.7848792696655674E-002   6.6498781345264310E-002   0.0000000000000000     
   6.0476614903402531E-002   7.2127573707217368E-002   0.0000000000000000     
   6.2995868101493241E-002   7.7923626973738946E-002   0.0000000000000000     
   6.5406552290927789E-002   8.3886941144829058E-002   0.0000000000000000     
   5.0301107665079337E-002   6.0247325939828622E-002   0.0000000000000000     
   5.2876394224496186E-002   6.5730772649803038E-002   0.0000000000000000     
   5.5337380412957965E-002   7.1383182626621716E-002   0.0000000000000000     
   5.7684066230464633E-002   7.7204555870284672E-002   0.0000000000000000     
   5.9916451677016244E-002   8.3194892380791918E-002   0.0000000000000000     
   4.5752912314526682E-002   5.9546699001982700E-002   0.0000000000000000     
   4.8108967019014473E-002   6.5013403140815954E-002   0.0000000000000000     
   5.0366621891368410E-002   7.0666714847369763E-002   0.0000000000000000     
   5.2525876931588493E-002   7.6506634121644101E-002   0.0000000000000000     
   5.4586732139674715E-002   8.2533160963639010E-002   0.0000000000000000     
   7.6867896748461034E-002   8.5361990713556032E-002   0.0000000000000000     
   7.9587781839411398E-002   9.1480903072296768E-002   0.0000000000000000     
   8.2204473316053780E-002   9.7752411215765306E-002   0.0000000000000000     
   8.4717971178388113E-002  0.10417651514396166        0.0000000000000000     
   8.7128275426414450E-002  0.11075321485688583        0.0000000000000000     
   7.1057033981409390E-002   8.4609307255750429E-002   0.0000000000000000     
   7.3569867741232975E-002   9.0727003421094868E-002   0.0000000000000000     
   7.5998071892470570E-002   9.7007671788747793E-002   0.0000000000000000     
   7.8341646435122106E-002  0.10345131235870922        0.0000000000000000     
   8.0600591369187680E-002  0.11005792513097915        0.0000000000000000     
   6.5406552290927789E-002   8.3886941144829058E-002   0.0000000000000000     
   6.7727522143894769E-002   9.0017615654282596E-002   0.0000000000000000     
   6.9977632332582751E-002   9.6315749935894465E-002   0.0000000000000000     
   7.2156882856991719E-002  0.10278134398966468        0.0000000000000000     
   7.4265273717121688E-002  0.10941439781559320        0.0000000000000000     
   5.9916451677016244E-002   8.3194892380791918E-002   0.0000000000000000     
   6.2060745047396788E-002   8.9352739771859951E-002   0.0000000000000000     
   6.4143154636390351E-002   9.5676645657205281E-002   0.0000000000000000     
   6.6163680443996911E-002  0.10216661003682798        0.0000000000000000     
   6.8122322470216490E-002  0.10882263291072797        0.0000000000000000     
   5.4586732139674715E-002   8.2533160963639010E-002   0.0000000000000000     
   5.6569536451739025E-002   8.8732375773826894E-002   0.0000000000000000     
   5.8494638803893356E-002   9.5090358952680282E-002   0.0000000000000000     
   6.0362039196137696E-002  0.10160711050019913        0.0000000000000000     
   6.2171737628472064E-002  0.10828263041638345        0.0000000000000000     
   8.7128275426414450E-002  0.11075321485688583        0.0000000000000000     
   8.9435080175259474E-002  0.11747092267894547        0.0000000000000000     
   9.1638079540049905E-002  0.12431805093454829        0.0000000000000000     
   9.3737273520785702E-002  0.13129459962369425        0.0000000000000000     
   9.5732662117466921E-002  0.13840056874638335        0.0000000000000000     
   8.0600591369187680E-002  0.11005792513097915        0.0000000000000000     
   8.2768162477118934E-002  0.11681027290795204        0.0000000000000000     
   8.4837615541367609E-002  0.12369111849202244        0.0000000000000000     
   8.6808950561933662E-002  0.13070046188319029        0.0000000000000000     
   8.8682167538817150E-002  0.13783830308145564        0.0000000000000000     
   7.4265273717121688E-002  0.10941439781559320        0.0000000000000000     
   7.6292063728175555E-002  0.11619543531734616        0.0000000000000000     
   7.8226511705356244E-002  0.12310498039858964        0.0000000000000000     
   8.0068617648663729E-002  0.13014303305932362        0.0000000000000000     
   8.1818381558098036E-002  0.13730959329954820        0.0000000000000000     
   6.8122322470216490E-002  0.10882263291072797        0.0000000000000000     
   7.0006783928429323E-002  0.11562640990712778        0.0000000000000000     
   7.1804768032015825E-002  0.12255963665424986        0.0000000000000000     
   7.3516274780975846E-002  0.12962231315209430        0.0000000000000000     
   7.5141304175309523E-002  0.13681443940066096        0.0000000000000000     
   6.2171737628472064E-002  0.10828263041638345        0.0000000000000000     
   6.3912323077880320E-002  0.11510319667729690        0.0000000000000000     
   6.5572384521346325E-002  0.12205508725900316        0.0000000000000000     
   6.7151921958870112E-002  0.12913830216150221        0.0000000000000000     
   6.8650935390451640E-002  0.13635284138479406        0.0000000000000000     
   9.5732662117466921E-002  0.13840056874638335        0.0000000000000000     
   9.7632865761256946E-002  0.14562827811587808        0.0000000000000000     
   9.9446504883319201E-002  0.15297004754544086        0.0000000000000000     
  0.10117357948365371       0.16042587703507169        0.0000000000000000     
  0.10281408956226044       0.16799576658477058        0.0000000000000000     
   8.8682167538817150E-002  0.13783830308145564        0.0000000000000000     
   9.0464835047590411E-002  0.14509600572578871        0.0000000000000000     
   9.2164521663825799E-002  0.15246493345515971        0.0000000000000000     
   9.3781227387523314E-002  0.15994508626956869        0.0000000000000000     
   9.5314952218682969E-002  0.16753646416901563        0.0000000000000000     
   8.1818381558098036E-002  0.13730959329954820        0.0000000000000000     
   8.3482364446481994E-002  0.14459521901527744        0.0000000000000000     
   8.5067127326638486E-002  0.15199046810252564        0.0000000000000000     
   8.6572670198567458E-002  0.15949534056129275        0.0000000000000000     
   8.7998993062268965E-002  0.16710983639157878        0.0000000000000000     
   7.5141304175309523E-002  0.13681443940066096        0.0000000000000000     
   7.6685453957931665E-002  0.14412591798434432        0.0000000000000000     
   7.8154321871757193E-002  0.15154665148753860        0.0000000000000000     
   7.9547907916786162E-002  0.15907663991024382        0.0000000000000000     
   8.0866212093018475E-002  0.16671588325246001        0.0000000000000000     
   6.8650935390451640E-002  0.13635284138479406        0.0000000000000000     
   7.0074103581939454E-002  0.14368810263298928        0.0000000000000000     
   7.1426105299182016E-002  0.15113348361019860        0.0000000000000000     
   7.2706940542179382E-002  0.15868898431642198        0.0000000000000000     
   7.3916609310931497E-002  0.16635460475165942        0.0000000000000000     
  0.10281408956226044       0.16799576658477058        0.0000000000000000     
  0.10436715830275123       0.17566651072801306        0.0000000000000000     
  0.10583190888873785       0.18342490399827469        0.0000000000000000     
  0.10720834132022031       0.19127094639555536        0.0000000000000000     
  0.10849645559719859       0.19920463791985521        0.0000000000000000     
   9.5314952218682969E-002  0.16753646416901563        0.0000000000000000     
   9.6764815278191627E-002  0.17522846127485006        0.0000000000000000     
   9.8129935686936204E-002  0.18301047170842155        0.0000000000000000     
   9.9410313444916701E-002  0.19088249546973016        0.0000000000000000     
  0.10060594855213310       0.19884453255877582        0.0000000000000000     
   8.7998993062268965E-002  0.16710983639157878        0.0000000000000000     
   8.9345104932511077E-002  0.17482470196343489        0.0000000000000000     
   9.0610014824061877E-002  0.18263068364691240        0.0000000000000000     
   9.1793722736921352E-002  0.19052778144201127        0.0000000000000000     
   9.2896228671089529E-002  0.19851599534873154        0.0000000000000000     
   8.0866212093018475E-002  0.16671588325246001        0.0000000000000000     
   8.2108027265709579E-002  0.17445523279376765        0.0000000000000000     
   8.3272146300114869E-002  0.18228553981374726        0.0000000000000000     
   8.4358569196234259E-002  0.19020680431239889        0.0000000000000000     
   8.5367295954067848E-002  0.19821902628972241        0.0000000000000000     
   7.3916609310931497E-002  0.16635460475165942        0.0000000000000000     
   7.5053582277787176E-002  0.17412005376584827        0.0000000000000000     
   7.6116330115095152E-002  0.18197504020892613        0.0000000000000000     
   7.7104852822855452E-002  0.18991956408089283        0.0000000000000000     
   7.8019150401068077E-002  0.19795362538174846        0.0000000000000000     
  0.10849645559719859       0.19920463791985521        0.0000000000000000     
  0.10970297770503364       0.20722320075453321        0.0000000000000000     
  0.11083463362908638       0.21532385708294827        0.0000000000000000     
  0.11189142336935677       0.22350660690510046        0.0000000000000000     
  0.11287334692584486       0.23177145022098980        0.0000000000000000     
  0.10060594855213310       0.19884453255877582        0.0000000000000000     
  0.10172268347581273       0.20689019753081764        0.0000000000000000     
  0.10276636068318290       0.21501310494111472        0.0000000000000000     
  0.10373698017424357       0.22321325478966705        0.0000000000000000     
  0.10463454194899477       0.23149064707647463        0.0000000000000000     
   9.2896228671089529E-002  0.19851599534873154        0.0000000000000000     
   9.3922028677417654E-002  0.20658700766119673        0.0000000000000000     
   9.4875618806756989E-002  0.21473250067353042        0.0000000000000000     
   9.5756999059107492E-002  0.22295247438573262        0.0000000000000000     
   9.6566169434469232E-002  0.23124692879780342        0.0000000000000000     
   8.5367295954067848E-002  0.19821902628972241        0.0000000000000000     
   8.6301013309848379E-002  0.20631363114567045        0.0000000000000000     
   8.7162407999808594E-002  0.21448204428019538        0.0000000000000000     
   8.7951480023948578E-002  0.22272426569329729        0.0000000000000000     
   8.8668229382268260E-002  0.23104029538497611        0.0000000000000000     
   7.8019150401068077E-002  0.19795362538174846        0.0000000000000000     
   7.8859637373104904E-002  0.20607006798423877        0.0000000000000000     
   7.9626728262337798E-002  0.21426173576110960        0.0000000000000000     
   8.0320423068766786E-002  0.22252862871236093        0.0000000000000000     
   8.0940721792391854E-002  0.23087074683799280        0.0000000000000000     
  0.11287334692584486       0.23177145022098980        0.0000000000000000     
  0.11380830196272632       0.24013470290021233        0.0000000000000000     
  0.11472418614417677       0.24861268081236423        0.0000000000000000     
  0.11562099947019627       0.25720538395744541        0.0000000000000000     
  0.11649874194078483       0.26591281233545594        0.0000000000000000     
  0.10463454194899477       0.23149064707647463        0.0000000000000000     
  0.10546400438528845       0.23986898100816262        0.0000000000000000     
  0.10623032586097662       0.24837195579135621        0.0000000000000000     
  0.10693350637605925       0.25699957142605528        0.0000000000000000     
  0.10757354593053636       0.26575182791226010        0.0000000000000000     
   9.6566169434469232E-002  0.23124692879780342        0.0000000000000000     
   9.7294036741467096E-002  0.23964275105599742        0.0000000000000000     
   9.7931507788726085E-002  0.24816682830656953        0.0000000000000000     
   9.8478582576246157E-002  0.25681916054951964        0.0000000000000000     
   9.8935261104027311E-002  0.26559974778484780        0.0000000000000000     
   8.8668229382268260E-002  0.23104029538497611        0.0000000000000000     
   8.9298399031262271E-002  0.23945601304371683        0.0000000000000000     
   8.9827731927425172E-002  0.24799729835800419        0.0000000000000000     
   9.0256228070757005E-002  0.25666415132783821        0.0000000000000000     
   9.0583887461257701E-002  0.26545657195321909        0.0000000000000000     
   8.0940721792391854E-002  0.23087074683799280        0.0000000000000000     
   8.1477091254673908E-002  0.23930876697132070        0.0000000000000000     
   8.1918998277073884E-002  0.24786336594566022        0.0000000000000000     
   8.2266442859591768E-002  0.25653454376101137        0.0000000000000000     
   8.2519425002227503E-002  0.26532230041737404        0.0000000000000000     
  0.11649874194078483       0.26591281233545594        0.0000000000000000     
  0.11729776284188451       0.27489970018756871        0.0000000000000000     
  0.11795841145943745       0.28433078175495652        0.0000000000000000     
  0.11848068779344362       0.29420605703761948        0.0000000000000000     
  0.11886459184390305       0.30452552603555766        0.0000000000000000     
  0.10757354593053636       0.26575182791226010        0.0000000000000000     
  0.10813146143477018       0.27476077048328390        0.0000000000000000     
  0.10858826979912295       0.28415844437244042        0.0000000000000000     
  0.10894397102359468       0.29394484957972955        0.0000000000000000     
  0.10919856510818537       0.30411998610515134        0.0000000000000000     
   9.8935261104027311E-002  0.26559974778484780        0.0000000000000000     
   9.9312555529509072E-002  0.27460667663621813        0.0000000000000000     
   9.9621478010130909E-002  0.28393803372729454        0.0000000000000000     
   9.9862028545892836E-002  0.29359381905807719        0.0000000000000000     
  0.10003420713679484       0.30357403262856603        0.0000000000000000     
   9.0583887461257701E-002  0.26545657195321909        0.0000000000000000     
   9.0841045126101194E-002  0.27443741864637117        0.0000000000000000     
   9.1058036092461325E-002  0.28366954981951897        0.0000000000000000     
   9.1234860360338108E-002  0.29315296547266251        0.0000000000000000     
   9.1371517929731499E-002  0.30288766560580183        0.0000000000000000     
   8.2519425002227503E-002  0.26532230041737404        0.0000000000000000     
   8.2716930224546556E-002  0.27425299651374313        0.0000000000000000     
   8.2897944046114183E-002  0.28335299264911362        0.0000000000000000     
   8.3062466466930468E-002  0.29262228882348551        0.0000000000000000     
   8.3210497486995341E-002  0.30206088503685868        0.0000000000000000     
   4.5752912314526682E-002   5.9546699001982700E-002   0.0000000000000000     
   4.8108967019014473E-002   6.5013403140815954E-002   0.0000000000000000     
   5.0366621891368410E-002   7.0666714847369763E-002   0.0000000000000000     
   5.2525876931588493E-002   7.6506634121644101E-002   0.0000000000000000     
   5.4586732139674715E-002   8.2533160963639010E-002   0.0000000000000000     
   4.1390021343400078E-002   5.8903176290423701E-002   0.0000000000000000     
   4.3511581179931764E-002   6.4351930611335872E-002   0.0000000000000000     
   4.5556565462949464E-002   7.0004799466250447E-002   0.0000000000000000     
   4.7524974192453162E-002   7.5861782855167426E-002   0.0000000000000000     
   4.9416807368442867E-002   8.1922880778086821E-002   0.0000000000000000     
   3.7134640665504919E-002   5.8284565021233366E-002   0.0000000000000000     
   3.9049306806969324E-002   6.3751612854395595E-002   0.0000000000000000     
   4.0899437252016682E-002   6.9424065580052763E-002   0.0000000000000000     
   4.2685032000647008E-002   7.5301923198204876E-002   0.0000000000000000     
   4.4406091052860294E-002   8.1385185708851920E-002   0.0000000000000000     
   3.2986770280841196E-002   5.7690865194411661E-002   0.0000000000000000     
   3.4722143900127136E-002   6.3212449869995149E-002   0.0000000000000000     
   3.6395237258570093E-002   6.8924513188776765E-002   0.0000000000000000     
   3.8006050356170051E-002   7.4827055150756452E-002   0.0000000000000000     
   3.9554583192927019E-002   8.0920075755934268E-002   0.0000000000000000     
   2.8946410189408914E-002   5.7122076809958608E-002   0.0000000000000000     
   3.0530092459405224E-002   6.2734441658134521E-002   0.0000000000000000     
   3.2043965482609682E-002   6.8506142292422356E-002   0.0000000000000000     
   3.3488029259022278E-002   7.4437178712822141E-002   0.0000000000000000     
   3.4862283788643034E-002   8.0527550919333876E-002   0.0000000000000000     
   5.4586732139674715E-002   8.2533160963639010E-002   0.0000000000000000     
   5.6569536451739025E-002   8.8732375773826894E-002   0.0000000000000000     
   5.8494638803893356E-002   9.5090358952680282E-002   0.0000000000000000     
   6.0362039196137696E-002  0.10160711050019913        0.0000000000000000     
   6.2171737628472064E-002  0.10828263041638345        0.0000000000000000     
   4.9416807368442867E-002   8.1922880778086821E-002   0.0000000000000000     
   5.1242803903149392E-002   8.8161758023875270E-002   0.0000000000000000     
   5.3013702708803546E-002   9.4552079381399382E-002   0.0000000000000000     
   5.4729503785405337E-002  0.10109384485065913        0.0000000000000000     
   5.6390207132954756E-002  0.10778705443165457        0.0000000000000000     
   4.4406091052860294E-002   8.1385185708851920E-002   0.0000000000000000     
   4.6069454947855790E-002   8.7646120885696815E-002   0.0000000000000000     
   4.7681964224832715E-002   9.4056996502442494E-002   0.0000000000000000     
   4.9243618883791078E-002  0.10061781255908896        0.0000000000000000     
   5.0754418924730878E-002  0.10732856905563619        0.0000000000000000     
   3.9554583192927019E-002   8.0920075755934268E-002   0.0000000000000000     
   4.1049489585858218E-002   8.7185464359291545E-002   0.0000000000000000     
   4.2499423351980856E-002   9.3605110315809648E-002   0.0000000000000000     
   4.3904384491294940E-002  0.10017901362548859        0.0000000000000000     
   4.5264373003800457E-002  0.10690717428832833        0.0000000000000000     
   3.4862283788643034E-002   8.0527550919333876E-002   0.0000000000000000     
   3.6182907817156683E-002   8.6779788444659486E-002   0.0000000000000000     
   3.7466080090247961E-002   9.3196420821500855E-002   0.0000000000000000     
   3.8711800607916902E-002   9.9777448049858011E-002   0.0000000000000000     
   3.9920069370163472E-002  0.10652287012973094        0.0000000000000000     
   6.2171737628472064E-002  0.10828263041638345        0.0000000000000000     
   6.3912323077880320E-002  0.11510319667729690        0.0000000000000000     
   6.5572384521346325E-002  0.12205508725900316        0.0000000000000000     
   6.7151921958870112E-002  0.12913830216150221        0.0000000000000000     
   6.8650935390451640E-002  0.13635284138479406        0.0000000000000000     
   5.6390207132954756E-002  0.10778705443165457        0.0000000000000000     
   5.7986081576034250E-002  0.11462264716802503        0.0000000000000000     
   5.9507395939226292E-002  0.12159156210340989        0.0000000000000000     
   6.0954150222530874E-002  0.12869379923780919        0.0000000000000000     
   6.2326344425948005E-002  0.13592935857122287        0.0000000000000000     
   5.0754418924730878E-002  0.10732856905563619        0.0000000000000000     
   5.2205459822396987E-002  0.11418161291948359        0.0000000000000000     
   5.3587837051534241E-002  0.12116929107803050        0.0000000000000000     
   5.4901550612142663E-002  0.12829160353127694        0.0000000000000000     
   5.6146600504222224E-002  0.13554855027922288        0.0000000000000000     
   4.5264373003800457E-002  0.10690717428832833        0.0000000000000000     
   4.6570457816968502E-002  0.11378009393167253        0.0000000000000000     
   4.7813707858270160E-002  0.12078827418286493        0.0000000000000000     
   4.8994123127705430E-002  0.12793171504190551        0.0000000000000000     
   5.0111703625274319E-002  0.13521041650879417        0.0000000000000000     
   3.9920069370163472E-002  0.10652287012973094        0.0000000000000000     
   4.1081075559748818E-002  0.11341809020459193        0.0000000000000000     
   4.2185008359434055E-002  0.12044851141791323        0.0000000000000000     
   4.3231867769219209E-002  0.12761413376969485        0.0000000000000000     
   4.4221653789104254E-002  0.13491495725993677        0.0000000000000000     
   6.8650935390451640E-002  0.13635284138479406        0.0000000000000000     
   7.0074103581939454E-002  0.14368810263298928        0.0000000000000000     
   7.1426105299182016E-002  0.15113348361019860        0.0000000000000000     
   7.2706940542179382E-002  0.15868898431642198        0.0000000000000000     
   7.3916609310931497E-002  0.16635460475165942        0.0000000000000000     
   6.2326344425948005E-002  0.13592935857122287        0.0000000000000000     
   6.3627877638105720E-002  0.14328714295870093        0.0000000000000000     
   6.4862648947632093E-002  0.15075605525529340        0.0000000000000000     
   6.6030658354527094E-002  0.15833609546100025        0.0000000000000000     
   6.7131905858790752E-002  0.16602726357582154        0.0000000000000000     
   5.6146600504222224E-002  0.13554855027922288        0.0000000000000000     
   5.7326340446030882E-002  0.14292840895896775        0.0000000000000000     
   5.8444124155826560E-002  0.15041945720761069        0.0000000000000000     
   5.9499951633609258E-002  0.15802169502515181        0.0000000000000000     
   6.0493822879378968E-002  0.16573512241159108        0.0000000000000000     
   5.0111703625274319E-002  0.13521041650879417        0.0000000000000000     
   5.1169492005714932E-002  0.14261190063378967        0.0000000000000000     
   5.2170530923765453E-002  0.15012368946715046        0.0000000000000000     
   5.3114820379425845E-002  0.15774578300887654        0.0000000000000000     
   5.4002360372696144E-002  0.16547818125896793        0.0000000000000000     
   4.4221653789104254E-002  0.13491495725993677        0.0000000000000000     
   4.5157332317157885E-002  0.14233761798316680        0.0000000000000000     
   4.6041869251448757E-002  0.14986875203391270        0.0000000000000000     
   4.6875264591976891E-002  0.15750835941217453        0.0000000000000000     
   4.7657518338742273E-002  0.16525644011795224        0.0000000000000000     
   7.3916609310931497E-002  0.16635460475165942        0.0000000000000000     
   7.5053582277787176E-002  0.17412005376584827        0.0000000000000000     
   7.6116330115095152E-002  0.18197504020892613        0.0000000000000000     
   7.7104852822855452E-002  0.18991956408089283        0.0000000000000000     
   7.8019150401068077E-002  0.19795362538174846        0.0000000000000000     
   6.7131905858790752E-002  0.16602726357582154        0.0000000000000000     
   6.8164529287241413E-002  0.17381800342656484        0.0000000000000000     
   6.9126666466697448E-002  0.18169675884003775        0.0000000000000000     
   7.0018317397158816E-002  0.18966352981624032        0.0000000000000000     
   7.0839482078625560E-002  0.19771831635517248        0.0000000000000000     
   6.0493822879378968E-002  0.16573512241159108        0.0000000000000000     
   6.1423627612569920E-002  0.17354792032280522        0.0000000000000000     
   6.2287255552616355E-002  0.18144826971467098        0.0000000000000000     
   6.3084706699518267E-002  0.18943617058718837        0.0000000000000000     
   6.3815981053275656E-002  0.19751162294035735        0.0000000000000000     
   5.4002360372696144E-002  0.16547818125896793        0.0000000000000000     
   5.4830877253772697E-002  0.17330980445456948        0.0000000000000000     
   5.5598097372851922E-002  0.18122957283282581        0.0000000000000000     
   5.6304020729933811E-002  0.18923748639373703        0.0000000000000000     
   5.6948647325018351E-002  0.19733354513730308        0.0000000000000000     
   4.7657518338742273E-002  0.16525644011795224        0.0000000000000000     
   4.8386278210849738E-002  0.17310365582185758        0.0000000000000000     
   4.9059191927404135E-002  0.18104066819450226        0.0000000000000000     
   4.9676259488405441E-002  0.18906747723588629        0.0000000000000000     
   5.0237480893853659E-002  0.19718408294600970        0.0000000000000000     
   7.8019150401068077E-002  0.19795362538174846        0.0000000000000000     
   7.8859637373104904E-002  0.20607006798423877        0.0000000000000000     
   7.9626728262337798E-002  0.21426173576110960        0.0000000000000000     
   8.0320423068766786E-002  0.22252862871236093        0.0000000000000000     
   8.0940721792391854E-002  0.23087074683799280        0.0000000000000000     
   7.0839482078625560E-002  0.19771831635517248        0.0000000000000000     
   7.1588516470409452E-002  0.20585552541326271        0.0000000000000000     
   7.2263776531822227E-002  0.21406956394693946        0.0000000000000000     
   7.2865262262863925E-002  0.22236043195620264        0.0000000000000000     
   7.3392973663534519E-002  0.23072812944105231        0.0000000000000000     
   6.3815981053275656E-002  0.19751162294035735        0.0000000000000000     
   6.4478266204984189E-002  0.20566921066910324        0.0000000000000000     
   6.5068749745739562E-002  0.21390351766835122        0.0000000000000000     
   6.5587431675541763E-002  0.22221454393810133        0.0000000000000000     
   6.6034311994390776E-002  0.23060228947835357        0.0000000000000000     
   5.6948647325018351E-002  0.19733354513730308        0.0000000000000000     
   5.7528886576829148E-002  0.20551112375176034        0.0000000000000000     
   5.8041647904089791E-002  0.21376359692534497        0.0000000000000000     
   5.8486931306800265E-002  0.22209096465805706        0.0000000000000000     
   5.8864736784960583E-002  0.23049322694989655        0.0000000000000000     
   5.0237480893853659E-002  0.19718408294600970        0.0000000000000000     
   5.0740377585944310E-002  0.20538126466123399        0.0000000000000000     
   5.1182471006872919E-002  0.21364980171792070        0.0000000000000000     
   5.1563761156639472E-002  0.22198969411606978        0.0000000000000000     
   5.1884248035243975E-002  0.23040094185568127        0.0000000000000000     
   8.0940721792391854E-002  0.23087074683799280        0.0000000000000000     
   8.1477091254673908E-002  0.23930876697132070        0.0000000000000000     
   8.1918998277073884E-002  0.24786336594566022        0.0000000000000000     
   8.2266442859591768E-002  0.25653454376101137        0.0000000000000000     
   8.2519425002227503E-002  0.26532230041737404        0.0000000000000000     
   7.3392973663534519E-002  0.23072812944105231        0.0000000000000000     
   7.3843676179777260E-002  0.23918605260692638        0.0000000000000000     
   7.4214135257535299E-002  0.24774759765926258        0.0000000000000000     
   7.4504350896808680E-002  0.25641276459806106        0.0000000000000000     
   7.4714323097597402E-002  0.26518155342332173        0.0000000000000000     
   6.6034311994390776E-002  0.23060228947835357        0.0000000000000000     
   6.6411716574647423E-002  0.23907290971865092        0.0000000000000000     
   6.6721971288672521E-002  0.24763256008853635        0.0000000000000000     
   6.6965076136466045E-002  0.25628124058800983        0.0000000000000000     
   6.7141031118028022E-002  0.26501895121707142        0.0000000000000000     
   5.8864736784960583E-002  0.23049322694989655        0.0000000000000000     
   5.9181212439284446E-002  0.23896933830649439        0.0000000000000000     
   5.9442506370485523E-002  0.24751825323348145        0.0000000000000000     
   5.9648618578563829E-002  0.25613997173085779        0.0000000000000000     
   5.9799549063519378E-002  0.26483449379862323        0.0000000000000000     
   5.1884248035243975E-002  0.23040094185568127        0.0000000000000000     
   5.2152163773688309E-002  0.23887533837045677        0.0000000000000000     
   5.2375740502974326E-002  0.24740467709409794        0.0000000000000000     
   5.2554978223102053E-002  0.25598895802660465        0.0000000000000000     
   5.2689876934071470E-002  0.26462818116797709        0.0000000000000000     
   8.2519425002227503E-002  0.26532230041737404        0.0000000000000000     
   8.2716930224546556E-002  0.27425299651374313        0.0000000000000000     
   8.2897944046114183E-002  0.28335299264911362        0.0000000000000000     
   8.3062466466930468E-002  0.29262228882348551        0.0000000000000000     
   8.3210497486995341E-002  0.30206088503685868        0.0000000000000000     
   7.4714323097597402E-002  0.26518155342332173        0.0000000000000000     
   7.4885008921983187E-002  0.27404774997094344        0.0000000000000000     
   7.5057365432047801E-002  0.28300514007682520        0.0000000000000000     
   7.5231392627791230E-002  0.29205372374096705        0.0000000000000000     
   7.5407090509213473E-002  0.30119350096336889        0.0000000000000000     
   6.7141031118028022E-002  0.26501895121707142        0.0000000000000000     
   6.7290079315549228E-002  0.27381601875058148        0.0000000000000000     
   6.7452463811220484E-002  0.28264276996340032        0.0000000000000000     
   6.7628184605041747E-002  0.29149920485552805        0.0000000000000000     
   6.7817241697013031E-002  0.30038532342696456        0.0000000000000000     
   5.9799549063519378E-002  0.26483449379862323        0.0000000000000000     
   5.9932141405244665E-002  0.27355780285265724        0.0000000000000000     
   6.0083239183632196E-002  0.28226588230883898        0.0000000000000000     
   6.0252842398681970E-002  0.29095873216716850        0.0000000000000000     
   6.0440951050394001E-002  0.29963635242764569        0.0000000000000000     
   5.2689876934071470E-002  0.26462818116797709        0.0000000000000000     
   5.2811195191069478E-002  0.27327310227717067        0.0000000000000000     
   5.2949691549282973E-002  0.28187447711314118        0.0000000000000000     
   5.3105366008711942E-002  0.29043230567588835        0.0000000000000000     
   5.3278218569356411E-002  0.29894658796541240        0.0000000000000000     
   2.8946410189408914E-002   5.7122076809958608E-002   0.0000000000000000     
   3.0530092459405224E-002   6.2734441658134521E-002   0.0000000000000000     
   3.2043965482609682E-002   6.8506142292422356E-002   0.0000000000000000     
   3.3488029259022278E-002   7.4437178712822141E-002   0.0000000000000000     
   3.4862283788643034E-002   8.0527550919333876E-002   0.0000000000000000     
   2.5020702158854248E-002   5.6616359053402197E-002   0.0000000000000000     
   2.6452764178572008E-002   6.2314155351815781E-002   0.0000000000000000     
   2.7807601882524690E-002   6.8141403421491831E-002   0.0000000000000000     
   2.9085215270712294E-002   7.4098103262430354E-002   0.0000000000000000     
   3.0285604343134813E-002   8.0184254874631336E-002   0.0000000000000000     
   2.1216787956823375E-002   5.6211871110270435E-002   0.0000000000000000     
   2.2469770751395935E-002   6.1948158084041069E-002   0.0000000000000000     
   2.3648126416704360E-002   6.7802747106487385E-002   0.0000000000000000     
   2.4751854952748661E-002   7.3775638177609446E-002   0.0000000000000000     
   2.5780956359528831E-002   7.9866831297407168E-002   0.0000000000000000     
   1.7534667583316288E-002   5.5908612980563314E-002   0.0000000000000000     
   1.8581112177876995E-002   6.1636449854810357E-002   0.0000000000000000     
   1.9565539085148697E-002   6.7490173347409074E-002   0.0000000000000000     
   2.0487948305131395E-002   7.3469783458359417E-002   0.0000000000000000     
   2.1348339837825088E-002   7.9575280187661426E-002   0.0000000000000000     
   1.3974341038332991E-002   5.5706584664280842E-002   0.0000000000000000     
   1.4786788458015196E-002   6.1379030664123660E-002   0.0000000000000000     
   1.5559839887857696E-002   6.7203682144256802E-002   0.0000000000000000     
   1.6293495327860494E-002   7.3180539104680267E-002   0.0000000000000000     
   1.6987754778023587E-002   7.9309601545394071E-002   0.0000000000000000     
   3.4862283788643034E-002   8.0527550919333876E-002   0.0000000000000000     
   3.6182907817156683E-002   8.6779788444659486E-002   0.0000000000000000     
   3.7466080090247961E-002   9.3196420821500855E-002   0.0000000000000000     
   3.8711800607916902E-002   9.9777448049858011E-002   0.0000000000000000     
   3.9920069370163472E-002  0.10652287012973094        0.0000000000000000     
   3.0285604343134813E-002   8.0184254874631336E-002   0.0000000000000000     
   3.1432246814824816E-002   8.6422346256075463E-002   0.0000000000000000     
   3.2548620400814868E-002   9.2834865404743450E-002   0.0000000000000000     
   3.3634725101104969E-002   9.9421812320635267E-002   0.0000000000000000     
   3.4690560915695119E-002  0.10618318700375093        0.0000000000000000     
   2.5780956359528831E-002   7.9866831297407168E-002   0.0000000000000000     
   2.6760043751936271E-002   8.6106390907814356E-002   0.0000000000000000     
   2.7713730244862372E-002   9.2524381450764762E-002   0.0000000000000000     
   2.8642015838307153E-002   9.9120802926258342E-002   0.0000000000000000     
   2.9544900532270598E-002  0.10589565533429514        0.0000000000000000     
   2.1348339837825088E-002   7.9575280187661426E-002   0.0000000000000000     
   2.2166298628491034E-002   8.5831922399876179E-002   0.0000000000000000     
   2.2961409622390481E-002   9.2264968959564778E-002   0.0000000000000000     
   2.3733672819523443E-002   9.8874419866727223E-002   0.0000000000000000     
   2.4483088219889905E-002  0.10566027512136353        0.0000000000000000     
   1.6987754778023587E-002   7.9309601545394071E-002   0.0000000000000000     
   1.7651011444489113E-002   8.5598940732260917E-002   0.0000000000000000     
   1.8291658533399195E-002   9.2056627931143553E-002   0.0000000000000000     
   1.8909696044753840E-002   9.8682663142041938E-002   0.0000000000000000     
   1.9505123978553040E-002  0.10547704636495614        0.0000000000000000     
   3.9920069370163472E-002  0.10652287012973094        0.0000000000000000     
   4.1081075559748818E-002  0.11341809020459193        0.0000000000000000     
   4.2185008359434055E-002  0.12044851141791323        0.0000000000000000     
   4.3231867769219209E-002  0.12761413376969485        0.0000000000000000     
   4.4221653789104254E-002  0.13491495725993677        0.0000000000000000     
   3.4690560915695119E-002  0.10618318700375093        0.0000000000000000     
   3.5705839504887170E-002  0.11309925450660889        0.0000000000000000     
   3.6670272528982993E-002  0.12015027988172754        0.0000000000000000     
   3.7583859987982582E-002  0.12733626312910690        0.0000000000000000     
   3.8446601881885936E-002  0.13465720424874694        0.0000000000000000     
   2.9544900532270598E-002  0.10589565533429514        0.0000000000000000     
   3.0413276106532851E-002  0.11282723960609056        0.0000000000000000     
   3.1238034340874042E-002  0.11989385667286001        0.0000000000000000     
   3.2019175235294170E-002  0.12709550653460355        0.0000000000000000     
   3.2756698789793239E-002  0.13443218919132108        0.0000000000000000     
   2.4483088219889905E-002  0.10566027512136353        0.0000000000000000     
   2.5203385364685835E-002  0.11260204550303692        0.0000000000000000     
   2.5888293795107192E-002  0.11967924179131068        0.0000000000000000     
   2.6537813511153967E-002  0.12689186398618477        0.0000000000000000     
   2.7151944512826168E-002  0.13423991208765920        0.0000000000000000     
   1.9505123978553040E-002  0.10547704636495614        0.0000000000000000     
   2.0076167279346135E-002  0.11242367219744803        0.0000000000000000     
   2.0621050891682438E-002  0.11950643523707952        0.0000000000000000     
   2.1139774815561969E-002  0.12672533548385065        0.0000000000000000     
   2.1632339050984710E-002  0.13408037293776134        0.0000000000000000     
   4.4221653789104254E-002  0.13491495725993677        0.0000000000000000     
   4.5157332317157885E-002  0.14233761798316680        0.0000000000000000     
   4.6041869251448757E-002  0.14986875203391270        0.0000000000000000     
   4.6875264591976891E-002  0.15750835941217453        0.0000000000000000     
   4.7657518338742273E-002  0.16525644011795224        0.0000000000000000     
   3.8446601881885936E-002  0.13465720424874694        0.0000000000000000     
   3.9261246217865711E-002  0.14209901574900635        0.0000000000000000     
   4.0030541003094576E-002  0.14964761013824368        0.0000000000000000     
   4.0754486237572510E-002  0.15730298741645901        0.0000000000000000     
   4.1433081921299519E-002  0.16506514758365229        0.0000000000000000     
   3.2756698789793239E-002  0.13443218919132108        0.0000000000000000     
   3.3452618545344454E-002  0.14188954867321549        0.0000000000000000     
   3.4108948042920979E-002  0.14945322901048955        0.0000000000000000     
   3.4725687282522844E-002  0.15712323020314320        0.0000000000000000     
   3.5302836264150032E-002  0.16489955225117647        0.0000000000000000     
   2.7151944512826168E-002  0.13423991208765920        0.0000000000000000     
   2.7731449299594074E-002  0.14170921675579429        0.0000000000000000     
   2.8277090370927991E-002  0.14928560865065027        0.0000000000000000     
   2.8788867726827896E-002  0.15696908777222712        0.0000000000000000     
   2.9266781367293805E-002  0.16475965412052485        0.0000000000000000     
   2.1632339050984710E-002  0.13408037293776134        0.0000000000000000     
   2.2097738480614606E-002  0.14155801999674272        0.0000000000000000     
   2.2534967987115594E-002  0.14914474905872588        0.0000000000000000     
   2.2944027570487670E-002  0.15684056012371073        0.0000000000000000     
   2.3324917230730841E-002  0.16464545319169738        0.0000000000000000     
   4.7657518338742273E-002  0.16525644011795224        0.0000000000000000     
   4.8386278210849738E-002  0.17310365582185758        0.0000000000000000     
   4.9059191927404135E-002  0.18104066819450226        0.0000000000000000     
   4.9676259488405441E-002  0.18906747723588629        0.0000000000000000     
   5.0237480893853659E-002  0.19718408294600970        0.0000000000000000     
   4.1433081921299519E-002  0.16506514758365229        0.0000000000000000     
   4.2064031388965459E-002  0.17292640709251023        0.0000000000000000     
   4.2645037975260154E-002  0.18087908239571956        0.0000000000000000     
   4.3176101680183605E-002  0.18892317349328028        0.0000000000000000     
   4.3657222503735819E-002  0.19705868038519236        0.0000000000000000     
   3.5302836264150032E-002  0.16489955225117647        0.0000000000000000     
   3.5838337693284233E-002  0.17277499093436821        0.0000000000000000     
   3.6330134275407155E-002  0.18074234203249706        0.0000000000000000     
   3.6778226010518764E-002  0.18880160554556308        0.0000000000000000     
   3.7182612898619086E-002  0.19695278147356626        0.0000000000000000     
   2.9266781367293805E-002  0.16475965412052485        0.0000000000000000     
   2.9709197123806090E-002  0.17264940734743142        0.0000000000000000     
   3.0114480827845132E-002  0.18063044710483467        0.0000000000000000     
   3.0482632479410913E-002  0.18870277339273467        0.0000000000000000     
   3.0813652078503461E-002  0.19686638621113142        0.0000000000000000     
   2.3324917230730841E-002  0.16464545319169738        0.0000000000000000     
   2.3676609680531008E-002  0.17254965633169991        0.0000000000000000     
   2.3998077632574080E-002  0.18054339761273247        0.0000000000000000     
   2.4289321086860060E-002  0.18862667703479508        0.0000000000000000     
   2.4550340043388942E-002  0.19679949459788773        0.0000000000000000     
   5.0237480893853659E-002  0.19718408294600970        0.0000000000000000     
   5.0740377585944310E-002  0.20538126466123399        0.0000000000000000     
   5.1182471006872919E-002  0.21364980171792070        0.0000000000000000     
   5.1563761156639472E-002  0.22198969411606978        0.0000000000000000     
   5.1884248035243975E-002  0.23040094185568127        0.0000000000000000     
   4.3657222503735819E-002  0.19705868038519236        0.0000000000000000     
   4.4086909767747338E-002  0.20527347284402961        0.0000000000000000     
   4.4463672794048704E-002  0.21355542064236574        0.0000000000000000     
   4.4787511582639931E-002  0.22190452378020076        0.0000000000000000     
   4.5058426133520998E-002  0.23032078225753466        0.0000000000000000     
   3.7182612898619086E-002  0.19695278147356626        0.0000000000000000     
   3.7542653657655883E-002  0.20518158774665243        0.0000000000000000     
   3.7857707005576918E-002  0.21347374229496743        0.0000000000000000     
   3.8127772942382197E-002  0.22182924511851118        0.0000000000000000     
   3.8352851468071728E-002  0.23024809621728382        0.0000000000000000     
   3.0813652078503461E-002  0.19686638621113142        0.0000000000000000     
   3.1107609255669945E-002  0.20510560936910252        0.0000000000000000     
   3.1364573641457547E-002  0.21340476667572575        0.0000000000000000     
   3.1584545235866283E-002  0.22176385813100111        0.0000000000000000     
   3.1767524038896142E-002  0.23018288373492859        0.0000000000000000     
   2.4550340043388942E-002  0.19679949459788773        0.0000000000000000     
   2.4781776561789523E-002  0.20504553771137979        0.0000000000000000     
   2.4984272701690600E-002  0.21334849378464077        0.0000000000000000     
   2.5157828463092183E-002  0.22170836281767048        0.0000000000000000     
   2.5302443845994251E-002  0.23012514481046906        0.0000000000000000     
   5.1884248035243975E-002  0.23040094185568127        0.0000000000000000     
   5.2152163773688309E-002  0.23887533837045677        0.0000000000000000     
   5.2375740502974326E-002  0.24740467709409794        0.0000000000000000     
   5.2554978223102053E-002  0.25598895802660465        0.0000000000000000     
   5.2689876934071470E-002  0.26462818116797709        0.0000000000000000     
   4.5058426133520998E-002  0.23032078225753466        0.0000000000000000     
   4.5285428977146713E-002  0.23878944955690551        0.0000000000000000     
   4.5477532643971884E-002  0.24729577916085124        0.0000000000000000     
   4.5634737133996496E-002  0.25583977106937184        0.0000000000000000     
   4.5757042447220557E-002  0.26442142528246737        0.0000000000000000     
   3.8352851468071728E-002  0.23024809621728382        0.0000000000000000     
   3.8541866448947408E-002  0.23871021151220809        0.0000000000000000     
   3.8703741751311166E-002  0.24719550692420700        0.0000000000000000     
   3.8838477375162994E-002  0.25570398245328052        0.0000000000000000     
   3.8946073320502900E-002  0.26423563809942857        0.0000000000000000     
   3.1767524038896142E-002  0.23018288373492859        0.0000000000000000     
   3.1921476189090359E-002  0.23863762423636448        0.0000000000000000     
   3.2054367824992151E-002  0.24710386038416515        0.0000000000000000     
   3.2166198946601540E-002  0.25558159217833049        0.0000000000000000     
   3.2256969553918512E-002  0.26407081961886064        0.0000000000000000     
   2.5302443845994251E-002  0.23012514481046906        0.0000000000000000     
   2.5424258197575565E-002  0.23857168772937470        0.0000000000000000     
   2.5529410865014861E-002  0.24702083954072568        0.0000000000000000     
   2.5617901848312127E-002  0.25547260024452195        0.0000000000000000     
   2.5689731147467382E-002  0.26392696984076364        0.0000000000000000     
   5.2689876934071470E-002  0.26462818116797709        0.0000000000000000     
   5.2811195191069478E-002  0.27327310227717067        0.0000000000000000     
   5.2949691549282973E-002  0.28187447711314118        0.0000000000000000     
   5.3105366008711942E-002  0.29043230567588835        0.0000000000000000     
   5.3278218569356411E-002  0.29894658796541240        0.0000000000000000     
   4.5757042447220557E-002  0.26442142528246737        0.0000000000000000     
   4.5868480398707591E-002  0.27299061884025083        0.0000000000000000     
   4.5993082803521115E-002  0.28149722878283528        0.0000000000000000     
   4.6130849661661158E-002  0.28994125511022079        0.0000000000000000     
   4.6281780973127698E-002  0.29832269782240728        0.0000000000000000     
   3.8946073320502900E-002  0.26423563809942857        0.0000000000000000     
   3.9045236753842888E-002  0.27273905435802664        0.0000000000000000     
   3.9154674841694957E-002  0.28116281172445007        0.0000000000000000     
   3.9274387584059101E-002  0.28950691019869873        0.0000000000000000     
   3.9404374980935325E-002  0.29777134978077291        0.0000000000000000     
   3.2256969553918512E-002  0.26407081961886064        0.0000000000000000     
   3.2341464256475390E-002  0.27251840883049810        0.0000000000000000     
   3.2434467663804478E-002  0.28087122593798530        0.0000000000000000     
   3.2535979775905784E-002  0.28912927094132246        0.0000000000000000     
   3.2646000592779299E-002  0.29729254384050929        0.0000000000000000     
   2.5689731147467382E-002  0.26392696984076364        0.0000000000000000     
   2.5757162906605076E-002  0.27232868225766521        0.0000000000000000     
   2.5832461269849685E-002  0.28062247142344121        0.0000000000000000     
   2.5915626237201204E-002  0.28880833733809164        0.0000000000000000     
   2.6006657808659624E-002  0.29688628000161649        0.0000000000000000     
   1.3974341038332991E-002   5.5706584664280842E-002   0.0000000000000000     
   1.4786788458015196E-002   6.1379030664123660E-002   0.0000000000000000     
   1.5559839887857696E-002   6.7203682144256802E-002   0.0000000000000000     
   1.6293495327860494E-002   7.3180539104680267E-002   0.0000000000000000     
   1.6987754778023587E-002   7.9309601545394071E-002   0.0000000000000000     
   1.0476372500427438E-002   5.5574097930967223E-002   0.0000000000000000     
   1.1052246959668083E-002   6.1177540326636623E-002   0.0000000000000000     
   1.1611908547319161E-002   6.6964413459679045E-002   0.0000000000000000     
   1.2155357263380677E-002   7.2934717330094503E-002   0.0000000000000000     
   1.2682593107852625E-002   7.9088451937882970E-002   0.0000000000000000     
   6.9813261481535827E-003   5.5479464550166668E-002   0.0000000000000000     
   7.3429350506932067E-003   6.1033618657004921E-002   0.0000000000000000     
   7.7026247860209002E-003   6.6793507256324214E-002   0.0000000000000000     
   8.0603953541366642E-003   7.2759130348124576E-002   0.0000000000000000     
   8.4162467550404976E-003   7.8930487932406007E-002   0.0000000000000000     
   3.4892019815114216E-003   5.5422684521879165E-002   0.0000000000000000     
   3.6588527310905663E-003   6.0947265655228525E-002   0.0000000000000000     
   3.8319886039629115E-003   6.6690963534192294E-002   0.0000000000000000     
   4.0086096001284580E-003   7.2653778158770513E-002   0.0000000000000000     
   4.1887157195872049E-003   7.8835709528963127E-002   0.0000000000000000     
   5.0095734852040330E-013   5.5403757846104740E-002   0.0000000000000000     
   8.6016176820136181E-013   6.0918481321307463E-002   0.0000000000000000     
   1.1451951583210662E-012   6.6656782293283312E-002   0.0000000000000000     
   1.3560574375643536E-012   7.2618660762032300E-002   0.0000000000000000     
   1.4927477656745403E-012   7.8804116727554399E-002   0.0000000000000000     
   1.6987754778023587E-002   7.9309601545394071E-002   0.0000000000000000     
   1.7651011444489113E-002   8.5598940732260917E-002   0.0000000000000000     
   1.8291658533399195E-002   9.2056627931143553E-002   0.0000000000000000     
   1.8909696044753840E-002   9.8682663142041938E-002   0.0000000000000000     
   1.9505123978553040E-002  0.10547704636495614        0.0000000000000000     
   1.2682593107852625E-002   7.9088451937882970E-002   0.0000000000000000     
   1.3190779568596376E-002   8.5413232265704048E-002   0.0000000000000000     
   1.3677080133473300E-002   9.1896673296217327E-002   0.0000000000000000     
   1.4141494802483393E-002   9.8538775029422751E-002   0.0000000000000000     
   1.4584023575626654E-002  0.10533953746532040        0.0000000000000000     
   8.4162467550404976E-003   7.8930487932406007E-002   0.0000000000000000     
   8.7622003694787041E-003   8.5280583360941076E-002   0.0000000000000000     
   9.0902775781975913E-003   9.1782419985502392E-002   0.0000000000000000     
   9.4004783811971523E-003   9.8435997806089942E-002   0.0000000000000000     
   9.6928027784773923E-003  0.10524131682270373        0.0000000000000000     
   4.1887157195872049E-003   7.8835709528963127E-002   0.0000000000000000     
   4.3652738471360950E-003   8.5200994017971973E-002   0.0000000000000000     
   4.5312508675720660E-003   9.1713867998998722E-002   0.0000000000000000     
   4.6866467808951203E-003   9.8374331472043469E-002   0.0000000000000000     
   4.8314615871052572E-003  0.10518238443710613        0.0000000000000000     
   1.4927477656745403E-012   7.8804116727554399E-002   0.0000000000000000     
   1.5685458574360434E-012   8.5174464236796726E-002   0.0000000000000000     
   1.5967280666065453E-012   9.1691017336706371E-002   0.0000000000000000     
   1.5772955044932729E-012   9.8353776027283360E-002   0.0000000000000000     
   1.5102476561001943E-012  0.10516274030852762        0.0000000000000000     
   1.9505123978553040E-002  0.10547704636495614        0.0000000000000000     
   2.0076167279346135E-002  0.11242367219744803        0.0000000000000000     
   2.0621050891682438E-002  0.11950643523707952        0.0000000000000000     
   2.1139774815561969E-002  0.12672533548385065        0.0000000000000000     
   2.1632339050984710E-002  0.13408037293776134        0.0000000000000000     
   1.4584023575626654E-002  0.10533953746532040        0.0000000000000000     
   1.5006995506661291E-002  0.11228807965394408        0.0000000000000000     
   1.5412739649345506E-002  0.11937352064532764        0.0000000000000000     
   1.5801256003679306E-002  0.12659586043947110        0.0000000000000000     
   1.6172544569662679E-002  0.13395509903637448        0.0000000000000000     
   9.6928027784773923E-003  0.10524131682270373        0.0000000000000000     
   9.9712437027788554E-003  0.11219122783714530        0.0000000000000000     
   1.0239794086842093E-002  0.11927858165121613        0.0000000000000000     
   1.0498453930667102E-002  0.12650337826491626        0.0000000000000000     
   1.0747223234253884E-002  0.13386561767824573        0.0000000000000000     
   4.8314615871052572E-003  0.10518238443710613        0.0000000000000000     
   4.9689118676988324E-003  0.11213311674705168        0.0000000000000000     
   5.1022142041722025E-003  0.11922161825474500        0.0000000000000000     
   5.2313685965253657E-003  0.12644788896018613        0.0000000000000000     
   5.3563750447583229E-003  0.13381192886337503        0.0000000000000000     
   1.5102476561001943E-012  0.10516274030852762        0.0000000000000000     
   1.4212157926213331E-012  0.11211374638366325        0.0000000000000000     
   1.3358293421070200E-012  0.11920263045591425        0.0000000000000000     
   1.2540893616543730E-012  0.12642939252528068        0.0000000000000000     
   1.1759963662594242E-012  0.13379403259176242        0.0000000000000000     
   2.1632339050984710E-002  0.13408037293776134        0.0000000000000000     
   2.2097738480614606E-002  0.14155801999674272        0.0000000000000000     
   2.2534967987115594E-002  0.14914474905872588        0.0000000000000000     
   2.2944027570487670E-002  0.15684056012371073        0.0000000000000000     
   2.3324917230730841E-002  0.16464545319169738        0.0000000000000000     
   1.6172544569662679E-002  0.13395509903637448        0.0000000000000000     
   1.6524143621449570E-002  0.14143846946436200        0.0000000000000000     
   1.6853591433193905E-002  0.14903320475175788        0.0000000000000000     
   1.7160888004895694E-002  0.15673930489856219        0.0000000000000000     
   1.7446033336554929E-002  0.16455676990477483        0.0000000000000000     
   1.0747223234253884E-002  0.13386561767824573        0.0000000000000000     
   1.0983322255142506E-002  0.14135307622695328        0.0000000000000000     
   1.1203971250873045E-002  0.14895353024678790        0.0000000000000000     
   1.1409170221445499E-002  0.15666697973774948        0.0000000000000000     
   1.1598919166859865E-002  0.16449342469983802        0.0000000000000000     
   5.3563750447583229E-003  0.13381192886337503        0.0000000000000000     
   5.4752743816934195E-003  0.14130184028451664        0.0000000000000000     
   5.5861074401530085E-003  0.14890572554381584        0.0000000000000000     
   5.6888742201370822E-003  0.15662358464127266        0.0000000000000000     
   5.7835747216456474E-003  0.16445541757688703        0.0000000000000000     
   1.1759963662594242E-012  0.13379403259176242        0.0000000000000000     
   1.1023100834894883E-012  0.14128476163705200        0.0000000000000000     
   1.0337931682577461E-012  0.14888979064284177        0.0000000000000000     
   9.7044884606566073E-013  0.15660911960913163        0.0000000000000000     
   9.1227329510057409E-013  0.16444274853592172        0.0000000000000000     
   2.3324917230730841E-002  0.16464545319169738        0.0000000000000000     
   2.3676609680531008E-002  0.17254965633169991        0.0000000000000000     
   2.3998077632574080E-002  0.18054339761273247        0.0000000000000000     
   2.4289321086860060E-002  0.18862667703479508        0.0000000000000000     
   2.4550340043388942E-002  0.19679949459788773        0.0000000000000000     
   1.7446033336554929E-002  0.16455676990477483        0.0000000000000000     
   1.7708588415421306E-002  0.17247367594284058        0.0000000000000000     
   1.7948114228744511E-002  0.18047809918520405        0.0000000000000000     
   1.8164610776524537E-002  0.18857003963186528        0.0000000000000000     
   1.8358078058761398E-002  0.19674949728282426        0.0000000000000000     
   1.1598919166859865E-002  0.16449342469983802        0.0000000000000000     
   1.1773146380439288E-002  0.17241940423652036        0.0000000000000000     
   1.1931780155506902E-002  0.18043145745126310        0.0000000000000000     
   1.2074820492062708E-002  0.18852958434406628        0.0000000000000000     
   1.2202267390106707E-002  0.19671378491492991        0.0000000000000000     
   5.7835747216456474E-003  0.16445541757688703        0.0000000000000000     
   5.8702835755849551E-003  0.17238684121273926        0.0000000000000000     
   5.9490754128612598E-003  0.18040347241090962        0.0000000000000000     
   6.0199502334745631E-003  0.18850531117139810        0.0000000000000000     
   6.0829080374248676E-003  0.19669235749420469        0.0000000000000000     
   9.1227329510057409E-013  0.16444274853592172        0.0000000000000000     
   8.5830648144380461E-013  0.17237598687149727        0.0000000000000000     
   8.0758533541058775E-013  0.18039414406414364        0.0000000000000000     
   7.6010909805940274E-013  0.18849722011386072        0.0000000000000000     
   7.1588004621481183E-013  0.19668521502064859        0.0000000000000000     
   2.4550340043388942E-002  0.19679949459788773        0.0000000000000000     
   2.4781776561789523E-002  0.20504553771137979        0.0000000000000000     
   2.4984272701690600E-002  0.21334849378464077        0.0000000000000000     
   2.5157828463092183E-002  0.22170836281767048        0.0000000000000000     
   2.5302443845994251E-002  0.23012514481046906        0.0000000000000000     
   1.8358078058761398E-002  0.19674949728282426        0.0000000000000000     
   1.8529495396849130E-002  0.20499993420080054        0.0000000000000000     
   1.8679842112181780E-002  0.21330481244851360        0.0000000000000000     
   1.8809118204759348E-002  0.22166413202596344        0.0000000000000000     
   1.8917323674581842E-002  0.23007789293315009        0.0000000000000000     
   1.2202267390106707E-002  0.19671378491492991        0.0000000000000000     
   1.2315105581683276E-002  0.20496736026468074        0.0000000000000000     
   1.2414319798836794E-002  0.21327361149414542        0.0000000000000000     
   1.2499910041567265E-002  0.22163253860332410        0.0000000000000000     
   1.2571876309874684E-002  0.23004414159221664        0.0000000000000000     
   6.0829080374248676E-003  0.19669235749420469        0.0000000000000000     
   6.1386071162919630E-003  0.20494781590302041        0.0000000000000000     
   6.1877057616556473E-003  0.21325489092153632        0.0000000000000000     
   6.2302039735159173E-003  0.22161358254975236        0.0000000000000000     
   6.2661017518727781E-003  0.23002389078766861        0.0000000000000000     
   7.1588004621481183E-013  0.19668521502064859        0.0000000000000000     
   6.7519058920273434E-013  0.20494130111581960        0.0000000000000000     
   6.3833519633321734E-013  0.21324865073068622        0.0000000000000000     
   6.0531362366077202E-013  0.22160726386524834        0.0000000000000000     
   5.7612595250056131E-013  0.23001714051950606        0.0000000000000000     
   2.5302443845994251E-002  0.23012514481046906        0.0000000000000000     
   2.5424258197575565E-002  0.23857168772937470        0.0000000000000000     
   2.5529410865014861E-002  0.24702083954072568        0.0000000000000000     
   2.5617901848312127E-002  0.25547260024452195        0.0000000000000000     
   2.5689731147467382E-002  0.26392696984076364        0.0000000000000000     
   1.8917323674581842E-002  0.23007789293315009        0.0000000000000000     
   1.9008518167253755E-002  0.23851690299713602        0.0000000000000000     
   1.9086761328379595E-002  0.24695197004498365        0.0000000000000000     
   1.9152053157959367E-002  0.25538309407669302        0.0000000000000000     
   1.9204393655993069E-002  0.26381027509226401        0.0000000000000000     
   1.2571876309874684E-002  0.23004414159221664        0.0000000000000000     
   1.2632561790975629E-002  0.23847777104554574        0.0000000000000000     
   1.2684309672086686E-002  0.24690277754803405        0.0000000000000000     
   1.2727119953207851E-002  0.25531916109968156        0.0000000000000000     
   1.2760992634339129E-002  0.26372692170048828        0.0000000000000000     
   6.2661017518727781E-003  0.23002389078766861        0.0000000000000000     
   6.2963890687411910E-003  0.23845429187460382        0.0000000000000000     
   6.3220558961361263E-003  0.24687326204987686        0.0000000000000000     
   6.3431022340575821E-003  0.25528080131348774        0.0000000000000000     
   6.3595280825055585E-003  0.26367690966543639        0.0000000000000000     
   5.7612595250056131E-013  0.23001714051950606        0.0000000000000000     
   5.5043686622568977E-013  0.23844646548431031        0.0000000000000000     
   5.2791408397534489E-013  0.24686342355051208        0.0000000000000000     
   5.0855467840366098E-013  0.25526801471811139        0.0000000000000000     
   4.9236049265433124E-013  0.26366023898710828        0.0000000000000000     
   2.5689731147467382E-002  0.26392696984076364        0.0000000000000000     
   2.5757162906605076E-002  0.27232868225766521        0.0000000000000000     
   2.5832461269849685E-002  0.28062247142344121        0.0000000000000000     
   2.5915626237201204E-002  0.28880833733809164        0.0000000000000000     
   2.6006657808659624E-002  0.29688628000161649        0.0000000000000000     
   1.9204393655993069E-002  0.26381027509226401        0.0000000000000000     
   1.9253915892880846E-002  0.27217619854912029        0.0000000000000000     
   1.9310752939022846E-002  0.28042354990468527        0.0000000000000000     
   1.9374904794419067E-002  0.28855232915895901        0.0000000000000000     
   1.9446371459069516E-002  0.29656253631194152        0.0000000000000000     
   1.2760992634339129E-002  0.26372692170048828        0.0000000000000000     
   1.2793306403951566E-002  0.27206728161445565        0.0000000000000000     
   1.2831439950516223E-002  0.28028146310558533        0.0000000000000000     
   1.2875393274033101E-002  0.28836946617387726        0.0000000000000000     
   1.2925166374502198E-002  0.29633129081933146        0.0000000000000000     
   6.3595280825055585E-003  0.26367690966543639        0.0000000000000000     
   6.3753344398172441E-003  0.27200193145367135        0.0000000000000000     
   6.3945223043298258E-003  0.28019621102614134        0.0000000000000000     
   6.4170916760433027E-003  0.28825974838284629        0.0000000000000000     
   6.4430425549576774E-003  0.29619254352378632        0.0000000000000000     
   4.9236049265433124E-013  0.26366023898710828        0.0000000000000000     
   4.7787620215122839E-013  0.27198014806676735        0.0000000000000000     
   4.6364474759474916E-013  0.28016779366635330        0.0000000000000000     
   4.4966916475097651E-013  0.28822317578586620        0.0000000000000000     
   4.3594815257730346E-013  0.29614629442530599        0.0000000000000000     
   5.0095734852040330E-013   5.5403757846104740E-002   0.0000000000000000     
   8.6016176820136181E-013   6.0918481321307463E-002   0.0000000000000000     
   1.1451951583210662E-012   6.6656782293283312E-002   0.0000000000000000     
   1.3560574375643536E-012   7.2618660762032300E-002   0.0000000000000000     
   1.4927477656745403E-012   7.8804116727554399E-002   0.0000000000000000     
  -3.4892019802974395E-003   5.5422684522533489E-002   0.0000000000000000     
  -3.6588527292404378E-003   6.0947265655100405E-002   0.0000000000000000     
  -3.8319886016067329E-003   6.6690963533571512E-002   0.0000000000000000     
  -4.0086095973963232E-003   7.2653778157946769E-002   0.0000000000000000     
  -4.1887157166092112E-003   7.8835709528226175E-002   0.0000000000000000     
  -6.9813261463033969E-003   5.5479464550855506E-002   0.0000000000000000     
  -7.3429350484536630E-003   6.1033618656466067E-002   0.0000000000000000     
  -7.7026247834673526E-003   6.6793507255031165E-002   0.0000000000000000     
  -8.0603953513444689E-003   7.2759130346550779E-002   0.0000000000000000     
  -8.4162467520850093E-003   7.8930487931024904E-002   0.0000000000000000     
  -1.0476372497516916E-002   5.5574097931070814E-002   0.0000000000000000     
  -1.1052246956779513E-002   6.1177540325404449E-002   0.0000000000000000     
  -1.1611908544436668E-002   6.6964413457662283E-002   0.0000000000000000     
  -1.2155357260488378E-002   7.2934717327844317E-002   0.0000000000000000     
  -1.2682593104934643E-002   7.9088451935950557E-002   0.0000000000000000     
  -1.3974341033937993E-002   5.5706584663179404E-002   0.0000000000000000     
  -1.4786788454217988E-002   6.1379030661915523E-002   0.0000000000000000     
  -1.5559839884514677E-002   6.7203682141464854E-002   0.0000000000000000     
  -1.6293495324828051E-002   7.3180539101827397E-002   0.0000000000000000     
  -1.6987754775158119E-002   7.9309601543003122E-002   0.0000000000000000     
   1.4927477656745403E-012   7.8804116727554399E-002   0.0000000000000000     
   1.5685458574360434E-012   8.5174464236796726E-002   0.0000000000000000     
   1.5967280666065453E-012   9.1691017336706371E-002   0.0000000000000000     
   1.5772955044932729E-012   9.8353776027283360E-002   0.0000000000000000     
   1.5102476561001943E-012  0.10516274030852762        0.0000000000000000     
  -4.1887157166092112E-003   7.8835709528226175E-002   0.0000000000000000     
  -4.3652738440219619E-003   8.5200994017446449E-002   0.0000000000000000     
  -4.5312508644111430E-003   9.1713867998644186E-002   0.0000000000000000     
  -4.6866467777767528E-003   9.8374331471819426E-002   0.0000000000000000     
  -4.8314615841187920E-003  0.10518238443697220        0.0000000000000000     
  -8.4162467520850093E-003   7.8930487931024904E-002   0.0000000000000000     
  -8.7622003664334491E-003   8.5280583359952131E-002   0.0000000000000000     
  -9.0902775751342656E-003   9.1782419984831012E-002   0.0000000000000000     
  -9.4004783781874556E-003   9.8435997805661576E-002   0.0000000000000000     
  -9.6928027755930225E-003  0.10524131682244380        0.0000000000000000     
  -1.2682593104934643E-002   7.9088451935950557E-002   0.0000000000000000     
  -1.3190779565665915E-002   8.5413232264313813E-002   0.0000000000000000     
  -1.3677080130572635E-002   9.1896673295266879E-002   0.0000000000000000     
  -1.4141494799654812E-002   9.8538775028809755E-002   0.0000000000000000     
  -1.4584023572912443E-002  0.10533953746494247        0.0000000000000000     
  -1.6987754775158119E-002   7.9309601543003122E-002   0.0000000000000000     
  -1.7651011441719357E-002   8.5598940730531467E-002   0.0000000000000000     
  -1.8291658530726257E-002   9.2056627929951756E-002   0.0000000000000000     
  -1.8909696042178827E-002   9.8682663141263990E-002   0.0000000000000000     
  -1.9505123976077052E-002  0.10547704636446820        0.0000000000000000     
   1.5102476561001943E-012  0.10516274030852762        0.0000000000000000     
   1.4212157926213331E-012  0.11211374638366325        0.0000000000000000     
   1.3358293421070200E-012  0.11920263045591425        0.0000000000000000     
   1.2540893616543730E-012  0.12642939252528068        0.0000000000000000     
   1.1759963662594242E-012  0.13379403259176242        0.0000000000000000     
  -4.8314615841187920E-003  0.10518238443697220        0.0000000000000000     
  -4.9689118648857172E-003  0.11213311674698044        0.0000000000000000     
  -5.1022142015259815E-003  0.11922161825472223        0.0000000000000000     
  -5.2313685940395885E-003  0.12644788896019754        0.0000000000000000     
  -5.3563750424265345E-003  0.13381192886340634        0.0000000000000000     
  -9.6928027755930225E-003  0.10524131682244380        0.0000000000000000     
  -9.9712437000536933E-003  0.11219122783700368        0.0000000000000000     
  -1.0239794084272199E-002  0.11927858165116720        0.0000000000000000     
  -1.0498453928248537E-002  0.12650337826493438        0.0000000000000000     
  -1.0747223231982709E-002  0.13386561767830521        0.0000000000000000     
  -1.4584023572912443E-002  0.10533953746494247        0.0000000000000000     
  -1.5006995504082710E-002  0.11228807965373296        0.0000000000000000     
  -1.5412739646902819E-002  0.11937352064524921        0.0000000000000000     
  -1.5801256001372752E-002  0.12659586043949120        0.0000000000000000     
  -1.6172544567492522E-002  0.13395509903645897        0.0000000000000000     
  -1.9505123976077052E-002  0.10547704636446820        0.0000000000000000     
  -2.0076167276972774E-002  0.11242367219716833        0.0000000000000000     
  -2.0621050889417840E-002  0.11950643523696826        0.0000000000000000     
  -2.1139774813412244E-002  0.12672533548386805        0.0000000000000000     
  -2.1632339048955986E-002  0.13408037293786768        0.0000000000000000     
   1.1759963662594242E-012  0.13379403259176242        0.0000000000000000     
   1.1023100834894883E-012  0.14128476163705200        0.0000000000000000     
   1.0337931682577461E-012  0.14888979064284177        0.0000000000000000     
   9.7044884606566073E-013  0.15660911960913163        0.0000000000000000     
   9.1227329510057409E-013  0.16444274853592172        0.0000000000000000     
  -5.3563750424265345E-003  0.13381192886340634        0.0000000000000000     
  -5.4752743795073670E-003  0.14130184028455900        0.0000000000000000     
  -5.5861074381026348E-003  0.14890572554386577        0.0000000000000000     
  -5.6888742182123345E-003  0.15662358464132659        0.0000000000000000     
  -5.7835747198364670E-003  0.16445541757694151        0.0000000000000000     
  -1.0747223231982709E-002  0.13386561767830521        0.0000000000000000     
  -1.0983322253012153E-002  0.14135307622703724        0.0000000000000000     
  -1.1203971248874317E-002  0.14895353024688798        0.0000000000000000     
  -1.1409170219569196E-002  0.15666697973785748        0.0000000000000000     
  -1.1598919165096791E-002  0.16449342469994571        0.0000000000000000     
  -1.6172544567492522E-002  0.13395509903645897        0.0000000000000000     
  -1.6524143619412051E-002  0.14143846946448668        0.0000000000000000     
  -1.6853591431281255E-002  0.14903320475190843        0.0000000000000000     
  -1.7160888003100130E-002  0.15673930489872431        0.0000000000000000     
  -1.7446033334868695E-002  0.16455676990493426        0.0000000000000000     
  -2.1632339048955986E-002  0.13408037293786768        0.0000000000000000     
  -2.2097738478707059E-002  0.14155801999690734        0.0000000000000000     
  -2.2534967985323447E-002  0.14914474905892713        0.0000000000000000     
  -2.2944027568805151E-002  0.15684056012392714        0.0000000000000000     
  -2.3324917229152177E-002  0.16464545319190727        0.0000000000000000     
   9.1227329510057409E-013  0.16444274853592172        0.0000000000000000     
   8.5830648144380461E-013  0.17237598687149727        0.0000000000000000     
   8.0758533541058775E-013  0.18039414406414364        0.0000000000000000     
   7.6010909805940274E-013  0.18849722011386072        0.0000000000000000     
   7.1588004621481183E-013  0.19668521502064859        0.0000000000000000     
  -5.7835747198364670E-003  0.16445541757694151        0.0000000000000000     
  -5.8702835738830656E-003  0.17238684121279294        0.0000000000000000     
  -5.9490754112601621E-003  0.18040347241096324        0.0000000000000000     
  -6.0199502319677562E-003  0.18850531117145239        0.0000000000000000     
  -6.0829080360058456E-003  0.19669235749426045        0.0000000000000000     
  -1.1598919165096791E-002  0.16449342469994571        0.0000000000000000     
  -1.1773146378781576E-002  0.17241940423662477        0.0000000000000000     
  -1.1931780153948026E-002  0.18043145745136666        0.0000000000000000     
  -1.2074820490596131E-002  0.18852958434417152        0.0000000000000000     
  -1.2202267388725907E-002  0.19671378491503916        0.0000000000000000     
  -1.7446033334868695E-002  0.16455676990493426        0.0000000000000000     
  -1.7708588413837215E-002  0.17247367594299268        0.0000000000000000     
  -1.7948114227255996E-002  0.18047809918535396        0.0000000000000000     
  -1.8164610775125017E-002  0.18857003963201793        0.0000000000000000     
  -1.8358078057444299E-002  0.19674949728298480        0.0000000000000000     
  -2.3324917229152177E-002  0.16464545319190727        0.0000000000000000     
  -2.3676609679049998E-002  0.17254965633189678        0.0000000000000000     
  -2.3998077631184073E-002  0.18054339761292496        0.0000000000000000     
  -2.4289321085554413E-002  0.18862667703499178        0.0000000000000000     
  -2.4550340042161022E-002  0.19679949459809723        0.0000000000000000     
   7.1588004621481183E-013  0.19668521502064859        0.0000000000000000     
   6.7519058920273434E-013  0.20494130111581960        0.0000000000000000     
   6.3833519633321734E-013  0.21324865073068622        0.0000000000000000     
   6.0531362366077202E-013  0.22160726386524834        0.0000000000000000     
   5.7612595250056131E-013  0.23001714051950606        0.0000000000000000     
  -6.0829080360058456E-003  0.19669235749426045        0.0000000000000000     
  -6.1386071149536706E-003  0.20494781590307787        0.0000000000000000     
  -6.1877057603904649E-003  0.21325489092159500        0.0000000000000000     
  -6.2302039723162268E-003  0.22161358254981195        0.0000000000000000     
  -6.2661017507309597E-003  0.23002389078772867        0.0000000000000000     
  -1.2202267388725907E-002  0.19671378491503916        0.0000000000000000     
  -1.2315105580381250E-002  0.20496736026479462        0.0000000000000000     
  -1.2414319797606073E-002  0.21327361149426258        0.0000000000000000     
  -1.2499910040400379E-002  0.22163253860344312        0.0000000000000000     
  -1.2571876308764164E-002  0.23004414159233616        0.0000000000000000     
  -1.8358078057444299E-002  0.19674949728298480        0.0000000000000000     
  -1.8529495395607547E-002  0.20499993420096999        0.0000000000000000     
  -1.8679842111008500E-002  0.21330481244868896        0.0000000000000000     
  -1.8809118203647140E-002  0.22166413202614185        0.0000000000000000     
  -1.8917323673523490E-002  0.23007789293332856        0.0000000000000000     
  -2.4550340042161022E-002  0.19679949459809723        0.0000000000000000     
  -2.4781776560632570E-002  0.20504553771160380        0.0000000000000000     
  -2.4984272700597738E-002  0.21334849378487411        0.0000000000000000     
  -2.5157828462056525E-002  0.22170836281790809        0.0000000000000000     
  -2.5302443845008935E-002  0.23012514481070581        0.0000000000000000     
   5.7612595250056131E-013  0.23001714051950606        0.0000000000000000     
   5.5043686622568977E-013  0.23844646548431031        0.0000000000000000     
   5.2791408397534489E-013  0.24686342355051208        0.0000000000000000     
   5.0855467840366098E-013  0.25526801471811139        0.0000000000000000     
   4.9236049265433124E-013  0.26366023898710828        0.0000000000000000     
  -6.2661017507309597E-003  0.23002389078772867        0.0000000000000000     
  -6.2963890676502893E-003  0.23845429187466455        0.0000000000000000     
  -6.3220558950898434E-003  0.24687326204993887        0.0000000000000000     
  -6.3431022330496184E-003  0.25528080131355169        0.0000000000000000     
  -6.3595280815296196E-003  0.26367690966550295        0.0000000000000000     
  -1.2571876308764164E-002  0.23004414159233616        0.0000000000000000     
  -1.2632561789914646E-002  0.23847777104566587        0.0000000000000000     
  -1.2684309671069033E-002  0.24690277754815634        0.0000000000000000     
  -1.2727119952227332E-002  0.25531916109980740        0.0000000000000000     
  -1.2760992633389538E-002  0.26372692170061929        0.0000000000000000     
  -1.8917323673523490E-002  0.23007789293332856        0.0000000000000000     
  -1.9008518166242629E-002  0.23851690299731432        0.0000000000000000     
  -1.9086761327409659E-002  0.24695197004516437        0.0000000000000000     
  -1.9152053157024583E-002  0.25538309407687870        0.0000000000000000     
  -1.9204393655087394E-002  0.26381027509245725        0.0000000000000000     
  -2.5302443845008935E-002  0.23012514481070581        0.0000000000000000     
  -2.5424258196634242E-002  0.23857168772960988        0.0000000000000000     
  -2.5529410864111719E-002  0.24702083954096304        0.0000000000000000     
  -2.5617901847441369E-002  0.25547260024476537        0.0000000000000000     
  -2.5689731146623193E-002  0.26392696984101688        0.0000000000000000     
   4.9236049265433124E-013  0.26366023898710828        0.0000000000000000     
   4.7787620215122839E-013  0.27198014806676735        0.0000000000000000     
   4.6364474759474916E-013  0.28016779366635330        0.0000000000000000     
   4.4966916475097651E-013  0.28822317578586620        0.0000000000000000     
   4.3594815257730346E-013  0.29614629442530599        0.0000000000000000     
  -6.3595280815296196E-003  0.26367690966550295        0.0000000000000000     
  -6.3753344388699463E-003  0.27200193145374246        0.0000000000000000     
  -6.3945223034106973E-003  0.28019621102621989        0.0000000000000000     
  -6.4170916751518751E-003  0.28825974838293528        0.0000000000000000     
  -6.4430425540934781E-003  0.29619254352388857        0.0000000000000000     
  -1.2760992633389538E-002  0.26372692170061929        0.0000000000000000     
  -1.2793306403029635E-002  0.27206728161459554        0.0000000000000000     
  -1.2831439949621591E-002  0.28028146310573976        0.0000000000000000     
  -1.2875393273165413E-002  0.28836946617405196        0.0000000000000000     
  -1.2925166373661097E-002  0.29633129081953219        0.0000000000000000     
  -1.9204393655087394E-002  0.26381027509245725        0.0000000000000000     
  -1.9253915892001188E-002  0.27217619854932651        0.0000000000000000     
  -1.9310752938169036E-002  0.28042354990491281        0.0000000000000000     
  -1.9374904793590941E-002  0.28855232915921625        0.0000000000000000     
  -1.9446371458266901E-002  0.29656253631223667        0.0000000000000000     
  -2.5689731146623193E-002  0.26392696984101688        0.0000000000000000     
  -2.5757162905784604E-002  0.27232868225793544        0.0000000000000000     
  -2.5832461269053031E-002  0.28062247142373919        0.0000000000000000     
  -2.5915626236428461E-002  0.28880833733842814        0.0000000000000000     
  -2.6006657807910900E-002  0.29688628000200212        0.0000000000000000     
  -1.3974341033937993E-002   5.5706584663179404E-002   0.0000000000000000     
  -1.4786788454217988E-002   6.1379030661915523E-002   0.0000000000000000     
  -1.5559839884514677E-002   6.7203682141464854E-002   0.0000000000000000     
  -1.6293495324828051E-002   7.3180539101827397E-002   0.0000000000000000     
  -1.6987754775158119E-002   7.9309601543003122E-002   0.0000000000000000     
  -1.7534667577497203E-002   5.5908612978530572E-002   0.0000000000000000     
  -1.8581112173305242E-002   6.1636449851846013E-002   0.0000000000000000     
  -1.9565539081518080E-002   6.7490173344011542E-002   0.0000000000000000     
  -2.0487948302135708E-002   7.3469783455027152E-002   0.0000000000000000     
  -2.1348339835158131E-002   7.9575280184892863E-002   0.0000000000000000     
  -2.1216787950125122E-002   5.6211871108473609E-002   0.0000000000000000     
  -2.2469770746577428E-002   6.1948158081042599E-002   0.0000000000000000     
  -2.3648126413263571E-002   6.7802747102874983E-002   0.0000000000000000     
  -2.4751854950183561E-002   7.3775638173970759E-002   0.0000000000000000     
  -2.5780956357337390E-002   7.9866831294329935E-002   0.0000000000000000     
  -2.5020702151821748E-002   5.6616359053008512E-002   0.0000000000000000     
  -2.6452764174034547E-002   6.2314155349505289E-002   0.0000000000000000     
  -2.7807601879751162E-002   6.8141403418055177E-002   0.0000000000000000     
  -2.9085215268971610E-002   7.4098103258658204E-002   0.0000000000000000     
  -3.0285604341695888E-002   8.0184254871314378E-002   0.0000000000000000     
  -2.8946410182587083E-002   5.7122076812135283E-002   0.0000000000000000     
  -3.0530092455676585E-002   6.2734441657234075E-002   0.0000000000000000     
  -3.2043965480980846E-002   6.8506142289552138E-002   0.0000000000000000     
  -3.3488029258499870E-002   7.4437178709089488E-002   0.0000000000000000     
  -3.4862283788233632E-002   8.0527550915846166E-002   0.0000000000000000     
  -1.6987754775158119E-002   7.9309601543003122E-002   0.0000000000000000     
  -1.7651011441719357E-002   8.5598940730531467E-002   0.0000000000000000     
  -1.8291658530726257E-002   9.2056627929951756E-002   0.0000000000000000     
  -1.8909696042178827E-002   9.8682663141263990E-002   0.0000000000000000     
  -1.9505123976077052E-002  0.10547704636446820        0.0000000000000000     
  -2.1348339835158131E-002   7.9575280184892863E-002   0.0000000000000000     
  -2.2166298625985993E-002   8.5831922397853033E-002   0.0000000000000000     
  -2.2961409620019930E-002   9.2264968958151991E-002   0.0000000000000000     
  -2.3733672817259962E-002   9.8874419865789778E-002   0.0000000000000000     
  -2.4483088217706062E-002  0.10566027512076639        0.0000000000000000     
  -2.5780956357337390E-002   7.9866831294329935E-002   0.0000000000000000     
  -2.6760043749858031E-002   8.6106390905526381E-002   0.0000000000000000     
  -2.7713730242878459E-002   9.2524381449133927E-002   0.0000000000000000     
  -2.8642015836398683E-002   9.9120802925152615E-002   0.0000000000000000     
  -2.9544900530418694E-002  0.10589565533358243        0.0000000000000000     
  -3.0285604341695888E-002   8.0184254871314378E-002   0.0000000000000000     
  -3.1432246813335472E-002   8.6422346253551538E-002   0.0000000000000000     
  -3.2548620399301842E-002   9.2834865402897579E-002   0.0000000000000000     
  -3.3634725099594989E-002   9.9421812319352515E-002   0.0000000000000000     
  -3.4690560914214935E-002  0.10618318700291632        0.0000000000000000     
  -3.4862283788233632E-002   8.0527550915846166E-002   0.0000000000000000     
  -3.6182907816418315E-002   8.6779788441928490E-002   0.0000000000000000     
  -3.7466080089290074E-002   9.3196420819442918E-002   0.0000000000000000     
  -3.8711800606848895E-002   9.9777448048389450E-002   0.0000000000000000     
  -3.9920069369094799E-002  0.10652287012876807        0.0000000000000000     
  -1.9505123976077052E-002  0.10547704636446820        0.0000000000000000     
  -2.0076167276972774E-002  0.11242367219716833        0.0000000000000000     
  -2.0621050889417840E-002  0.11950643523696826        0.0000000000000000     
  -2.1139774813412244E-002  0.12672533548386805        0.0000000000000000     
  -2.1632339048955986E-002  0.13408037293786768        0.0000000000000000     
  -2.4483088217706062E-002  0.10566027512076639        0.0000000000000000     
  -2.5203385362573230E-002  0.11260204550268972        0.0000000000000000     
  -2.5888293793076438E-002  0.11967924179116766        0.0000000000000000     
  -2.6537813509215687E-002  0.12689186398620023        0.0000000000000000     
  -2.7151944510990990E-002  0.13423991208778743        0.0000000000000000     
  -2.9544900530418694E-002  0.10589565533358243        0.0000000000000000     
  -3.0413276104733412E-002  0.11282723960567720        0.0000000000000000     
  -3.1238034339137782E-002  0.11989385667269079        0.0000000000000000     
  -3.2019175233631784E-002  0.12709550653462318        0.0000000000000000     
  -3.2756698788215424E-002  0.13443218919147434        0.0000000000000000     
  -3.4690560914214935E-002  0.10618318700291632        0.0000000000000000     
  -3.5705839503453338E-002  0.11309925450613077        0.0000000000000000     
  -3.6670272527601862E-002  0.12015027988153759        0.0000000000000000     
  -3.7583859986660521E-002  0.12733626312913682        0.0000000000000000     
  -3.8446601880629303E-002  0.13465720424892844        0.0000000000000000     
  -3.9920069369094799E-002  0.10652287012876807        0.0000000000000000     
  -4.1081075558732992E-002  0.11341809020405043        0.0000000000000000     
  -4.2185008358468695E-002  0.12044851141770813        0.0000000000000000     
  -4.3231867768301901E-002  0.12761413376974123        0.0000000000000000     
  -4.4221653788232618E-002  0.13491495726014965        0.0000000000000000     
  -2.1632339048955986E-002  0.13408037293786768        0.0000000000000000     
  -2.2097738478707059E-002  0.14155801999690734        0.0000000000000000     
  -2.2534967985323447E-002  0.14914474905892713        0.0000000000000000     
  -2.2944027568805151E-002  0.15684056012392714        0.0000000000000000     
  -2.3324917229152177E-002  0.16464545319190727        0.0000000000000000     
  -2.7151944510990990E-002  0.13423991208778743        0.0000000000000000     
  -2.7731449297865318E-002  0.14170921675599796        0.0000000000000000     
  -2.8277090369301674E-002  0.14928560865090051        0.0000000000000000     
  -2.8788867725300055E-002  0.15696908777249510        0.0000000000000000     
  -2.9266781365860466E-002  0.16475965412078175        0.0000000000000000     
  -3.2756698788215424E-002  0.13443218919147434        0.0000000000000000     
  -3.3452618543854971E-002  0.14188954867345732        0.0000000000000000     
  -3.4108948041516728E-002  0.14945322901078509        0.0000000000000000     
  -3.4725687281200651E-002  0.15712323020345761        0.0000000000000000     
  -3.5302836262906770E-002  0.16489955225147493        0.0000000000000000     
  -3.8446601880629303E-002  0.13465720424892844        0.0000000000000000     
  -3.9261246216676052E-002  0.14209901574928541        0.0000000000000000     
  -4.0030541001968595E-002  0.14964761013858080        0.0000000000000000     
  -4.0754486236506952E-002  0.15730298741681459        0.0000000000000000     
  -4.1433081920291104E-002  0.16506514758398680        0.0000000000000000     
  -4.4221653788232618E-002  0.13491495726014965        0.0000000000000000     
  -4.5157332316328527E-002  0.14233761798348224        0.0000000000000000     
  -4.6041869250657300E-002  0.14986875203428771        0.0000000000000000     
  -4.6875264591218942E-002  0.15750835941256608        0.0000000000000000     
  -4.7657518338013447E-002  0.16525644011831730        0.0000000000000000     
  -2.3324917229152177E-002  0.16464545319190727        0.0000000000000000     
  -2.3676609679049998E-002  0.17254965633189678        0.0000000000000000     
  -2.3998077631184073E-002  0.18054339761292496        0.0000000000000000     
  -2.4289321085554413E-002  0.18862667703499178        0.0000000000000000     
  -2.4550340042161022E-002  0.19679949459809723        0.0000000000000000     
  -2.9266781365860466E-002  0.16475965412078175        0.0000000000000000     
  -2.9709197122462127E-002  0.17264940734766901        0.0000000000000000     
  -3.0114480826584269E-002  0.18063044710506548        0.0000000000000000     
  -3.0482632478226891E-002  0.18870277339297123        0.0000000000000000     
  -3.0813652077389998E-002  0.19686638621138619        0.0000000000000000     
  -3.5302836262906770E-002  0.16489955225147493        0.0000000000000000     
  -3.5838337692115821E-002  0.17277499093464133        0.0000000000000000     
  -3.6330134274308583E-002  0.18074234203276124        0.0000000000000000     
  -3.6778226009485021E-002  0.18880160554583453        0.0000000000000000     
  -3.7182612897645156E-002  0.19695278147386130        0.0000000000000000     
  -4.1433081920291104E-002  0.16506514758398680        0.0000000000000000     
  -4.2064031388011097E-002  0.17292640709281379        0.0000000000000000     
  -4.2645037974356988E-002  0.18087908239601208        0.0000000000000000     
  -4.3176101679328796E-002  0.18892317349358173        0.0000000000000000     
  -4.3657222502926502E-002  0.19705868038552266        0.0000000000000000     
  -4.7657518338013447E-002  0.16525644011831730        0.0000000000000000     
  -4.8386278210147939E-002  0.17310365582218637        0.0000000000000000     
  -4.9059191926729535E-002  0.18104066819481818        0.0000000000000000     
  -4.9676259487758223E-002  0.18906747723621278        0.0000000000000000     
  -5.0237480893234016E-002  0.19718408294637013        0.0000000000000000     
  -2.4550340042161022E-002  0.19679949459809723        0.0000000000000000     
  -2.4781776560632570E-002  0.20504553771160380        0.0000000000000000     
  -2.4984272700597738E-002  0.21334849378487411        0.0000000000000000     
  -2.5157828462056525E-002  0.22170836281790809        0.0000000000000000     
  -2.5302443845008935E-002  0.23012514481070581        0.0000000000000000     
  -3.0813652077389998E-002  0.19686638621138619        0.0000000000000000     
  -3.1107609254620722E-002  0.20510560936937799        0.0000000000000000     
  -3.1364573640466208E-002  0.21340476667601432        0.0000000000000000     
  -3.1584545234926445E-002  0.22176385813129515        0.0000000000000000     
  -3.1767524038001441E-002  0.23018288373522053        0.0000000000000000     
  -3.7182612897645156E-002  0.19695278147386130        0.0000000000000000     
  -3.7542653656736452E-002  0.20518158774697418        0.0000000000000000     
  -3.7857707004706344E-002  0.21347374229530583        0.0000000000000000     
  -3.8127772941554852E-002  0.22182924511885621        0.0000000000000000     
  -3.8352851467281956E-002  0.23024809621762532        0.0000000000000000     
  -4.3657222502926502E-002  0.19705868038552266        0.0000000000000000     
  -4.4086909766979730E-002  0.20527347284439237        0.0000000000000000     
  -4.4463672793318143E-002  0.21355542064274854        0.0000000000000000     
  -4.4787511581941726E-002  0.22190452378059120        0.0000000000000000     
  -4.5058426132850479E-002  0.23032078225792027        0.0000000000000000     
  -5.0237480893234016E-002  0.19718408294637013        0.0000000000000000     
  -5.0740377585350584E-002  0.20538126466163265        0.0000000000000000     
  -5.1182471006301612E-002  0.21364980171834264        0.0000000000000000     
  -5.1563761156087087E-002  0.22198969411650016        0.0000000000000000     
  -5.1884248034707009E-002  0.23040094185610524        0.0000000000000000     
  -2.5302443845008935E-002  0.23012514481070581        0.0000000000000000     
  -2.5424258196634242E-002  0.23857168772960988        0.0000000000000000     
  -2.5529410864111719E-002  0.24702083954096304        0.0000000000000000     
  -2.5617901847441369E-002  0.25547260024476537        0.0000000000000000     
  -2.5689731146623193E-002  0.26392696984101688        0.0000000000000000     
  -3.1767524038001441E-002  0.23018288373522053        0.0000000000000000     
  -3.1921476188234967E-002  0.23863762423665308        0.0000000000000000     
  -3.2054367824170794E-002  0.24710386038445548        0.0000000000000000     
  -3.2166198945808917E-002  0.25558159217862775        0.0000000000000000     
  -3.2256969553149335E-002  0.26407081961916995        0.0000000000000000     
  -3.8352851467281956E-002  0.23024809621762532        0.0000000000000000     
  -3.8541866448190285E-002  0.23871021151254443        0.0000000000000000     
  -3.8703741750582457E-002  0.24719550692454462        0.0000000000000000     
  -3.8838477374458426E-002  0.25570398245362597        0.0000000000000000     
  -3.8946073319818246E-002  0.26423563809978839        0.0000000000000000     
  -4.5058426132850479E-002  0.23032078225792027        0.0000000000000000     
  -4.5285428976500203E-002  0.23878944955728393        0.0000000000000000     
  -4.5477532643346683E-002  0.24729577916123047        0.0000000000000000     
  -4.5634737133389926E-002  0.25583977106975986        0.0000000000000000     
  -4.5757042446629918E-002  0.26442142528287221        0.0000000000000000     
  -5.1884248034707009E-002  0.23040094185610524        0.0000000000000000     
  -5.2152163773164707E-002  0.23887533837087158        0.0000000000000000     
  -5.2375740502463505E-002  0.24740467709451305        0.0000000000000000     
  -5.2554978222603389E-002  0.25598895802702964        0.0000000000000000     
  -5.2689876933584359E-002  0.26462818116842135        0.0000000000000000     
  -2.5689731146623193E-002  0.26392696984101688        0.0000000000000000     
  -2.5757162905784604E-002  0.27232868225793544        0.0000000000000000     
  -2.5832461269053031E-002  0.28062247142373919        0.0000000000000000     
  -2.5915626236428461E-002  0.28880833733842814        0.0000000000000000     
  -2.6006657807910900E-002  0.29688628000200212        0.0000000000000000     
  -3.2256969553149335E-002  0.26407081961916995        0.0000000000000000     
  -3.2341464255727211E-002  0.27251840883082828        0.0000000000000000     
  -3.2434467663077650E-002  0.28087122593834912        0.0000000000000000     
  -3.2535979775200674E-002  0.28912927094173241        0.0000000000000000     
  -3.2646000592096269E-002  0.29729254384097814        0.0000000000000000     
  -3.8946073319818246E-002  0.26423563809978839        0.0000000000000000     
  -3.9045236753176296E-002  0.27273905435841095        0.0000000000000000     
  -3.9154674841046962E-002  0.28116281172487290        0.0000000000000000     
  -3.9274387583430270E-002  0.28950691019917391        0.0000000000000000     
  -3.9404374980326194E-002  0.29777134978131414        0.0000000000000000     
  -4.5757042446629918E-002  0.26442142528287221        0.0000000000000000     
  -4.5868480398131885E-002  0.27299061884068365        0.0000000000000000     
  -4.5993082802960994E-002  0.28149722878331052        0.0000000000000000     
  -4.6130849661117253E-002  0.28994125511075264        0.0000000000000000     
  -4.6281780972600682E-002  0.29832269782301019        0.0000000000000000     
  -5.2689876933584359E-002  0.26462818116842135        0.0000000000000000     
  -5.2811195190593963E-002  0.27327310227764612        0.0000000000000000     
  -5.2949691548819719E-002  0.28187447711366187        0.0000000000000000     
  -5.3105366008261636E-002  0.29043230567646861        0.0000000000000000     
  -5.3278218568919719E-002  0.29894658796606632        0.0000000000000000     
  -2.8946410182587083E-002   5.7122076812135283E-002   0.0000000000000000     
  -3.0530092455676585E-002   6.2734441657234075E-002   0.0000000000000000     
  -3.2043965480980846E-002   6.8506142289552138E-002   0.0000000000000000     
  -3.3488029258499870E-002   7.4437178709089488E-002   0.0000000000000000     
  -3.4862283788233632E-002   8.0527550915846166E-002   0.0000000000000000     
  -3.2986770275281616E-002   5.7690865199519367E-002   0.0000000000000000     
  -3.4722143897777724E-002   6.3212449870681114E-002   0.0000000000000000     
  -3.6395237258322444E-002   6.8924513186522984E-002   0.0000000000000000     
  -3.8006050356915753E-002   7.4827055147044921E-002   0.0000000000000000     
  -3.9554583193557653E-002   8.0920075752246953E-002   0.0000000000000000     
  -3.7134640662765825E-002   5.8284565028826216E-002   0.0000000000000000     
  -3.9049306806612144E-002   6.3751612856298628E-002   0.0000000000000000     
  -4.0899437253145779E-002   6.9424065578124791E-002   0.0000000000000000     
  -4.2685032002366723E-002   7.5301923194304746E-002   0.0000000000000000     
  -4.4406091054275003E-002   8.1385185704838423E-002   0.0000000000000000     
  -4.1390021345039739E-002   5.8903176300055836E-002   0.0000000000000000     
  -4.3511581182179813E-002   6.4351930614086575E-002   0.0000000000000000     
  -4.5556565465450845E-002   7.0004799464357628E-002   0.0000000000000000     
  -4.7524974194852791E-002   7.5861782850868933E-002   0.0000000000000000     
  -4.9416807370385667E-002   8.1922880773620574E-002   0.0000000000000000     
  -4.5752912322103323E-002   5.9546699013208207E-002   0.0000000000000000     
  -4.8108967024480774E-002   6.5013403144044982E-002   0.0000000000000000     
  -5.0366621895237655E-002   7.0666714845221440E-002   0.0000000000000000     
  -5.2525876934373945E-002   7.6506634116737582E-002   0.0000000000000000     
  -5.4586732141889652E-002   8.2533160958593421E-002   0.0000000000000000     
  -3.4862283788233632E-002   8.0527550915846166E-002   0.0000000000000000     
  -3.6182907816418315E-002   8.6779788441928490E-002   0.0000000000000000     
  -3.7466080089290074E-002   9.3196420819442918E-002   0.0000000000000000     
  -3.8711800606848895E-002   9.9777448048389450E-002   0.0000000000000000     
  -3.9920069369094799E-002  0.10652287012876807        0.0000000000000000     
  -3.9554583193557653E-002   8.0920075752246953E-002   0.0000000000000000     
  -4.1049489585910190E-002   8.7185464356340822E-002   0.0000000000000000     
  -4.2499423351635389E-002   9.3605110313538326E-002   0.0000000000000000     
  -4.3904384490733223E-002  0.10017901362383942        0.0000000000000000     
  -4.5264373003203739E-002  0.10690717428724414        0.0000000000000000     
  -4.4406091054275003E-002   8.1385185704838423E-002   0.0000000000000000     
  -4.6069454948614724E-002   8.7646120882472131E-002   0.0000000000000000     
  -4.7681964225129984E-002   9.4056996499952153E-002   0.0000000000000000     
  -4.9243618883820825E-002  0.10061781255727843        0.0000000000000000     
  -5.0754418924687204E-002  0.10732856905445103        0.0000000000000000     
  -4.9416807370385667E-002   8.1922880773620574E-002   0.0000000000000000     
  -5.1242803904531897E-002   8.8161758020322417E-002   0.0000000000000000     
  -5.3013702709773895E-002   9.4552079378684373E-002   0.0000000000000000     
  -5.4729503786111654E-002  0.10109384484870647        0.0000000000000000     
  -5.6390207133545193E-002  0.10778705443038873        0.0000000000000000     
  -5.4586732141889652E-002   8.2533160958593421E-002   0.0000000000000000     
  -5.6569536453661723E-002   8.8732375769891639E-002   0.0000000000000000     
  -5.8494638805567094E-002   9.5090358949735027E-002   0.0000000000000000     
  -6.0362039197605764E-002  0.10160711049812356        0.0000000000000000     
  -6.2171737629777728E-002  0.10828263041505723        0.0000000000000000     
  -3.9920069369094799E-002  0.10652287012876807        0.0000000000000000     
  -4.1081075558732992E-002  0.11341809020405043        0.0000000000000000     
  -4.2185008358468695E-002  0.12044851141770813        0.0000000000000000     
  -4.3231867768301901E-002  0.12761413376974123        0.0000000000000000     
  -4.4221653788232618E-002  0.13491495726014965        0.0000000000000000     
  -4.5264373003203739E-002  0.10690717428724414        0.0000000000000000     
  -4.6570457816422502E-002  0.11378009393107361        0.0000000000000000     
  -4.7813707857765134E-002  0.12078827418264902        0.0000000000000000     
  -4.8994123127231642E-002  0.12793171504197032        0.0000000000000000     
  -5.0111703624822021E-002  0.13521041650903753        0.0000000000000000     
  -5.0754418924687204E-002  0.10732856905445103        0.0000000000000000     
  -5.2205459822372013E-002  0.11418161291883784        0.0000000000000000     
  -5.3587837051518115E-002  0.12116929107780687        0.0000000000000000     
  -5.4901550612125496E-002  0.12829160353135810        0.0000000000000000     
  -5.6146600504194184E-002  0.13554855027949145        0.0000000000000000     
  -5.6390207133545193E-002  0.10778705443038873        0.0000000000000000     
  -5.7986081576581507E-002  0.11462264716734312        0.0000000000000000     
  -5.9507395939727592E-002  0.12159156210318171        0.0000000000000000     
  -6.0954150222983457E-002  0.12869379923790453        0.0000000000000000     
  -6.2326344426349087E-002  0.13592935857151150        0.0000000000000000     
  -6.2171737629777728E-002  0.10828263041505723        0.0000000000000000     
  -6.3912323079050995E-002  0.11510319667658944        0.0000000000000000     
  -6.5572384522393598E-002  0.12205508725877356        0.0000000000000000     
  -6.7151921959805516E-002  0.12913830216160960        0.0000000000000000     
  -6.8650935391286749E-002  0.13635284138509757        0.0000000000000000     
  -4.4221653788232618E-002  0.13491495726014965        0.0000000000000000     
  -4.5157332316328527E-002  0.14233761798348224        0.0000000000000000     
  -4.6041869250657300E-002  0.14986875203428771        0.0000000000000000     
  -4.6875264591218942E-002  0.15750835941256608        0.0000000000000000     
  -4.7657518338013447E-002  0.16525644011831730        0.0000000000000000     
  -5.0111703624822021E-002  0.13521041650903753        0.0000000000000000     
  -5.1169492005276734E-002  0.14261190063413759        0.0000000000000000     
  -5.2170530923336254E-002  0.15012368946755753        0.0000000000000000     
  -5.3114820379000581E-002  0.15774578300929720        0.0000000000000000     
  -5.4002360372269714E-002  0.16547818125935679        0.0000000000000000     
  -5.6146600504194184E-002  0.13554855027949145        0.0000000000000000     
  -5.7326340445985030E-002  0.14292840895934134        0.0000000000000000     
  -5.8444124155758906E-002  0.15041945720804198        0.0000000000000000     
  -5.9499951633515846E-002  0.15802169502559332        0.0000000000000000     
  -6.0493822879255810E-002  0.16573512241199545        0.0000000000000000     
  -6.2326344426349087E-002  0.13592935857151150        0.0000000000000000     
  -6.3627877638453387E-002  0.14328714295909339        0.0000000000000000     
  -6.4862648947925261E-002  0.15075605525574101        0.0000000000000000     
  -6.6030658354764710E-002  0.15833609546145433        0.0000000000000000     
  -6.7131905858971705E-002  0.16602726357623335        0.0000000000000000     
  -6.8650935391286749E-002  0.13635284138509757        0.0000000000000000     
  -7.0074103582681846E-002  0.14368810263339382        0.0000000000000000     
  -7.1426105299835313E-002  0.15113348361065473        0.0000000000000000     
  -7.2706940542747178E-002  0.15868898431688028        0.0000000000000000     
  -7.3916609311417428E-002  0.16635460475207042        0.0000000000000000     
  -4.7657518338013447E-002  0.16525644011831730        0.0000000000000000     
  -4.8386278210147939E-002  0.17310365582218637        0.0000000000000000     
  -4.9059191926729535E-002  0.18104066819481818        0.0000000000000000     
  -4.9676259487758223E-002  0.18906747723621278        0.0000000000000000     
  -5.0237480893234016E-002  0.19718408294637013        0.0000000000000000     
  -5.4002360372269714E-002  0.16547818125935679        0.0000000000000000     
  -5.4830877253344040E-002  0.17330980445491692        0.0000000000000000     
  -5.5598097372423938E-002  0.18122957283315849        0.0000000000000000     
  -5.6304020729509408E-002  0.18923748639408150        0.0000000000000000     
  -5.6948647324600449E-002  0.19733354513768581        0.0000000000000000     
  -6.0493822879255810E-002  0.16573512241199545        0.0000000000000000     
  -6.1423627612417084E-002  0.17354792032316335        0.0000000000000000     
  -6.2287255552437984E-002  0.18144826971501204        0.0000000000000000     
  -6.3084706699318455E-002  0.18943617058754147        0.0000000000000000     
  -6.3815981053058538E-002  0.19751162294075175        0.0000000000000000     
  -6.7131905858971705E-002  0.16602726357623335        0.0000000000000000     
  -6.8164529287367076E-002  0.17381800342692566        0.0000000000000000     
  -6.9126666466771639E-002  0.18169675884037884        0.0000000000000000     
  -7.0018317397185365E-002  0.18966352981659293        0.0000000000000000     
  -7.0839482078608282E-002  0.19771831635556791        0.0000000000000000     
  -7.3916609311417428E-002  0.16635460475207042        0.0000000000000000     
  -7.5053582278194017E-002  0.17412005376620379        0.0000000000000000     
  -7.6116330115424929E-002  0.18197504020925889        0.0000000000000000     
  -7.7104852823110151E-002  0.18991956408123573        0.0000000000000000     
  -7.8019150401249682E-002  0.19795362538213426        0.0000000000000000     
  -5.0237480893234016E-002  0.19718408294637013        0.0000000000000000     
  -5.0740377585350584E-002  0.20538126466163265        0.0000000000000000     
  -5.1182471006301612E-002  0.21364980171834264        0.0000000000000000     
  -5.1563761156087087E-002  0.22198969411650016        0.0000000000000000     
  -5.1884248034707009E-002  0.23040094185610524        0.0000000000000000     
  -5.6948647324600449E-002  0.19733354513768581        0.0000000000000000     
  -5.7528886576418407E-002  0.20551112375218622        0.0000000000000000     
  -5.8041647903684636E-002  0.21376359692579730        0.0000000000000000     
  -5.8486931306399106E-002  0.22209096465851896        0.0000000000000000     
  -5.8864736784561854E-002  0.23049322695035132        0.0000000000000000     
  -6.3815981053058538E-002  0.19751162294075175        0.0000000000000000     
  -6.4478266204752624E-002  0.20566921066954461        0.0000000000000000     
  -6.5068749745495119E-002  0.21390351766882190        0.0000000000000000     
  -6.5587431675286023E-002  0.22221454393858350        0.0000000000000000     
  -6.6034311994125322E-002  0.23060228947882958        0.0000000000000000     
  -7.0839482078608282E-002  0.19771831635556791        0.0000000000000000     
  -7.1588516470353233E-002  0.20585552541370772        0.0000000000000000     
  -7.2263776531733076E-002  0.21406956394741636        0.0000000000000000     
  -7.2865262262747796E-002  0.22236043195669378        0.0000000000000000     
  -7.3392973663397407E-002  0.23072812944154003        0.0000000000000000     
  -7.8019150401249682E-002  0.19795362538213426        0.0000000000000000     
  -7.8859637373220215E-002  0.20607006798467561        0.0000000000000000     
  -7.9626728262398472E-002  0.21426173576158075        0.0000000000000000     
  -8.0320423068784425E-002  0.22252862871284976        0.0000000000000000     
  -8.0940721792378101E-002  0.23087074683848258        0.0000000000000000     
  -5.1884248034707009E-002  0.23040094185610524        0.0000000000000000     
  -5.2152163773164707E-002  0.23887533837087158        0.0000000000000000     
  -5.2375740502463505E-002  0.24740467709451305        0.0000000000000000     
  -5.2554978222603389E-002  0.25598895802702964        0.0000000000000000     
  -5.2689876933584359E-002  0.26462818116842135        0.0000000000000000     
  -5.8864736784561854E-002  0.23049322695035132        0.0000000000000000     
  -5.9181212438888083E-002  0.23896933830693892        0.0000000000000000     
  -5.9442506370092997E-002  0.24751825323392637        0.0000000000000000     
  -5.9648618578176632E-002  0.25613997173131375        0.0000000000000000     
  -5.9799549063138960E-002  0.26483449379910096        0.0000000000000000     
  -6.6034311994125322E-002  0.23060228947882958        0.0000000000000000     
  -6.6411716574374557E-002  0.23907290971911740        0.0000000000000000     
  -6.6721971288395271E-002  0.24763256008900444        0.0000000000000000     
  -6.6965076136187449E-002  0.25628124058849061        0.0000000000000000     
  -6.7141031117751118E-002  0.26501895121757596        0.0000000000000000     
  -7.3392973663397407E-002  0.23072812944154003        0.0000000000000000     
  -7.3843676179624146E-002  0.23918605260740708        0.0000000000000000     
  -7.4214135257370320E-002  0.24774759765974722        0.0000000000000000     
  -7.4504350896635874E-002  0.25641276459856033        0.0000000000000000     
  -7.4714323097420848E-002  0.26518155342384642        0.0000000000000000     
  -8.0940721792378101E-002  0.23087074683848258        0.0000000000000000     
  -8.1477091254636869E-002  0.23930876697180797        0.0000000000000000     
  -8.1918998277018124E-002  0.24786336594615468        0.0000000000000000     
  -8.2266442859521879E-002  0.25653454376152285        0.0000000000000000     
  -8.2519425002148136E-002  0.26532230041791222        0.0000000000000000     
  -5.2689876933584359E-002  0.26462818116842135        0.0000000000000000     
  -5.2811195190593963E-002  0.27327310227764612        0.0000000000000000     
  -5.2949691548819719E-002  0.28187447711366187        0.0000000000000000     
  -5.3105366008261636E-002  0.29043230567646861        0.0000000000000000     
  -5.3278218568919719E-002  0.29894658796606632        0.0000000000000000     
  -5.9799549063138960E-002  0.26483449379910096        0.0000000000000000     
  -5.9932141404872165E-002  0.27355780285316877        0.0000000000000000     
  -6.0083239183268425E-002  0.28226588230939786        0.0000000000000000     
  -6.0252842398327733E-002  0.29095873216778845        0.0000000000000000     
  -6.0440951050050096E-002  0.29963635242834025        0.0000000000000000     
  -6.7141031117751118E-002  0.26501895121757596        0.0000000000000000     
  -6.7290079315276127E-002  0.27381601875112171        0.0000000000000000     
  -6.7452463810952393E-002  0.28264276996398929        0.0000000000000000     
  -6.7628184604779873E-002  0.29149920485617864        0.0000000000000000     
  -6.7817241696758582E-002  0.30038532342768970        0.0000000000000000     
  -7.4714323097420848E-002  0.26518155342384642        0.0000000000000000     
  -7.4885008921805871E-002  0.27404774997150511        0.0000000000000000     
  -7.5057365431871609E-002  0.28300514007743610        0.0000000000000000     
  -7.5231392627618021E-002  0.29205372374163929        0.0000000000000000     
  -7.5407090509045191E-002  0.30119350096411479        0.0000000000000000     
  -8.2519425002148136E-002  0.26532230041791222        0.0000000000000000     
  -8.2716930224461360E-002  0.27425299651431878        0.0000000000000000     
  -8.2897944046026059E-002  0.28335299264973812        0.0000000000000000     
  -8.3062466466842247E-002  0.29262228882417030        0.0000000000000000     
  -8.3210497486909896E-002  0.30206088503761530        0.0000000000000000     
  -4.5752912322103323E-002   5.9546699013208207E-002   0.0000000000000000     
  -4.8108967024480774E-002   6.5013403144044982E-002   0.0000000000000000     
  -5.0366621895237655E-002   7.0666714845221440E-002   0.0000000000000000     
  -5.2525876934373945E-002   7.6506634116737582E-002   0.0000000000000000     
  -5.4586732141889652E-002   8.2533160958593421E-002   0.0000000000000000     
  -5.0301107678907504E-002   6.0247325951079941E-002   0.0000000000000000     
  -5.2876394233369095E-002   6.5730772652602035E-002   0.0000000000000000     
  -5.5337380418299956E-002   7.1383182623787414E-002   0.0000000000000000     
  -5.7684066233700107E-002   7.7204555864636079E-002   0.0000000000000000     
  -5.9916451679569549E-002   8.3194892375148030E-002   0.0000000000000000     
  -5.5112401500403155E-002   6.1037249896467645E-002   0.0000000000000000     
  -5.7848792708698846E-002   6.6498781346185934E-002   0.0000000000000000     
  -6.0476614910431548E-002   7.2127573703126682E-002   0.0000000000000000     
  -6.2995868105601233E-002   7.7923626967289911E-002   0.0000000000000000     
  -6.5406552294207929E-002   8.3886941138675550E-002   0.0000000000000000     
  -6.0186793786590302E-002   6.1916470849371297E-002   0.0000000000000000     
  -6.3026162450470061E-002   6.7317429224796707E-002   0.0000000000000000     
  -6.5784325371632396E-002   7.2899888083239300E-002   0.0000000000000000     
  -6.8461282550077315E-002   7.8663847424699035E-002   0.0000000000000000     
  -7.1057033985804804E-002   8.4609307249175966E-002   0.0000000000000000     
  -6.5524284537468919E-002   6.2884988809790904E-002   0.0000000000000000     
  -6.8408503458682726E-002   6.8186716288434313E-002   0.0000000000000000     
  -7.1260511801902543E-002   7.3700125764125185E-002   0.0000000000000000     
  -7.4080309567128341E-002   7.9425217236863507E-002   0.0000000000000000     
  -7.6867896754360177E-002   8.5361990706649293E-002   0.0000000000000000     
  -5.4586732141889652E-002   8.2533160958593421E-002   0.0000000000000000     
  -5.6569536453661723E-002   8.8732375769891639E-002   0.0000000000000000     
  -5.8494638805567094E-002   9.5090358949735027E-002   0.0000000000000000     
  -6.0362039197605764E-002  0.10160711049812356        0.0000000000000000     
  -6.2171737629777728E-002  0.10828263041505723        0.0000000000000000     
  -5.9916451679569549E-002   8.3194892375148030E-002   0.0000000000000000     
  -6.2060745049942925E-002   8.9352739767542849E-002   0.0000000000000000     
  -6.4143154638854880E-002   9.5676645654040118E-002   0.0000000000000000     
  -6.6163680446305440E-002  0.10216661003463981        0.0000000000000000     
  -6.8122322472294605E-002  0.10882263290934194        0.0000000000000000     
  -6.5406552294207929E-002   8.3886941138675550E-002   0.0000000000000000     
  -6.7727522147314187E-002   9.0017615649639005E-002   0.0000000000000000     
  -6.9977632335982559E-002   9.6315749932535610E-002   0.0000000000000000     
  -7.2156882860213087E-002  0.10278134398736538        0.0000000000000000     
  -7.4265273720005728E-002  0.10941439781412828        0.0000000000000000     
  -7.1057033985804804E-002   8.4609307249175966E-002   0.0000000000000000     
  -7.3569867745775522E-002   9.0727003416180119E-002   0.0000000000000000     
  -7.5998071896950126E-002   9.7007671785221558E-002   0.0000000000000000     
  -7.8341646439328644E-002  0.10345131235630027        0.0000000000000000     
  -8.0600591372911007E-002  0.11005792512941623        0.0000000000000000     
  -7.6867896754360177E-002   8.5361990706649293E-002   0.0000000000000000     
  -7.9587781845326944E-002   9.1480903067166192E-002   0.0000000000000000     
  -8.2204473321757593E-002   9.7752411212097920E-002   0.0000000000000000     
  -8.4717971183652110E-002  0.10417651514144444        0.0000000000000000     
  -8.7128275431010510E-002  0.11075321485520578        0.0000000000000000     
  -6.2171737629777728E-002  0.10828263041505723        0.0000000000000000     
  -6.3912323079050995E-002  0.11510319667658944        0.0000000000000000     
  -6.5572384522393598E-002  0.12205508725877356        0.0000000000000000     
  -6.7151921959805516E-002  0.12913830216160960        0.0000000000000000     
  -6.8650935391286749E-002  0.13635284138509757        0.0000000000000000     
  -6.8122322472294605E-002  0.10882263290934194        0.0000000000000000     
  -7.0006783930255209E-002  0.11562640990638318        0.0000000000000000     
  -7.1804768033620098E-002  0.12255963665400023        0.0000000000000000     
  -7.3516274782389271E-002  0.12962231315219300        0.0000000000000000     
  -7.5141304176562715E-002  0.13681443940096158        0.0000000000000000     
  -7.4265273720005728E-002  0.10941439781412828        0.0000000000000000     
  -7.6292063730668908E-002  0.11619543531653084        0.0000000000000000     
  -7.8226511707511118E-002  0.12310498039827952        0.0000000000000000     
  -8.0068617650532303E-002  0.13014303305937433        0.0000000000000000     
  -8.1818381559732506E-002  0.13730959329981529        0.0000000000000000     
  -8.0600591372911007E-002  0.11005792512941623        0.0000000000000000     
  -8.2768162480292076E-002  0.11681027290703234        0.0000000000000000     
  -8.4837615544066616E-002  0.12369111849161145        0.0000000000000000     
  -8.6808950564234669E-002  0.13070046188315357        0.0000000000000000     
  -8.8682167540796136E-002  0.13783830308165873        0.0000000000000000     
  -8.7128275431010510E-002  0.11075321485520578        0.0000000000000000     
  -8.9435080179124715E-002  0.11747092267788772        0.0000000000000000     
  -9.1638079543286635E-002  0.12431805093399606        0.0000000000000000     
  -9.3737273523496284E-002  0.13129459962353074        0.0000000000000000     
  -9.5732662119753634E-002  0.13840056874649187        0.0000000000000000     
  -6.8650935391286749E-002  0.13635284138509757        0.0000000000000000     
  -7.0074103582681846E-002  0.14368810263339382        0.0000000000000000     
  -7.1426105299835313E-002  0.15113348361065473        0.0000000000000000     
  -7.2706940542747178E-002  0.15868898431688028        0.0000000000000000     
  -7.3916609311417428E-002  0.16635460475207042        0.0000000000000000     
  -7.5141304176562715E-002  0.13681443940096158        0.0000000000000000     
  -7.6685453959045274E-002  0.14412591798474766        0.0000000000000000     
  -7.8154321872741850E-002  0.15154665148799304        0.0000000000000000     
  -7.9547907917652413E-002  0.15907663991069770        0.0000000000000000     
  -8.0866212093776965E-002  0.16671588325286166        0.0000000000000000     
  -8.1818381559732506E-002  0.13730959329981529        0.0000000000000000     
  -8.3482364447918650E-002  0.14459521901565994        0.0000000000000000     
  -8.5067127327897660E-002  0.15199046810296596        0.0000000000000000     
  -8.6572670199669577E-002  0.15949534056173323        0.0000000000000000     
  -8.7998993063234360E-002  0.16710983639196189        0.0000000000000000     
  -8.8682167540796136E-002  0.13783830308165873        0.0000000000000000     
  -9.0464835049301917E-002  0.14509600572613068        0.0000000000000000     
  -9.2164521665302757E-002  0.15246493345557346        0.0000000000000000     
  -9.3781227388798627E-002  0.15994508626998694        0.0000000000000000     
  -9.5314952219789570E-002  0.16753646416937118        0.0000000000000000     
  -9.5732662119753634E-002  0.13840056874649187        0.0000000000000000     
  -9.7632865763195104E-002  0.14562827811615994        0.0000000000000000     
  -9.9446504884957113E-002  0.15297004754581559        0.0000000000000000     
 -0.10117357948503962       0.16042587703545874        0.0000000000000000     
 -0.10281408956344265       0.16799576658508952        0.0000000000000000     
  -7.3916609311417428E-002  0.16635460475207042        0.0000000000000000     
  -7.5053582278194017E-002  0.17412005376620379        0.0000000000000000     
  -7.6116330115424929E-002  0.18197504020925889        0.0000000000000000     
  -7.7104852823110151E-002  0.18991956408123573        0.0000000000000000     
  -7.8019150401249682E-002  0.19795362538213426        0.0000000000000000     
  -8.0866212093776965E-002  0.16671588325286166        0.0000000000000000     
  -8.2108027266366207E-002  0.17445523279410857        0.0000000000000000     
  -8.3272146300670799E-002  0.18228553981406218        0.0000000000000000     
  -8.4358569196690728E-002  0.19020680431272249        0.0000000000000000     
  -8.5367295954426048E-002  0.19821902629008953        0.0000000000000000     
  -8.7998993063234360E-002  0.16710983639196189        0.0000000000000000     
  -8.9345104933351946E-002  0.17482470196375077        0.0000000000000000     
  -9.0610014824782162E-002  0.18263068364719878        0.0000000000000000     
  -9.1793722737525063E-002  0.19052778144230595        0.0000000000000000     
  -9.2896228671580636E-002  0.19851599534907227        0.0000000000000000     
  -9.5314952219789570E-002  0.16753646416937118        0.0000000000000000     
  -9.6764815279151192E-002  0.17522846127513036        0.0000000000000000     
  -9.8129935687759046E-002  0.18301047170866863        0.0000000000000000     
  -9.9410313445613158E-002  0.19088249546998601        0.0000000000000000     
 -0.10060594855271351       0.19884453255908255        0.0000000000000000     
 -0.10281408956344265       0.16799576658508952        0.0000000000000000     
 -0.10436715830376400       0.17566651072824732        0.0000000000000000     
 -0.10583190888960145       0.18342490399847175        0.0000000000000000     
 -0.10720834132095500       0.19127094639576275        0.0000000000000000     
 -0.10849645559782464       0.19920463792012033        0.0000000000000000     
  -7.8019150401249682E-002  0.19795362538213426        0.0000000000000000     
  -7.8859637373220215E-002  0.20607006798467561        0.0000000000000000     
  -7.9626728262398472E-002  0.21426173576158075        0.0000000000000000     
  -8.0320423068784425E-002  0.22252862871284976        0.0000000000000000     
  -8.0940721792378101E-002  0.23087074683848258        0.0000000000000000     
  -8.5367295954426048E-002  0.19821902629008953        0.0000000000000000     
  -8.6301013310116970E-002  0.20631363114609053        0.0000000000000000     
  -8.7162408000003785E-002  0.21448204428065279        0.0000000000000000     
  -8.7951480024086537E-002  0.22272426569377640        0.0000000000000000     
  -8.8668229382365196E-002  0.23104029538546134        0.0000000000000000     
  -9.2896228671580636E-002  0.19851599534907227        0.0000000000000000     
  -9.3922028677806815E-002  0.20658700766159468        0.0000000000000000     
  -9.4875618807061510E-002  0.21473250067397021        0.0000000000000000     
  -9.5756999059344691E-002  0.22295247438619872        0.0000000000000000     
  -9.6566169434656415E-002  0.23124692879828035        0.0000000000000000     
 -0.10060594855271351       0.19884453255908255        0.0000000000000000     
 -0.10172268347628977       0.20689019753118817        0.0000000000000000     
 -0.10276636068357158       0.21501310494153289        0.0000000000000000     
 -0.10373698017455892       0.22321325479011672        0.0000000000000000     
 -0.10463454194925183       0.23149064707693967        0.0000000000000000     
 -0.10849645559782464       0.19920463792012033        0.0000000000000000     
 -0.10970297770556585       0.20722320075487094        0.0000000000000000     
 -0.11083463362953402       0.21532385708334095        0.0000000000000000     
 -0.11189142336972918       0.22350660690553037        0.0000000000000000     
 -0.11287334692615135       0.23177145022143925        0.0000000000000000     
  -8.0940721792378101E-002  0.23087074683848258        0.0000000000000000     
  -8.1477091254636869E-002  0.23930876697180797        0.0000000000000000     
  -8.1918998277018124E-002  0.24786336594615468        0.0000000000000000     
  -8.2266442859521879E-002  0.25653454376152285        0.0000000000000000     
  -8.2519425002148136E-002  0.26532230041791222        0.0000000000000000     
  -8.8668229382365196E-002  0.23104029538546134        0.0000000000000000     
  -8.9298399031328968E-002  0.23945601304420455        0.0000000000000000     
  -8.9827731927467125E-002  0.24799729835850298        0.0000000000000000     
  -9.0256228070779654E-002  0.25666415132835674        0.0000000000000000     
  -9.0583887461266541E-002  0.26545657195376571        0.0000000000000000     
  -9.6566169434656415E-002  0.23124692879828035        0.0000000000000000     
  -9.7294036741616713E-002  0.23964275105648139        0.0000000000000000     
  -9.7931507788845712E-002  0.24816682830706815        0.0000000000000000     
  -9.8478582576343357E-002  0.25681916055004061        0.0000000000000000     
  -9.8935261104109648E-002  0.26559974778539885        0.0000000000000000     
 -0.10463454194925183       0.23149064707693967        0.0000000000000000     
 -0.10546400438550016       0.23986898100863854        0.0000000000000000     
 -0.10623032586115388       0.24837195579185017        0.0000000000000000     
 -0.10693350637621300       0.25699957142657459        0.0000000000000000     
 -0.10757354593067747       0.26575182791281171        0.0000000000000000     
 -0.11287334692615135       0.23177145022143925        0.0000000000000000     
 -0.11380830196297925       0.24013470290067596        0.0000000000000000     
 -0.11472418614439166       0.24861268081284907        0.0000000000000000     
 -0.11562099947038856       0.25720538395795850        0.0000000000000000     
 -0.11649874194096996       0.26591281233600439        0.0000000000000000     
  -8.2519425002148136E-002  0.26532230041791222        0.0000000000000000     
  -8.2716930224461360E-002  0.27425299651431878        0.0000000000000000     
  -8.2897944046026059E-002  0.28335299264973812        0.0000000000000000     
  -8.3062466466842247E-002  0.29262228882417030        0.0000000000000000     
  -8.3210497486909896E-002  0.30206088503761530        0.0000000000000000     
  -9.0583887461266541E-002  0.26545657195376571        0.0000000000000000     
  -9.0841045126100695E-002  0.27443741864695553        0.0000000000000000     
  -9.1058036092455011E-002  0.28366954982015163        0.0000000000000000     
  -9.1234860360329531E-002  0.29315296547335418        0.0000000000000000     
  -9.1371517929724200E-002  0.30288766560656299        0.0000000000000000     
  -9.8935261104109648E-002  0.26559974778539885        0.0000000000000000     
  -9.9312555529581972E-002  0.27460667663680782        0.0000000000000000     
  -9.9621478010197773E-002  0.28393803372793258        0.0000000000000000     
  -9.9862028545956980E-002  0.29359381905877319        0.0000000000000000     
 -0.10003420713685958       0.30357403262932942        0.0000000000000000     
 -0.10757354593067747       0.26575182791281171        0.0000000000000000     
 -0.10813146143490525       0.27476077048387587        0.0000000000000000     
 -0.10858826979925423       0.28415844437308102        0.0000000000000000     
 -0.10894397102372451       0.29394484958042733        0.0000000000000000     
 -0.10919856510831601       0.30411998610591462        0.0000000000000000     
 -0.11649874194096996       0.26591281233600439        0.0000000000000000     
 -0.11729776284207044       0.27489970018815946        0.0000000000000000     
 -0.11795841145962452       0.28433078175559690        0.0000000000000000     
 -0.11848068779363222       0.29420605703831654        0.0000000000000000     
 -0.11886459184409352       0.30452552603631855        0.0000000000000000     
 </DataArray>
 <DataArray  type="Float64" Name="stress" NumberOfComponents="3" format="ascii">
   5478064412.4684172       -301860305.50282788       -201713351.72140068     
   5485148079.1989412       -72100366.602044821       -57052179.642805927     
   5468082481.1888714        77162023.163419962        43440784.362417467     
   5426867618.4382172        145926863.79361749        99765540.294264406     
   5361503490.9469643        134194155.28848267        111922088.15274256     
   5491644566.6258831       -126335999.66153765        76996893.055449367     
   5370884692.2745457       -9152144.6489322186        156445476.43135199     
   5236066274.7583361        61169899.814101696        207700178.71493256     
   5087189314.0772562        84630133.727589607        230760999.90618214     
   4924253810.2313137        61228557.091511965        225627940.00509945     
   5359762251.5022974        5549565.3954372406        321273567.59379560     
   5156799770.3006659        23849616.789338827        347282070.77200967     
   4949869467.5098820        28923596.219417572        361071019.83894587     
   4738971343.1299515        20771503.685665369        362640414.79460323     
   4524105397.1608753       -606660.81190800667        351990255.63899040     
   5082417467.0976696        93796389.668097734        531116671.89362389     
   4842893313.2773018        26904917.712767363        515457603.37916452     
   4609492059.4435186       -19576887.620646954        503553307.73446852     
   4382213705.5962963       -45649026.332157612        495403784.95954752     
   4161058251.7356501       -51311498.421764374        491009035.05439514     
   4659610213.4119911        138404473.15644264        706526205.95495105     
   4429165321.2044649        13758.121355772018        660972074.25281656     
   4214934050.5592275       -84331551.706095457        635147042.40150416     
   4016916401.4762874       -114631456.32589650        629051110.40100336     
   3835112373.9556422       -90885955.738048792        642684278.25132215     
   5361503490.9469643        134194155.28848267        111922088.15274256     
   5138514157.2445431        51335507.851701736        66101097.235277556     
   4923956477.0288801       -3417627.9625432491        35759025.527288139     
   4717830450.2999897       -30065252.154223919        20895873.028781366     
   4520136077.0578594       -28607364.723358154        21511639.739748910     
   4924253810.2313137        61228557.091511965        225627940.00509945     
   4749417162.8908157        20069227.573654175        198684863.06980798     
   4579284722.5612879       -5409411.9076304436        183680475.37600261     
   4413856489.2427530       -15207361.352277517        180614776.92367762     
   4253132462.9351845       -9324620.7603676319        189487767.71282208     
   4524105397.1608753       -606660.81190800667        351990255.63899040     
   4387306493.4165916       -3101155.2405605316        339576405.13078916     
   4251484350.2075009       -2339781.2185637951        335561013.89607078     
   4116638967.5336027        1677461.2540676594        339944081.93483555     
   3982770345.3948879        8950572.1773226261        352725609.24708450     
   4161058251.7356501       -51311498.421764374        491009035.05439514     
   4052182148.8218775       -18175640.590906143        488775723.41820091     
   3940555359.9675093        5791264.1046321392        491400641.08749551     
   3826177885.1725411        20589215.664845705        498883788.06226826     
   3709049724.4369774        26218214.089742661        511225164.34253436     
   3835112373.9556422       -90885955.738048792        642684278.25132215     
   3744044129.1066642       -25154228.477415323        646282817.93205130     
   3646497751.8413148        18983724.061970472        651199356.95026612     
   3542473242.1595712        41527901.880050898        657433895.30597293     
   3431970600.0614557        42478304.976881981        664986432.99916291     
   4520136077.0578594       -28607364.723358154        21511639.739748910     
   4324927223.1276951       -14949086.541092634        14836331.883397810     
   4128839288.2104368       -4221078.3158195019        12328166.663346710     
   3931872272.3060741        3576659.9524557590        13987144.079599453     
   3734026175.4146214        8444128.2637426853        19813264.132152196     
   4253132462.9351845       -9324620.7603676319        189487767.71282208     
   4066156972.6946340       -4620775.3269591331        180988399.00038218     
   3878892579.1934733       -879940.76225781441        176721651.89338967     
   3691339282.4316964        1897882.9337320328        176687526.39183435     
   3503497082.4093175        3712695.7610347271        180886022.49573666     
   3982770345.3948879        8950572.1773226261        352725609.24708450     
   3804215301.6129365        4756109.6925654411        343090720.35945368     
   3625961532.2968626        1565895.4273955822        337753932.04641831     
   3448009037.4466662       -620070.61817479134        336715244.30797279     
   3270357817.0623512       -1801788.4441549778        339974657.14411855     
   3709049724.4369774        26218214.089742661        511225164.34253436     
   3539102209.8826165        13181568.517525434        501143295.96061736     
   3370046147.5206137        3116430.2531843185        495425007.12243980     
   3201881537.3509727       -3977200.7032868862        494070297.82799405     
   3034608379.3736982       -8099324.3518725634        497079168.07728809     
   3431970600.0614557        42478304.976881981        664986432.99916291     
   3270817697.5036602        20655601.147881269        655146125.80386817     
   3111146424.8647137        3771663.7150464058        649734877.12144208     
   2952956782.1446223       -8173507.3215988874        648752686.95191061     
   2796248769.3433867       -15179911.962070942        652199555.29525924     
   3734026175.4146214        8444128.2637426853        19813264.132152196     
   3571024486.6024446        19118104.614165306        17670372.615263831     
   3405838045.1171546        22509572.054200172        18108405.378736574     
   3238466850.9587650        18618530.583910346        21127362.422544811     
   3068910904.1272607        7444980.2032361031        26727243.746721845     
   3503497082.4093175        3712695.7610347271        180886022.49573666     
   3346746086.8519969        12287089.479012966        175801498.68152022     
   3188590952.5010986        16181020.551728606        173428795.23664430     
   3029031679.3566289        15394488.979198337        173767912.16109866     
   2868068267.4185796        9927494.7614232302        176818849.45489356     
   3270357817.0623512       -1801788.4441549778        339974657.14411855     
   3120231503.5855360        4785219.2890497446        332859217.22536576     
   2969481665.1946921        9293810.6421329975        328586493.76493710     
   2818108301.8898029        11723985.615079403        327156486.76280993     
   2666111413.6708775        12075744.207903862        328569196.21900851     
   3034608379.3736982       -8099324.3518725634        497079168.07728809     
   2891480736.8030705       -3387505.9556980133        488843528.24679565     
   2748510183.1979313        1847942.3254405260        483581500.96359867     
   2605696718.5582886        7607020.4915603399        481293086.22768933     
   2463040342.8841419        13889728.542667747        481978284.03908777     
   2796248769.3433867       -15179911.962070942        652199555.29525924     
   2660493786.5045900       -12231086.255260468        643754431.74580646     
   2525676506.5108275       -6156584.3983523846        638413816.83263552     
   2391796929.3620911        3043593.6086406708        636177710.55573869     
   2258855055.0583854        15369447.765745401        637046112.91511667     
   3068910904.1272607        7444980.2032361031        26727243.746721845     
   2895510447.8824248       -5320351.7862598896        15440745.417532725     
   2724005670.3866487       -11766754.612212777        6807480.0043210331     
   2554396571.6399374       -11894228.274625659        827447.50710982678     
   2386683151.6422720       -5702772.7735428810       -2499352.0741239521     
   2868068267.4185796        9927494.7614232302        176818849.45489356     
   2703234291.5655012        2833873.4746195078        166875385.53814551     
   2539497559.1909256       -602269.55049741268        159559432.69076455     
   2376858070.2948785       -380934.31385684013        154870990.91272891     
   2215315824.8773375        3497879.1844689846        152810060.20406035     
   2666111413.6708775        12075744.207903862        328569196.21900851     
   2509770427.2191863        10631786.326654911        319037258.89907610     
   2353728248.9754739        10183855.805339336        312107110.80186015     
   2197984878.9397254        10731952.643897295        307778751.92739320     
   2042540317.1119361        12276076.842334509        306052182.27565807     
   2463040342.8841419        13889728.542667747        481978284.03908777     
   2315118854.8434896        18073386.769902349        471926365.50031924     
   2166697739.7402682        20591621.455229878        464450514.33765775     
   2017776997.5744574        21444432.598610163        459550730.55110294     
   1868356628.3460717        20631820.200050950        457227014.14065892     
   2258855055.0583854        15369447.765745401        637046112.91511667     
   2119279574.4384136        25158674.804339170        625542705.34187925     
   1978406031.4853117        30621027.399183631        616589643.29813039     
   1836234426.1990945        31756505.550294995        610186926.78385627     
   1692764758.5797479        28565109.257642925        606334555.79906809     
   2386683151.6422720       -5702772.7735428810       -2499352.0741239521     
   2246433854.6954393        5943146.9438995123       -7757068.1259994023     
   2102452765.1321950        5149757.9399499893       -11324607.034052674     
   1954739882.9524860       -8082939.7855377197       -13201968.798281206     
   1803295208.1563525       -33754946.232441664       -13389153.418708054     
   2215315824.8773375        3497879.1844689846        152810060.20406035     
   2077771466.9526296        12586070.482783794        143122469.43615299     
   1937817785.2541270        13643182.535113931        134415668.86892918     
   1795454779.7818084        6669215.3414026499        126689658.50238501     
   1650682450.5357201       -8335831.0982304811        119944438.33652949     
   2042540317.1119361        12276076.842334509        306052182.27565807     
   1905674078.3718078        18198493.770217538        293477597.10813016     
   1767720984.7005322        20498060.927593350        281174415.19814193     
   1628681036.0980992        19174778.314446986        269142636.54571080     
   1488554232.5645111        14228645.930794239        257382261.15083089     
   1868356628.3460717        20631820.200050950        457227014.14065892     
   1730141688.9529996        22780416.806258798        443308314.88992339     
   1592162363.4714282        25714393.117446542        428951631.95360810     
   1454418651.9013352        29433749.133568227        414156965.33170271     
   1316910554.2427313        33938484.854654551        398924315.02422076     
   1692764758.5797479        28565109.257642925        606334555.79906809     
   1551174298.6962099        26331839.590925694        592614622.78155100     
   1411141921.5668085        29292179.104651630        577747319.13530648     
   1272667627.1915245        37446127.798770428        561732644.86034930     
   1135751415.5703731        50793685.673341215        544570599.95667636     
   1803295208.1563525       -33754946.232441664       -13389153.418708054     
   1771841935.2650945       -16545714.445124388       -8010275.8588829199     
   1748659235.8668087        28232095.652099967       -41384019.735464409     
   1733747109.9615214        100578484.05932510       -113510385.04847814     
   1727105557.5492260        200493450.77651155       -224389371.79790875     
   1650682450.5357201       -8335831.0982304811        119944438.33652949     
   1527769697.1084440       -13942861.313787699        135523751.49133903     
   1409138889.5286751       -5276738.7043107152        124767530.74783413     
   1294790027.7964108        17662536.730188072        87675776.106001988     
   1184723111.9116430        54874964.989674509        24248487.565865677     
   1488554232.5645111        14228645.930794239        257382261.15083089     
   1309659391.5672331       -3551428.3978158832        278508610.98088634     
   1131057868.7719860       -20353775.386326432        285716514.45073819     
   952749664.17877972       -36178395.034704745        279005971.56037289     
   774734777.78758395       -51025287.343032122        258376982.30980262     
   1316910554.2427313        33938484.854654551        398924315.02422076     
   1117511018.6414733        14628584.302789629        420944302.60980195     
   914416173.59677219       -16999014.393880427        441462931.37327379     
   707626019.10861301       -60944311.235411793        460480201.31465167     
   497140555.17701083       -117207306.22175619        477996112.43392617     
   1135751415.5703731        50793685.673341215        544570599.95667636     
   951324578.33115625        40597176.788044631        562830826.37805963     
   759213804.00301719        4787544.2730066478        592006781.51543701     
   559419092.58594334       -56635211.871818870        632098465.36882913     
   351940444.07994306       -143671091.64638871        683105877.93821275     
   1727105557.5492260        200493450.77651155       -224389371.79790875     
   1456732419.0763319        184832270.56606370       -96749131.045395300     
   1154051341.5437586        61477960.156695664        60082581.452103324     
   819062324.95155263       -169569480.45142615        246105765.69458070     
   451765369.29967874       -508310051.25849634        461320421.68202531     
   1184723111.9116430        54874964.989674509        24248487.565865677     
   977740803.35623467        12019631.710327268        155597223.80488279     
   732854695.93942285       -157181697.77367598        312792238.94366503     
   450064789.66124761       -452729023.46222991        495833532.98219448     
   129371084.52167243       -874622345.35543895        704721105.92049420     
   774734777.78758395       -51025287.343032122        258376982.30980262     
   621585605.30613101       -123942081.84441105        386905710.93333036     
   424936774.16157675       -341857738.55612576        537935525.61137688     
   184788284.35392731       -704772257.47815120        711466426.34396827     
  -98859864.116832018       -1212685638.6105576        907498413.13107777     
   497140555.17701083       -117207306.22175619        477996112.43392617     
   388266824.92604446       -223052870.09811762        597176330.33993709     
   230297576.21025112       -492550162.19058019        735512441.45525289     
   23232809.029630840       -925699182.49913228        893004445.77987123     
  -232927476.61582831       -1522499931.0237839        1069652343.3138069     
   351940444.07994306       -143671091.64638871        683105877.93821275     
   277784462.21595216       -285312733.05084586        786409082.02470827     
   148937102.08542764       -609258968.67710388        905522986.47527027     
  -34601636.311659276       -1115509798.5252233        1040447591.2899220     
  -272831752.97529894       -1804065222.5951788        1191182896.4686608     
   4659610213.4119911        138404473.15644264        706526205.95495105     
   4429165321.2044649        13758.121355772018        660972074.25281656     
   4214934050.5592275       -84331551.706095457        635147042.40150416     
   4016916401.4762874       -114631456.32589650        629051110.40100336     
   3835112373.9556422       -90885955.738048792        642684278.25132215     
   4157596517.6466575        35630333.774636030        766199061.71082568     
   3996139288.2179561       -12476888.498152256        753955555.85781610     
   3840631102.2343330       -40753965.954008579        754215730.88486302     
   3691071959.6957917       -49200898.592926025        766979586.79196668     
   3547461860.6023359       -37817686.414901972        792247123.57911849     
   3724140290.6819105       -46576564.966989517        858623893.39224136     
   3611026669.8298550       -10593510.738137960        867715672.25161028     
   3493597514.3056655        11004427.916945219        882085713.02027631     
   3371852824.1093502        18217250.998262167        901734015.69822860     
   3245792599.2409000        11044958.505812526        926660580.28547847     
   3359241532.5177531       -108216223.06844163        983800700.99920905     
   3273827466.0401597        5663891.4014008045        1002252423.4342071     
   3173833286.7732253        70943629.906764150        1018756988.8077401     
   3059258994.7169514        87622992.447665930        1033314397.1198030     
   2930104589.8713331        55701979.024084210        1045924648.3703916     
   3062900243.1541762       -149288640.52971780        1141729484.5317168     
   2984541676.8488708        36295317.920458317        1157565809.4056013     
   2881338419.6370158        139063640.01546180        1164229558.2472575     
   2753290471.5186019        159016325.75527668        1161720731.0566809     
   2600397832.4936390        96153375.139921188        1150039327.8338704     
   3835112373.9556422       -90885955.738048792        642684278.25132215     
   3744044129.1066642       -25154228.477415323        646282817.93205130     
   3646497751.8413148        18983724.061970472        651199356.95026612     
   3542473242.1595712        41527901.880050898        657433895.30597293     
   3431970600.0614557        42478304.976881981        664986432.99916291     
   3547461860.6023359       -37817686.414901972        792247123.57911849     
   3450745185.6755943       -7581136.9022059441        786135544.40466416     
   3351234616.8101349        13342432.814761877        782552214.54396129     
   3248930154.0059576        24953022.736011147        781497133.99701524     
   3143831797.2630677        27250632.861539602        782970302.76382434     
   3245792599.2409000        11044958.505812526        926660580.28547847     
   3146885351.3114386        6823687.3930693865        915137160.47977602     
   3048868447.9209232        5570231.4101507664        907352239.96410084     
   2951741889.0693631        7284590.5570702553        903305818.73844898     
   2855505674.7567468        11966764.833819389        902997896.80281496     
   2930104589.8713331        55701979.024084210        1045924648.3703916     
   2832464626.0142069        18060244.408422828        1033287666.1573951     
   2739399245.1736884       -4332880.1518658400        1025599433.2106876     
   2650908447.3497882       -11477394.656762004        1022859949.5302702     
   2566992232.5425024       -3373299.1062840223        1025069215.1161437     
   2600397832.4936390        96153375.139921188        1150039327.8338704     
   2507483009.7838936        26128534.143856645        1140587061.4375150     
   2422827008.5684190       -16366901.871300101        1137293794.2837179     
   2346429828.8472347       -31332932.905492425        1140159526.3724778     
   2278291470.6203294       -18769558.958755851        1149184257.7038012     
   3431970600.0614557        42478304.976881981        664986432.99916291     
   3270817697.5036602        20655601.147881269        655146125.80386817     
   3111146424.8647137        3771663.7150464058        649734877.12144208     
   2952956782.1446223       -8173507.3215988874        648752686.95191061     
   2796248769.3433867       -15179911.962070942        652199555.29525924     
   3143831797.2630677        27250632.861539602        782970302.76382434     
   2996796848.0993896        14318646.929015517        774514861.39274251     
   2850809451.1171799        4878501.6013904810        770438621.52814221     
   2705869606.3164430       -1069803.1213244200        770741583.17003131     
   2561977313.6971798       -3526267.2391345501        775423746.31839883     
   2855505674.7567468        11966764.833819389        902997896.80281496     
   2722446230.3974767        7882762.2208470106        895420897.22900832     
   2590000260.4823022        5843674.4215171337        892173242.15528381     
   2458167765.0112166        5849501.4358254671        893254931.58164847     
   2326948743.9842219        7900243.2637748718        898665965.50810218     
   2566992232.5425024       -3373299.1062840223        1025069215.1161437     
   2447765844.3979392        1347947.0234010220        1017864233.3126581     
   2328718852.9600854        6667182.1754456758        1014938739.0028694     
   2209851258.2289424        12584406.349866629        1016292732.1867670     
   2091163060.2045140        19099619.546663642        1021926212.8643556     
   2278291470.6203294       -18769558.958755851        1149184257.7038012     
   2172755690.1007628       -5285798.6633499861        1141844869.6436996     
   2066965228.5505304        7349024.8631780148        1138735112.0708971     
   1960920085.9696250        19134911.620794058        1139854984.9853914     
   1854620262.3580539        30071861.609519958        1145204488.3871689     
   2796248769.3433867       -15179911.962070942        652199555.29525924     
   2660493786.5045900       -12231086.255260468        643754431.74580646     
   2525676506.5108275       -6156584.3983523846        638413816.83263552     
   2391796929.3620911        3043593.6086406708        636177710.55573869     
   2258855055.0583854        15369447.765745401        637046112.91511667     
   2561977313.6971798       -3526267.2391345501        775423746.31839883     
   2435231387.5807705        1263489.2135040760        767606233.16750515     
   2308824048.1529617        7181867.9614760876        763189424.84081483     
   2182755295.4137416        14228869.004739761        762173321.33834958     
   2057025129.3631184        22404492.343329906        764557922.66009092     
   2326948743.9842219        7900243.2637748718        898665965.50810218     
   2210058149.4128799        14784812.909065604        890777093.90657699     
   2092907025.3737006        20800950.994879842        886585123.31721091     
   1975495371.8666782        25948657.521224737        886090053.73998916     
   1857823188.8918161        30227932.488107085        889291885.17491901     
   2091163060.2045140        19099619.546663642        1021926212.8643556     
   1984974072.0009155        28332884.831392288        1013267013.9630412     
   1877925438.1730409        34700664.701875448        1008600912.2618113     
   1770017158.7208862        38202959.158094645        1007927907.7606664     
   1661249233.6444638        38839768.200074375        1011248000.4596096     
   1854620262.3580539        30071861.609519958        1145204488.3871689     
   1759979155.3448756        41907704.980503142        1135075993.3368828     
   1663879286.5509801        48881009.082435727        1129236791.6746230     
   1566320655.9763775        50991773.915339708        1127686883.4003780     
   1467303263.6210668        48239999.479221523        1130426268.5141671     
   2258855055.0583854        15369447.765745401        637046112.91511667     
   2119279574.4384136        25158674.804339170        625542705.34187925     
   1978406031.4853117        30621027.399183631        616589643.29813039     
   1836234426.1990945        31756505.550294995        610186926.78385627     
   1692764758.5797479        28565109.257642925        606334555.79906809     
   2057025129.3631184        22404492.343329906        764557922.66009092     
   1923292035.1582508        27739505.226121426        753061144.24576640     
   1788930421.0716789        30979451.836571217        744536059.27261388     
   1653940287.1034224        32124332.174730957        738982667.74062383     
   1518321633.2534819        31174146.240620792        736400969.64980602     
   1857823188.8918161        30227932.488107085        889291885.17491901     
   1731136332.2782762        31469886.567938447        878582868.77952135     
   1604490498.2344787        32848582.546894670        871266893.73697448     
   1477885686.7604234        34364020.425001860        867343960.04727149     
   1351321897.8561110        36016200.202247262        866814067.71042609     
   1661249233.6444638        38839768.200074375        1011248000.4596096     
   1542812465.7984941        36349818.829813957        1002107878.9431412     
   1425086262.9737029        36228419.530142426        996782146.69120443     
   1308070625.1700876        38475570.301051915        995270803.70379758     
   1191765552.3876460        43091271.142555535        997573849.98092246     
   1467303263.6210668        48239999.479221523        1130426268.5141671     
   1358320435.7189116        42379302.011766016        1123636174.7366300     
   1250717715.2893600        41118962.786325037        1121081818.1353140     
   1144495102.3324227        44458981.802924514        1122763198.7102058     
   1039652596.8480909        52399359.061543345        1128680316.4613202     
   1692764758.5797479        28565109.257642925        606334555.79906809     
   1551174298.6962099        26331839.590925694        592614622.78155100     
   1411141921.5668085        29292179.104651630        577747319.13530648     
   1272667627.1915245        37446127.798770428        561732644.86034930     
   1135751415.5703731        50793685.673341215        544570599.95667636     
   1518321633.2534819        31174146.240620792        736400969.64980602     
   1375687657.4832525        27883274.714850485        727338987.19245851     
   1233526538.5075688        26168592.504219711        718865732.80308092     
   1091838276.3264186        26030099.608705699        710981206.48166621     
   950622870.93979883        27467796.028294206        703685408.22823036     
   1351321897.8561110        36016200.202247262        866814067.71042609     
   1212604688.1897361        33155811.414637685        861143938.86039186     
   1073275109.3583004        28254192.076818883        857798636.77501714     
   933333161.36179793        21311342.188786685        856778161.45429444     
   792778844.20023453        12327261.750536919        858082512.89822018     
   1191765552.3876460        43091271.142555535        997573849.98092246     
   1061925390.8156528        42149449.690246463        994029477.78534818     
   930387634.11899078        35548977.822392493        994546031.05111074     
   797152282.29767454        23289855.539023459        999123509.77820742     
   662219335.35169315        5372082.8400997818        1007761913.9666470     
   1039652596.8480909        52399359.061543345        1128680316.4613202     
   923649765.36099148        54864189.541671753        1125995603.9673293     
   804864112.78964078        48052949.740957260        1129107915.6313627     
   683295639.13403308        31965639.659388959        1138017251.4534218     
   558944344.39416528        6602259.2969533801        1152723611.4335029     
   1135751415.5703731        50793685.673341215        544570599.95667636     
   951324578.33115625        40597176.788044631        562830826.37805963     
   759213804.00301719        4787544.2730066478        592006781.51543701     
   559419092.58594334       -56635211.871818870        632098465.36882913     
   351940444.07994306       -143671091.64638871        683105877.93821275     
   950622870.93979883        27467796.028294206        703685408.22823036     
   791635430.18884337        11067666.493654251        721511460.25248003     
   623929276.37198651       -34394839.927314937        749422154.85537791     
   447504409.48922557       -108919723.23462585        787417492.03694725     
   262360829.54056695       -212506983.42828149        835497471.79716671     
   792778844.20023453        12327261.750536919        858082512.89822018     
   656856268.11656332       -10988847.979714632        874267151.88552463     
   511180202.99001503       -66816587.852893829        899705347.31414771     
   355750648.82058620       -155155957.86900967        934397099.18408608     
   190567605.60828072       -276006958.02804065        978342407.49533617     
   662219335.35169315        5372082.8400997818        1007761913.9666470     
   546987092.11431539       -25572366.632086366        1021097901.2772094     
   420966583.85708857       -92477699.503778338        1042856358.8917458     
   284157810.58000773       -195343915.77496839        1073037286.8102520     
   136560772.28308254       -334171015.44565004        1111640685.0327432     
   558944344.39416528        6602259.2969533801        1152723611.4335029     
   462027902.18211067       -32682889.463425070        1162003708.4275246     
   353288418.97321683       -111378174.87993479        1178875189.5881717     
   232725894.76750189       -229483596.95250905        1203338054.9154475     
   100340329.56496027       -386999155.68118334        1235392304.4093552     
   351940444.07994306       -143671091.64638871        683105877.93821275     
   277784462.21595216       -285312733.05084586        786409082.02470827     
   148937102.08542764       -609258968.67710388        905522986.47527027     
  -34601636.311659276       -1115509798.5252233        1040447591.2899220     
  -272831752.97529894       -1804065222.5951788        1191182896.4686608     
   262360829.54056695       -212506983.42828149        835497471.79716671     
   223594555.25475290       -352420286.05877483        884948582.58692002     
   140642004.49481353       -639621176.93632758        945412997.58641410     
   13503177.260757327       -1074109656.0609558        1016890716.7956582     
  -157821926.44742024       -1655885723.4326415        1099381740.2146494     
   190567605.60828072       -276006958.02804065        978342407.49533617     
   173484192.74539986       -418303975.73115993        986197377.07951307     
   122719605.20083618       -672871575.70654678        1000268254.7191175     
   38273842.974576831       -1039709757.9542578        1020555040.4141368     
  -79853093.933359921       -1518818522.4742362        1047057734.1645855     
   136560772.28308254       -334171015.44565004        1111640685.0327432     
   127453374.68790334       -482963802.06798971        1090155465.5025156     
   95169904.203473866       -709010164.98781502        1070088757.8733811     
   39710360.829792023       -1012310104.2051526        1051440562.1453381     
  -38925255.433137894       -1392863619.7199895        1034210878.3183790     
   100340329.56496027       -386999155.68118334        1235392304.4093552     
   85502101.082265824       -546399765.06924844        1196822847.8559017     
   57992901.502761483       -748036944.78002965        1154874507.0492172     
   17812730.826420903       -991910694.81359875        1109547281.9892874     
  -35038410.946737707       -1278021015.1698890        1060841172.6761148     
   3062900243.1541762       -149288640.52971780        1141729484.5317168     
   2984541676.8488708        36295317.920458317        1157565809.4056013     
   2881338419.6370158        139063640.01546180        1164229558.2472575     
   2753290471.5186019        159016325.75527668        1161720731.0566809     
   2600397832.4936390        96153375.139921188        1150039327.8338704     
   2814895801.6289883       -29328731.211952686        1305791480.4846158     
   2691180291.6315517        52521856.359758139        1279282212.9527438     
   2554478280.1158271        91084105.537192345        1250994034.9695685     
   2404789767.0818195        86358016.320344687        1220926946.5350890     
   2242114752.5295286        38343588.709214926        1189080947.6493118     
   2498393561.2036047        70081838.435753703        1428272242.4594216     
   2350445866.3166890        54536482.769799352        1373251936.8081052     
   2201369859.2997556        35230086.670461774        1323846386.2864151     
   2051165540.1528118        12162650.137746692        1280055590.8943551     
   1899832908.8758500       -14665826.828356743        1241879550.6319196     
   2113393521.8780217        148943068.41340131        1509171770.4561424     
   1962338400.9042885        42339197.150577664        1439474980.9716947     
   1822013157.1888058       -28498416.584732533        1382786612.1978049     
   1692417790.7315781       -63569772.792521238        1339106664.1344731     
   1573552301.5326078       -62874871.472796559        1308435136.7816989     
   1659895683.6522427        207254958.72098827        1548490064.4747720     
   1526857895.3943427        15929999.502090812        1477951345.4435079     
   1416408173.7829676       -100101404.22839588        1427814712.7037315     
   1328546518.8181190       -140839252.47045529        1398080166.2554438     
   1263272930.4997911       -106283545.22411549        1388747706.0986440     
   2600397832.4936390        96153375.139921188        1150039327.8338704     
   2507483009.7838936        26128534.143856645        1140587061.4375150     
   2422827008.5684190       -16366901.871300101        1137293794.2837179     
   2346429828.8472347       -31332932.905492425        1140159526.3724778     
   2278291470.6203294       -18769558.958755851        1149184257.7038012     
   2242114752.5295286        38343588.709214926        1189080947.6493118     
   2174238378.8587499        5809878.2863110304        1191783310.1138620     
   2110804193.4691787       -11916537.865901589        1198935219.3874032     
   2051812196.3608084       -14835659.747443080        1210536675.4699395     
   1997262387.5336466       -2947487.3582887650        1226587678.3614717     
   1899832908.8758500       -14665826.828356743        1241879550.6319196     
   1852110834.4338584       -11173651.621150017        1252283803.2087853     
   1805014315.0599971       -5596292.8535081148        1265428150.1610813     
   1758543350.7542660        2066249.4745714664        1281312591.4888101     
   1712697941.5166690        11813975.363096595        1299937127.1919661     
   1573552301.5326078       -62874871.472796559        1308435136.7816989     
   1541100376.5092168       -24822055.578542113        1322088540.7222948     
   1505457373.3408895        2593833.1659206748        1336772586.6047559     
   1466623292.0276124        19372794.760552526        1352487274.4290833     
   1424598132.5693974        25514829.205390334        1369232604.1952808     
   1263272930.4997911       -106283545.22411549        1388747706.0986440     
   1241207005.0848231       -35135333.585860014        1401197522.6543822     
   1212133368.3118448        12653840.192358255        1412968528.7184231     
   1176052020.1808419        37083976.110495210        1424060724.2907679     
   1132962960.6918280        38155074.168594778        1434474109.3714180     
   2278291470.6203294       -18769558.958755851        1149184257.7038012     
   2172755690.1007628       -5285798.6633499861        1141844869.6436996     
   2066965228.5505304        7349024.8631780148        1138735112.0708971     
   1960920085.9696250        19134911.620794058        1139854984.9853914     
   1854620262.3580539        30071861.609519958        1145204488.3871689     
   1997262387.5336466       -2947487.3582887650        1226587678.3614717     
   1901492501.5252409        3231175.8962532282        1218200649.1423869     
   1805669337.5783143        9232246.0224059820        1214782007.6078708     
   1709792895.6928859        15055723.020209432        1216331753.7579226     
   1613863175.8689415        20701606.889632463        1222849887.5925398     
   1712697941.5166690        11813975.363096595        1299937127.1919661     
   1628804684.8687749        11320762.031561911        1290737427.0880773     
   1545059553.3745241        11321299.212179363        1287244871.8660328     
   1461462547.0339193        11815586.904950202        1289459461.5258310     
   1378013665.8469663        12803625.109886110        1297381196.0674679     
   1424598132.5693974        25514829.205390334        1369232604.1952808     
   1354692240.1313705        18982959.742593169        1359455203.4807718     
   1285135875.9391463        13616184.432470918        1356123704.8453798     
   1215929039.9927247        9414503.2750225067        1359238108.2891080     
   1147071732.2921100        6377916.2702688575        1368798413.8119507     
   1132962960.6918280        38155074.168594778        1434474109.3714180     
   1079155167.3130286        26217769.029343069        1424353978.3204725     
   1025898305.2721834        16116901.683275402        1421418506.5459216     
   973192374.56930518        7852472.1304275990        1425667694.0477622     
   921037375.20439410        1424480.3708068728        1437101540.8259947     
   1854620262.3580539        30071861.609519958        1145204488.3871689     
   1759979155.3448756        41907704.980503142        1135075993.3368828     
   1663879286.5509801        48881009.082435727        1129236791.6746230     
   1566320655.9763775        50991773.915339708        1127686883.4003780     
   1467303263.6210668        48239999.479221523        1130426268.5141671     
   1613863175.8689415        20701606.889632463        1222849887.5925398     
   1529162192.4113259        28602120.170133531        1213178628.0676827     
   1443779987.0028994        34231893.614601076        1207772477.1415024     
   1357716559.6436515        37590927.222994804        1206631434.8139887     
   1270971910.3335943        38679220.995359659        1209755501.0851588     
   1378013665.8469663        12803625.109886110        1297381196.0674679     
   1303183706.5467713        16748078.480475783        1289074301.8695884     
   1228450065.1256599        21013591.448004484        1285008331.4810278     
   1153812741.5836258        25600164.012459815        1285183284.9017925     
   1079271735.9206753        30507796.173860550        1289599162.1318841     
   1147071732.2921100        6377916.2702688575        1368798413.8119507     
   1082043697.7511997        6345579.9115028977        1362763014.7425907     
   1017889520.9192629        9226102.5826577544        1360944354.6932025     
   954609201.79630578        15019484.283736646        1363342433.6637897     
   892202740.38232410        23725725.014740169        1369957251.6543503     
   921037375.20439410        1424480.3708068728        1437101540.8259947     
   865742166.02461958       -2605375.5367625952        1434244766.6867003     
   812098354.38371587       -1130572.9814240038        1435580546.7780271     
   760105940.28168380        5848888.0368187726        1441108881.0999813     
   709764923.71852577        18333007.517972231        1450829769.6525540     
   1467303263.6210668        48239999.479221523        1130426268.5141671     
   1358320435.7189116        42379302.011766016        1123636174.7366300     
   1250717715.2893600        41118962.786325037        1121081818.1353140     
   1144495102.3324227        44458981.802924514        1122763198.7102058     
   1039652596.8480909        52399359.061543345        1128680316.4613202     
   1270971910.3335943        38679220.995359659        1209755501.0851588     
   1174530026.5991921        36840715.989959598        1205905585.6621976     
   1078757741.6614504        37234206.973424077        1206538614.9315896     
   983655055.52038431        39859693.945811987        1211654588.8933375     
   889221968.17598343        44717176.907077610        1221253507.5474274     
   1079271735.9206753        30507796.173860550        1289599162.1318841     
   996077103.54299533        32903375.787211597        1287860498.2749014     
   912841561.28604078        35162589.136314094        1290851986.6264095     
   829565109.14980769        37285436.221151561        1298573627.1864059     
   746247747.13429677        39271917.041734874        1311025419.9548936     
   892202740.38232410        23725725.014740169        1369957251.6543503     
   822961666.55032599        30567281.403527707        1369500912.5747457     
   752969174.16311026        34904109.274917305        1374021933.2197657     
   682225263.22067702        36736208.628918082        1383520313.5894129     
   610729933.72302783        36063579.465532452        1397996053.6836884     
   709764923.71852577        18333007.517972231        1450829769.6525540     
   655183715.62117743        29832432.838890016        1450826828.5617230     
   599140580.29267538        36458767.389292598        1456048454.7116585     
   541635517.73300421        38212011.169132799        1466494648.1023579     
   482668527.94216895        35092164.178426415        1482165408.7338161     
   1039652596.8480909        52399359.061543345        1128680316.4613202     
   923649765.36099148        54864189.541671753        1125995603.9673293     
   804864112.78964078        48052949.740957260        1129107915.6313627     
   683295639.13403308        31965639.659388959        1138017251.4534218     
   558944344.39416528        6602259.2969533801        1152723611.4335029     
   889221968.17598343        44717176.907077610        1221253507.5474274     
   787566293.73722315        44580050.122836918        1218098336.8190491     
   683376514.82015347        35995908.410894603        1220782868.2616014     
   576652631.42475402        18964751.771179706        1229307101.8750856     
   467394643.55103052       -6513419.7962710559        1243671037.6595192     
   746247747.13429677        39271917.041734874        1311025419.9548936     
   659061166.92364359        36569414.147083610        1307689960.3656960     
   569589198.84060824        26248951.677812874        1310236880.9603488     
   477831842.88517433        8310529.6338865459        1318666181.7388606     
   383789099.05735511       -17245851.984657720        1332977862.7012219     
   610729933.72302783        36063579.465532452        1397996053.6836884     
   538134384.92023909        30832281.614377081        1394770474.6072650     
   463502164.85099536        18812079.541701734        1397469953.7276096     
   386833273.51529902        2973.2475148886442        1406094491.0447254     
   308127710.91314089       -25595037.268202648        1420644086.5586240     
   482668527.94216895        35092164.178426415        1482165408.7338161     
   424785947.72700930        27368652.524709553        1479339879.5437601     
   365115412.85133052        13685292.002601624        1482482086.5633898     
   303656923.31511128       -5957917.3879788071        1491592029.7927072     
   240410479.11838385       -31560975.646917120        1506669709.2317090     
   558944344.39416528        6602259.2969533801        1152723611.4335029     
   462027902.18211067       -32682889.463425070        1162003708.4275246     
   353288418.97321683       -111378174.87993479        1178875189.5881717     
   232725894.76750189       -229483596.95250905        1203338054.9154475     
   100340329.56496027       -386999155.68118334        1235392304.4093552     
   467394643.55103052       -6513419.7962710559        1243671037.6595192     
   389874411.93102694       -41559460.339409992        1242350613.6279328     
   302302001.81010908       -110112762.55225773        1247380711.6811717     
   204677413.18830997       -212173326.43471235        1258761331.8192251     
   97000646.065604374       -347741151.98686099        1276492474.0420918     
   383789099.05735511       -17245851.984657720        1332977862.7012219     
   322119757.79565054       -49116380.380692676        1323122923.8892877     
   252169100.52897090       -108591295.45998232        1318377645.0803676     
   173937127.25732964       -195670597.22247863        1318742026.2744501     
   87423837.980709687       -310354285.66823024        1324216067.4715331     
   308127710.91314089       -25595037.268202648        1420644086.5586240     
   258763939.77599663       -55353649.587246999        1404320639.2115901     
   202889715.12980422       -106813773.60311589        1391865989.7857516     
   140505036.97457790       -179975409.31576312        1383280138.2811108     
   71609905.310307175       -274838556.72523022        1378563084.6976638     
   240410479.11838385       -31560975.646917120        1506669709.2317090     
   199806957.87205046       -60271267.959098950        1485943759.5948279     
   154463845.61260125       -104780196.98166698        1467845745.7973266     
   104381142.34004584       -165087762.71459165        1452375667.8392153     
   49558848.054370165       -241193965.15791720        1439533525.7204890     
   100340329.56496027       -386999155.68118334        1235392304.4093552     
   85502101.082265824       -546399765.06924844        1196822847.8559017     
   57992901.502761483       -748036944.78002965        1154874507.0492172     
   17812730.826420903       -991910694.81359875        1109547281.9892874     
  -35038410.946737707       -1278021015.1698890        1060841172.6761148     
   97000646.065604374       -347741151.98686099        1276492474.0420918     
   79992243.225344419       -488688329.41066647        1222096638.6983440     
   51554791.749897212       -667732335.61844063        1165151838.4179349     
   11688291.639250696       -884873170.61020684        1105658073.2008936     
  -39607257.106584191       -1140110834.3859286        1043615343.0472165     
   87423837.980709687       -310354285.66823024        1324216067.4715331     
   70616458.830307662       -432136671.71353900        1255442762.8760321     
   43621953.506343693       -587876145.00406396        1184950412.6604884     
   6440322.0088127255       -777572705.53979826        1112739016.8248999     
  -40928435.662268996       -1001226353.3207202        1038808575.3692656     
   71609905.310307175       -274838556.72523022        1378563084.6976638     
   57374747.897176251       -376744791.97783667        1296861220.3889892     
   34194386.772117317       -508468372.93687290        1214270229.7768700     
   2068821.9351316988       -670009299.60234118        1130790112.8613112     
  -39001946.613793552       -861367571.97426343        1046420869.6422969     
   49558848.054370165       -241193965.15791720        1439533525.7204890     
   40267110.425946757       -322512690.20354378        1346352011.2372072     
   23272091.547210097       -429509019.41688955        1253111289.7670813     
  -1426208.5818310976       -562182952.79790604        1159811361.3101113     
  -33827789.961160898       -720534490.34655952        1066452225.8662767     
   1659895683.6522427        207254958.72098827        1548490064.4747720     
   1526857895.3943427        15929999.502090812        1477951345.4435079     
   1416408173.7829676       -100101404.22839588        1427814712.7037315     
   1328546518.8181190       -140839252.47045529        1398080166.2554438     
   1263272930.4997911       -106283545.22411549        1388747706.0986440     
   1160255742.4210300        130041413.17670223        1488162152.7826610     
   1088610930.7317097       -5012247.6144802570        1457155244.8208654     
   1033907169.0544021       -83595741.698957801        1439985932.9062438     
   996144457.38910460       -105709069.07673323        1436654217.0388043     
   975322795.73582113       -71352229.747794569        1447160097.2185411     
   717059814.92546535        69761071.753110468        1445687336.2262471     
   688052293.39240885       -14647996.534053415        1447624053.2603183     
   670338805.23685253       -61410286.896222144        1456833876.0972612     
   663919350.45879602       -70525799.333389550        1473316804.7370689     
   668793929.05823672       -41994533.845567971        1497072839.1797450     
   330307901.16554856        26413934.450212300        1421065614.8055353     
   325181983.37644285       -12977247.256623566        1449357770.7618797     
   325703082.33032459       -33545039.820171431        1478358542.2767804     
   331871198.02719033       -35289443.240438312        1508067929.3502386     
   343686330.46704262       -18210457.517417595        1538485931.9822526     
   1.1412798362042553        1.2680101931820085        1414296988.5205226     
  0.68380896183534956       0.21780256170040549        1462356397.3255372     
  0.33481125381309151      -0.47082715473631376        1504559931.4447999     
   9.4287421277188310E-002 -0.79787728621851761        1540907590.8783119     
  -3.7765395206661390E-002 -0.76335805808326673        1571399375.6260676     
   1263272930.4997911       -106283545.22411549        1388747706.0986440     
   1241207005.0848231       -35135333.585860014        1401197522.6543822     
   1212133368.3118448        12653840.192358255        1412968528.7184231     
   1176052020.1808419        37083976.110495210        1424060724.2907679     
   1132962960.6918280        38155074.168594778        1434474109.3714180     
   975322795.73582113       -71352229.747794569        1447160097.2185411     
   948374309.51179075       -21110783.613519490        1447166873.8426840     
   916170039.76579762        11611384.114214659        1448921283.1447783     
   878709986.49784327        26814273.435411513        1452423325.1248229     
   835994149.70792377        24497884.350056738        1457672999.7828181     
   668793929.05823672       -41994533.845567971        1497072839.1797450     
   643895576.79556489       -10580044.784143656        1486680491.6810200     
   615493368.84698761        9154925.3242620826        1480462220.0298941     
   583587305.21249378        17210376.479612589        1478418024.2263651     
   548177385.89209223        13586308.681937128        1480547904.2704375     
   343686330.46704262       -18210457.517417595        1538485931.9822526     
   327770806.93614972       -3543117.0977229476        1519738376.1693907     
   310103355.55540407        5284463.8224641532        1507591339.3737736     
   290683976.32479727        8272285.2431145459        1502044821.5954032     
   269512669.24433392        5420347.1642412245        1503098822.8342764     
  -3.7765395206661390E-002 -0.76335805808326673        1571399375.6260676     
  -6.6456913232555342E-002 -0.55425966014623884        1546340527.3077931     
 -0.10894623115741542      -0.39115462242848825        1530308641.1764131     
 -0.16524748602442607      -0.27408902757321107        1523303717.2319250     
 -0.23535157339477270      -0.20303287439572049        1525325755.4743335     
   1132962960.6918280        38155074.168594778        1434474109.3714180     
   1079155167.3130286        26217769.029343069        1424353978.3204725     
   1025898305.2721834        16116901.683275402        1421418506.5459216     
   973192374.56930518        7852472.1304275990        1425667694.0477622     
   921037375.20439410        1424480.3708068728        1437101540.8259947     
   835994149.70792377        24497884.350056738        1457672999.7828181     
   800685115.38781667        17058948.725722104        1450729699.7316813     
   765789279.56993401        10997341.442138314        1449793469.7920096     
   731306642.25427914        6313062.4993149340        1454864309.9638076     
   697237203.44085574        3006111.8972602487        1465942220.2470667     
   548177385.89209223        13586308.681937128        1480547904.2704375     
   528002570.15945810        9636380.4311488867        1476620746.9107533     
   508103220.09331560        6604671.0686663389        1477523070.4976103     
   488479335.69367480        4491180.5945218503        1483254875.0310063     
   469130916.96052790        3295909.0086900890        1493816160.5109456     
   269512669.24433392        5420347.1642412245        1503098822.8342764     
   261107531.62795547        3950064.1456298977        1502027119.8576856     
   252840126.84234351        2938890.5629069656        1504607308.6627147     
   244710454.88749063        2386826.4160482883        1510839389.2493577     
   236718515.76340616        2293871.7050817460        1520723361.6176152     
 -0.23535157339477270      -0.20303287439572049        1525325755.4743335     
 -0.20668654516824375      -0.13081758661674034        1526948818.5724874     
 -0.18299469082906836       -7.5178851239548247E-002   1531046184.2873337     
 -0.16426573928923710       -3.6082778248808053E-002   1537617852.6188662     
 -0.15051202042945613       -1.3572201970349640E-002   1546663823.5670900     
   921037375.20439410        1424480.3708068728        1437101540.8259947     
   865742166.02461958       -2605375.5367625952        1434244766.6867003     
   812098354.38371587       -1130572.9814240038        1435580546.7780271     
   760105940.28168380        5848888.0368187726        1441108881.0999813     
   709764923.71852577        18333007.517972231        1450829769.6525540     
   697237203.44085574        3006111.8972602487        1465942220.2470667     
   653605695.92376518       -664310.22071415186        1463516119.3518660     
   611212736.56059802       -206238.49227589369        1465786596.1689713     
   570058325.35135901        4380327.0825859010        1472753650.6983769     
   530142462.29604721        13095386.503874451        1484417282.9400892     
   469130916.96052790        3295909.0086900890        1493816160.5109456     
   438603178.19663209        416940.80745232105        1491339075.2440693     
   408901138.20171583        290301.83614623547        1494062591.1711752     
   380024796.97577876        2915992.0947697312        1501986708.2922657     
   351974154.51882517        8294011.5833403021        1515111426.6073444     
   236718515.76340616        2293871.7050817460        1520723361.6176152     
   220734612.84321690        638377.54772666097        1517713634.3632984     
   205163559.30706257        359048.00382207334        1520408531.7846415     
   190005355.15494692        1455883.0733781010        1528808053.8816504     
   175260000.38686904        3928882.7563958988        1542912200.6543224     
 -0.15051202042945613       -1.3572201970349640E-002   1546663823.5670900     
 -0.13647270127168523        1.3533130660059456E-004   1542639796.7095575     
 -0.12334872134689545        1.0793815475118235E-002   1544824418.0093675     
 -0.11113580294137243        1.8413693189270726E-002   1553217687.4665215     
  -9.9828661820527770E-002   2.3015701066609384E-002   1567819605.0810213     
   709764923.71852577        18333007.517972231        1450829769.6525540     
   655183715.62117743        29832432.838890016        1450826828.5617230     
   599140580.29267538        36458767.389292598        1456048454.7116585     
   541635517.73300421        38212011.169132799        1466494648.1023579     
   482668527.94216895        35092164.178426415        1482165408.7338161     
   530142462.29604721        13095386.503874451        1484417282.9400892     
   488445113.28603011        21491522.613451868        1483519746.5861504     
   445651318.85267133        26232840.645224899        1488024447.4920125     
   401761078.99595827        27319340.599150404        1497931385.6576717     
   356774393.71590018        24751022.475257576        1513240561.0831299     
   351974154.51882517        8294011.5833403021        1515111426.6073444     
   323668293.22195339        13739147.069333240        1513745690.4327509     
   294631468.30954707        16747737.170214489        1517959861.5369911     
   264863679.78160754        17319781.885983199        1527753939.9200609     
   234364927.63813651        15455281.216646954        1543127925.5819671     
   175260000.38686904        3928882.7563958988        1542912200.6543224     
   160853255.42894727        6575306.2065299526        1541504660.1015265     
   146081028.66330627        8003456.9642691240        1545854696.8465891     
   130943320.08995232        8213335.0296313092        1555962310.8895245     
   115440129.70887178        7204940.4025726914        1571827502.2303174     
  -9.9828661820527770E-002   2.3015701066609384E-002   1567819605.0810213     
  -9.2984136873713694E-002   2.5055735874358109E-002   1566796655.5924668     
  -8.6050580580501773E-002   2.7393929615547034E-002   1571708953.4208143     
  -7.9013718644861147E-002   3.0075781608774631E-002   1582556498.5660627     
  -7.1884897302098405E-002   3.3064164959075930E-002   1599339291.0282080     
   482668527.94216895        35092164.178426415        1482165408.7338161     
   424785947.72700930        27368652.524709553        1479339879.5437601     
   365115412.85133052        13685292.002601624        1482482086.5633898     
   303656923.31511128       -5957917.3879788071        1491592029.7927072     
   240410479.11838385       -31560975.646917120        1506669709.2317090     
   356774393.71590018        24751022.475257576        1513240561.0831299     
   314701523.77387512        19360108.301023185        1509653237.7537484     
   271287687.83644098        9499307.4754262120        1511721202.0833616     
   226532885.90361464       -4831380.0014778674        1519444454.0719798     
   180437117.97538528       -23631954.129726872        1532822993.7195885     
   234364927.63813651        15455281.216646954        1543127925.5819671     
   207209057.82441115        12129151.478417836        1539300294.8892422     
   179159210.68041164        5823097.3059421554        1540815503.3048186     
   150215386.20613688       -3462881.3007845953        1547673550.8287077     
   120377584.40158653       -15728784.341763355        1559874437.4609056     
   115440129.70887178        7204940.4025726914        1571827502.2303174     
   102308549.87863094        5675782.0569409542        1568281050.9502277     
   88729981.383230746        2656661.4941126406        1569764990.2277510     
   74704424.222677901       -1852421.2858923525        1576279320.0628960     
   60231878.396979235       -7851466.2830490656        1587824040.4556594     
  -7.1884897302098405E-002   3.3064164959075930E-002   1599339291.0282080     
  -6.3481637529090112E-002   3.6537714246106801E-002   1596595505.9367213     
  -5.5109351148430914E-002   3.9908712781364430E-002   1598569662.8521659     
  -4.6755067766131198E-002   4.3219354377395269E-002   1605261761.7745399     
  -3.8432627044208093E-002   4.6423853772170745E-002   1616671802.7038465     
   240410479.11838385       -31560975.646917120        1506669709.2317090     
   199806957.87205046       -60271267.959098950        1485943759.5948279     
   154463845.61260125       -104780196.98166698        1467845745.7973266     
   104381142.34004584       -165087762.71459165        1452375667.8392153     
   49558848.054370165       -241193965.15791720        1439533525.7204890     
   180437117.97538528       -23631954.129726872        1532822993.7195885     
   149024332.64077023       -45452716.683585443        1507340568.0862577     
   114056854.04636475       -79122456.770081490        1484710111.9860153     
   75534682.192176640       -124641174.38918355        1464931625.4188700     
   33457817.078189887       -182008869.54095054        1448005108.3848166     
   120377584.40158653       -15728784.341763355        1559874437.4609056     
   98795631.246431753       -30467988.256977737        1531017916.5433278     
   74843882.584808379       -53106510.527085312        1505237398.8525538     
   48522338.416720822       -83644351.152071416        1482532884.3885825     
   19830998.742174022       -122081510.13192794        1462904373.1514151     
   60231878.396979235       -7851466.2830490656        1587824040.4556594     
   49120853.689023048       -15317082.679303605        1556975804.9660497     
   36824931.227928847       -26732358.252686083        1529427606.3969562     
   23344111.013690732       -42097293.003214926        1505179444.7483718     
   8678393.0463170931       -61411886.930860966        1484231320.0203104     
  -3.8432627044208093E-002   4.6423853772170745E-002   1616671802.7038465     
  -3.1441241551691534E-002   4.9473840775054088E-002   1585214233.3544176     
  -2.4272754136304468E-002   5.3114861410229482E-002   1557280734.6192136     
  -1.6916733581716647E-002   5.7379604730626636E-002   1532871306.4982324     
  -9.3805000397387782E-003   6.2247139677161792E-002   1511985948.9914670     
   49558848.054370165       -241193965.15791720        1439533525.7204890     
   40267110.425946757       -322512690.20354378        1346352011.2372072     
   23272091.547210097       -429509019.41688955        1253111289.7670813     
  -1426208.5818310976       -562182952.79790604        1159811361.3101113     
  -33827789.961160898       -720534490.34655952        1066452225.8662767     
   33457817.078189887       -182008869.54095054        1448005108.3848166     
   29474204.905760273       -242102356.00941330        1347477529.7604003     
   19713131.795833856       -321454045.60286540        1246194199.5711806     
   4174597.7484312057       -420063938.32124245        1144155117.8171475     
  -17141397.236455798       -537932034.16456187        1041360284.4983220     
   19830998.742174022       -122081510.13192794        1462904373.1514151     
   19165384.660133481       -161546796.23293158        1357277520.7508295     
   14648129.953431457       -213850884.41614082        1250198372.2074773     
   6279234.6220625937       -278993774.68157440        1141666927.5213656     
  -5941301.3339734226       -356975467.02923101        1031683186.6924729     
   8678393.0463170931       -61411886.930860966        1484231320.0203104     
   9340649.6890788339       -80846010.874056593        1375751984.2084951     
   8077086.0199938267       -106699535.85674433        1265123807.6759622     
   4887702.0390638411       -138972461.87891218        1152346790.4227035     
  -227502.25371097773       -177664788.94056618        1037420932.4487101     
  -9.3805000397387782E-003   6.2247139677161792E-002   1511985948.9914670     
  -7.4076276248533669E-003   6.7195516550256532E-002   1402900920.1333978     
  -4.4646520912529040E-003   7.5377570485734763E-002   1290970505.9766293     
  -5.5280871455545832E-004   8.6789183898202948E-002   1176194706.5211914     
   4.3278567542901665E-003  0.10143159206327917        1058573521.7670656     
   1.1412798362042553        1.2680101931820085        1414296988.5205226     
  0.68380896183534956       0.21780256170040549        1462356397.3255372     
  0.33481125381309151      -0.47082715473631376        1504559931.4447999     
   9.4287421277188310E-002 -0.79787728621851761        1540907590.8783119     
  -3.7765395206661390E-002 -0.76335805808326673        1571399375.6260676     
  -330307899.46810144       -26413933.279697970        1421065614.4339759     
  -325181982.34202254        12977247.049660951        1449357770.4827828     
  -325703081.80908716        33545038.735210836        1478358542.1170974     
  -331871197.86929220        35289441.776958436        1508067929.3369179     
  -343686330.52264267        18210456.174888134        1538485932.1422429     
  -717059814.19875968       -69761072.063789189        1445687335.7712548     
  -688052292.99982178        14647995.591924042        1447624052.9119718     
  -670338805.09563851        61410285.598451734        1456833875.9094529     
  -663919350.48621416        70525797.955783248        1473316804.7636981     
  -668793929.17154539        41994532.663928360        1497072839.4747138     
  -1160255743.0506968       -130041415.08426327        1488162152.5323567     
  -1088610931.2895844        5012245.8446005583        1457155244.6130974     
  -1033907169.5248426        83595740.118892312        1439985932.8218629     
  -996144457.75647318        105709067.73861277        1436654217.1586559     
  -975322795.98447466        71352228.703759789        1447160097.6234717     
  -1659895686.0239108       -207254962.34112215        1548490064.7172856     
  -1526857897.2113123       -15930002.192315757        1477951345.5861669     
  -1416408175.0966966        100101402.29654551        1427814712.8543341     
  -1328546519.6800706        140839251.12543833        1398080166.5217857     
  -1263272930.9614305        106283544.29438335        1388747706.5885227     
  -3.7765395206661390E-002 -0.76335805808326673        1571399375.6260676     
  -6.6456913232555342E-002 -0.55425966014623884        1546340527.3077931     
 -0.10894623115741542      -0.39115462242848825        1530308641.1764131     
 -0.16524748602442607      -0.27408902757321107        1523303717.2319250     
 -0.23535157339477270      -0.20303287439572049        1525325755.4743335     
  -343686330.52264267        18210456.174888134        1538485932.1422429     
  -327770807.05615610        3543116.1123263091        1519738376.2766776     
  -310103355.76341218       -5284464.5293776989        1507591339.4370477     
  -290683976.64441031       -8272285.7502211779        1502044821.6233521     
  -269512669.69915599       -5420347.5502232313        1503098822.8355896     
  -668793929.17154539        41994532.663928360        1497072839.4747138     
  -643895576.95547724        10580043.906027317        1486680491.8752601     
  -615493369.07309043       -9154925.9641473889        1480462220.1407824     
  -583587305.52438796       -17210376.946600944        1478418024.2712812     
  -548177386.30936718       -13586309.041328967        1480547904.2667537     
  -975322795.98447466        71352228.703759789        1447160097.6234717     
  -948374309.76441991        21110782.826844454        1447166874.1035371     
  -916170040.03798950       -11611384.695488572        1448921283.2876177     
  -878709986.80517817       -26814273.863219649        1452423325.1757154     
  -835994150.06599271       -24497884.676365644        1457672999.7678330     
  -1263272930.9614305        106283544.29438335        1388747706.5885227     
  -1241207005.4829876        35135332.874763966        1401197522.9615078     
  -1212133368.6581085       -12653840.723403990        1412968528.8775518     
  -1176052020.4867835       -37083976.500083208        1424060724.3366551     
  -1132962960.9690249       -38155074.455317676        1434474109.3388159     
 -0.23535157339477270      -0.20303287439572049        1525325755.4743335     
 -0.20668654516824375      -0.13081758661674034        1526948818.5724874     
 -0.18299469082906836       -7.5178851239548247E-002   1531046184.2873337     
 -0.16426573928923710       -3.6082778248808053E-002   1537617852.6188662     
 -0.15051202042945613       -1.3572201970349640E-002   1546663823.5670900     
  -269512669.69915599       -5420347.5502232313        1503098822.8355896     
  -261107532.03171518       -3950064.4027082175        1502027119.8554347     
  -252840127.20315370       -2938890.7181245387        1504607308.6556563     
  -244710455.21347138       -2386826.4964707047        1510839389.2362518     
  -236718516.06267112       -2293871.7377569228        1520723361.5972281     
  -548177386.30936718       -13586309.041328967        1480547904.2667537     
  -528002570.53547406       -9636380.6782179177        1476620746.9020610     
  -508103220.43436766       -6604671.2243933976        1477523070.4814284     
  -488479336.00605232       -4491180.6798745394        1483254875.0048635     
  -469130917.25052476       -3295909.0446466506        1493816160.4723616     
  -835994150.06599271       -24497884.676365644        1457672999.7678330     
  -800685115.71796465       -17058948.957343787        1450729699.7123699     
  -765789279.87663436       -10997341.593979746        1449793469.7646565     
  -731306642.54200435       -6313062.5862847269        1454864309.9246974     
  -697237203.71407306       -3006111.9342497885        1465942220.1924930     
  -1132962960.9690249       -38155074.455317676        1434474109.3388159     
  -1079155167.5791874       -26217769.240092695        1424353978.2863574     
  -1025898305.5299535       -16116901.826880097        1421418506.5053368     
  -973192374.82133412       -7852472.2157152891        1425667693.9957583     
  -921037375.45331800       -1424480.4065618515        1437101540.7576160     
 -0.15051202042945613       -1.3572201970349640E-002   1546663823.5670900     
 -0.13647270127168523        1.3533130660059456E-004   1542639796.7095575     
 -0.12334872134689545        1.0793815475118235E-002   1544824418.0093675     
 -0.11113580294137243        1.8413693189270726E-002   1553217687.4665215     
  -9.9828661820527770E-002   2.3015701066609384E-002   1567819605.0810213     
  -236718516.06267112       -2293871.7377569228        1520723361.5972281     
  -220734613.11353084       -638377.54824945331        1517713634.3427405     
  -205163559.55104578       -359047.98092557490        1520408531.7634950     
  -190005355.37521178       -1455883.0357713327        1528808053.8594911     
  -175260000.58603290       -3928882.7128010467        1542912200.6307302     
  -469130917.25052476       -3295909.0446466506        1493816160.4723616     
  -438603178.45799953       -416940.80684909225        1491339075.2042165     
  -408901138.43787253       -290301.81037724018        1494062591.1292162     
  -380024797.19014019       -2915992.0552187562        1501986708.2473533     
  -351974154.71480769       -8294011.5413989723        1515111426.5586302     
  -697237203.71407306       -3006111.9342497885        1465942220.1924930     
  -653605696.16988158        664310.22432646155        1463516119.2939909     
  -611212736.78383470        206238.52242052555        1465786596.1065290     
  -570058325.55592096       -4380327.0399285257        1472753650.6301086     
  -530142462.48615479       -13095386.462770253        1484417282.8647232     
  -921037375.45331800       -1424480.4065618515        1437101540.7576160     
  -865742166.24918032        2605375.5452669859        1434244766.6120589     
  -812098354.58892179        1130573.0175024569        1435580546.6954379     
  -760105940.47254777       -5848887.9898784161        1441108881.0077531     
  -709764923.90006697       -18333007.476904362        1450829769.5490088     
  -9.9828661820527770E-002   2.3015701066609384E-002   1567819605.0810213     
  -9.2984136873713694E-002   2.5055735874358109E-002   1566796655.5924668     
  -8.6050580580501773E-002   2.7393929615547034E-002   1571708953.4208143     
  -7.9013718644861147E-002   3.0075781608774631E-002   1582556498.5660627     
  -7.1884897302098405E-002   3.3064164959075930E-002   1599339291.0282080     
  -175260000.58603290       -3928882.7128010467        1542912200.6307302     
  -160853255.61543161       -6575306.1622812375        1541504660.0794458     
  -146081028.83633322       -8003456.9167708755        1545854696.8260403     
  -130943320.24873941       -8213334.9762784317        1555962310.8705158     
  -115440129.85265252       -7204940.3408041596        1571827502.2128742     
  -351974154.71480769       -8294011.5413989723        1515111426.5586302     
  -323668293.40621477       -13739147.030108914        1513745690.3877461     
  -294631468.48072922       -16747737.129182190        1517959861.4957218     
  -264863679.93834558       -17319781.838589922        1527753939.8825586     
  -234364927.77907467       -15455281.158378825        1543127925.5482519     
  -530142462.48615479       -13095386.462770253        1484417282.8647232     
  -488445113.46534115       -21491522.578447878        1483519746.5173733     
  -445651319.01922894       -26232840.609798416        1488024447.4298577     
  -401761079.14783871       -27319340.556890920        1497931385.6021867     
  -356774393.85114944       -24751022.419647619        1513240561.0343490     
  -709764923.90006697       -18333007.476904362        1450829769.5490088     
  -655183715.79280293       -29832432.807277501        1450826828.4683182     
  -599140580.45185220       -36458767.358695000        1456048454.6284480     
  -541635517.87720323       -38212011.131117523        1466494648.0293982     
  -482668528.06887311       -35092164.124604434        1482165408.6711714     
  -7.1884897302098405E-002   3.3064164959075930E-002   1599339291.0282080     
  -6.3481637529090112E-002   3.6537714246106801E-002   1596595505.9367213     
  -5.5109351148430914E-002   3.9908712781364430E-002   1598569662.8521659     
  -4.6755067766131198E-002   4.3219354377395269E-002   1605261761.7745399     
  -3.8432627044208093E-002   4.6423853772170745E-002   1616671802.7038465     
  -115440129.85265252       -7204940.3408041596        1571827502.2128742     
  -102308550.00486927       -5675781.9854565933        1568281050.9334528     
  -88729981.492373541       -2656661.4143987633        1569764990.2115808     
  -74704424.315150216        1852421.3724175878        1576279320.0472529     
  -60231878.473212346        7851466.3749473281        1587824040.4404757     
  -234364927.77907467       -15455281.158378825        1543127925.5482519     
  -207209057.94729006       -12129151.407760851        1539300294.8564389     
  -179159210.78604877       -5823097.2256162316        1540815503.2727840     
  -150215386.29534036        3462881.3880839869        1547673550.7972915     
  -120377584.47516952        15728784.433324218        1559874437.4299629     
  -356774393.85114944       -24751022.419647619        1513240561.0343490     
  -314701523.89074481       -19360108.230371982        1509653237.7056727     
  -271287687.93614376       -9499307.3937729448        1511721202.0357764     
  -226532885.98732218        4831380.0902295411        1519444454.0246546     
  -180437118.04430860        23631954.221533231        1532822993.6723123     
  -482668528.06887311       -35092164.124604434        1482165408.6711714     
  -424785947.83523548       -27368652.453303844        1479339879.4811690     
  -365115412.94265211       -13685291.918845356        1482482086.5005541     
  -303656923.39111626        5957917.4787835330        1491592029.7293379     
  -240410479.18062234        31560975.739609823        1506669709.1675167     
  -3.8432627044208093E-002   4.6423853772170745E-002   1616671802.7038465     
  -3.1441241551691534E-002   4.9473840775054088E-002   1585214233.3544176     
  -2.4272754136304468E-002   5.3114861410229482E-002   1557280734.6192136     
  -1.6916733581716647E-002   5.7379604730626636E-002   1532871306.4982324     
  -9.3805000397387782E-003   6.2247139677161792E-002   1511985948.9914670     
  -60231878.473212346        7851466.3749473281        1587824040.4404757     
  -49120853.751787297        15317082.775799580        1556975804.9520395     
  -36824931.276737392        26732358.355399642        1529427606.3840735     
  -23344111.048057139        42097293.113767490        1505179444.7365751     
  -8678393.0657586642        61411887.050864510        1484231320.0095282     
  -120377584.47516952        15728784.433324218        1559874437.4299629     
  -98795631.307182625        30467988.351633854        1531017916.5148692     
  -74843882.632130399        53106510.626833394        1505237398.8264904     
  -48522338.450011320        83644351.258918107        1482532884.3648217     
  -19830998.760830939        122081510.24787696        1462904373.1298485     
  -180437118.04430860        23631954.221533231        1532822993.6723123     
  -149024332.69763574        45452716.776955791        1507340568.0429103     
  -114056854.09046414        79122456.867371187        1484710111.9464674     
  -75534682.222785592        124641174.49281262        1464931625.3829651     
  -33457817.094603069        182008869.65326449        1448005108.3524137     
  -240410479.18062234        31560975.739609823        1506669709.1675167     
  -199806957.92315584        60271268.051727638        1485943759.5361595     
  -154463845.65173563        104780197.07702932        1467845745.7439885     
  -104381142.36637476        165087762.81546304        1452375667.7910147     
  -49558848.067059547        241193965.26708001        1439533525.6772287     
  -9.3805000397387782E-003   6.2247139677161792E-002   1511985948.9914670     
  -7.4076276248533669E-003   6.7195516550256532E-002   1402900920.1333978     
  -4.4646520912529040E-003   7.5377570485734763E-002   1290970505.9766293     
  -5.5280871455545832E-004   8.6789183898202948E-002   1176194706.5211914     
   4.3278567542901665E-003  0.10143159206327917        1058573521.7670656     
  -8678393.0657586642        61411887.050864510        1484231320.0095282     
  -9340649.7047477886        80846011.003623515        1375751984.2004035     
  -8077086.0300650150        106699536.00195691        1265123807.6704903     
  -4887702.0417228639        138972462.04581928        1152346790.4198003     
   227502.26028072834        177664789.13522294        1037420932.4483219     
  -19830998.760830939        122081510.24787696        1462904373.1298485     
  -19165384.675349198        161546796.35806978        1357277520.7344797     
  -14648129.963492721        213850884.55618221        1250198372.1962249     
  -6279234.6252858639        278993774.84212506        1141666927.5150959     
   5941301.3392819166        356975467.21594214        1031683186.6910740     
  -33457817.094603069        182008869.65326449        1448005108.3524137     
  -29474204.919201031        242102356.13056925        1347477529.7356074     
  -19713131.804747805        321454045.73804891        1246194199.5538266     
  -4174597.7512433529        420063938.47569573        1144155117.8070717     
   17141397.241330087        537932034.34357548        1041360284.4953308     
  -49558848.067059547        241193965.26708001        1439533525.6772287     
  -40267110.436331794        322512690.32103181        1346352011.2038004     
  -23272091.553819150        429509019.54759896        1253111289.7433093     
   1426208.5804221630        562182952.94659042        1159811361.2957323     
   33827789.966418058        720534490.51810730        1066452225.8610809     
  -1659895686.0239108       -207254962.34112215        1548490064.7172856     
  -1526857897.2113123       -15930002.192315757        1477951345.5861669     
  -1416408175.0966966        100101402.29654551        1427814712.8543341     
  -1328546519.6800706        140839251.12543833        1398080166.5217857     
  -1263272930.9614305        106283544.29438335        1388747706.5885227     
  -2113393525.0528612       -148943070.03342158        1509171770.4345825     
  -1962338403.4631243       -42339198.676949382        1439474980.8448710     
  -1822013159.1111307        28498415.220380664        1382786612.0980620     
  -1692417791.9968791        63569771.658570051        1339106664.1941495     
  -1573552302.1203685        62874870.637617946        1308435137.1331317     
  -2498393565.1805406       -70081838.055341482        1428272241.8030894     
  -2350445869.5462036       -54536483.110961556        1373251936.1250734     
  -2201369861.6893582       -35230087.424909234        1323846385.7335677     
  -2051165541.6100209       -12162650.997195005        1280055590.6285756     
  -1899832909.3081760        14665826.172195077        1241879550.8100910     
  -2814895806.4069548        29328733.593117118        1305791478.8228137     
  -2691180295.4605408       -52521855.494351983        1279282211.4267750     
  -2554478282.8313913       -91084105.639347196        1250994033.7608583     
  -2404789768.5194931       -86358016.841856122        1220926945.8250682     
  -2242114752.5248528       -38343589.101895332        1189080947.6193993     
  -3062900248.7320905        149288644.91196287        1141729481.4937520     
  -2984541681.2061515       -36295315.827124238        1157565806.7499743     
  -2881338422.5372195       -139063639.42292130        1164229556.1799304     
  -2753290472.7253022       -159016325.87542558        1161720729.7836237     
  -2600397831.7703981       -96153375.184639692        1150039327.5610554     
  -1263272930.9614305        106283544.29438335        1388747706.5885227     
  -1241207005.4829876        35135332.874763966        1401197522.9615078     
  -1212133368.6581085       -12653840.723403990        1412968528.8775518     
  -1176052020.4867835       -37083976.500083208        1424060724.3366551     
  -1132962960.9690249       -38155074.455317676        1434474109.3388159     
  -1573552302.1203685        62874870.637617946        1308435137.1331317     
  -1541100376.9986765        24822054.895511985        1322088540.9675550     
  -1505457373.7346561       -2593833.7055008411        1336772586.7512240     
  -1466623292.3283067       -19372795.165419340        1352487274.4841371     
  -1424598132.7796235       -25514829.484222233        1369232604.1662974     
  -1899832909.3081760        14665826.172195077        1241879550.8100910     
  -1852110834.8112712        11173651.027191520        1252283803.3678226     
  -1805014315.3761520        5596292.3429113626        1265428150.2809877     
  -1758543351.0028090       -2066249.8806257248        1281312591.5495830     
  -1712697941.6912479       -11813975.643441319        1299937127.1736147     
  -2242114752.5248528       -38343589.101895332        1189080947.6193993     
  -2174238378.9207759       -5809878.7302086353        1191783310.1623099     
  -2110804193.5825891        11916537.421842694        1198935219.4668424     
  -2051812196.5102944        14835659.354257941        1210536675.5329931     
  -1997262387.7038870        2947487.0670454502        1226587678.3607638     
  -2600397831.7703981       -96153375.184639692        1150039327.5610554     
  -2507483009.3271832       -26128534.376667738        1140587061.3510189     
  -2422827008.3539734        16366901.531290650        1137293794.3087902     
  -2346429828.8507600        31332932.539260268        1140159526.4343674     
  -2278291470.8175502        18769558.647214770        1149184257.7277486     
  -1132962960.9690249       -38155074.455317676        1434474109.3388159     
  -1079155167.5791874       -26217769.240092695        1424353978.2863574     
  -1025898305.5299535       -16116901.826880097        1421418506.5053368     
  -973192374.82133412       -7852472.2157152891        1425667693.9957583     
  -921037375.45331800       -1424480.4065618515        1437101540.7576160     
  -1424598132.7796235       -25514829.484222233        1369232604.1662974     
  -1354692240.3351638       -18982959.932009339        1359455203.4365406     
  -1285135876.1414056       -13616184.548804700        1356123704.7842150     
  -1215929040.1983466       -9414503.3345929384        1359238108.2093146     
  -1147071732.5059938       -6377916.2894066572        1368798413.7118406     
  -1712697941.6912479       -11813975.643441319        1299937127.1736147     
  -1628804685.0321989       -11320762.206251919        1290737427.0381200     
  -1545059553.5339453       -11321299.305041313        1287244871.7860429     
  -1461462547.1964896       -11815586.939826190        1289459461.4173779     
  -1378013666.0198326       -12803625.110603571        1297381195.9321306     
  -1997262387.7038870        2947487.0670454502        1226587678.3607638     
  -1901492501.6702888       -3231176.0628085136        1218200649.0910909     
  -1805669337.7075813       -9232246.0956172943        1214782007.5108216     
  -1709792895.8157644       -15055723.031400681        1216331753.6199522     
  -1613863175.9948349       -20701606.870141327        1222849887.4184873     
  -2278291470.8175502        18769558.647214770        1149184257.7277486     
  -2172755690.2494373        5285798.4983191490        1141844869.5954549     
  -2066965228.6623080       -7349024.9205187559        1138735111.9585485     
  -1960920086.0561602       -19134911.609296203        1139854984.8170316     
  -1854620262.4310033       -30071861.568045497        1145204488.1709073     
  -921037375.45331800       -1424480.4065618515        1437101540.7576160     
  -865742166.24918032        2605375.5452669859        1434244766.6120589     
  -812098354.58892179        1130573.0175024569        1435580546.6954379     
  -760105940.47254777       -5848887.9898784161        1441108881.0077531     
  -709764923.90006697       -18333007.476904362        1450829769.5490088     
  -1147071732.5059938       -6377916.2894066572        1368798413.7118406     
  -1082043697.9470999       -6345579.8961338401        1362763014.6332898     
  -1017889521.1013831       -9226102.5467774272        1360944354.5737374     
  -954609201.96884739       -15019484.241363108        1363342433.5331895     
  -892202740.54948974       -23725724.979872823        1369957251.5116446     
  -1378013666.0198326       -12803625.110603571        1297381195.9321306     
  -1303183706.7060006       -16748078.455844104        1289074301.7230742     
  -1228450065.2746401       -21013591.409313560        1285008331.3230865     
  -1153812741.7257504       -25600163.971022427        1285183284.7321692     
  -1079271736.0593309       -30507796.140970170        1289599161.9503138     
  -1613863175.9948349       -20701606.870141327        1222849887.4184873     
  -1529162192.5258796       -28602120.133836985        1213178627.8814189     
  -1443779987.1086905       -34231893.570088923        1207772476.9434862     
  -1357716559.7432590       -37590927.178866625        1206631434.6046813     
  -1270971910.4295924       -38679220.960191905        1209755500.8650181     
  -1854620262.4310033       -30071861.568045497        1145204488.1709073     
  -1759979155.4067304       -41907704.930124760        1135075993.1083195     
  -1663879286.6035244       -48881009.029083550        1129236791.4349308     
  -1566320656.0213685       -50991773.864880383        1127686883.1507397     
  -1467303263.6602707       -48239999.437538743        1130426268.2557480     
  -709764923.90006697       -18333007.476904362        1450829769.5490088     
  -655183715.79280293       -29832432.807277501        1450826828.4683182     
  -599140580.45185220       -36458767.358695000        1456048454.6284480     
  -541635517.87720323       -38212011.131117523        1466494648.0293982     
  -482668528.06887311       -35092164.124604434        1482165408.6711714     
  -892202740.54948974       -23725724.979872823        1369957251.5116446     
  -822961666.70815289       -30567281.377668500        1369500912.4496949     
  -752969174.30915689       -34904109.249934286        1374021933.1117706     
  -682225263.35250509       -36736208.596680075        1383520313.4978728     
  -610729933.83820593       -36063579.417929947        1397996053.6079977     
  -1079271736.0593309       -30507796.140970170        1289599161.9503138     
  -996077103.67476034       -32903375.763425112        1287860498.1183972     
  -912841561.40857267       -35162589.113820195        1290851986.4937110     
  -829565109.26076150       -37285436.192142278        1298573627.0762520     
  -746247747.23133159       -39271916.998399973        1311025419.8660288     
  -1270971910.4295924       -38679220.960191905        1209755500.8650181     
  -1174530026.6926365       -36840715.964578092        1205905585.4744251     
  -1078757741.7500887       -37234206.950322807        1206538614.7742653     
  -983655055.60196388       -39859693.917478323        1211654588.7645452     
  -889221968.24825239       -44717176.866011888        1221253507.4452577     
  -1467303263.6602707       -48239999.437538743        1130426268.2557480     
  -1358320435.7617688       -42379301.981094599        1123636174.5177755     
  -1250717715.3337159       -41118962.759475529        1121081817.9534416     
  -1144495102.3761127       -44458981.772692502        1122763198.5627437     
  -1039652596.8889633       -52399359.020754158        1128680316.3456872     
  -482668528.06887311       -35092164.124604434        1482165408.6711714     
  -424785947.83523548       -27368652.453303844        1479339879.4811690     
  -365115412.94265211       -13685291.918845356        1482482086.5005541     
  -303656923.39111626        5957917.4787835330        1491592029.7293379     
  -240410479.18062234        31560975.739609823        1506669709.1675167     
  -610729933.83820593       -36063579.417929947        1397996053.6079977     
  -538134385.01812947       -30832281.549898386        1394770474.5320387     
  -463502164.93315387       -18812079.465539083        1397469953.6523931     
  -386833273.58327752       -2973.1648406833410        1406094490.9690595     
  -308127710.96849298        25595037.352219865        1420644086.4820449     
  -746247747.23133159       -39271916.998399973        1311025419.8660288     
  -659061167.00504601       -36569414.087691426        1307689960.2777169     
  -569589198.90791023       -26248951.607490033        1310236880.8726416     
  -477831842.93992501       -8310529.5577909946        1318666181.6507921     
  -383789099.10109389        17245852.061397508        1332977862.6121817     
  -889221968.24825239       -44717176.866011888        1221253507.4452577     
  -787566293.79598796       -44580050.066692859        1218098336.7182076     
  -683376514.86692917       -35995908.344726056        1220782868.1613047     
  -576652631.46107399       -18964751.700101614        1229307101.7745507     
  -467394643.57842511        6513419.8671627343        1243671037.5579505     
  -1039652596.8889633       -52399359.020754158        1128680316.3456872     
  -923649765.39096081       -54864189.486910224        1125995603.8535023     
  -804864112.81021094       -48052949.677244216        1129107915.5183814     
  -683295639.14671600       -31965639.591765970        1138017251.3403289     
  -558944344.40048325       -6602259.2304834723        1152723611.3193429     
  -240410479.18062234        31560975.739609823        1506669709.1675167     
  -199806957.92315584        60271268.051727638        1485943759.5361595     
  -154463845.65173563        104780197.07702932        1467845745.7439885     
  -104381142.36637476        165087762.81546304        1452375667.7910147     
  -49558848.067059547        241193965.26708001        1439533525.6772287     
  -308127710.96849298        25595037.352219865        1420644086.4820449     
  -258763939.82134968        55353649.670748398        1404320639.1429853     
  -202889715.16429588        106813773.68898265        1391865989.7245519     
  -140505036.99732792        179975409.40692919        1383280138.2267332     
  -71609905.320460826        274838556.82453728        1378563084.6495371     
  -383789099.10109389        17245852.061397508        1332977862.6121817     
  -322119757.83162522        49116380.456136286        1323122923.8107219     
  -252169100.55628729        108591295.53710580        1318377645.0113118     
  -173937127.27507505        195670597.30432361        1318742026.2139509     
  -87423837.987995669        310354285.75776440        1324216067.4186280     
  -467394643.57842511        6513419.8671627343        1243671037.5579505     
  -389874411.95399129        41559460.407874584        1242350613.5393789     
  -302302001.82770848        110112762.62141047        1247380711.6042814     
  -204677413.19960260        212173326.50769398        1258761331.7526574     
  -97000646.069658846        347741152.06676805        1276492473.9845052     
  -558944344.40048325       -6602259.2304834723        1152723611.3193429     
  -462027902.18841809        32682889.526044577        1162003708.3289471     
  -353288418.97856891        111378174.94185834        1178875189.5034523     
  -232725894.77090934        229483597.01703602        1203338054.8428569     
  -100340329.56546393        386999155.75150245        1235392304.3471613     
  -49558848.067059547        241193965.26708001        1439533525.6772287     
  -40267110.436331794        322512690.32103181        1346352011.2038004     
  -23272091.553819150        429509019.54759896        1253111289.7433093     
   1426208.5804221630        562182952.94659042        1159811361.2957323     
   33827789.966418058        720534490.51810730        1066452225.8610809     
  -71609905.320460826        274838556.82453728        1378563084.6495371     
  -57374747.905729100        376744792.08481318        1296861220.3522954     
  -34194386.778059483        508468373.05488741        1214270229.7514312     
  -2068821.9374666512        670009299.73471165        1130790112.8469732     
   39001946.616061211        861367572.12430429        1046420869.6388747     
  -87423837.987995669        310354285.75776440        1324216067.4186280     
  -70616458.836518556        432136671.81017029        1255442762.8356144     
  -43621953.510932684        587876145.10960507        1184950412.6324434     
  -6440322.0112379491        777572705.65607464        1112739016.8091075     
   40928435.662565291        1001226353.4495726        1038808575.3656530     
  -97000646.069658846        347741152.06676805        1276492473.9845052     
  -79992243.228698909        488688329.49709350        1222096638.6537488     
  -51554791.752446413        667732335.71172762        1165151838.3863008     
  -11688291.640899062        884873170.71068752        1105658073.1821742     
   39607257.105925262        1140110834.4938846        1043615343.0413437     
  -100340329.56546393        386999155.75150245        1235392304.3471613     
  -85502101.082256287        546399765.14563024        1196822847.8067153     
  -57992901.502592236        748036944.86127388        1154874507.0130398     
  -17812730.826449096        991910694.89851034        1109547281.9661386     
   35038410.946146309        1278021015.2572680        1060841172.6660101     
  -3062900248.7320905        149288644.91196287        1141729481.4937520     
  -2984541681.2061515       -36295315.827124238        1157565806.7499743     
  -2881338422.5372195       -139063639.42292130        1164229556.1799304     
  -2753290472.7253022       -159016325.87542558        1161720729.7836237     
  -2600397831.7703981       -96153375.184639692        1150039327.5610554     
  -3359241538.7460451        108216226.39948130        983800695.67926598     
  -3273827470.7567067       -5663890.1250338554        1002252419.4712805     
  -3173833289.7401896       -70943629.892300010        1018756986.1657343     
  -3059258995.6965046       -87622992.902327418        1033314395.7626243     
  -2930104588.6256437       -55701979.155107021        1045924648.2619505     
  -3724140295.2204266        46576567.948876858        858623885.84601331     
  -3611026673.2571163        10593511.692103863        867715667.03870511     
  -3493597516.3824420       -11004428.193469763        882085709.86253703     
  -3371852824.5964098       -18217251.707843304        901734014.31750596     
  -3245792597.8990202       -11044958.851022005        926660580.40361571     
  -4157596518.1552372       -35630330.439860582        766199051.99399185     
  -3996139288.7073803        12476889.624284983        753955549.45224321     
  -3840631102.4639726        40753965.673581600        754215727.27033782     
  -3691071959.4250212        49200897.708028555        766979585.44827282     
  -3547461859.5905261        37817685.727628231        792247123.98604584     
  -4659610207.5504799       -138404468.76672435        706526194.12320137     
  -4429165317.1075020       -13756.328494548798        660972066.71190119     
  -4214934047.9847851        84331551.708843946        635147038.38914061     
  -4016916400.1823344        114631455.34529042        629051109.15492201     
  -3835112373.7001553        90885954.580845118        642684279.00924540     
  -2600397831.7703981       -96153375.184639692        1150039327.5610554     
  -2507483009.3271832       -26128534.376667738        1140587061.3510189     
  -2422827008.3539734        16366901.531290650        1137293794.3087902     
  -2346429828.8507600        31332932.539260268        1140159526.4343674     
  -2278291470.8175502        18769558.647214770        1149184257.7277486     
  -2930104588.6256437       -55701979.155107021        1045924648.2619505     
  -2832464625.1407132       -18060244.620322943        1033287666.1273764     
  -2739399244.6631474        4332879.8899025917        1025599433.2278216     
  -2650908447.1929612        11477394.375534654        1022859949.5632875     
  -2566992232.7301450        3373298.8365993500        1025069215.1337724     
  -3245792597.8990202       -11044958.851022005        926660580.40361571     
  -3146885350.3231759       -6823687.6746374369        915137160.55089760     
  -3048868447.2920814       -5570231.6474138498        907352240.00041521     
  -2951741888.8057303       -7284590.7693448067        903305818.75216687     
  -2855505674.8641338       -11966765.040442705        902997896.80615592     
  -3547461859.5905261        37817685.727628231        792247123.98604584     
  -3450745184.8745904        7581136.4603490829        786135544.62158406     
  -3351234616.2407742       -13342433.080664158        782552214.62657356     
  -3248930153.6890783       -24953022.895409703        781497134.00100815     
  -3143831797.2195053       -27250632.983891964        782970302.74489868     
  -3835112373.7001553        90885954.580845118        642684279.00924540     
  -3744044128.7949414        25154227.784662962        646282818.33943701     
  -3646497751.5092230       -18983724.409827232        651199357.10629189     
  -3542473241.8429995       -41527902.002639294        657433895.30981314     
  -3431970599.7962704       -42478304.993765831        664986432.94999588     
  -2278291470.8175502        18769558.647214770        1149184257.7277486     
  -2172755690.2494373        5285798.4983191490        1141844869.5954549     
  -2066965228.6623080       -7349024.9205187559        1138735111.9585485     
  -1960920086.0561602       -19134911.609296203        1139854984.8170316     
  -1854620262.4310033       -30071861.568045497        1145204488.1709073     
  -2566992232.7301450        3373298.8365993500        1025069215.1337724     
  -2447765844.5276570       -1347947.1623544693        1017864233.2673874     
  -2328718853.0421309       -6667182.2178448439        1014938738.8974534     
  -2209851258.2735701       -12584406.329883933        1016292732.0239693     
  -2091163060.2219701       -19099619.498465657        1021926212.6469333     
  -2855505674.8641338       -11966765.040442705        902997896.80615592     
  -2722446230.4528122       -7882762.3171147108        895420897.18037128     
  -2590000260.4944267       -5843674.4369200468        892173242.05209875     
  -2458167764.9889832       -5849501.3998627663        893254931.42133772     
  -2326948743.9364843       -7900243.2059485912        898665965.28808904     
  -3143831797.2195053       -27250632.983891964        782970302.74489868     
  -2996796848.0248857       -14318646.965947390        774514861.33440566     
  -2850809451.0191870       -4878501.5777343512        770438621.42248702     
  -2705869606.2024078        1069803.1807501316        770741583.00914109     
  -2561977313.5745454        3526267.3095037937        775423746.09436774     
  -3431970599.7962704       -42478304.993765831        664986432.94999588     
  -3270817697.2438936       -20655601.108860254        655146125.72949052     
  -3111146424.6164150       -3771663.6402820349        649734877.00861430     
  -2952956781.9138327        8173507.4119760990        648752686.78737748     
  -2796248769.1361547        15179912.047885060        652199555.06577229     
  -1854620262.4310033       -30071861.568045497        1145204488.1709073     
  -1759979155.4067304       -41907704.930124760        1135075993.1083195     
  -1663879286.6035244       -48881009.029083550        1129236791.4349308     
  -1566320656.0213685       -50991773.864880383        1127686883.1507397     
  -1467303263.6602707       -48239999.437538743        1130426268.2557480     
  -2091163060.2219701       -19099619.498465657        1021926212.6469333     
  -1984974072.0068622       -28332884.777333498        1013267013.7342097     
  -1877925438.1688678       -34700664.646586061        1008600912.0214198     
  -1770017158.7079895       -38202959.106220007        1007927907.5085630     
  -1661249233.6242280       -38839768.156245530        1011248000.1956503     
  -2326948743.9364843       -7900243.2059485912        898665965.28808904     
  -2210058149.3569999       -14784812.849532247        890777093.67648995     
  -2092907025.3106892       -20800950.937041879        886585123.07556391     
  -1975495371.7975531       -25948657.468452096        886090053.48531175     
  -1857823188.8175874       -30227932.443779588        889291884.90573180     
  -2561977313.5745454        3526267.3095037937        775423746.09436774     
  -2435231387.4571490       -1263489.1467406750        767606232.93515956     
  -2308824048.0289831       -7181867.9004311562        763189424.59736383     
  -2182755295.2900510       -14228868.951559782        762173321.08097565     
  -2057025129.2403538       -22404492.300129056        764557922.38599896     
  -2796248769.1361547        15179912.047885060        652199555.06577229     
  -2660493786.3073101        12231086.331047773        643754431.51021922     
  -2525676506.3237562        6156584.4632260799        638413816.58681750     
  -2391796929.1854920       -3043593.5555443764        636177710.29556310     
  -2258855054.8925176       -15369447.725304365        637046112.63645244     
  -1467303263.6602707       -48239999.437538743        1130426268.2557480     
  -1358320435.7617688       -42379301.981094599        1123636174.5177755     
  -1250717715.3337159       -41118962.759475529        1121081817.9534416     
  -1144495102.3761127       -44458981.772692502        1122763198.5627437     
  -1039652596.8889633       -52399359.020754158        1128680316.3456872     
  -1661249233.6242280       -38839768.156245530        1011248000.1956503     
  -1542812465.7875638       -36349818.798366547        1002107878.7197179     
  -1425086262.9702530       -36228419.504998744        996782146.50686467     
  -1308070625.1722927       -38475570.276126206        995270803.55708694     
  -1191765552.3936765       -43091271.111747384        997573849.87038970     
  -1857823188.8175874       -30227932.443779588        889291884.90573180     
  -1731136332.2157979       -31469886.536380231        878582868.55146122     
  -1604490498.1822579       -32848582.523142338        871266893.54970670     
  -1477885686.7169743       -34364020.404087007        867343959.90046322     
  -1351321897.8199372       -36016200.179201543        866814067.60373962     
  -2057025129.2403538       -22404492.300129056        764557922.38599896     
  -1923292035.0464704       -27739505.195116997        753061144.01300836     
  -1788930420.9697447       -30979451.813947201        744536059.08196914     
  -1653940287.0101721       -32124332.156624436        738982667.59288120     
  -1518321633.1677408       -31174146.223116934        736400969.54574156     
  -2258855054.8925176       -15369447.725304365        637046112.63645244     
  -2119279574.2795856       -25158674.774596453        625542705.10435772     
  -1978406031.3326993       -30621027.377384186        616589643.10364246     
  -1836234426.0518682       -31756505.533685923        610186926.63432646     
  -1692764758.4370918       -28565109.243503153        606334555.69639635     
  -1039652596.8889633       -52399359.020754158        1128680316.3456872     
  -923649765.39096081       -54864189.486910224        1125995603.8535023     
  -804864112.81021094       -48052949.677244216        1129107915.5183814     
  -683295639.14671600       -31965639.591765970        1138017251.3403289     
  -558944344.40048325       -6602259.2304834723        1152723611.3193429     
  -1191765552.3936765       -43091271.111747384        997573849.87038970     
  -1061925390.8155613       -42149449.649156809        994029477.67732000     
  -930387634.11368728       -35548977.774047166        994546030.94371808     
  -797152282.28804755       -23289855.486383885        999123509.66957366     
  -662219335.33865237       -5372082.7861942053        1007761913.8549008     
  -1351321897.8199372       -36016200.179201543        866814067.60373962     
  -1212604688.1548612       -33155811.385826588        861143938.75764394     
  -1073275109.3250129       -28254192.043199897        857798636.67340732     
  -933333161.33038199       -21311342.151309729        856778161.35103047     
  -792778844.17097592       -12327261.710167915        858082512.79051602     
  -1518321633.1677408       -31174146.223116934        736400969.54574156     
  -1375687657.4088573       -27883274.696898401        727338987.09447193     
  -1233526538.4441912       -26168592.484720886        718865732.70745599     
  -1091838276.2737193       -26030099.586536288        710981206.38469958     
  -950622870.89745951       -27467796.002384663        703685408.12620115     
  -1692764758.4370918       -28565109.243503153        606334555.69639635     
  -1551174298.5775571       -26331839.582384884        592614622.68780029     
  -1411141921.4712110       -29292179.098569453        577747319.04585874     
  -1272667627.1180556       -37446127.792054594        561732644.77057242     
  -1135751415.5180917       -50793685.662839353        544570599.86193681     
  -558944344.40048325       -6602259.2304834723        1152723611.3193429     
  -462027902.18841809        32682889.526044577        1162003708.3289471     
  -353288418.97856891        111378174.94185834        1178875189.5034523     
  -232725894.77090934        229483597.01703602        1203338054.8428569     
  -100340329.56546393        386999155.75150245        1235392304.3471613     
  -662219335.33865237       -5372082.7861942053        1007761913.8549008     
  -546987092.10450149        25572366.684661627        1021097901.1809998     
  -420966583.84999520        92477699.556713194        1042856358.8097365     
  -284157810.57512504        195343915.82997394        1073037286.7410967     
  -136560772.27989972        334171015.50441527        1111640684.9750853     
  -792778844.17097592       -12327261.710167915        858082512.79051602     
  -656856268.09265661        10988848.021658838        874267151.79277956     
  -511180202.97141683        66816587.896555334        899705347.23539758     
  -355750648.80725121        155155957.91454509        934397099.11837316     
  -190567605.60016999        276006958.07557106        978342407.44170594     
  -950622870.89745951       -27467796.002384663        703685408.12620115     
  -791635430.15288281       -11067666.462956190        721511460.16427207     
  -623929276.34282827        34394839.961410880        749422154.78043175     
  -447504409.46729523        108919723.27071103        787417491.97467101     
  -262360829.52626407        212506983.46498305        835497471.74700367     
  -1135751415.5180917       -50793685.662839353        544570599.86193681     
  -951324578.28519273       -40597176.769219577        562830826.29548466     
  -759213803.96423519       -4787544.2487438023        592006781.44484472     
  -559419092.55522823        56635211.898568988        632098465.31001973     
  -351940444.05819273        143671091.67263800        683105877.89100182     
  -100340329.56546393        386999155.75150245        1235392304.3471613     
  -85502101.082256287        546399765.14563024        1196822847.8067153     
  -57992901.502592236        748036944.86127388        1154874507.0130398     
  -17812730.826449096        991910694.89851034        1109547281.9661386     
   35038410.946146309        1278021015.2572680        1060841172.6660101     
  -136560772.27989972        334171015.50441527        1111640684.9750853     
  -127453374.68495992        482963802.13109124        1090155465.4577706     
  -95169904.201152563        709010165.05398405        1070088757.8413510     
  -39710360.828482330        1012310104.2730961        1051440562.1258395     
   38925255.433039010        1392863619.7883782        1034210878.3112028     
  -190567605.60016999        276006958.07557106        978342407.44170594     
  -173484192.73884594        418303975.78123093        986197377.03864574     
  -122719605.19626719        672871575.75773430        1000268254.6906018     
  -38273842.972428024        1039709758.0051049        1020555040.3975888     
   79853093.932662666        1518818522.5233212        1047057734.1595767     
  -262360829.52626407        212506983.46498305        835497471.74700367     
  -223594555.24392459        352420286.09598947        884948582.54933572     
  -140642004.48792407        639621176.97253215        945412997.56079638     
  -13503177.258284628        1074109656.0945485        1016890716.7814091     
   157821926.44501078        1655885723.4620745        1099381740.2111721     
  -351940444.05819273        143671091.67263800        683105877.89100182     
  -277784462.20019847        285312733.07540274        786409081.98984385     
  -148937102.07615137        609258968.69832706        905522986.45194924     
   34601636.313945532        1115509798.5414202        1040447591.2773123     
   272831752.97007829        1804065222.6046438        1191182896.4659450     
  -4659610207.5504799       -138404468.76672435        706526194.12320137     
  -4429165317.1075020       -13756.328494548798        660972066.71190119     
  -4214934047.9847851        84331551.708843946        635147038.38914061     
  -4016916400.1823344        114631455.34529042        629051109.15492201     
  -3835112373.7001553        90885954.580845118        642684279.00924540     
  -5082417455.9747496       -93796388.863364220        531116660.33762163     
  -4842893305.0551224       -26904917.461220980        515457595.74993140     
  -4609492054.1110611        19576887.355719090        503553303.44866955     
  -4382213703.1425667        45649025.587452650        495403783.43384260     
  -4161058252.1496239        51311497.233973026        491009035.70544732     
  -5359762236.8354988       -5549568.6909554005        321273557.36541975     
  -5156799759.1595459       -23849618.440984964        347282063.83682936     
  -4949869460.1144524       -28923596.960538864        361071015.79255795     
  -4738971339.7002182       -20771504.249626160        362640413.23261088     
  -4524105397.9168367        606659.69177246094        351990256.15698534     
  -5491644550.1327238        126335991.75051308        76996885.206601515     
  -5370884679.4207621        9152140.7322082520        156445470.97259748     
  -5236066265.9949427       -61169901.239935637        207700175.42080534     
  -5087189309.8552837       -84630134.165926456        230760998.55122277     
  -4924253811.0017681       -61228558.045736074        225627940.36386156     
  -5478064395.8664293        301860292.46104026       -201713356.13883889     
  -5485148065.8387604        72100360.058373213       -57052182.842765458     
  -5468082471.7525387       -77162025.482450724        43440782.333409101     
  -5426867613.6077662       -145926864.16143775        99765539.389689118     
  -5361503491.4044390       -134194155.97857618        111922088.32607059     
  -3835112373.7001553        90885954.580845118        642684279.00924540     
  -3744044128.7949414        25154227.784662962        646282818.33943701     
  -3646497751.5092230       -18983724.409827232        651199357.10629189     
  -3542473241.8429995       -41527902.002639294        657433895.30981314     
  -3431970599.7962704       -42478304.993765831        664986432.94999588     
  -4161058252.1496239        51311497.233973026        491009035.70544732     
  -4052182148.9524050        18175639.871744633        488775723.78078234     
  -3940555359.8477612       -5791264.4657635689        491400641.23624122     
  -3826177884.8357162       -20589215.778576612        498883788.07182407     
  -3709049723.9162483       -26218214.066667080        511225164.28753269     
  -4524105397.9168367        606659.69177246094        351990256.15698534     
  -4387306493.7319984        3101154.5721797943        339576405.42552227     
  -4251484350.1128340        2339780.9003391266        335561014.01764500     
  -4116638967.0593557       -1677461.3237879276        339944081.93335283     
  -3982770344.5715513       -8950572.1001594067        352725609.17264402     
  -4924253811.0017681       -61228558.045736074        225627940.36386156     
  -4749417163.1337166       -20069228.114003420        198684863.27365685     
  -4579284722.3044348        5409411.6884737015        183680475.45050293     
  -4413856488.5139160        15207361.361743689        180614776.89439031     
  -4253132461.7621760        9324620.9057621956        189487767.60532731     
  -5361503491.4044390       -134194155.97857618        111922088.32607059     
  -5138514157.1575766       -51335508.186869144        66101097.325191528     
  -4923956476.4225597        3417627.8986675739        35759025.534815453     
  -4717830449.1994267        30065252.277945518        20895872.954942353     
  -4520136075.4881382        28607364.951055765        21511639.585579924     
  -3431970599.7962704       -42478304.993765831        664986432.94999588     
  -3270817697.2438936       -20655601.108860254        655146125.72949052     
  -3111146424.6164150       -3771663.6402820349        649734877.00861430     
  -2952956781.9138327        8173507.4119760990        648752686.78737748     
  -2796248769.1361547        15179912.047885060        652199555.06577229     
  -3709049723.9162483       -26218214.066667080        511225164.28753269     
  -3539102209.4168544       -13181568.481313229        501143295.89182371     
  -3370046147.1109495       -3116430.2075579166        495425007.02484584     
  -3201881536.9985266        3977200.7545772791        494070297.68660492     
  -3034608379.0795774        8099324.4051251411        497079167.87709969     
  -3982770344.5715513       -8950572.1001594067        352725609.17264402     
  -3804215300.8991513       -4756109.6465635300        343090720.28838521     
  -3625961531.6888127       -1565895.3998460770        337753931.96196342     
  -3448009036.9405422        620070.63997888565        336715244.19337100     
  -3270357816.6543255        1801788.4729642868        339974656.98261762     
  -4253132461.7621760        9324620.9057621956        189487767.60532731     
  -4066156971.6907640        4620775.3954045773        180988398.91917086     
  -3878892578.3500051        879940.78287100792        176721651.81995884     
  -3691339281.7398810       -1897882.9317884445        176687526.30767637     
  -3503497081.8604069       -3712695.7486014366        180886022.38232288     
  -4520136075.4881382        28607364.951055765        21511639.585579924     
  -4324927221.7917166        14949086.644534111        14836331.784189988     
  -4128839287.0945182        4221078.3406047821        12328166.598827166     
  -3931872271.3965616       -3576659.9608001709        13987144.029505391     
  -3734026174.6978140       -8444128.2595651150        19813264.076222576     
  -2796248769.1361547        15179912.047885060        652199555.06577229     
  -2660493786.3073101        12231086.331047773        643754431.51021922     
  -2525676506.3237562        6156584.4632260799        638413816.58681750     
  -2391796929.1854920       -3043593.5555443764        636177710.29556310     
  -2258855054.8925176       -15369447.725304365        637046112.63645244     
  -3034608379.0795774        8099324.4051251411        497079167.87709969     
  -2891480736.5267439        3387506.0174595118        488843528.04726267     
  -2748510182.9419932       -1847942.2638114691        483581500.75852865     
  -2605696718.3253317       -7607020.4387151003        481293086.01090795     
  -2463040342.6767526       -13889728.507216334        481978283.80439150     
  -3270357816.6543255        1801788.4729642868        339974656.98261762     
  -3120231503.2090478       -4785219.2349895239        332859217.06856394     
  -2969481664.8546462       -9293810.5791803598        328586493.60458171     
  -2818108301.5911303       -11723985.559666634        327156486.59066463     
  -2666111413.4184780       -12075744.176375270        328569196.02681673     
  -3503497081.8604069       -3712695.7486014366        180886022.38232288     
  -3346746086.3542228       -12287089.426270247        175801498.57413056     
  -3188590952.0617237       -16181020.482899904        173428795.12496978     
  -3029031678.9828792       -15394488.918376684        173767912.03482747     
  -2868068267.1177177       -9927494.7327886820        176818849.30371928     
  -3734026174.6978140       -8444128.2595651150        19813264.076222576     
  -3571024485.9622688       -19118104.556452036        17670372.563958716     
  -3405838044.5632062       -22509571.974914312        18108405.319687013     
  -3238466850.5006070       -18618530.514933586        21127362.343408596     
  -3068910903.7744589       -7444980.1764655113        26727243.635106001     
  -2258855054.8925176       -15369447.725304365        637046112.63645244     
  -2119279574.2795856       -25158674.774596453        625542705.10435772     
  -1978406031.3326993       -30621027.377384186        616589643.10364246     
  -1836234426.0518682       -31756505.533685923        610186926.63432646     
  -1692764758.4370918       -28565109.243503153        606334555.69639635     
  -2463040342.6767526       -13889728.507216334        481978283.80439150     
  -2315118854.6423516       -18073386.747620463        471926365.30805206     
  -2166697739.5438080       -20591621.440851092        464450514.18708843     
  -2017776997.3811040       -21444432.586905718        459550730.44149429     
  -1868356628.1542614       -20631820.185816526        457227014.07128495     
  -2666111413.4184780       -12075744.176375270        328569196.02681673     
  -2509770426.9798107       -10631786.313057303        319037258.75146919     
  -2353728248.7467737       -10183855.801856279        312107110.69548142     
  -2197984878.7193923       -10731952.642841816        307778751.85885668     
  -2042540316.8976638       -12276076.835986495        306052182.24159110     
  -2868068267.1177177       -9927494.7327886820        176818849.30371928     
  -2703234291.2919431       -2833873.4708602428        166875385.43460172     
  -2539497558.9416070        602269.53959190845        159559432.62882924     
  -2376858070.0667319        380934.29851031303        154870990.88639584     
  -2215315824.6672931       -3497879.1940176487        152810060.20732006     
  -3068910903.7744589       -7444980.1764655113        26727243.635106001     
  -2895510447.5787740        5320351.7788672447        15440745.357444894     
  -2724005670.1283207        11766754.583439469        6807479.9871213296     
  -2554396571.4231205        11894228.237156987        827447.52412362094     
  -2386683151.4631758        5702772.7400349379       -2499352.0315349428     
  -1692764758.4370918       -28565109.243503153        606334555.69639635     
  -1551174298.5775571       -26331839.582384884        592614622.68780029     
  -1411141921.4712110       -29292179.098569453        577747319.04585874     
  -1272667627.1180556       -37446127.792054594        561732644.77057242     
  -1135751415.5180917       -50793685.662839353        544570599.86193681     
  -1868356628.1542614       -20631820.185816526        457227014.07128495     
  -1730141688.7933578       -22780416.795683146        443308314.82217598     
  -1592162363.3435647       -25714393.109236717        428951631.88537550     
  -1454418651.8048573       -29433749.126429081        414156965.26089442     
  -1316910554.1772497       -33938484.847273588        398924314.94872957     
  -2042540316.8976638       -12276076.835986495        306052182.24159110     
  -1905674078.1906483       -18198493.763433337        293477597.06773043     
  -1767720984.5526452       -20498060.920901179        281174415.15185559     
  -1628681035.9836450       -19174778.308405757        269142636.49395686     
  -1488554232.4836442       -14228645.925885439        257382261.09403849     
  -2215315824.6672931       -3497879.1940176487        152810060.20732006     
  -2077771466.7694182       -12586070.485598087        143122469.42449597     
  -1937817785.0984659       -13643182.533611536        134415668.84530392     
  -1795454779.6544001       -6669215.3379162550        126689658.46976323     
  -1650682450.4372807        8335831.1013201475        119944438.29785948     
  -2386683151.4631758        5702772.7400349379       -2499352.0315349428     
  -2246433854.5296788       -5943146.9622635841       -7757068.1075564632     
  -2102452764.9810176       -5149757.9473279715       -11324607.034271730     
  -1954739882.8171725        8082939.7848714590       -13201968.811689390     
  -1803295208.0381362        33754946.234386683       -13389153.439796314     
  -1135751415.5180917       -50793685.662839353        544570599.86193681     
  -951324578.28519273       -40597176.769219577        562830826.29548466     
  -759213803.96423519       -4787544.2487438023        592006781.44484472     
  -559419092.55522823        56635211.898568988        632098465.31001973     
  -351940444.05819273        143671091.67263800        683105877.89100182     
  -1316910554.1772497       -33938484.847273588        398924314.94872957     
  -1117511018.5845172       -14628584.288855255        420944302.54589731     
  -914416173.54898489        16999014.412212491        441462931.31985450     
  -707626019.07066131        60944311.255924791        460480201.27061486     
  -497140555.14954048        117207306.24229744        477996112.39817047     
  -1488554232.4836442       -14228645.925885439        257382261.09403849     
  -1309659391.4996989        3551428.4067269564        278508610.93535608     
  -1131057868.7181973        20353775.397842586        285716514.41445565     
  -952749664.13917565        36178395.047362685        279005971.53134304     
  -774734777.76258612        51025287.355450839        258376982.28600821     
  -1650682450.4372807        8335831.1013201475        119944438.29785948     
  -1527769697.0307262        13942861.317551196        135523751.46386999     
  -1409138889.4718711        5276738.7081278563        124767530.72865036     
  -1294790027.7607598       -17662536.727096915        87675776.092197374     
  -1184723111.8973217       -54874964.987931073        24248487.554514661     
  -1803295208.0381362        33754946.234386683       -13389153.439796314     
  -1771841935.1776011        16545714.443647981       -8010275.8685610760     
  -1748659235.8100145       -28232095.656930923       -41384019.737565935     
  -1733747109.9354172       -100578484.06747931       -113510385.04682066     
  -1727105557.5537527       -200493450.78778160       -224389371.79631516     
  -351940444.05819273        143671091.67263800        683105877.89100182     
  -277784462.20019847        285312733.07540274        786409081.98984385     
  -148937102.07615137        609258968.69832706        905522986.45194924     
   34601636.313945532        1115509798.5414202        1040447591.2773123     
   272831752.97007829        1804065222.6046438        1191182896.4659450     
  -497140555.14954048        117207306.24229744        477996112.39817047     
  -388266824.90560824        223052870.11782432        597176330.31334686     
  -230297576.19743925        492550162.20746243        735512441.43763828     
  -23232809.025045991        925699182.51117492        893004445.77107859     
   232927476.61160147        1522499931.0290704        1069652343.3136224     
  -774734777.76258612        51025287.355450839        258376982.28600821     
  -621585605.28741229        123942081.85727423        386905710.91539598     
  -424936774.14977825        341857738.56727505        537935525.59977567     
  -184788284.34975633        704772257.48526347        711466426.33914757     
   98859864.112707555        1212685638.6113584        907498413.13351429     
  -1184723111.8973217       -54874964.987931073        24248487.554514661     
  -977740803.34555578       -12019631.706104398        155597223.79600495     
  -732854695.93316841        157181697.77778265        312792238.93835080     
  -450064789.66018397        452729023.46366537        495833532.98154902     
  -129371084.52660137        874622345.35154212        704721105.92559719     
  -1727105557.5537527       -200493450.78778160       -224389371.79631516     
  -1456732419.0801151       -184832270.57250100       -96749131.044843167     
  -1154051341.5476282       -61477960.161067307        60082581.453351043     
  -819062324.95637882        169569480.44622463        246105765.69825980     
  -451765369.30632544        508310051.24957454        461320421.68987030     
 </DataArray>
 <DataArray  type="Float64" Name="VM" NumberOfComponents="1" format="ascii">
   5645882072.5455408     
   5522435509.3189383     
   5430433960.2897663     
   5358182575.7376652     
   5299228715.9694862     
   5557490333.0274153     
   5382291966.6573877     
   5218166366.9887514     
   5061213271.7444096     
   4909505420.1172962     
   5385813583.3771372     
   5179959409.7687740     
   4974936495.8851843     
   4770154032.8357725     
   4565300212.5057783     
   5119502653.6631956     
   4911326856.8628044     
   4700929441.0604296     
   4488006162.4754629     
   4272448758.6909194     
   4752236324.2503719     
   4574723680.6808071     
   4397552510.9330330     
   4218570684.8125014     
   4037825438.9983411     
   5299228715.9694862     
   5114321353.7937565     
   4926055566.3652201     
   4733073076.9557056     
   4534660513.1723928     
   4909505420.1172962     
   4751891839.2164803     
   4593023472.6626549     
   4432532975.0593214     
   4270433044.2502289     
   4565300212.5057783     
   4428093269.9783859     
   4292187761.5046101     
   4157703649.4987130     
   4024939469.0744410     
   4272448758.6909194     
   4148598154.9068365     
   4028599391.4862900     
   3912536034.9917936     
   3800598123.8908219     
   4037825438.9983411     
   3919913539.8148808     
   3807921209.3118200     
   3701403482.0496869     
   3600147660.9269300     
   4534660513.1723928     
   4332497319.3428726     
   4131006631.6142631     
   3930159832.4660702     
   3729969152.9991260     
   4270433044.2502289     
   4080528529.2092924     
   3891389628.0961866     
   3703058062.7507901     
   3515630445.7659855     
   4024939469.0744410     
   3848001707.8383832     
   3672077717.7206116     
   3497289834.0207539     
   3323835780.1621671     
   3800598123.8908219     
   3637609255.6421342     
   3476069051.0739427     
   3316189394.5376801     
   3158283551.3573995     
   3600147660.9269300     
   3452356252.8861804     
   3306656670.4084744     
   3163352134.0181293     
   3022875650.7184119     
   3729969152.9991260     
   3561635423.8367476     
   3394784125.1773415     
   3229405176.9109321     
   3065544751.0923071     
   3515630445.7659855     
   3354468225.3093915     
   3194684972.4372172     
   3036317732.3728743     
   2879450663.8581438     
   3323835780.1621671     
   3170697449.7403078     
   3018976181.7868476     
   2868784845.9441485     
   2720289279.5353684     
   3158283551.3573995     
   3014526699.1756535     
   2872418102.9155121     
   2732182419.2548070     
   2594120061.2803779     
   3022875650.7184119     
   2890359289.3725057     
   2759953960.5246868     
   2632031229.8953509     
   2507075642.0278015     
   3065544751.0923071     
   2898297680.3599873     
   2729933530.4088383     
   2560364807.5630264     
   2389543563.0950584     
   2879450663.8581438     
   2717234849.0469999     
   2554790659.8389897     
   2392136060.0337639     
   2229336285.8704357     
   2720289279.5353684     
   2564708873.7341766     
   2410062841.0253015     
   2256512201.0829897     
   2104293487.6178782     
   2594120061.2803779     
   2446712775.1827159     
   2301636402.9556565     
   2159206894.8242812     
   2019852517.3991802     
   2507075642.0278015     
   2369086667.1644397     
   2234948682.2088704     
   2105097910.2431390     
   1980110922.0819662     
   2389543563.0950584     
   2243508416.3730998     
   2099974230.0732338     
   1958927324.9999404     
   1820555120.0760620     
   2229336285.8704357     
   2086287090.4300311     
   1945016354.5907087     
   1805513466.8085003     
   1667855465.4270208     
   2104293487.6178782     
   1963576273.1107531     
   1823787255.4360843     
   1684949040.2018666     
   1547111156.8313837     
   2019852517.3991802     
   1882568099.3224127     
   1745479659.1235909     
   1608716551.3693218     
   1472458185.1728954     
   1980110922.0819662     
   1849206876.2863297     
   1718202557.0215659     
   1587469470.5979910     
   1457564300.8390326     
   1820555120.0760620     
   1780226527.2968085     
   1736195775.5004697     
   1697136187.5922027     
   1681627083.5595334     
   1667855465.4270208     
   1552635241.5958781     
   1428228525.7823138     
   1294984567.4788210     
   1159022192.1254621     
   1547111156.8313837     
   1397344851.9567766     
   1244037481.9044089     
   1084916010.1496105     
   917945867.39950407     
   1472458185.1728954     
   1328261866.4319439     
   1198606957.2853086     
   1087980064.0391526     
   1002295186.0730413     
   1457564300.8390326     
   1348473622.0538459     
   1274444914.1294239     
   1243577700.4160528     
   1262920444.0386348     
   1681627083.5595334     
   1383857771.4055851     
   1129378176.6492634     
   1010053967.6073397     
   1153497953.8417346     
   1159022192.1254621     
   1008464651.7835943     
   985134707.05016840     
   1161392247.9441528     
   1544262761.7281644     
   917945867.39950407     
   963254382.70498073     
   1144914751.9506123     
   1476359620.3868897     
   1957333365.2912304     
   1002295186.0730413     
   1164889028.3694916     
   1425486372.7875972     
   1808683541.3550656     
   2334544407.1422281     
   1262920444.0386348     
   1446769069.3667302     
   1715819236.8692849     
   2110581552.5948217     
   2663387372.1569223     
   4752236324.2503719     
   4574723680.6808071     
   4397552510.9330330     
   4218570684.8125014     
   4037825438.9983411     
   4347404372.6237545     
   4210046461.5648241     
   4076168937.1903639     
   3946239989.7788525     
   3821392304.4494147     
   4031941581.1977921     
   3916206167.4671812     
   3808034304.2996578     
   3707785073.5531974     
   3616011813.7228703     
   3816193170.3742075     
   3703102147.4797840     
   3600928336.3467975     
   3507406148.0897393     
   3421589996.4570637     
   3711002540.9087143     
   3580552651.6527114     
   3462232194.4938035     
   3349158349.3162189     
   3238680085.6492996     
   4037825438.9983411     
   3919913539.8148808     
   3807921209.3118200     
   3701403482.0496869     
   3600147660.9269300     
   3821392304.4494147     
   3713204500.7374034     
   3608795056.5474992     
   3508177943.3616052     
   3411433283.1550813     
   3616011813.7228703     
   3520495516.6257405     
   3427610129.4510274     
   3337546287.3725891     
   3250553845.4281974     
   3421589996.4570637     
   3342914481.3657517     
   3266765843.9398875     
   3193211593.1029296     
   3122566319.7153645     
   3238680085.6492996     
   3182051763.1508007     
   3128949389.8710794     
   3078981399.6705108     
   3032424808.9590940     
   3600147660.9269300     
   3452356252.8861804     
   3306656670.4084744     
   3163352134.0181293     
   3022875650.7184119     
   3411433283.1550813     
   3276843924.8760457     
   3145466206.5440993     
   3017739879.8933768     
   2894239168.7957883     
   3250553845.4281974     
   3129800467.8630238     
   3013456431.0122104     
   2902060826.3992610     
   2796278055.2944646     
   3122566319.7153645     
   3016024333.3981729     
   2915090373.6261797     
   2820344666.3590307     
   2732469007.0682678     
   3032424808.9590940     
   2940035560.4397345     
   2854358430.8451524     
   2775943057.0978088     
   2705407309.6685882     
   3022875650.7184119     
   2890359289.3725057     
   2759953960.5246868     
   2632031229.8953509     
   2507075642.0278015     
   2894239168.7957883     
   2773974514.3864932     
   2657350690.0037284     
   2544855500.1181960     
   2437091338.3898034     
   2796278055.2944646     
   2689303220.4100294     
   2587519581.1068616     
   2491477592.5673699     
   2401829041.8495412     
   2732469007.0682678     
   2639093575.8059425     
   2552346024.1803164     
   2472762891.3341923     
   2400958676.0337062     
   2705407309.6685882     
   2625017852.8383956     
   2552465225.9647202     
   2488196979.8544092     
   2432717390.4813604     
   2507075642.0278015     
   2369086667.1644397     
   2234948682.2088704     
   2105097910.2431390     
   1980110922.0819662     
   2437091338.3898034     
   2312525421.2896676     
   2192900710.1838427     
   2078871056.2477152     
   1971243057.8362308     
   2401829041.8495412     
   2293265850.8386259     
   2190908841.1180716     
   2095566159.8233767     
   2008182870.7151322     
   2400958676.0337062     
   2310448281.9253497     
   2227392797.9104466     
   2152647738.1961479     
   2087167471.8257513     
   2432717390.4813604     
   2361554678.3605990     
   2298919460.5528970     
   2245607747.2549925     
   2202476754.8247151     
   1980110922.0819662     
   1849206876.2863297     
   1718202557.0215659     
   1587469470.5979910     
   1457564300.8390326     
   1971243057.8362308     
   1855263145.2049065     
   1743644656.6036048     
   1637330313.8212786     
   1537480493.7668853     
   2008182870.7151322     
   1912069872.0486488     
   1824787314.2934058     
   1747535646.2345984     
   1681604668.6710150     
   2087167471.8257513     
   2012209320.3868787     
   1949660476.5478466     
   1900571487.8479776     
   1865946954.2259266     
   2202476754.8247151     
   2146872602.8830507     
   2106203524.5197656     
   2081182967.5004148     
   2072459226.9892027     
   1457564300.8390326     
   1348473622.0538459     
   1274444914.1294239     
   1243577700.4160528     
   1262920444.0386348     
   1537480493.7668853     
   1476409141.2860453     
   1448043988.6545954     
   1456346345.9448500     
   1504630854.2219856     
   1681604668.6710150     
   1652824299.1972487     
   1651766965.7793658     
   1680810085.9316921     
   1742571501.3224294     
   1865946954.2259266     
   1855197927.8005815     
   1867442948.7177742     
   1904899068.9314704     
   1970580828.5616219     
   2072459226.9892027     
   2068911843.3883245     
   2084659819.2537982     
   2122333211.8270004     
   2185692244.6765318     
   1262920444.0386348     
   1446769069.3667302     
   1715819236.8692849     
   2110581552.5948217     
   2663387372.1569223     
   1504630854.2219856     
   1613194291.3850088     
   1788929913.6275229     
   2066542516.3393965     
   2476176659.0529990     
   1742571501.3224294     
   1787568154.9167471     
   1884675180.8236136     
   2060789345.7121041     
   2341130829.0440149     
   1970580828.5616219     
   1968850065.4310851     
   2003621472.0810699     
   2093592516.8275280     
   2257463862.1614962     
   2185692244.6765318     
   2156324750.1133080     
   2146510810.9059508     
   2166831389.6067452     
   2228438368.1995697     
   3711002540.9087143     
   3580552651.6527114     
   3462232194.4938035     
   3349158349.3162189     
   3238680085.6492996     
   3622475678.6453724     
   3466057279.3706226     
   3316012885.2576580     
   3170928331.4540639     
   3030564067.7246127     
   3491657863.0468879     
   3325183843.6077518     
   3166610763.7273898     
   3016306904.4228506     
   2874758640.8952379     
   3317625536.1713223     
   3160023012.1594529     
   3018073067.2589483     
   2890592617.8921418     
   2777582494.7840347     
   3106066825.8195190     
   2976616618.0066943     
   2876452922.3478818     
   2799261956.3222904     
   2743588961.2222981     
   3238680085.6492996     
   3182051763.1508007     
   3128949389.8710794     
   3078981399.6705108     
   3032424808.9590940     
   3030564067.7246127     
   2995956708.1717472     
   2965320691.9325471     
   2938841693.8514075     
   2916934115.8314366     
   2874758640.8952379     
   2855832349.0854177     
   2841150223.8419833     
   2830924101.4053588     
   2825376017.7293420     
   2777582494.7840347     
   2767239438.9798365     
   2761048092.7622395     
   2758733781.3469934     
   2760104389.5050311     
   2743588961.2222981     
   2734136616.1530628     
   2728283245.8816118     
   2724831688.3501549     
   2723046181.3123379     
   3032424808.9590940     
   2940035560.4397345     
   2854358430.8451524     
   2775943057.0978088     
   2705407309.6685882     
   2916934115.8314366     
   2839291915.5714431     
   2769646653.5464258     
   2708554053.0507274     
   2656625470.1535120     
   2825376017.7293420     
   2762734672.0103254     
   2709399046.6931119     
   2665869737.1588559     
   2632686067.3903952     
   2760104389.5050311     
   2711861113.8455381     
   2674224276.5945191     
   2647585579.4131374     
   2632361221.8571672     
   2723046181.3123379     
   2687624038.4956975     
   2664110451.4285460     
   2652754835.0335627     
   2653824107.1968794     
   2705407309.6685882     
   2625017852.8383956     
   2552465225.9647202     
   2488196979.8544092     
   2432717390.4813604     
   2656625470.1535120     
   2590526001.0260501     
   2532270171.2325487     
   2482266659.3661637     
   2440948707.5341334     
   2632686067.3903952     
   2581061819.3626719     
   2537214264.0456920     
   2501497480.1080384     
   2474273630.8587031     
   2632361221.8571672     
   2595257547.6292577     
   2565794546.4012098     
   2544263026.7807913     
   2530962089.2416615     
   2653824107.1968794     
   2631149182.7298112     
   2615931511.0889711     
   2608396805.8862634     
   2608794986.5701489     
   2432717390.4813604     
   2361554678.3605990     
   2298919460.5528970     
   2245607747.2549925     
   2202476754.8247151     
   2440948707.5341334     
   2387515934.8578167     
   2343532429.9653635     
   2309605681.1390595     
   2286335983.1020913     
   2474273630.8587031     
   2436438367.4003572     
   2408591871.8313189     
   2391133240.2809787     
   2384425372.9686785     
   2530962089.2416615     
   2505921549.2682757     
   2491125844.8050079     
   2486785849.9563241     
   2493079506.2648726     
   2608794986.5701489     
   2593319380.7347093     
   2588181998.4358211     
   2593444016.7763124     
   2609157983.1753235     
   2202476754.8247151     
   2146872602.8830507     
   2106203524.5197656     
   2081182967.5004148     
   2072459226.9892027     
   2286335983.1020913     
   2244644510.2808776     
   2216897120.3724160     
   2203528919.0948310     
   2204925727.7107835     
   2384425372.9686785     
   2354093575.1069946     
   2336735285.8699269     
   2332608581.7969465     
   2341943681.9266500     
   2493079506.2648726     
   2471861922.8082538     
   2462769889.0232635     
   2465957011.9114628     
   2481566681.4396672     
   2609157983.1753235     
   2595169698.3342481     
   2592635580.2201161     
   2601651886.1568675     
   2622316098.6196003     
   2072459226.9892027     
   2068911843.3883245     
   2084659819.2537982     
   2122333211.8270004     
   2185692244.6765318     
   2204925727.7107835     
   2190944398.5476604     
   2191956785.3729134     
   2209927085.4424071     
   2247746262.2340002     
   2341943681.9266500     
   2318179831.0096803     
   2305888882.6558089     
   2306472866.5243092     
   2322011983.8011408     
   2481566681.4396672     
   2449631748.7830997     
   2426132237.8225546     
   2412014114.3457384     
   2408662265.5111880     
   2622316098.6196003     
   2584508586.7317047     
   2552398111.9364419     
   2526572121.1014447     
   2507858492.4871163     
   2185692244.6765318     
   2156324750.1133080     
   2146510810.9059508     
   2166831389.6067452     
   2228438368.1995697     
   2247746262.2340002     
   2182857508.1620393     
   2134405207.4984250     
   2112088805.9956150     
   2126890627.0146658     
   2322011983.8011408     
   2225006593.5538096     
   2141370585.3845544     
   2079479013.4671555     
   2049517135.2849388     
   2408662265.5111880     
   2283066186.5759492     
   2168052739.0579090     
   2070353039.8336101     
   1998717124.3325887     
   2507858492.4871163     
   2357247068.9603152     
   2214921866.5340805     
   2085842059.6506565     
   1976841225.7737913     
   3106066825.8195190     
   2976616618.0066943     
   2876452922.3478818     
   2799261956.3222904     
   2743588961.2222981     
   2802873996.3643255     
   2749628973.3711772     
   2717178864.1531968     
   2701981811.2886682     
   2703470768.0528479     
   2595968826.1779308     
   2602029075.2770948     
   2619424719.8810701     
   2646615471.9813747     
   2683433585.3783884     
   2481805536.0973911     
   2532201718.1228294     
   2583556740.0331111     
   2635507925.4850073     
   2688034130.8389454     
   2449634241.1092024     
   2532875578.9412107     
   2605974244.2947402     
   2668930237.1697931     
   2721743557.5663600     
   2743588961.2222981     
   2734136616.1530628     
   2728283245.8816118     
   2724831688.3501549     
   2723046181.3123379     
   2703470768.0528479     
   2683795130.6316748     
   2669640990.4722371     
   2660430194.8900051     
   2655830943.3347135     
   2683433585.3783884     
   2655594575.2765226     
   2636017120.3409247     
   2624497312.9543281     
   2620935256.2641935     
   2688034130.8389454     
   2652813936.5425653     
   2629267621.6744051     
   2617360678.6746221     
   2617083074.8051319     
   2721743557.5663600     
   2678340359.0999465     
   2650572317.7792373     
   2638439433.6042280     
   2641941706.5749273     
   2723046181.3123379     
   2687624038.4956975     
   2664110451.4285460     
   2652754835.0335627     
   2653824107.1968794     
   2655830943.3347135     
   2634687609.6526322     
   2623706506.2993493     
   2622998847.9684911     
   2632681629.2189579     
   2620935256.2641935     
   2610558949.9013309     
   2608463133.8912063     
   2614684198.1584148     
   2629260092.0525041     
   2617083074.8051319     
   2614463187.9115610     
   2618152622.9768319     
   2628157491.9733582     
   2644484173.3986592     
   2641941706.5749273     
   2644752934.3248196     
   2651849779.9201245     
   2663232243.3608303     
   2678900324.6469460     
   2653824107.1968794     
   2631149182.7298112     
   2615931511.0889711     
   2608396805.8862634     
   2608794986.5701489     
   2632681629.2189579     
   2617875730.2065377     
   2611378590.7040205     
   2613330937.0576749     
   2623883402.2693977     
   2629260092.0525041     
   2620012740.8564377     
   2619876065.6485205     
   2628918297.6430607     
   2647210460.7437615     
   2644484173.3986592     
   2637981670.2564197     
   2641390706.0461869     
   2654729689.7881823     
   2678017383.1858907     
   2678900324.6469460     
   2671930505.6786780     
   2675714380.7652454     
   2690251949.9066525     
   2715543213.1029015     
   2608794986.5701489     
   2593319380.7347093     
   2588181998.4358211     
   2593444016.7763124     
   2609157983.1753235     
   2623883402.2693977     
   2613624992.3377948     
   2613475239.7706723     
   2623466746.8113890     
   2643626493.5139794     
   2647210460.7437615     
   2640981076.7645283     
   2644760896.9692221     
   2658563835.1133308     
   2682400975.4868979     
   2678017383.1858907     
   2674615710.0355945     
   2681274846.0984907     
   2697998196.6852212     
   2724788374.4910507     
   2715543213.1029015     
   2713771412.6151481     
   2722279762.0357561     
   2741068261.3647237     
   2770136910.6020436     
   2609157983.1753235     
   2595169698.3342481     
   2592635580.2201161     
   2601651886.1568675     
   2622316098.6196003     
   2643626493.5139794     
   2632580084.6427054     
   2631921955.4800997     
   2641698185.6588883     
   2661957755.9985790     
   2682400975.4868979     
   2673743748.6506329     
   2674588924.5621018     
   2684953834.1759562     
   2704857913.5473633     
   2724788374.4910507     
   2718167569.7346559     
   2720318127.6379867     
   2731243682.1167169     
   2750948560.6981506     
   2770136910.6020436     
   2765384535.4185386     
   2768803875.4982018     
   2780394930.8410306     
   2800157701.4470296     
   2622316098.6196003     
   2584508586.7317047     
   2552398111.9364419     
   2526572121.1014447     
   2507858492.4871163     
   2661957755.9985790     
   2616729738.9182615     
   2577088694.1516933     
   2543369741.8031168     
   2516047029.6289167     
   2704857913.5473633     
   2654382519.8197193     
   2609523996.1288567     
   2570432001.4734716     
   2537318619.4992695     
   2750948560.6981506     
   2697391486.4578352     
   2649622901.7389011     
   2607680067.8299308     
   2571615742.0661578     
   2800157701.4470296     
   2745671593.0511975     
   2697289354.0086637     
   2655010984.3194232     
   2618836483.9834657     
   2507858492.4871163     
   2357247068.9603152     
   2214921866.5340805     
   2085842059.6506565     
   1976841225.7737913     
   2516047029.6289167     
   2348128006.2247233     
   2183817328.9223366     
   2026202738.7201257     
   1879823800.4097857     
   2537318619.4992695     
   2357152432.6693993     
   2176710176.7651477     
   1997458120.3760087     
   1821663107.5518959     
   2571615742.0661578     
   2384420064.8455443     
   2194066224.5806532     
   2000931249.9358208     
   1805616510.5290036     
   2618836483.9834657     
   2429895671.6561728     
   2236026507.4244227     
   2037228991.2882681     
   1833503123.2476766     
   2449634241.1092024     
   2532875578.9412107     
   2605974244.2947402     
   2668930237.1697931     
   2721743557.5663600     
   2481805535.3076854     
   2532201717.4937496     
   2583556739.6074185     
   2635507925.3294616     
   2688034131.0260305     
   2595968825.1922536     
   2602029074.4609098     
   2619424719.3334374     
   2646615471.8235893     
   2683433585.7354574     
   2802873995.9053636     
   2749628972.9086528     
   2717178863.8560596     
   2701981811.3234549     
   2703470768.5802283     
   3106066826.6447783     
   2976616618.4707680     
   2876452922.6990442     
   2799261956.7652836     
   2743588961.9376369     
   2721743557.5663600     
   2678340359.0999465     
   2650572317.7792373     
   2638439433.6042280     
   2641941706.5749273     
   2688034131.0260305     
   2652813936.6796679     
   2629267621.7673035     
   2617360678.7311740     
   2617083074.8346872     
   2683433585.7354574     
   2655594575.5318832     
   2636017120.5076776     
   2624497313.0497065     
   2620935256.3084226     
   2703470768.5802283     
   2683795130.9987326     
   2669640990.7004175     
   2660430195.0069795     
   2655830943.3727522     
   2743588961.9376369     
   2734136616.6380191     
   2728283246.1663804     
   2724831688.4732924     
   2723046181.3185740     
   2641941706.5749273     
   2644752934.3248196     
   2651849779.9201245     
   2663232243.3608303     
   2678900324.6469460     
   2617083074.8346872     
   2614463187.9352517     
   2618152622.9919839     
   2628157491.9772887     
   2644484173.3887129     
   2620935256.3084226     
   2610558949.9378648     
   2608463133.9149375     
   2614684198.1641879     
   2629260092.0351386     
   2655830943.3727522     
   2634687609.6863003     
   2623706506.3213577     
   2622998847.9713717     
   2632681629.1951408     
   2723046181.3185740     
   2687624038.5067744     
   2664110451.4352860     
   2652754835.0264115     
   2653824107.1659331     
   2678900324.6469460     
   2671930505.6786780     
   2675714380.7652454     
   2690251949.9066525     
   2715543213.1029015     
   2644484173.3887129     
   2637981670.2435007     
   2641390706.0294909     
   2654729689.7669287     
   2678017383.1593637     
   2629260092.0351386     
   2620012740.8321676     
   2619876065.6155887     
   2628918297.5997639     
   2647210460.6885257     
   2632681629.1951408     
   2617875730.1714039     
   2611378590.6546617     
   2613330936.9912882     
   2623883402.1833696     
   2653824107.1659331     
   2631149182.6831570     
   2615931511.0223651     
   2608396805.7955379     
   2608794986.4514465     
   2715543213.1029015     
   2713771412.6151481     
   2722279762.0357561     
   2741068261.3647237     
   2770136910.6020436     
   2678017383.1593637     
   2674615710.0096235     
   2681274846.0732703     
   2697998196.6609306     
   2724788374.4679103     
   2647210460.6885257     
   2640981076.7114439     
   2644760896.9187160     
   2658563835.0658350     
   2682400975.4428291     
   2623883402.1833696     
   2613624992.2564354     
   2613475239.6947365     
   2623466746.7416120     
   2643626493.4510627     
   2608794986.4514465     
   2593319380.6239467     
   2588181998.3342218     
   2593444016.6850071     
   2609157983.0954065     
   2770136910.6020436     
   2765384535.4185386     
   2768803875.4982018     
   2780394930.8410306     
   2800157701.4470296     
   2724788374.4679103     
   2718167569.7114358     
   2720318127.6147223     
   2731243682.0934348     
   2750948560.6749053     
   2682400975.4428291     
   2673743748.6056390     
   2674588924.5162134     
   2684953834.1292315     
   2704857913.4998884     
   2643626493.4510627     
   2632580084.5772429     
   2631921955.4121141     
   2641698185.5884495     
   2661957755.9258151     
   2609157983.0954065     
   2595169698.2494454     
   2592635580.1304021     
   2601651886.0623388     
   2622316098.5203991     
   2800157701.4470296     
   2745671593.0511975     
   2697289354.0086637     
   2655010984.3194232     
   2618836483.9834657     
   2750948560.6749053     
   2697391486.4363227     
   2649622901.7192674     
   2607680067.8123674     
   2571615742.0508547     
   2704857913.4998884     
   2654382519.7759333     
   2609523996.0890536     
   2570432001.4380136     
   2537318619.4685926     
   2661957755.9258151     
   2616729738.8513651     
   2577088694.0911093     
   2543369741.7493515     
   2516047029.5826554     
   2622316098.5203991     
   2584508586.6407995     
   2552398111.8543921     
   2526572121.0289445     
   2507858492.4250593     
   2618836483.9834657     
   2429895671.6561728     
   2236026507.4244227     
   2037228991.2882681     
   1833503123.2476766     
   2571615742.0508547     
   2384420064.8365121     
   2194066224.5787988     
   2000931249.9426999     
   1805616510.5471532     
   2537318619.4685926     
   2357152432.6508861     
   2176710176.7605505     
   1997458120.3881707     
   1821663107.5853000     
   2516047029.5826554     
   2348128006.1961551     
   2183817328.9138732     
   2026202738.7355342     
   1879823800.4545724     
   2507858492.4250593     
   2357247068.9210396     
   2214921866.5204763     
   2085842059.6668825     
   1976841225.8255734     
   3106066826.6447783     
   2976616618.4707680     
   2876452922.6990442     
   2799261956.7652836     
   2743588961.9376369     
   3317625537.6498065     
   3160023013.1045251     
   3018073067.8667226     
   2890592618.3729186     
   2777582495.3648353     
   3491657865.1756425     
   3325183844.9028611     
   3166610764.4280829     
   3016306904.7837205     
   2874758641.1927924     
   3622475681.5248523     
   3466057280.9477868     
   3316012885.9077568     
   3170928331.5210943     
   3030564067.5456824     
   3711002544.8054404     
   3580552653.5381927     
   3462232194.9864149     
   3349158348.9111457     
   3238680084.7720814     
   2743588961.9376369     
   2734136616.6380191     
   2728283246.1663804     
   2724831688.4732924     
   2723046181.3185740     
   2777582495.3648353     
   2767239439.4098263     
   2761048093.0428991     
   2758733781.4819903     
   2760104389.5000505     
   2874758641.1927924     
   2855832349.3452101     
   2841150224.0401683     
   2830924101.5163579     
   2825376017.7256761     
   3030564067.5456824     
   2995956708.1143055     
   2965320691.9500284     
   2938841693.8948288     
   2916934115.8471923     
   3238680084.7720814     
   3182051762.6099553     
   3128949389.5983896     
   3078981399.5986934     
   3032424809.0161438     
   2723046181.3185740     
   2687624038.5067744     
   2664110451.4352860     
   2652754835.0264115     
   2653824107.1659331     
   2760104389.5000505     
   2711861113.8341246     
   2674224276.5707903     
   2647585579.3708434     
   2632361221.7898178     
   2825376017.7256761     
   2762734671.9855404     
   2709399046.6435905     
   2665869737.0808401     
   2632686067.2801914     
   2916934115.8471923     
   2839291915.5468922     
   2769646653.4791660     
   2708554052.9386082     
   2656625469.9949179     
   3032424809.0161438     
   2940035560.4322534     
   2854358430.7708745     
   2775943056.9552255     
   2705407309.4573140     
   2653824107.1659331     
   2631149182.6831570     
   2615931511.0223651     
   2608396805.7955379     
   2608794986.4514465     
   2632361221.7898178     
   2595257547.5416803     
   2565794546.2900209     
   2544263026.6427727     
   2530962089.0738945     
   2632686067.2801914     
   2581061819.2290859     
   2537214263.8862782     
   2501497479.9205585     
   2474273630.6411920     
   2656625469.9949179     
   2590526000.8416605     
   2532270171.0209055     
   2482266659.1260576     
   2440948707.2646456     
   2705407309.4573140     
   2625017852.5989604     
   2552465225.6967096     
   2488196979.5576982     
   2432717390.1561184     
   2608794986.4514465     
   2593319380.6239467     
   2588181998.3342218     
   2593444016.6850071     
   2609157983.0954065     
   2530962089.0738945     
   2505921549.1180525     
   2491125844.6728554     
   2486785849.8426776     
   2493079506.1700654     
   2474273630.6411920     
   2436438367.2097006     
   2408591871.6674438     
   2391133240.1437201     
   2384425372.8577347     
   2440948707.2646456     
   2387515934.6243920     
   2343532429.7674212     
   2309605680.9759455     
   2286335982.9729519     
   2432717390.1561184     
   2361554678.0807400     
   2298919460.3173819     
   2245607747.0627470     
   2202476754.6744070     
   2609157983.0954065     
   2595169698.2494454     
   2592635580.1304021     
   2601651886.0623388     
   2622316098.5203991     
   2493079506.1700654     
   2471861922.7078276     
   2462769888.9169550     
   2465957011.7991762     
   2481566681.3213882     
   2384425372.8577347     
   2354093574.9899273     
   2336735285.7461991     
   2332608581.6662273     
   2341943681.7887931     
   2286335982.9729519     
   2244644510.1454763     
   2216897120.2298875     
   2203528918.9446087     
   2204925727.5524874     
   2202476754.6744070     
   2146872602.7268414     
   2106203524.3564086     
   2081182967.3290219     
   2072459226.8091574     
   2622316098.5203991     
   2584508586.6407995     
   2552398111.8543921     
   2526572121.0289445     
   2507858492.4250593     
   2481566681.3213882     
   2449631748.6767111     
   2426132237.7282386     
   2412014114.2638140     
   2408662265.4422426     
   2341943681.7887931     
   2318179830.8873739     
   2305888882.5488415     
   2306472866.4326577     
   2322011983.7250409     
   2204925727.5524874     
   2190944398.4087143     
   2191956785.2527571     
   2209927085.3406320     
   2247746262.1504650     
   2072459226.8091574     
   2068911843.2316661     
   2084659819.1196773     
   2122333211.7145991     
   2185692244.5852051     
   2507858492.4250593     
   2357247068.9210396     
   2214921866.5204763     
   2085842059.6668825     
   1976841225.8255734     
   2408662265.4422426     
   2283066186.5333366     
   2168052739.0445652     
   2070353039.8534007     
   1998717124.3899670     
   2322011983.7250409     
   2225006593.5064945     
   2141370585.3687704     
   2079479013.4859235     
   2049517135.3410394     
   2247746262.1504650     
   2182857508.1085687     
   2134405207.4773898     
   2112088806.0089462     
   2126890627.0630493     
   2185692244.5852051     
   2156324750.0522761     
   2146510810.8769341     
   2166831389.6104102     
   2228438368.2347245     
   3711002544.8054404     
   3580552653.5381927     
   3462232194.9864149     
   3349158348.9111457     
   3238680084.7720814     
   3816193173.3911939     
   3703102148.9904962     
   3600928336.6963320     
   3507406147.5454597     
   3421589995.2470331     
   4031941582.0065885     
   3916206167.6093168     
   3808034303.8815455     
   3707785072.6683969     
   3616011812.4573712     
   4347404369.5377359     
   4210046459.1264782     
   4076168935.2665734     
   3946239988.3155608     
   3821392303.4324145     
   4752236315.3355322     
   4574723674.3134966     
   4397552506.7036448     
   4218570682.5118818     
   4037825438.5391107     
   3238680084.7720814     
   3182051762.6099553     
   3128949389.5983896     
   3078981399.5986934     
   3032424809.0161438     
   3421589995.2470331     
   3342914480.5115337     
   3266765843.4173799     
   3193211592.8864393     
   3122566319.7759418     
   3616011812.4573712     
   3520495515.6734796     
   3427610128.8158836     
   3337546287.0574517     
   3250553845.4351254     
   3821392303.4324145     
   3713204499.9237590     
   3608795055.9510899     
   3508177942.9992628     
   3411433283.0466790     
   4037825438.5391107     
   3919913539.3823614     
   3807921208.9098592     
   3701403481.6932435     
   3600147660.6406035     
   3032424809.0161438     
   2940035560.4322534     
   2854358430.7708745     
   2775943056.9552255     
   2705407309.4573140     
   3122566319.7759418     
   3016024333.4012623     
   2915090373.5646825     
   2820344666.2256489     
   2732469006.8557281     
   3250553845.4351254     
   3129800467.8277164     
   3013456430.9243817     
   2902060826.2475781     
   2796278055.0665803     
   3411433283.0466790     
   3276843924.7499800     
   3145466206.3884091     
   3017739879.6944942     
   2894239168.5383224     
   3600147660.6406035     
   3452356252.6167588     
   3306656670.1435752     
   3163352133.7435789     
   3022875650.4177785     
   2705407309.4573140     
   2625017852.5989604     
   2552465225.6967096     
   2488196979.5576982     
   2432717390.1561184     
   2732469006.8557281     
   2639093575.5665569     
   2552346023.9118786     
   2472762891.0345445     
   2400958675.7007952     
   2796278055.0665803     
   2689303220.1597610     
   2587519580.8306808     
   2491477592.2615657     
   2401829041.5101733     
   2894239168.5383224     
   2773974514.1143889     
   2657350689.7127752     
   2544855499.8037128     
   2437091338.0466208     
   3022875650.4177785     
   2890359289.0682850     
   2759953960.2125316     
   2632031229.5703783     
   2507075641.6844101     
   2432717390.1561184     
   2361554678.0807400     
   2298919460.3173819     
   2245607747.0627470     
   2202476754.6744070     
   2400958675.7007952     
   2310448281.6374264     
   2227392797.6684203     
   2152647738.0011020     
   2087167471.6788027     
   2401829041.5101733     
   2293265850.5412502     
   2190908840.8651466     
   2095566159.6178334     
   2008182870.5603046     
   2437091338.0466208     
   2312525420.9825044     
   2192900709.9161315     
   2078871056.0236137     
   1971243057.6607056     
   2507075641.6844101     
   2369086666.8480415     
   2234948681.9232025     
   2105097909.9927914     
   1980110921.8725629     
   2202476754.6744070     
   2146872602.7268414     
   2106203524.3564086     
   2081182967.3290219     
   2072459226.8091574     
   2087167471.6788027     
   2012209320.2367153     
   1949660476.3916709     
   1900571487.6830680     
   1865946954.0496719     
   2008182870.5603046     
   1912069871.8966458     
   1824787314.1401565     
   1747535646.0756779     
   1681604668.5016720     
   1971243057.6607056     
   1855263145.0414429     
   1743644656.4475768     
   1637330313.6672769     
   1537480493.6085396     
   1980110921.8725629     
   1849206876.1009724     
   1718202556.8560309     
   1587469470.4471874     
   1457564300.6967418     
   2072459226.8091574     
   2068911843.2316661     
   2084659819.1196773     
   2122333211.7145991     
   2185692244.5852051     
   1865946954.0496719     
   1855197927.6472349     
   1867442948.5871954     
   1904899068.8233688     
   1970580828.4755557     
   1681604668.5016720     
   1652824299.0491083     
   1651766965.6530721     
   1680810085.8276830     
   1742571501.2406976     
   1537480493.6085396     
   1476409141.1455784     
   1448043988.5334780     
   1456346345.8445194     
   1504630854.1433005     
   1457564300.6967418     
   1348473621.9247887     
   1274444914.0151546     
   1243577700.3190947     
   1262920443.9613717     
   2185692244.5852051     
   2156324750.0522761     
   2146510810.8769341     
   2166831389.6104102     
   2228438368.2347245     
   1970580828.4755557     
   1968850065.3737290     
   2003621472.0542157     
   2093592516.8313062     
   2257463862.1932688     
   1742571501.2406976     
   1787568154.8618515     
   1884675180.7970390     
   2060789345.7130628     
   2341130829.0685039     
   1504630854.1433005     
   1613194291.3311813     
   1788929913.5995021     
   2066542516.3352730     
   2476176659.0677638     
   1262920443.9613717     
   1446769069.3124995     
   1715819236.8383670     
   2110581552.5840344     
   2663387372.1604381     
   4752236315.3355322     
   4574723674.3134966     
   4397552506.7036448     
   4218570682.5118818     
   4037825438.5391107     
   5119502639.5108595     
   4911326846.4982262     
   4700929434.3123426     
   4488006159.1907053     
   4272448758.7283745     
   5385813565.3220224     
   5179959396.4937134     
   4974936487.3030949     
   4770154028.8020039     
   4565300212.8196201     
   5557490312.1274900     
   5382291951.3830423     
   5218166357.1546612     
   5061213267.1377697     
   4909505420.4680796     
   5645882049.4423304     
   5522435492.7257481     
   5430433949.6717587     
   5358182570.6842937     
   5299228716.1059008     
   4037825438.5391107     
   3919913539.3823614     
   3807921208.9098592     
   3701403481.6932435     
   3600147660.6406035     
   4272448758.7283745     
   4148598154.8083963     
   4028599391.2475758     
   3912536034.6119328     
   3800598123.3733382     
   4565300212.8196201     
   4428093270.0272236     
   4292187761.2815518     
   4157703648.9943943     
   4024939468.2790804     
   4909505420.4680796     
   4751891839.2165594     
   4593023472.3058481     
   4432532974.3334703     
   4270433043.1391029     
   5299228716.1059008     
   5114321353.5452890     
   4926055565.7271433     
   4733073075.9166603     
   4534660511.7154741     
   3600147660.6406035     
   3452356252.6167588     
   3306656670.1435752     
   3163352133.7435789     
   3022875650.4177785     
   3800598123.3733382     
   3637609255.1788807     
   3476069050.6573052     
   3316189394.1587982     
   3158283551.0056162     
   4024939468.2790804     
   3848001707.1368341     
   3672077717.1106133     
   3497289833.4993682     
   3323835779.7252274     
   4270433043.1391029     
   4080528528.2317624     
   3891389627.2556057     
   3703058062.0502625     
   3515630445.2079349     
   4534660511.7154741     
   4332497318.0578909     
   4131006630.5101938     
   3930159831.5518742     
   3729969152.2835402     
   3022875650.4177785     
   2890359289.0682850     
   2759953960.2125316     
   2632031229.5703783     
   2507075641.6844101     
   3158283551.0056162     
   3014526698.8430700     
   2872418102.5965695     
   2732182418.9434485     
   2594120060.9698458     
   3323835779.7252274     
   3170697449.3472314     
   3018976181.4313073     
   2868784845.6194587     
   2720289279.2342248     
   3515630445.2079349     
   3354468224.8229084     
   3194684972.0156059     
   3036317732.0093188     
   2879450663.5453024     
   3729969152.2835402     
   3561635423.2244620     
   3394784124.6617270     
   3229405176.4854436     
   3065544750.7499619     
   2507075641.6844101     
   2369086666.8480415     
   2234948681.9232025     
   2105097909.9927914     
   1980110921.8725629     
   2594120060.9698458     
   2446712774.8922615     
   2301636402.6870813     
   2159206894.5799203     
   2019852517.1820621     
   2720289279.2342248     
   2564708873.4519367     
   2410062840.7627883     
   2256512200.8413596     
   2104293487.3986988     
   2879450663.5453024     
   2717234848.7577829     
   2554790659.5741067     
   2392136059.7943149     
   2229336285.6578178     
   3065544750.7499619     
   2898297680.0516829     
   2729933530.1359062     
   2560364807.3273630     
   2389543562.8990154     
   1980110921.8725629     
   1849206876.1009724     
   1718202556.8560309     
   1587469470.4471874     
   1457564300.6967418     
   2019852517.1820621     
   1882568099.1335347     
   1745479658.9612193     
   1608716551.2313888     
   1472458185.0568593     
   2104293487.3986988     
   1963576272.9208899     
   1823787255.2753346     
   1684949040.0699360     
   1547111156.7279212     
   2229336285.6578178     
   2086287090.2443366     
   1945016354.4320095     
   1805513466.6768906     
   1667855465.3225503     
   2389543562.8990154     
   2243508416.1980066     
   2099974229.9183915     
   1958927324.8645730     
   1820555119.9593351     
   1457564300.6967418     
   1348473621.9247887     
   1274444914.0151546     
   1243577700.3190947     
   1262920443.9613717     
   1472458185.0568593     
   1328261866.3292902     
   1198606957.1967404     
   1087980063.9653111     
   1002295186.0141503     
   1547111156.7279212     
   1397344851.8703690     
   1244037481.8354900     
   1084916010.0977542     
   917945867.36354983     
   1667855465.3225503     
   1552635241.5137484     
   1428228525.7230337     
   1294984567.4421179     
   1159022192.1112583     
   1820555119.9593351     
   1780226527.2087026     
   1736195775.4415255     
   1697136187.5622942     
   1681627083.5588310     
   1262920443.9613717     
   1446769069.3124995     
   1715819236.8383670     
   2110581552.5840344     
   2663387372.1604381     
   1002295186.0141503     
   1164889028.3268869     
   1425486372.7632449     
   1808683541.3470509     
   2334544407.1461148     
   917945867.36354983     
   963254382.67589188     
   1144914751.9335175     
   1476359620.3822429     
   1957333365.2961648     
   1159022192.1112583     
   1008464651.7711917     
   985134707.04213750     
   1161392247.9435444     
   1544262761.7345891     
   1681627083.5588310     
   1383857771.4066706     
   1129378176.6513157     
   1010053967.6113654     
   1153497953.8495359     
 </DataArray>
 <DataArray  type="Float64" Name="strain" NumberOfComponents="3" format="ascii">
   9.2810375068654416E-002  -3.2421327154055879E-002  -8.7409119079273623E-003
   9.1779636486325922E-002  -2.8627413172695459E-002  -2.4722611178549236E-003
   9.0748897903997428E-002  -2.6054378686554025E-002   1.8824339890380903E-003
   8.9718159321668878E-002  -2.4702223695630798E-002   4.3231734127514576E-003
   8.8687420739340328E-002  -2.4570948199926779E-002   4.8499571532855112E-003
   9.2159089442072406E-002  -2.9563822827488373E-002   3.3365320324028058E-003
   8.9560505594487083E-002  -2.7006959205521597E-002   6.7793039786919196E-003
   8.6961921746901760E-002  -2.5160833043556652E-002   9.0003410776470782E-003
   8.4363337899316326E-002  -2.4025444341593122E-002   9.9996433292678932E-003
   8.1764754051731003E-002  -2.3600793099631368E-002   9.7772107335543090E-003
   8.9301623031394439E-002  -2.6706318500920867E-002   1.3921854595731142E-002
   8.5827414754397729E-002  -2.5386505238347679E-002   1.5048889733453752E-002
   8.2353206477400936E-002  -2.4267287400559112E-002   1.5646410859687654E-002
   7.8878998200404199E-002  -2.3348664987555334E-002   1.5714417974432807E-002
   7.5404789923407461E-002  -2.2630637999336178E-002   1.5252911077689585E-002
   8.4237975836620682E-002  -2.3848814174353389E-002   2.3015055782057037E-002
   8.0580363966057861E-002  -2.3766051271173719E-002   2.2336496146430462E-002
   7.6922752095495220E-002  -2.3373741757561711E-002   2.1820643335160303E-002
   7.3265140224932385E-002  -2.2671885633517436E-002   2.1467497348247058E-002
   6.9607528354369660E-002  -2.1660482899040989E-002   2.1277058185690458E-002
   7.6968147857750968E-002  -2.0991309847785911E-002   3.0616135591381211E-002
   7.3819353229467644E-002  -2.2145597303999731E-002   2.8642123217622051E-002
   7.0670558601184263E-002  -2.2480196114564394E-002   2.7523038504065178E-002
   6.7521763972900939E-002  -2.1995106279479711E-002   2.7258881450710148E-002
   6.4372969344617614E-002  -2.0690327798745689E-002   2.7849652057557295E-002
   8.8687420739340328E-002  -2.4570948199926779E-002   4.8499571532855112E-003
   8.5385225081483884E-002  -2.4836978988694358E-002   2.8643808801953607E-003
   8.2083029423627385E-002  -2.4676742851186789E-002   1.5495577728491527E-003
   7.8780833765770941E-002  -2.4090239787403676E-002   9.0548783124719256E-004
   7.5478638107914442E-002  -2.3077469797345262E-002   9.3217105538911937E-004
   8.1764754051731003E-002  -2.3600793099631368E-002   9.7772107335543090E-003
   7.9056606576978661E-002  -2.3412598688226510E-002   8.6096773996916787E-003
   7.6348459102226290E-002  -2.2986580477933616E-002   7.9594872662934468E-003
   7.3640311627473948E-002  -2.2322738468751727E-002   7.8266403333593637E-003
   7.0932164152721577E-002  -2.1421072660682050E-002   8.2111366008889575E-003
   7.5404789923407461E-002  -2.2630637999336178E-002   1.5252911077689585E-002
   7.3137280666479329E-002  -2.1988218387758968E-002   1.4714977555667530E-002
   7.0869771409551169E-002  -2.1296418104680234E-002   1.4540977268829733E-002
   6.8602262152623050E-002  -2.0555237150100224E-002   1.4730910217176207E-002
   6.6334752895694848E-002  -1.9764675524019060E-002   1.5284776400706995E-002
   6.9607528354369660E-002  -2.1660482899040989E-002   2.1277058185690458E-002
   6.7627247349985833E-002  -2.0563838087291161E-002   2.1180281348122040E-002
   6.5646966345601993E-002  -1.9606255731427012E-002   2.1294027780458139E-002
   6.3666685341218124E-002  -1.8787735831448611E-002   2.1618297482698293E-002
   6.1686404336834248E-002  -1.8108278387355847E-002   2.2153090454843156E-002
   6.4372969344617614E-002  -2.0690327798745689E-002   2.7849652057557295E-002
   6.2526506627498146E-002  -1.9139457786823577E-002   2.8005588777055557E-002
   6.0680043910378734E-002  -1.7916093358173735E-002   2.8218638801178197E-002
   5.8833581193259266E-002  -1.7020234512797008E-002   2.8488802129925495E-002
   5.6987118476139853E-002  -1.6451881250692579E-002   2.8816078763297059E-002
   7.5478638107914442E-002  -2.3077469797345262E-002   9.3217105538911937E-004
   7.2156865818167049E-002  -2.1873787557990021E-002   6.4290771494723842E-004
   6.8835093528419711E-002  -2.0714547746315842E-002   5.3422055541169078E-004
   6.5513321238672290E-002  -1.9599750362322775E-002   6.0610957678264299E-004
   6.2191548948924980E-002  -1.8529395406010729E-002   8.5857477905992852E-004
   7.0932164152721577E-002  -2.1421072660682050E-002   8.2111366008889575E-003
   6.7792386754878697E-002  -2.0407797785589155E-002   7.8428306233498946E-003
   6.4652609357035845E-002  -1.9409128575338330E-002   7.6579382487135528E-003
   6.1512831959192951E-002  -1.8425065029929619E-002   7.6564594769794880E-003
   5.8373054561350113E-002  -1.7455607149362673E-002   7.8383943081485885E-003
   6.6334752895694848E-002  -1.9764675524019060E-002   1.5284776400706995E-002
   6.3379807811752786E-002  -1.8941808013188594E-002   1.4867264548909659E-002
   6.0424862727810738E-002  -1.8103709404361054E-002   1.4636003722011459E-002
   5.7469917643868641E-002  -1.7250379697536244E-002   1.4590993920012153E-002
   5.4514972559926628E-002  -1.6381818892714339E-002   1.4732235142911804E-002
   6.1686404336834248E-002  -1.8108278387355847E-002   2.2153090454843156E-002
   5.8919128988789315E-002  -1.7475818240787658E-002   2.1716209491626753E-002
   5.6151853640744306E-002  -1.6798290233383327E-002   2.1468416975305726E-002
   5.3384578292699318E-002  -1.6075694365142980E-002   2.1409712905879744E-002
   5.0617302944654337E-002  -1.5308030636066366E-002   2.1540097283349151E-002
   5.6987118476139853E-002  -1.6451881250692579E-002   2.8816078763297059E-002
   5.4410350285988257E-002  -1.6009828468386944E-002   2.8389665451500956E-002
   5.1833582095836661E-002  -1.5492871062406127E-002   2.8155178008595821E-002
   4.9256813905685037E-002  -1.4901009032749761E-002   2.8112616434582793E-002
   4.6680045715533469E-002  -1.4234242379418116E-002   2.8261980729461234E-002
   6.2191548948924980E-002  -1.8529395406010729E-002   8.5857477905992852E-004
   5.9421484253636581E-002  -1.7536487356109465E-002   7.6571614666143262E-004
   5.6651419558348237E-002  -1.6654030691349103E-002   7.8469756641191823E-004
   5.3881354863059866E-002  -1.5882025411728652E-002   9.1551903831027515E-004
   5.1111290167771495E-002  -1.5220471517249035E-002   1.1581805623579466E-003
   5.8373054561350113E-002  -1.7455607149362673E-002   7.8383943081485885E-003
   5.5717666000138222E-002  -1.6528945609609769E-002   7.6180649428658764E-003
   5.3062277438926331E-002  -1.5673271086643348E-002   7.5152477935879203E-003
   5.0406888877714495E-002  -1.4888583580463174E-002   7.5299428603142760E-003
   4.7751500316502549E-002  -1.4174883091069179E-002   7.6621501430453876E-003
   5.4514972559926628E-002  -1.6381818892714339E-002   1.4732235142911804E-002
   5.1979932296647019E-002  -1.5521403863110184E-002   1.4423899413099184E-002
   4.9444892033367535E-002  -1.4692511481937912E-002   1.4238748063147275E-002
   4.6909851770087989E-002  -1.3895141749197693E-002   1.4176781093055098E-002
   4.4374811506808443E-002  -1.3129294664889324E-002   1.4237998502823701E-002
   5.0617302944654337E-002  -1.5308030636066366E-002   2.1540097283349151E-002
   4.8208283143163000E-002  -1.4513862116610321E-002   2.1183219557361146E-002
   4.5799263341671656E-002  -1.3711751877232316E-002   2.0955198375089277E-002
   4.3390243540180340E-002  -1.2901699917932103E-002   2.0856033736533205E-002
   4.0981223738689024E-002  -1.2083706238709579E-002   2.0885725641693803E-002
   4.6680045715533469E-002  -1.4234242379418116E-002   2.8261980729461234E-002
   4.4402718539686137E-002  -1.3506320370110625E-002   2.7896025375651612E-002
   4.2125391363838888E-002  -1.2730992272526678E-002   2.7664598729414208E-002
   3.9848064187991653E-002  -1.1908258086666446E-002   2.7567700790748675E-002
   3.7570737012144362E-002  -1.1038117812529502E-002   2.7605331559655055E-002
   5.1111290167771495E-002  -1.5220471517249035E-002   1.1581805623579466E-003
   4.8285109223638378E-002  -1.4566224769183123E-002   6.6909896809308478E-004
   4.5458928279505206E-002  -1.3816140928803455E-002   2.9499080018724477E-004
   4.2632747335372090E-002  -1.2970219996110116E-002   3.5856058641425825E-005
   3.9806566391238918E-002  -1.2028461971103743E-002  -1.0830525654537126E-004
   4.7751500316502549E-002  -1.4174883091069179E-002   7.6621501430453876E-003
   4.5039735492051924E-002  -1.3468940233250515E-002   7.2312667066529723E-003
   4.2327970667601245E-002  -1.2707525621796251E-002   6.9142420832664642E-003
   3.9616205843150593E-002  -1.1890639256705339E-002   6.7110762728849194E-003
   3.6904441018699941E-002  -1.1018281137978869E-002   6.6217692755092816E-003
   4.4374811506808443E-002  -1.3129294664889324E-002   1.4237998502823701E-002
   4.1776348188686502E-002  -1.2371655697318351E-002   1.3824947885626632E-002
   3.9177884870564533E-002  -1.1598910314788380E-002   1.3524641468080606E-002
   3.6579421552442606E-002  -1.0811058517300340E-002   1.3337079250187039E-002
   3.3980958234320596E-002  -1.0008100304854106E-002   1.3262261231945183E-002
   4.0981223738689024E-002  -1.2083706238709579E-002   2.0885725641693803E-002
   3.8494947313541986E-002  -1.1274371161385743E-002   2.0450142505013834E-002
   3.6008670888394982E-002  -1.0490295007780842E-002   2.0126188954631835E-002
   3.3522394463247909E-002  -9.7314777778954517E-003   1.9913864990547793E-002
   3.1036118038100940E-002  -8.9979194717295097E-003   1.9813170612761888E-002
   3.7570737012144362E-002  -1.1038117812529502E-002   2.7605331559655055E-002
   3.5195532866618529E-002  -1.0177086625453080E-002   2.7106850564814766E-002
   3.2820328721092612E-002  -9.3816797007734987E-003   2.6718884542918986E-002
   3.0445124575566765E-002  -8.6518970384905566E-003   2.6441433493967104E-002
   2.8069920430040918E-002  -7.9877386386046911E-003   2.6274497417959619E-002
   3.9806566391238918E-002  -1.2028461971103743E-002  -1.0830525654537126E-004
   3.7410848510204486E-002  -1.1133116824412204E-002  -3.3613961879330745E-004
   3.5015130629170166E-002  -1.0426434526661810E-002  -4.9073297147561590E-004
   3.2619412748135790E-002  -9.9084150778547264E-003  -5.7208531459218559E-004
   3.0223694867101414E-002  -9.5790584779891219E-003  -5.8019664814401573E-004
   3.6904441018699941E-002  -1.1018281137978869E-002   6.6217692755092816E-003
   3.4566594096796577E-002  -1.0179089493383420E-002   6.2019736755666299E-003
   3.2228747174893213E-002  -9.4617025506854024E-003   5.8246789843202640E-003
   2.9890900252989794E-002  -8.8661203098856639E-003   5.4898852017700173E-003
   2.7553053331086486E-002  -8.3923427709824416E-003   5.1975923279162783E-003
   3.3980958234320596E-002  -1.0008100304854106E-002   1.3262261231945183E-002
   3.1670242170679042E-002  -9.2250621623554130E-003   1.2717362541352306E-002
   2.9359526107037570E-002  -8.4969705747094393E-003   1.2184224658586151E-002
   2.7048810043396085E-002  -7.8238255419163794E-003   1.1662847583647468E-002
   2.4738093979754544E-002  -7.2056270639759834E-003   1.1153231316536005E-002
   3.1036118038100940E-002  -8.9979194717295097E-003   1.9813170612761888E-002
   2.8721792731852033E-002  -8.2710348313273507E-003   1.9210026978563347E-002
   2.6407467425603237E-002  -7.5322385987330320E-003   1.8587904051323018E-002
   2.4093142119354413E-002  -6.7815307739472058E-003   1.7946801831040450E-002
   2.1778816813105582E-002  -6.0189113569694142E-003   1.7286720317716234E-002
   2.8069920430040918E-002  -7.9877386386046911E-003   2.6274497417959619E-002
   2.5721245780315538E-002  -7.3170075002989554E-003   2.5679966987200542E-002
   2.3372571130590214E-002  -6.5675066227565138E-003   2.5035717162529947E-002
   2.1023896480864890E-002  -5.7392360059781156E-003   2.4341747943948472E-002
   1.8675221831139510E-002  -4.8321956499628449E-003   2.3598059331455978E-002
   3.0223694867101414E-002  -9.5790584779891219E-003  -5.8019664814401573E-004
   2.9613427493310529E-002  -9.1349715837442114E-003  -3.4711195388492655E-004
   2.9003160119519644E-002  -8.2727612517990434E-003  -1.7933075218701244E-003
   2.8392892745728732E-002  -6.9924274821521887E-003  -4.9187833521007196E-003
   2.7782625371937875E-002  -5.2939702748042716E-003  -9.7235394445760459E-003
   2.7553053331086486E-002  -8.3923427709824416E-003   5.1975923279162783E-003
   2.5532542591709673E-002  -7.8712295074386818E-003   5.8726958979580246E-003
   2.3512031852332804E-002  -7.1336400927152210E-003   5.4065929990728123E-003
   2.1491521112955908E-002  -6.1795745268122537E-003   3.7992836312600864E-003
   1.9471010373579012E-002  -5.0090328097303072E-003   1.0507677945208460E-003
   2.4738093979754544E-002  -7.2056270639759834E-003   1.1153231316536005E-002
   2.1845413668109631E-002  -6.6074874311330967E-003   1.2068706475838409E-002
   1.8952733356464732E-002  -5.9945189336320370E-003   1.2381048959531987E-002
   1.6060053044819854E-002  -5.3667215714723118E-003   1.2090258767616158E-002
   1.3167372733174892E-002  -4.7240953446551215E-003   1.1196335900091448E-002
   2.1778816813105582E-002  -6.0189113569694142E-003   1.7286720317716234E-002
   1.8552040722510606E-002  -5.3437453548275393E-003   1.8240919779758086E-002
   1.5325264631915605E-002  -4.8553977745485338E-003   1.9130060359508531E-002
   1.2098488541320609E-002  -4.5538686161332616E-003   1.9954142056968240E-002
   8.8717124507256273E-003  -4.4391578795809905E-003   2.0713164872136799E-002
   1.8675221831139510E-002  -4.8321956499628449E-003   2.3598059331455978E-002
   1.5652423754912381E-002  -4.0800032785217044E-003   2.4389335809715917E-002
   1.2629625678685252E-002  -3.7162766154649751E-003   2.5653627199002271E-002
   9.6068276024581511E-003  -3.7410156607933648E-003   2.7390933499315928E-002
   6.5840295262309945E-003  -4.1542204145061934E-003   2.9601254710655889E-002
   2.7782625371937875E-002  -5.2939702748042716E-003  -9.7235394445760459E-003
   2.3354712298441882E-002  -4.2031242526139323E-003  -4.1924623453004628E-003
   1.8926799224945834E-002  -4.7456240384405324E-003   2.6035785295911440E-003
   1.4498886151449675E-002  -6.9214696322815322E-003   1.0664583180098497E-002
   1.0070973077953793E-002  -1.0730661034139999E-002   1.9990551606221096E-002
   1.9471010373579012E-002  -5.0090328097303072E-003   1.0507677945208460E-003
   1.6235581897385609E-002  -4.6883768216090527E-003   6.7425463648782546E-003
   1.3000153421192095E-002  -6.2839684425917142E-003   1.3554330354225486E-002
   9.7647249449986095E-003  -9.7958076726767374E-003   2.1486119762561762E-002
   6.5292964688050681E-003  -1.5223894511865677E-002   3.0537914589888082E-002
   1.3167372733174892E-002  -4.7240953446551215E-003   1.1196335900091448E-002
   1.0979470497657573E-002  -5.1736293906041730E-003   1.6765914140444316E-002
   8.7915682621402397E-003  -7.8223128467433123E-003   2.3310539443159667E-002
   6.6036660266228786E-003  -1.2670145713072158E-002   3.0830211808238625E-002
   4.4157637911055869E-003  -1.9717127989591798E-002   3.9324931235680038E-002
   8.8717124507256273E-003  -4.4391578795809905E-003   2.0713164872136799E-002
   7.5863780992579954E-003  -5.6588819595988493E-003   2.5877640981397276E-002
   6.3010437477904191E-003  -9.3606572508942582E-003   3.1872205796394291E-002
   5.0157093963228427E-003  -1.5544483753467026E-002   3.8696859317127755E-002
   3.7303750448551137E-003  -2.4210361467317254E-002   4.6351601543598298E-002
   6.5840295262309945E-003  -4.1542204145061934E-003   2.9601254710655889E-002
   6.0563047021867655E-003  -6.1441345285938587E-003   3.4077726887737358E-002
   5.5285798781426476E-003  -1.0899001655045537E-002   3.9239329413928381E-002
   5.0008550540984603E-003  -1.8418821793862089E-002   4.5086062289229956E-002
   4.4731302300542453E-003  -2.8703594945043154E-002   5.1617925513641971E-002
   7.6968147857750968E-002  -2.0991309847785911E-002   3.0616135591381211E-002
   7.3819353229467644E-002  -2.2145597303999731E-002   2.8642123217622051E-002
   7.0670558601184263E-002  -2.2480196114564394E-002   2.7523038504065178E-002
   6.7521763972900939E-002  -2.1995106279479711E-002   2.7258881450710148E-002
   6.4372969344617614E-002  -2.0690327798745689E-002   2.7849652057557295E-002
   6.9115123625237779E-002  -2.0194143691989352E-002   3.3201959340802445E-002
   6.6664705912790029E-002  -2.0188644582725651E-002   3.2671407420505366E-002
   6.4214288200342265E-002  -1.9882388277071811E-002   3.2682681671677399E-002
   6.1763870487894494E-002  -1.9275374775027727E-002   3.3235782094318558E-002
   5.9313452775446779E-002  -1.8367604076593380E-002   3.4330708688428468E-002
   6.2301887669533457E-002  -1.9396977536192711E-002   3.7207035380330461E-002
   6.0236745384188273E-002  -1.8231691861451571E-002   3.7601012464236444E-002
   5.8171603098843033E-002  -1.7284580439579242E-002   3.8223714230878642E-002
   5.6106460813497856E-002  -1.6555643270575713E-002   3.9075140680256575E-002
   5.4041318528152610E-002  -1.6044880354440960E-002   4.0155291812370736E-002
   5.6528439990638092E-002  -1.8599811380396125E-002   4.2631363709965724E-002
   5.4535471643662320E-002  -1.6274739140177449E-002   4.3430938348815638E-002
   5.2542503296686596E-002  -1.4686772602086721E-002   4.4146136181668738E-002
   5.0549534949710859E-002  -1.3835911766123659E-002   4.4776957208524794E-002
   4.8556566602735135E-002  -1.3722156632288596E-002   4.5323401429383639E-002
   5.1794780588551526E-002  -1.7802645224599511E-002   4.9474944329707726E-002
   4.9560884691212226E-002  -1.4317786418903383E-002   5.0161185074242720E-002
   4.7326988793872954E-002  -1.2088964764594048E-002   5.0449947524047828E-002
   4.5093092896533654E-002  -1.1116180261671733E-002   5.0341231679122841E-002
   4.2859196999194382E-002  -1.1399432910136176E-002   4.9835037539467719E-002
   6.4372969344617614E-002  -2.0690327798745689E-002   2.7849652057557295E-002
   6.2526506627498146E-002  -1.9139457786823577E-002   2.8005588777055557E-002
   6.0680043910378734E-002  -1.7916093358173735E-002   2.8218638801178197E-002
   5.8833581193259266E-002  -1.7020234512797008E-002   2.8488802129925495E-002
   5.6987118476139853E-002  -1.6451881250692579E-002   2.8816078763297059E-002
   5.9313452775446779E-002  -1.8367604076593380E-002   3.4330708688428468E-002
   5.7550325445770933E-002  -1.7380078210081404E-002   3.4065873590868781E-002
   5.5787198116095102E-002  -1.6533799203804642E-002   3.3910595963571655E-002
   5.4024070786419243E-002  -1.5828767057762937E-002   3.3864875806537326E-002
   5.2260943456743425E-002  -1.5264981771956343E-002   3.3928713119765724E-002
   5.4041318528152610E-002  -1.6044880354440960E-002   4.0155291812370736E-002
   5.2413970751558625E-002  -1.5620698633339369E-002   3.9655943620790293E-002
   5.0786622974964640E-002  -1.5151505049435438E-002   3.9318597065111038E-002
   4.9159275198370697E-002  -1.4637299602728977E-002   3.9143252145332791E-002
   4.7531927421776685E-002  -1.4078082293220079E-002   3.9129908861455315E-002
   4.8556566602735135E-002  -1.3722156632288596E-002   4.5323401429383639E-002
   4.7117442544861332E-002  -1.3861319056597321E-002   4.4775798866820454E-002
   4.5678318486987467E-002  -1.3769210895066206E-002   4.4442642105796466E-002
   4.4239194429113615E-002  -1.3445832147694976E-002   4.4323931146311710E-002
   4.2800070371239791E-002  -1.2891182814483912E-002   4.4419665988366226E-002
   4.2859196999194382E-002  -1.1399432910136176E-002   4.9835037539467719E-002
   4.1660740825678944E-002  -1.2101939479855189E-002   4.9425439328958987E-002
   4.0462284652163491E-002  -1.2386916740697099E-002   4.9282731085627779E-002
   3.9263828478648038E-002  -1.2254364692661047E-002   4.9406912809474041E-002
   3.8065372305132600E-002  -1.1704283335747578E-002   4.9797984500498049E-002
   5.6987118476139853E-002  -1.6451881250692579E-002   2.8816078763297059E-002
   5.4410350285988257E-002  -1.6009828468386944E-002   2.8389665451500956E-002
   5.1833582095836661E-002  -1.5492871062406127E-002   2.8155178008595821E-002
   4.9256813905685037E-002  -1.4901009032749761E-002   2.8112616434582793E-002
   4.6680045715533469E-002  -1.4234242379418116E-002   2.8261980729461234E-002
   5.2260943456743425E-002  -1.5264981771956343E-002   3.3928713119765724E-002
   4.9875020900344749E-002  -1.4745340125013356E-002   3.3562310660352174E-002
   4.7489098343946046E-002  -1.4172738895562725E-002   3.3385673599552829E-002
   4.5103175787547342E-002  -1.3547178083604290E-002   3.3398801937368022E-002
   4.2717253231148666E-002  -1.2868657689138141E-002   3.3601695673797283E-002
   4.7531927421776685E-002  -1.4078082293220079E-002   3.9129908861455315E-002
   4.5334690028853715E-002  -1.3480851781639935E-002   3.8801572213257030E-002
   4.3137452635930787E-002  -1.2852606728719559E-002   3.8660840493395632E-002
   4.0940215243007810E-002  -1.2193347134458989E-002   3.8707713701871434E-002
   3.8742977850084820E-002  -1.1503072998858194E-002   3.8942191838684428E-002
   4.2800070371239791E-002  -1.2891182814483912E-002   4.4419665988366226E-002
   4.0789357671515321E-002  -1.2216363438266348E-002   4.4107450110215184E-002
   3.8778644971790857E-002  -1.1532474561876331E-002   4.3980678690124342E-002
   3.6767932272066380E-002  -1.0839516185313603E-002   4.4039351728093236E-002
   3.4757219572341916E-002  -1.0137488308578177E-002   4.4283469224122074E-002
   3.8065372305132600E-002  -1.1704283335747578E-002   4.9797984500498049E-002
   3.6239023828329470E-002  -1.0951875094892982E-002   4.9479944351226990E-002
   3.4412675351526284E-002  -1.0212342395033019E-002   4.9345188189738876E-002
   3.2586326874723112E-002  -9.4856852361682245E-003   4.9393716016033623E-002
   3.0759978397919968E-002  -8.7719036182982713E-003   4.9625527830110649E-002
   4.6680045715533469E-002  -1.4234242379418116E-002   2.8261980729461234E-002
   4.4402718539686137E-002  -1.3506320370110625E-002   2.7896025375651612E-002
   4.2125391363838888E-002  -1.2730992272526678E-002   2.7664598729414208E-002
   3.9848064187991653E-002  -1.1908258086666446E-002   2.7567700790748675E-002
   3.7570737012144362E-002  -1.1038117812529502E-002   2.7605331559655055E-002
   4.2717253231148666E-002  -1.2868657689138141E-002   3.3601695673797283E-002
   4.0580872346945324E-002  -1.2155098784345453E-002   3.3262936770591889E-002
   3.8444491462741981E-002  -1.1424422441406873E-002   3.3071541743101979E-002
   3.6308110578538666E-002  -1.0676628660323047E-002   3.3027510591328482E-002
   3.4171729694335323E-002  -9.9117174410934261E-003   3.3130843315270608E-002
   3.8742977850084820E-002  -1.1503072998858194E-002   3.8942191838684428E-002
   3.6760378425669343E-002  -1.0803877198579975E-002   3.8600340735951671E-002
   3.4777779001253943E-002  -1.0117852610287172E-002   3.8418688677079142E-002
   3.2795179576838515E-002  -9.4449992339796455E-003   3.8397235662066195E-002
   3.0812580152423066E-002  -8.7853170696572946E-003   3.8535981690913157E-002
   3.4757219572341916E-002  -1.0137488308578177E-002   4.4283469224122074E-002
   3.2941236775858300E-002  -9.4526556128147060E-003   4.3908237271731786E-002
   3.1125253979374636E-002  -8.8112827791672794E-003   4.3706039531345157E-002
   2.9309271182890968E-002  -8.2133698076361887E-003   4.3676876002962210E-002
   2.7493288386407359E-002  -7.6589166982210799E-003   4.3820746686583083E-002
   3.0759978397919968E-002  -8.7719036182982713E-003   4.9625527830110649E-002
   2.9123447397512076E-002  -8.1014340270493257E-003   4.9186626377931586E-002
   2.7486916397104155E-002  -7.5047129480476371E-003   4.8933594305900330E-002
   2.5850385396696263E-002  -6.9817403812928933E-003   4.8866431614016381E-002
   2.4213854396288342E-002  -6.5325163267849762E-003   4.8985138302280573E-002
   3.7570737012144362E-002  -1.1038117812529502E-002   2.7605331559655055E-002
   3.5195532866618529E-002  -1.0177086625453080E-002   2.7106850564814766E-002
   3.2820328721092612E-002  -9.3816797007734987E-003   2.6718884542918986E-002
   3.0445124575566765E-002  -8.6518970384905566E-003   2.6441433493967104E-002
   2.8069920430040918E-002  -7.9877386386046911E-003   2.6274497417959619E-002
   3.4171729694335323E-002  -9.9117174410934261E-003   3.3130843315270608E-002
   3.1916169726506904E-002  -9.1541350886892303E-003   3.2632649583983209E-002
   2.9660609758678458E-002  -8.4283279080822060E-003   3.2263229235146601E-002
   2.7405049790850053E-002  -7.7342958992715968E-003   3.2022582268760369E-002
   2.5149489823021592E-002  -7.0720390622570628E-003   3.1910708684824929E-002
   3.0812580152423066E-002  -8.7853170696572946E-003   3.8535981690913157E-002
   2.8694922771798248E-002  -8.1311835519257414E-003   3.8071924313779260E-002
   2.6577265391173506E-002  -7.4749761153908162E-003   3.7754898728602229E-002
   2.4459608010548712E-002  -6.8166947600520854E-003   3.7584904935381767E-002
   2.2341950629923946E-002  -6.1563394859097675E-003   3.7561942934118464E-002
   2.7493288386407359E-002  -7.6589166982210799E-003   4.3820746686583083E-002
   2.5531792002492500E-002  -7.1082320151622386E-003   4.3424674754202787E-002
   2.3570295618577673E-002  -6.5216243226994750E-003   4.3193893023285523E-002
   2.1608799234662864E-002  -5.8990936208329053E-003   4.3128401493831230E-002
   1.9647302850747991E-002  -5.2406399095623057E-003   4.3228200165839975E-002
   2.4213854396288342E-002  -6.5325163267849762E-003   4.8985138302280573E-002
   2.2426777418589700E-002  -6.0852804783984582E-003   4.8690900905253964E-002
   2.0639700440891043E-002  -5.5682725300080504E-003   4.8580212119196942E-002
   1.8852623463192421E-002  -4.9814924816133713E-003   4.8653071944108922E-002
   1.7065546485493799E-002  -4.3249403332147329E-003   4.8909480379990544E-002
   2.8069920430040918E-002  -7.9877386386046911E-003   2.6274497417959619E-002
   2.5721245780315538E-002  -7.3170075002989554E-003   2.5679966987200542E-002
   2.3372571130590214E-002  -6.5675066227565138E-003   2.5035717162529947E-002
   2.1023896480864890E-002  -5.7392360059781156E-003   2.4341747943948472E-002
   1.8675221831139510E-002  -4.8321956499628449E-003   2.3598059331455978E-002
   2.5149489823021592E-002  -7.0720390622570628E-003   3.1910708684824929E-002
   2.2788711251146621E-002  -6.4137170421687539E-003   3.1518022778339871E-002
   2.0427932679271718E-002  -5.7314894841341835E-003   3.1150848421466842E-002
   1.8067154107396781E-002  -5.0253563881536636E-003   3.0809185614205536E-002
   1.5706375535521844E-002  -4.2953177542274235E-003   3.0493034356556648E-002
   2.2341950629923946E-002  -6.1563394859097675E-003   3.7561942934118464E-002
   2.0044299079422415E-002  -5.5104265840380529E-003   3.7316237350616982E-002
   1.7746647528920911E-002  -4.8954723455111870E-003   3.7171274260250742E-002
   1.5448995978419366E-002  -4.3114767703292117E-003   3.7127053663019424E-002
   1.3151344427917891E-002  -3.7584398584922241E-003   3.7183575558922877E-002
   1.9647302850747991E-002  -5.2406399095623057E-003   4.3228200165839975E-002
   1.7488009265142983E-002  -4.6071361259074906E-003   4.3074610704031756E-002
   1.5328715679537884E-002  -4.0594552068884127E-003   4.3096994678881465E-002
   1.3169422093932792E-002  -3.5975971525046488E-003   4.3295352090388990E-002
   1.1010128508327721E-002  -3.2215619627568026E-003   4.3669682938554708E-002
   1.7065546485493799E-002  -4.3249403332147329E-003   4.8909480379990544E-002
   1.5119841808308165E-002  -3.7038456677770948E-003   4.8793142838584269E-002
   1.3174137131122560E-002  -3.2234380682655828E-003   4.8928009677359052E-002
   1.1228432453936940E-002  -2.8837175346803495E-003   4.9314080896314949E-002
   9.2827277767513205E-003  -2.6846840670216032E-003   4.9951356495451793E-002
   1.8675221831139510E-002  -4.8321956499628449E-003   2.3598059331455978E-002
   1.5652423754912381E-002  -4.0800032785217044E-003   2.4389335809715917E-002
   1.2629625678685252E-002  -3.7162766154649751E-003   2.5653627199002271E-002
   9.6068276024581511E-003  -3.7410156607933648E-003   2.7390933499315928E-002
   6.5840295262309945E-003  -4.1542204145061934E-003   2.9601254710655889E-002
   1.5706375535521844E-002  -4.2953177542274235E-003   3.0493034356556648E-002
   1.3138585504012451E-002  -3.7737160427166461E-003   3.1265496610940802E-002
   1.0570795472503017E-002  -3.6928937139818485E-003   3.2474960043733042E-002
   8.0030054409935547E-003  -4.0528507680232251E-003   3.4121424654934382E-002
   5.4352154094841898E-003  -4.8535872048408590E-003   3.6204890444543891E-002
   1.3151344427917891E-002  -3.7584398584922241E-003   3.7183575558922877E-002
   1.1002548708507962E-002  -3.4674288069113934E-003   3.7884909915039400E-002
   8.8537529890980529E-003  -3.6695108124983056E-003   3.8987231716946402E-002
   6.7049572696881513E-003  -4.3646858752530923E-003   4.0490540964643731E-002
   4.5561615502782149E-003  -5.5529539951754137E-003   4.2394837658131235E-002
   1.1010128508327721E-002  -3.2215619627568026E-003   4.3669682938554708E-002
   9.2443133683990202E-003  -3.1611415711063490E-003   4.4247575722012406E-002
   7.4784982284703677E-003  -3.6461279110150818E-003   4.5190442218642317E-002
   5.7126830885416372E-003  -4.6765209824828451E-003   4.6498282428444254E-002
   3.9468679486129588E-003  -6.2523207855095797E-003   4.8171096351418877E-002
   9.2827277767513205E-003  -2.6846840670216032E-003   4.9951356495451793E-002
   7.8638794836856374E-003  -2.8548543353009714E-003   5.0353494031859403E-002
   6.4450311906199542E-003  -3.6227450095316638E-003   5.1084591548820779E-002
   5.0261828975542433E-003  -4.9883560897126603E-003   5.2144649046336061E-002
   3.6073346044885879E-003  -6.9516875758445229E-003   5.3533666524405388E-002
   6.5840295262309945E-003  -4.1542204145061934E-003   2.9601254710655889E-002
   6.0563047021867655E-003  -6.1441345285938587E-003   3.4077726887737358E-002
   5.5285798781426476E-003  -1.0899001655045537E-002   3.9239329413928381E-002
   5.0008550540984603E-003  -1.8418821793862089E-002   4.5086062289229956E-002
   4.4731302300542453E-003  -2.8703594945043154E-002   5.1617925513641971E-002
   5.4352154094841898E-003  -4.8535872048408590E-003   3.6204890444543891E-002
   5.4886773512064224E-003  -6.9916442105866783E-003   3.8347771912099871E-002
   5.5421392929285301E-003  -1.1363562971412861E-002   4.0967896562077943E-002
   5.5956012346507350E-003  -1.7969343487319718E-002   4.4065264394478526E-002
   5.6490631763728705E-003  -2.6808985758306925E-002   4.7639875409301480E-002
   4.5561615502782149E-003  -5.5529539951754137E-003   4.2394837658131235E-002
   4.9829230910791306E-003  -7.8391538925796644E-003   4.2735219673445568E-002
   5.4096846318800046E-003  -1.1828124287779962E-002   4.3344957704495091E-002
   5.8364461726809029E-003  -1.7519865180777180E-002   4.4224051751279261E-002
   6.2632077134818498E-003  -2.4914376571570473E-002   4.5372501813798705E-002
   3.9468679486129588E-003  -6.2523207855095797E-003   4.8171096351418877E-002
   4.5390419218050045E-003  -8.6866635745726783E-003   4.7240070171775679E-002
   5.1312158949969721E-003  -1.2292685604147618E-002   4.6370512841179851E-002
   5.7233898681889632E-003  -1.7070386874234837E-002   4.5562424359631315E-002
   6.3155638413809820E-003  -2.3019767384834133E-002   4.4815804727129760E-002
   3.6073346044885879E-003  -6.9516875758445229E-003   5.3533666524405388E-002
   4.1570338433840059E-003  -9.5341732565654702E-003   5.1862323407089073E-002
   4.7067330822795073E-003  -1.2757246920514304E-002   5.0044561972132751E-002
   5.2564323211750086E-003  -1.6620908567692085E-002   4.8080382219535783E-002
   5.8061315600704821E-003  -2.1125158198097793E-002   4.5969784149298309E-002
   5.1794780588551526E-002  -1.7802645224599511E-002   4.9474944329707726E-002
   4.9560884691212226E-002  -1.4317786418903383E-002   5.0161185074242720E-002
   4.7326988793872954E-002  -1.2088964764594048E-002   5.0449947524047828E-002
   4.5093092896533654E-002  -1.1116180261671733E-002   5.0341231679122841E-002
   4.2859196999194382E-002  -1.1399432910136176E-002   4.9835037539467719E-002
   4.7061573683209568E-002  -1.4563291195010819E-002   5.6584297487666690E-002
   4.4590395578727071E-002  -1.2580537185495122E-002   5.5435562561285567E-002
   4.2119217474244491E-002  -1.1254322974959263E-002   5.4209741515347964E-002
   3.9648039369761939E-002  -1.0584648563403354E-002   5.2906834349853854E-002
   3.7176861265279401E-002  -1.0571513950827394E-002   5.1526841064803514E-002
   4.1289483494547974E-002  -1.1323937165422127E-002   6.1891797173241600E-002
   3.8901415358095826E-002  -1.0843287952086791E-002   5.9507583928351232E-002
   3.6513347221643622E-002  -1.0419681185324416E-002   5.7366676739077992E-002
   3.4125279085191459E-002  -1.0053116865134945E-002   5.5469075605422052E-002
   3.1737210948739283E-002  -9.7435949915185283E-003   5.3814780527383185E-002
   3.4478510022566689E-002  -8.0845831358334203E-003   6.5397443386432844E-002
   3.2493944029318586E-002  -9.1060387186784816E-003   6.2377249175440103E-002
   3.0509378036070428E-002  -9.5850393956895714E-003   5.9920753195238215E-002
   2.8524812042822242E-002  -9.5215851668665787E-003   5.8027955445827166E-002
   2.6540246049574112E-002  -8.9156760322096490E-003   5.6698855927206956E-002
   2.6628653267265767E-002  -4.8452291062447417E-003   6.7101236127240116E-002
   2.5367981592395256E-002  -7.3687894852701996E-003   6.4044558302552013E-002
   2.4107309917524772E-002  -8.7503976060547689E-003   6.1871970883828370E-002
   2.2846638242654260E-002  -8.9900534685981824E-003   6.0583473871069229E-002
   2.1585966567783763E-002  -8.0877570729008808E-003   6.0179067264274577E-002
   4.2859196999194382E-002  -1.1399432910136176E-002   4.9835037539467719E-002
   4.1660740825678944E-002  -1.2101939479855189E-002   4.9425439328958987E-002
   4.0462284652163491E-002  -1.2386916740697099E-002   4.9282731085627779E-002
   3.9263828478648038E-002  -1.2254364692661047E-002   4.9406912809474041E-002
   3.8065372305132600E-002  -1.1704283335747578E-002   4.9797984500498049E-002
   3.7176861265279401E-002  -1.0571513950827394E-002   5.1526841064803514E-002
   3.6208256922880946E-002  -1.0774360589521900E-002   5.1643943438267351E-002
   3.5239652580482485E-002  -1.0752629931777585E-002   5.1953859506787478E-002
   3.4271048238084023E-002  -1.0506321977594761E-002   5.2456589270364042E-002
   3.3302443895685555E-002  -1.0035436726973046E-002   5.3152132728997104E-002
   3.1737210948739283E-002  -9.7435949915185283E-003   5.3814780527383185E-002
   3.0924382165336724E-002  -9.4467816991884584E-003   5.4265631472380699E-002
   3.0111553381934157E-002  -9.1183431228584536E-003   5.4835219840313525E-002
   2.9298724598531577E-002  -8.7582792625284737E-003   5.5523545631181767E-002
   2.8485895815129003E-002  -8.3665901181984026E-003   5.6330608844985197E-002
   2.6540246049574112E-002  -8.9156760322096490E-003   5.6698855927206956E-002
   2.5809116553046327E-002  -8.1192028088551207E-003   5.7290503431299440E-002
   2.5077987056518557E-002  -7.4840563139391032E-003   5.7926812086206085E-002
   2.4346857559990779E-002  -7.0102365474621871E-003   5.8607781891926947E-002
   2.3615728063463005E-002  -6.6977435094238147E-003   5.9333412848462171E-002
   2.1585966567783763E-002  -8.0877570729008808E-003   6.0179067264274577E-002
   2.0862460086009685E-002  -6.7916239185217830E-003   6.0718559315023235E-002
   2.0138953604235621E-002  -5.8497695050199194E-003   6.1228636244465007E-002
   1.9415447122461557E-002  -5.2621938323959561E-003   6.1709298052599948E-002
   1.8691940640687493E-002  -5.0288969006492268E-003   6.2160544739428114E-002
   3.8065372305132600E-002  -1.1704283335747578E-002   4.9797984500498049E-002
   3.6239023828329470E-002  -1.0951875094892982E-002   4.9479944351226990E-002
   3.4412675351526284E-002  -1.0212342395033019E-002   4.9345188189738876E-002
   3.2586326874723112E-002  -9.4856852361682245E-003   4.9393716016033623E-002
   3.0759978397919968E-002  -8.7719036182982713E-003   4.9625527830110649E-002
   3.3302443895685555E-002  -1.0035436726973046E-002   5.3152132728997104E-002
   3.1675385812606080E-002  -9.4536095760219818E-003   5.2788694796170099E-002
   3.0048327729526543E-002  -8.8744759208514712E-003   5.2640553663007739E-002
   2.8421269646447051E-002  -8.2980357614609382E-003   5.2707709329509980E-002
   2.6794211563367532E-002  -7.7242890978508338E-003   5.2990161795676727E-002
   2.8485895815129003E-002  -8.3665901181984026E-003   5.6330608844985197E-002
   2.7090140937655105E-002  -7.9553440571511758E-003   5.5931955173816689E-002
   2.5694386060181172E-002  -7.5366094466696315E-003   5.5780611114194759E-002
   2.4298631182707236E-002  -7.1103862867537594E-003   5.5876576666119344E-002
   2.2902876305233341E-002  -6.6766745774033964E-003   5.6219851829590273E-002
   2.3615728063463005E-002  -6.6977435094238147E-003   5.9333412848462171E-002
   2.2483289203476545E-002  -6.4570785382803003E-003   5.8909725484166779E-002
   2.1350850343490081E-002  -6.1987429724878820E-003   5.8765360543299797E-002
   2.0218411483503635E-002  -5.9227368120465824E-003   5.8900318025861348E-002
   1.9085972623517158E-002  -5.6290600569560700E-003   5.9314597931851197E-002
   1.8691940640687493E-002  -5.0288969006492268E-003   6.2160544739428114E-002
   1.7854830610070427E-002  -4.9588130194094249E-003   6.1722005727220475E-002
   1.7017720579453346E-002  -4.8608764983063268E-003   6.1594801950323269E-002
   1.6180610548836280E-002  -4.7350873373393984E-003   6.1778933408736358E-002
   1.5343500518219200E-002  -4.5814455365085216E-003   6.2274400102459770E-002
   3.0759978397919968E-002  -8.7719036182982713E-003   4.9625527830110649E-002
   2.9123447397512076E-002  -8.1014340270493257E-003   4.9186626377931586E-002
   2.7486916397104155E-002  -7.5047129480476371E-003   4.8933594305900330E-002
   2.5850385396696263E-002  -6.9817403812928933E-003   4.8866431614016381E-002
   2.4213854396288342E-002  -6.5325163267849762E-003   4.8985138302280573E-002
   2.6794211563367532E-002  -7.7242890978508338E-003   5.2990161795676727E-002
   2.5343025939338099E-002  -7.1691089592210711E-003   5.2571073882932917E-002
   2.3891840315308652E-002  -6.6483683747711464E-003   5.2336807342798441E-002
   2.2440654691279219E-002  -6.1620673445016774E-003   5.2287362175272842E-002
   2.0989469067249772E-002  -5.7102058684119772E-003   5.2422738380356881E-002
   2.2902876305233341E-002  -6.6766745774033964E-003   5.6219851829590273E-002
   2.1635988050043811E-002  -6.2367838913925944E-003   5.5859886414348831E-002
   2.0369099794854309E-002  -5.7920238014948916E-003   5.5683694364177874E-002
   1.9102211539664796E-002  -5.3423943077104651E-003   5.5691275679077674E-002
   1.7835323284475284E-002  -4.8878954100390337E-003   5.5882630359048308E-002
   1.9085972623517158E-002  -5.6290600569560700E-003   5.9314597931851197E-002
   1.8002333729629148E-002  -5.3044588235642842E-003   5.9053063972178930E-002
   1.6918694835741092E-002  -4.9356792282186854E-003   5.8974255370038781E-002
   1.5835055941853079E-002  -4.5227212709192510E-003   5.9078172125430886E-002
   1.4751417047965036E-002  -4.0655849516659515E-003   5.9364814238355178E-002
   1.5343500518219200E-002  -4.5814455365085216E-003   6.2274400102459770E-002
   1.4442062978094139E-002  -4.3721337557358075E-003   6.2150606556423682E-002
   1.3540625437969050E-002  -4.0793346549423126E-003   6.2208490360381175E-002
   1.2639187897843969E-002  -3.7030482341281062E-003   6.2448051514332525E-002
   1.1737750357718901E-002  -3.2432744932930913E-003   6.2869290018277346E-002
   2.4213854396288342E-002  -6.5325163267849762E-003   4.8985138302280573E-002
   2.2426777418589700E-002  -6.0852804783984582E-003   4.8690900905253964E-002
   2.0639700440891043E-002  -5.5682725300080504E-003   4.8580212119196942E-002
   1.8852623463192421E-002  -4.9814924816133713E-003   4.8653071944108922E-002
   1.7065546485493799E-002  -4.3249403332147329E-003   4.8909480379990544E-002
   2.0989469067249772E-002  -5.7102058684119772E-003   5.2422738380356881E-002
   1.9391296863370072E-002  -5.2586381998299681E-003   5.2255908712028565E-002
   1.7793124659490386E-002  -4.7732185920835168E-003   5.2283339980368881E-002
   1.6194952455610680E-002  -4.2539470451717215E-003   5.2505032185377956E-002
   1.4596780251731001E-002  -3.7008235590952898E-003   5.2920985327055192E-002
   1.7835323284475284E-002  -4.8878954100390337E-003   5.5882630359048308E-002
   1.6436768180113866E-002  -4.4319959212614501E-003   5.5807288258579058E-002
   1.5038213075752444E-002  -3.9781646541583032E-003   5.5936919420477751E-002
   1.3639657971391038E-002  -3.5264016087298462E-003   5.6271523844744258E-002
   1.2241102867029605E-002  -3.0767067849759022E-003   5.6811101531378722E-002
   1.4751417047965036E-002  -4.0655849516659515E-003   5.9364814238355178E-002
   1.3563191368821129E-002  -3.6053536426928351E-003   5.9345039544905651E-002
   1.2374965689677251E-002  -3.1831107162335961E-003   5.9540950439523177E-002
   1.1186740010533359E-002  -2.7988561722880837E-003   5.9952546922207896E-002
   9.9985143313894680E-003  -2.4525900108562648E-003   6.0579828992959828E-002
   1.1737750357718901E-002  -3.2432744932930913E-003   6.2869290018277346E-002
   1.0770566429491840E-002  -2.7787113641243866E-003   6.2869162571007997E-002
   9.8033825012647929E-003  -2.3880567783085005E-003   6.3095433037505200E-002
   8.8361985730377388E-003  -2.0713107358461408E-003   6.3548101417768843E-002
   7.8690146448106846E-003  -1.8284732367370715E-003   6.4227167711798705E-002
   1.7065546485493799E-002  -4.3249403332147329E-003   4.8909480379990544E-002
   1.5119841808308165E-002  -3.7038456677770948E-003   4.8793142838584269E-002
   1.3174137131122560E-002  -3.2234380682655828E-003   4.8928009677359052E-002
   1.1228432453936940E-002  -2.8837175346803495E-003   4.9314080896314949E-002
   9.2827277767513205E-003  -2.6846840670216032E-003   4.9951356495451793E-002
   1.4596780251731001E-002  -3.7008235590952898E-003   5.2920985327055192E-002
   1.2903204645006203E-002  -3.1948306333055010E-003   5.2784261262158794E-002
   1.1209629038281418E-002  -2.8169507672525240E-003   5.2900590958002730E-002
   9.5160534315566689E-003  -2.5671839609374414E-003   5.3269974414587043E-002
   7.8224778248318638E-003  -2.4455302143596702E-003   5.3892411631912496E-002
   1.2241102867029605E-002  -3.0767067849759022E-003   5.6811101531378722E-002
   1.0801505711325307E-002  -2.6858155988334909E-003   5.6666564949180154E-002
   9.3619085556210721E-003  -2.4104634662394930E-003   5.6776931508281780E-002
   7.9223113999168059E-003  -2.2506503871944292E-003   5.7142201208683963E-002
   6.4827142442125396E-003  -2.2063763616977372E-003   5.7762374050386284E-002
   9.9985143313894680E-003  -2.4525900108562648E-003   6.0579828992959828E-002
   8.8147450072654336E-003  -2.1768005643615779E-003   6.0440053899648155E-002
   7.6309756831414149E-003  -2.0039761652266147E-003   6.0557031328196419E-002
   6.4472063590174091E-003  -1.9341168134512469E-003   6.0930761278604764E-002
   5.2634370348933618E-003  -1.9672225090357487E-003   6.1561243750873705E-002
   7.8690146448106846E-003  -1.8284732367370715E-003   6.4227167711798705E-002
   6.9429225328266064E-003  -1.6677855298898869E-003   6.4104728113562937E-002
   6.0168304208425005E-003  -1.5974888642132923E-003   6.4240890417746888E-002
   5.0907383088584154E-003  -1.6175832397085366E-003   6.4635654624350641E-002
   4.1646461968743165E-003  -1.7280686563738712E-003   6.5289020733374059E-002
   9.2827277767513205E-003  -2.6846840670216032E-003   4.9951356495451793E-002
   7.8638794836856374E-003  -2.8548543353009714E-003   5.0353494031859403E-002
   6.4450311906199542E-003  -3.6227450095316638E-003   5.1084591548820779E-002
   5.0261828975542433E-003  -4.9883560897126603E-003   5.2144649046336061E-002
   3.6073346044885879E-003  -6.9516875758445229E-003   5.3533666524405388E-002
   7.8224778248318638E-003  -2.4455302143596702E-003   5.3892411631912496E-002
   6.7057041672141660E-003  -2.6420297319786346E-003   5.3835193257210423E-002
   5.5889305095964403E-003  -3.3467227182548409E-003   5.4053164172850776E-002
   4.4721568519787286E-003  -4.5596091731867558E-003   5.4546324378833083E-002
   3.3553831943610446E-003  -6.2806890967757045E-003   5.5314673875157316E-002
   6.4827142442125396E-003  -2.2063763616977372E-003   5.7762374050386284E-002
   5.6142445318309725E-003  -2.4292051286564642E-003   5.7335326701869138E-002
   4.7457748194494262E-003  -3.0707004269778931E-003   5.7129697953482592E-002
   3.8773051070678868E-003  -4.1308622566612919E-003   5.7145487805226165E-002
   3.0088353946863128E-003  -5.6096906177073858E-003   5.7382696257099769E-002
   5.2634370348933618E-003  -1.9672225090357487E-003   6.1561243750873705E-002
   4.5895005775361784E-003  -2.2163805253340996E-003   6.0853894365835569E-002
   3.9155641201789829E-003  -2.7946781357009523E-003   6.0314192890715906E-002
   3.2416276628217805E-003  -3.7021153401356078E-003   5.9942139325514801E-002
   2.5676912054646041E-003  -4.9386921386387062E-003   5.9737733670232100E-002
   4.1646461968743165E-003  -1.7280686563738712E-003   6.5289020733374059E-002
   3.6314723043296693E-003  -2.0035559220119015E-003   6.4390896249109209E-002
   3.0982984117850221E-003  -2.5186558444241225E-003   6.3606648984550818E-002
   2.5651245192403888E-003  -3.2733684236100902E-003   6.2936278939699331E-002
   2.0319506266957554E-003  -4.2676936595704706E-003   6.2379786114554525E-002
   3.6073346044885879E-003  -6.9516875758445229E-003   5.3533666524405388E-002
   4.1570338433840059E-003  -9.5341732565654702E-003   5.1862323407089073E-002
   4.7067330822795073E-003  -1.2757246920514304E-002   5.0044561972132751E-002
   5.2564323211750086E-003  -1.6620908567692085E-002   4.8080382219535783E-002
   5.8061315600704821E-003  -2.1125158198097793E-002   4.5969784149298309E-002
   3.3553831943610446E-003  -6.2806890967757045E-003   5.5314673875157316E-002
   3.7766457008090726E-003  -8.5447667063044963E-003   5.2957521010261577E-002
   4.1979082072571561E-003  -1.1386646219056828E-002   5.0489912998110509E-002
   4.6191707137052118E-003  -1.4806327635033034E-002   4.7911849838705389E-002
   5.0404332201532398E-003  -1.8803810954232558E-002   4.5223331532046052E-002
   3.0088353946863128E-003  -5.6096906177073858E-003   5.7382696257099769E-002
   3.3376243390728227E-003  -7.5553601560438555E-003   5.4402519724628062E-002
   3.6664132834593813E-003  -1.0016045517599451E-002   5.1347851215287829E-002
   3.9952022278458704E-003  -1.2991746702374036E-002   4.8218690729078993E-002
   4.3239911722324498E-003  -1.6482463710367323E-002   4.5015038266001506E-002
   2.5676912054646041E-003  -4.9386921386387062E-003   5.9737733670232100E-002
   2.8399697581754542E-003  -6.5659536057831591E-003   5.6197319550189528E-002
   3.1122483108863199E-003  -8.6454448161418021E-003   5.2618376623664365E-002
   3.3845268635972342E-003  -1.1177165769714678E-002   4.9000904890656817E-002
   3.6568054163080912E-003  -1.4161116466502088E-002   4.5344904351166199E-002
   2.0319506266957554E-003  -4.2676936595704706E-003   6.2379786114554525E-002
   2.2836819581168316E-003  -5.5765470555221297E-003   5.8341920486945642E-002
   2.5354132895379494E-003  -7.2748441146842091E-003   5.4301489223240185E-002
   2.7871446209590117E-003  -9.3625848370559456E-003   5.0258492323438153E-002
   3.0388759523801157E-003  -1.1839769222636853E-002   4.6212929787538659E-002
   2.6628653267265767E-002  -4.8452291062447417E-003   6.7101236127240116E-002
   2.5367981592395256E-002  -7.3687894852701996E-003   6.4044558302552013E-002
   2.4107309917524772E-002  -8.7503976060547689E-003   6.1871970883828370E-002
   2.2846638242654260E-002  -8.9900534685981824E-003   6.0583473871069229E-002
   2.1585966567783763E-002  -8.0877570729008808E-003   6.0179067264274577E-002
   1.8687388641133659E-002  -3.6339218258267802E-003   6.4487026620581978E-002
   1.8168576750267562E-002  -5.5265921138998864E-003   6.3143393942237502E-002
   1.7649764859401493E-002  -6.5627982069213081E-003   6.2399390425937229E-002
   1.7130952968535409E-002  -6.7425401048910767E-003   6.2255016071681518E-002
   1.6612141077669326E-002  -6.0658178078090152E-003   6.2710270879470120E-002
   1.1602191556658870E-002  -2.4226145454088188E-003   6.2646451236470710E-002
   1.1540778205877081E-002  -3.6843947425296009E-003   6.2730375641280464E-002
   1.1479364855095320E-002  -4.3751988077879653E-003   6.3129467964214647E-002
   1.1417951504313548E-002  -4.4950267411838062E-003   6.3843728205272982E-002
   1.1356538153531784E-002  -4.0438785427173163E-003   6.4873156364455620E-002
   5.3730620138414155E-003  -1.2113072649908713E-003   6.1579509974906535E-002
   5.4845859592238325E-003  -1.8421973711592737E-003   6.2805503399681453E-002
   5.5961099046062668E-003  -2.1875994086544802E-003   6.4062203498660486E-002
   5.7076338499886968E-003  -2.2475133774765904E-003   6.5349610271843675E-002
   5.8191577953711320E-003  -2.0219392776255063E-003   6.6667723719230951E-002
   1.2681279637494214E-011   1.5427104038678863E-011   6.1286202835889314E-002
   1.0307803222087131E-011   2.1099788583001100E-013   6.3368777217439942E-002
   7.9343233372330957E-012  -9.5211755146706878E-012   6.5197597029274662E-002
   5.5608434523790606E-012  -1.3769391876694570E-011   6.6772662271393515E-002
   3.1873670369719775E-012  -1.2533807325354474E-011   6.8093972943796266E-002
   2.1585966567783763E-002  -8.0877570729008808E-003   6.0179067264274577E-002
   2.0862460086009685E-002  -6.7916239185217830E-003   6.0718559315023235E-002
   2.0138953604235621E-002  -5.8497695050199194E-003   6.1228636244465007E-002
   1.9415447122461557E-002  -5.2621938323959561E-003   6.1709298052599948E-002
   1.8691940640687493E-002  -5.0288969006492268E-003   6.2160544739428114E-002
   1.6612141077669326E-002  -6.0658178078090152E-003   6.2710270879470120E-002
   1.5911792409930778E-002  -5.0937179411176120E-003   6.2710564533182980E-002
   1.5211443742192222E-002  -4.3873271302587447E-003   6.2786588936273729E-002
   1.4511095074453664E-002  -3.9466453752323577E-003   6.2938344088742326E-002
   1.3810746406715112E-002  -3.7716726760386732E-003   6.3165829990588784E-002
   1.1356538153531784E-002  -4.0438785427173163E-003   6.4873156364455620E-002
   1.0784493170513467E-002  -3.3958119637135520E-003   6.4422821306177533E-002
   1.0212448187495150E-002  -2.9248847554972368E-003   6.4153362867962083E-002
   9.6404032044768335E-003  -2.6310969180689259E-003   6.4064781049809158E-002
   9.0683582214585168E-003  -2.5144484514281751E-003   6.4157075851718953E-002
   5.8191577953711320E-003  -2.0219392776255063E-003   6.6667723719230951E-002
   5.4805623677577761E-003  -1.6979059863094642E-003   6.5855329634006934E-002
   5.1419669401444133E-003  -1.4624423807359510E-003   6.5328958039530191E-002
   4.8033715125310487E-003  -1.3155484609054108E-003   6.5088608935800804E-002
   4.4647760849176928E-003  -1.2572242268176492E-003   6.5134282322818648E-002
   3.1873670369719775E-012  -1.2533807325354474E-011   6.8093972943796266E-002
   1.6636830801886049E-012  -8.9053764362745369E-012   6.7008089516671032E-002
   1.4000259285218419E-013  -5.9745125513543940E-012   6.6313374450977902E-002
  -1.3836796292077125E-012  -3.7419130294313874E-012   6.6009827746716751E-002
  -2.9073618512676092E-012  -2.2071233729548112E-012   6.6097449403887787E-002
   1.8691940640687493E-002  -5.0288969006492268E-003   6.2160544739428114E-002
   1.7854830610070427E-002  -4.9588130194094249E-003   6.1722005727220475E-002
   1.7017720579453346E-002  -4.8608764983063268E-003   6.1594801950323269E-002
   1.6180610548836280E-002  -4.7350873373393984E-003   6.1778933408736358E-002
   1.5343500518219200E-002  -4.5814455365085216E-003   6.2274400102459770E-002
   1.3810746406715112E-002  -3.7716726760386732E-003   6.3165829990588784E-002
   1.3259457179501666E-002  -3.7191097648437144E-003   6.2864953655039524E-002
   1.2708167952288209E-002  -3.6456573738140319E-003   6.2824383690987085E-002
   1.2156878725074744E-002  -3.5513155029494800E-003   6.3044120098431661E-002
   1.1605589497861293E-002  -3.4360841522499408E-003   6.3524162877372892E-002
   9.0683582214585168E-003  -2.5144484514281751E-003   6.4157075851718953E-002
   8.7518609338352246E-003  -2.4794065102781426E-003   6.3986899032799305E-002
   8.4353636462119290E-003  -2.4304382493221394E-003   6.4025999721563115E-002
   8.1188663585886368E-003  -2.3675436685596761E-003   6.4274377918010273E-002
   7.8023690709653482E-003  -2.2907227679911379E-003   6.4732033622140972E-002
   4.4647760849176928E-003  -1.2572242268176492E-003   6.5134282322818648E-002
   4.3320418730711085E-003  -1.2397032557126125E-003   6.5087841860499707E-002
   4.1993076612245233E-003  -1.2152191248299346E-003   6.5199650042050972E-002
   4.0665734493779354E-003  -1.1837718341699815E-003   6.5469706867472166E-002
   3.9338392375313606E-003  -1.1453613837323351E-003   6.5898012336763331E-002
  -2.9073618512676092E-012  -2.2071233729548112E-012   6.6097449403887787E-002
  -2.7906878197203611E-012  -1.1468603844377867E-012   6.6167782138141118E-002
  -2.6740172576200649E-012  -3.3800739984712891E-013   6.6345334652451127E-002
  -2.5573484302432448E-012   2.1994905896605133E-013   6.6630106946817536E-002
  -2.4406726639725207E-012   5.2635673597478672E-013   6.7022099021240567E-002
   1.5343500518219200E-002  -4.5814455365085216E-003   6.2274400102459770E-002
   1.4442062978094139E-002  -4.3721337557358075E-003   6.2150606556423682E-002
   1.3540625437969050E-002  -4.0793346549423126E-003   6.2208490360381175E-002
   1.2639187897843969E-002  -3.7030482341281062E-003   6.2448051514332525E-002
   1.1737750357718901E-002  -3.2432744932930913E-003   6.2869290018277346E-002
   1.1605589497861293E-002  -3.4360841522499408E-003   6.3524162877372892E-002
   1.0896749816499657E-002  -3.2791003166307287E-003   6.3419031838580858E-002
   1.0187910135138013E-002  -3.0595009910075882E-003   6.3517419167322092E-002
   9.4790704537763872E-003  -2.7772861753803633E-003   6.3819324863596330E-002
   8.7702307724147471E-003  -2.4324558697489951E-003   6.4324748927403863E-002
   7.8023690709653482E-003  -2.2907227679911379E-003   6.4732033622140972E-002
   7.3079682659066073E-003  -2.1860668775256220E-003   6.4624693260576335E-002
   6.8135674608478664E-003  -2.0396673270728083E-003   6.4742712284084264E-002
   6.3191666557891307E-003  -1.8515241166327315E-003   6.5086090692664841E-002
   5.8247658507303846E-003  -1.6216372462051210E-003   6.5654828486318262E-002
   3.9338392375313606E-003  -1.1453613837323351E-003   6.5898012336763331E-002
   3.6757183263149817E-003  -1.0930334384206403E-003   6.5767590822409600E-002
   3.4175974150985992E-003  -1.0198336631382782E-003   6.5884369710667801E-002
   3.1594765038822250E-003  -9.2576205788509960E-004   6.6248349001538184E-002
   2.9013555926658378E-003  -8.1081862266108029E-004   6.6859528695020640E-002
  -2.4406726639725207E-012   5.2635673597478672E-013   6.7022099021240567E-002
  -2.2752216777277567E-012   6.8461902813510278E-013   6.6847724524080832E-002
  -2.1097810998238486E-012   7.9664053131978108E-013   6.6942391447072591E-002
  -1.9443318483025607E-012   8.6257390119470756E-013   6.7306099790215929E-002
  -1.7788895356751766E-012   8.8273832687946197E-013   6.7938849553510927E-002
   1.1737750357718901E-002  -3.2432744932930913E-003   6.2869290018277346E-002
   1.0770566429491840E-002  -2.7787113641243866E-003   6.2869162571007997E-002
   9.8033825012647929E-003  -2.3880567783085005E-003   6.3095433037505200E-002
   8.8361985730377388E-003  -2.0713107358461408E-003   6.3548101417768843E-002
   7.8690146448106846E-003  -1.8284732367370715E-003   6.4227167711798705E-002
   8.7702307724147471E-003  -2.4324558697489951E-003   6.4324748927403863E-002
   8.0332942750332426E-003  -2.0840335228726192E-003   6.4285855685399851E-002
   7.2963577776517310E-003  -1.7910425835096083E-003   6.4481059391320539E-002
   6.5594212802702195E-003  -1.5534830516606181E-003   6.4910360045165774E-002
   5.8224847828887150E-003  -1.3713549273252079E-003   6.5573757646935626E-002
   5.8247658507303846E-003  -1.6216372462051210E-003   6.5654828486318262E-002
   5.3257758183525572E-003  -1.3893556816208796E-003   6.5595646585419207E-002
   4.8267857859747125E-003  -1.1940283887108272E-003   6.5778260666602945E-002
   4.3277957535968765E-003  -1.0356553674749844E-003   6.6202670729869309E-002
   3.8288057212190404E-003  -9.1423661791323330E-004   6.6868876775218578E-002
   2.9013555926658378E-003  -8.1081862266108029E-004   6.6859528695020640E-002
   2.6480110594498049E-003  -6.9467784036923719E-004   6.6798535271066148E-002
   2.3946665262337590E-003  -5.9701419391204602E-004   6.6987036863352195E-002
   2.1413219930177152E-003  -5.1782768328923964E-004   6.7425033471879392E-002
   1.8879774598016662E-003  -4.5711830850148072E-004   6.8112525096647086E-002
  -1.7788895356751766E-012   8.8273832687946197E-013   6.7938849553510927E-002
  -1.6750142939336854E-012   8.8251628227453693E-013   6.7894521742340230E-002
  -1.5711459910860981E-012   8.8681839649495942E-013   6.8107387981568623E-002
  -1.4672742187915588E-012   8.9633162003721623E-013   6.8577448271196051E-002
  -1.3634024464970196E-012   9.1049390249509088E-013   6.9304702611222346E-002
   7.8690146448106846E-003  -1.8284732367370715E-003   6.4227167711798705E-002
   6.9429225328266064E-003  -1.6677855298898869E-003   6.4104728113562937E-002
   6.0168304208425005E-003  -1.5974888642132923E-003   6.4240890417746888E-002
   5.0907383088584154E-003  -1.6175832397085366E-003   6.4635654624350641E-002
   4.1646461968743165E-003  -1.7280686563738712E-003   6.5289020733374059E-002
   5.8224847828887150E-003  -1.3713549273252079E-003   6.5573757646935626E-002
   5.1482248547261369E-003  -1.2508391471856561E-003   6.5418306969329099E-002
   4.4739649265635520E-003  -1.1981166479251015E-003   6.5507918756945671E-002
   3.7997049984009670E-003  -1.2131874295427045E-003   6.5842593009785788E-002
   3.1254450702383890E-003  -1.2960514920390409E-003   6.6422329727848839E-002
   3.8288057212190404E-003  -9.1423661791323330E-004   6.6868876775218578E-002
   3.3928385396814302E-003  -8.3389276448175842E-004   6.6703012778533827E-002
   2.9568713581438165E-003  -7.9874443163635567E-004   6.6768671809875474E-002
   2.5209041766062045E-003  -8.0879161937709443E-004   6.7065853869244005E-002
   2.0849369950685925E-003  -8.6403432770398858E-004   6.7594558956639239E-002
   1.8879774598016662E-003  -4.5711830850148072E-004   6.8112525096647086E-002
   1.6767635876924775E-003  -4.1694638177747212E-004   6.7958845541176538E-002
   1.4655497155832828E-003  -3.9937221534760980E-004   6.8023149576535880E-002
   1.2543358434740936E-003  -4.0439580921159540E-004   6.8305437202725500E-002
   1.0431219713648993E-003  -4.3201716336904727E-004   6.8805708419745246E-002
  -1.3634024464970196E-012   9.1049390249509088E-013   6.9304702611222346E-002
  -1.2407158633820359E-012   9.2637009174723062E-013   6.9185805257257926E-002
  -1.1180327497140041E-012   9.4069196876489514E-013   6.9271352056927193E-002
  -9.9534790132249640E-013   9.5409791178724390E-013   6.9561343010230064E-002
  -8.7266305293098867E-013   9.6589403142388619E-013   7.0055778117166678E-002
   4.1646461968743165E-003  -1.7280686563738712E-003   6.5289020733374059E-002
   3.6314723043296693E-003  -2.0035559220119015E-003   6.4390896249109209E-002
   3.0982984117850221E-003  -2.5186558444241225E-003   6.3606648984550818E-002
   2.5651245192403888E-003  -3.2733684236100902E-003   6.2936278939699331E-002
   2.0319506266957554E-003  -4.2676936595704706E-003   6.2379786114554525E-002
   3.1254450702383890E-003  -1.2960514920390409E-003   6.6422329727848839E-002
   2.7110024607640976E-003  -1.5026669412636084E-003   6.5318091283737834E-002
   2.2965598512898200E-003  -1.8889918830665153E-003   6.4337438186060664E-002
   1.8821172418155285E-003  -2.4550263174472758E-003   6.3480370434817704E-002
   1.4676746323412510E-003  -3.2007702444067920E-003   6.2746888030008718E-002
   2.0849369950685925E-003  -8.6403432770398858E-004   6.7594558956639239E-002
   1.7989337953920846E-003  -1.0017779605151211E-003   6.6344109716877542E-002
   1.5129305957155663E-003  -1.2593279217087971E-003   6.5226953950277333E-002
   1.2269273960390376E-003  -1.6366842112847946E-003   6.4243091656838572E-002
   9.4092419636254004E-004  -2.1338468292430024E-003   6.3392522836561327E-002
   1.0431219713648993E-003  -4.3201716336904727E-004   6.8805708419745246E-002
   8.9526630821356885E-004  -5.0088897976684199E-004   6.7468951548528819E-002
   7.4741064506224451E-004  -6.2966396035107897E-004   6.6275196277201437E-002
   5.9955498191092017E-004  -8.1834210512203576E-004   6.5224442605762781E-002
   4.5169931875958975E-004  -1.0669234140792683E-003   6.4316690534213447E-002
  -8.7266305293098867E-013   9.6589403142388619E-013   7.0055778117166678E-002
  -7.7138989640346267E-013   9.8177022067602593E-013   6.8692616778691429E-002
  -6.7012020932288863E-013   1.0066114608520138E-012   6.7482165166832586E-002
  -5.6884358334841068E-013   1.0409104134190272E-012   6.6424423281590067E-002
  -4.6757736571478858E-013   1.0843548281513904E-012   6.5519391122963566E-002
   2.0319506266957554E-003  -4.2676936595704706E-003   6.2379786114554525E-002
   2.2836819581168316E-003  -5.5765470555221297E-003   5.8341920486945642E-002
   2.5354132895379494E-003  -7.2748441146842091E-003   5.4301489223240185E-002
   2.7871446209590117E-003  -9.3625848370559456E-003   5.0258492323438153E-002
   3.0388759523801157E-003  -1.1839769222636853E-002   4.6212929787538659E-002
   1.4676746323412510E-003  -3.2007702444067920E-003   6.2746888030008718E-002
   1.7017485284764045E-003  -4.1824102913523564E-003   5.8390692956284018E-002
   1.9358224246115580E-003  -5.4561330856935930E-003   5.4001748648084491E-002
   2.1698963207467323E-003  -7.0219386274295303E-003   4.9580055105409720E-002
   2.4039702168818788E-003  -8.8798269165604182E-003   4.5125612328260623E-002
   9.4092419636254004E-004  -2.1338468292430024E-003   6.3392522836561327E-002
   1.1271570588335493E-003  -2.7882735271828607E-003   5.8815359232535946E-002
   1.3133899213045620E-003  -3.6374220567028381E-003   5.4175262795657347E-002
   1.4996227837755817E-003  -4.6812924178032192E-003   4.9472233525925849E-002
   1.6858556462465979E-003  -5.9198846104839831E-003   4.4706271423340493E-002
   4.5169931875958975E-004  -1.0669234140792683E-003   6.4316690534213447E-002
   5.5990754918826355E-004  -1.3941367630130042E-003   5.9615919315701454E-002
   6.6811577961695210E-004  -1.8187110277123747E-003   5.4822031665958358E-002
   7.7632401004562503E-004  -2.3406462081771891E-003   4.9935027584983818E-002
   8.8453224047431445E-004  -2.9599423044075479E-003   4.4954907072777439E-002
  -4.6757736571478858E-013   1.0843548281513904E-012   6.5519391122963566E-002
  -4.5943804316550541E-013   1.1569634139618756E-012   6.0792373205780570E-002
  -4.5129872061622223E-013   1.2786161018851772E-012   5.5942055258987267E-002
  -4.4315939806693905E-013   1.4492504418761598E-012   5.0968437282584961E-002
  -4.3502701441155978E-013   1.6688872506165353E-012   4.5871519276572847E-002
   1.2681279637494214E-011   1.5427104038678863E-011   6.1286202835889314E-002
   1.0307803222087131E-011   2.1099788583001100E-013   6.3368777217439942E-002
   7.9343233372330957E-012  -9.5211755146706878E-012   6.5197597029274662E-002
   5.5608434523790606E-012  -1.3769391876694570E-011   6.6772662271393515E-002
   3.1873670369719775E-012  -1.2533807325354474E-011   6.8093972943796266E-002
  -5.3730619914032010E-003   1.2113072760122079E-003   6.1579509958805623E-002
  -5.4845859409486802E-003   1.8421973625377952E-003   6.2805503387587253E-002
  -5.5961098904941733E-003   2.1875993879656164E-003   6.4062203491740882E-002
  -5.7076338400396621E-003   2.2475133522957685E-003   6.5349610271266442E-002
  -5.8191577895851526E-003   2.0219392555280158E-003   6.6667723726163863E-002
  -1.1602191542993716E-002   2.4226145365973117E-003   6.2646451216754370E-002
  -1.1540778194623316E-002   3.6843947248645093E-003   6.2730375626185442E-002
  -1.1479364846252900E-002   4.3751987854523874E-003   6.3129467956076296E-002
  -1.1417951497882486E-002   4.4950267183607919E-003   6.3843728206426920E-002
  -1.1356538149512065E-002   4.0438785235898667E-003   6.4873156377237604E-002
  -1.8687388642090297E-002   3.6339217971824295E-003   6.4487026609735459E-002
  -1.8168576750716075E-002   5.5265920871912649E-003   6.3143393933234218E-002
  -1.7649764859341839E-002   6.5627981829390857E-003   6.2399390422280730E-002
  -1.7130952967967617E-002   6.7425400844259116E-003   6.2255016076875093E-002
  -1.6612141076593378E-002   6.0658177916517036E-003   6.2710270897017112E-002
  -2.6628653288692905E-002   4.8452290577675194E-003   6.7101236137749043E-002
  -2.5367981609226958E-002   7.3687894495179651E-003   6.4044558308733901E-002
  -2.4107309929761005E-002   8.7503975804259088E-003   6.1871970890354483E-002
  -2.2846638250295037E-002   8.9900534504909931E-003   6.0583473882610719E-002
  -2.1585966570829090E-002   8.0877570597135406E-003   6.0179067285502652E-002
   3.1873670369719775E-012  -1.2533807325354474E-011   6.8093972943796266E-002
   1.6636830801886049E-012  -8.9053764362745369E-012   6.7008089516671032E-002
   1.4000259285218419E-013  -5.9745125513543940E-012   6.6313374450977902E-002
  -1.3836796292077125E-012  -3.7419130294313874E-012   6.6009827746716751E-002
  -2.9073618512676092E-012  -2.2071233729548112E-012   6.6097449403887787E-002
  -5.8191577895851526E-003   2.0219392555280158E-003   6.6667723726163863E-002
  -5.4805623648308995E-003   1.6979059704862187E-003   6.5855329638656035E-002
  -5.1419669400766480E-003   1.4624423699940992E-003   6.5328958042272067E-002
  -4.8033715153223992E-003   1.3155484540516987E-003   6.5088608937011919E-002
  -4.4647760905681504E-003   1.2572242226587260E-003   6.5134282322875547E-002
  -1.1356538149512065E-002   4.0438785235898667E-003   6.4873156377237604E-002
  -1.0784493168788090E-002   3.3958119498778416E-003   6.4422821314594605E-002
  -1.0212448188064103E-002   2.9248847459629954E-003   6.4153362872767239E-002
  -9.6404032073401265E-003   2.6310969118452567E-003   6.4064781051755518E-002
  -9.0683582266161411E-003   2.5144484475246864E-003   6.4157075851559331E-002
  -1.6612141076593378E-002   6.0658177916517036E-003   6.2710270897017112E-002
  -1.5911792410207886E-002   5.0937179292695062E-003   6.2710564544486605E-002
  -1.5211443743822382E-002   4.3873271219318048E-003   6.2786588942463431E-002
  -1.4511095077436871E-002   3.9466453696388971E-003   6.2938344090947673E-002
  -1.3810746411051383E-002   3.7716726723905358E-003   6.3165829989939429E-002
  -2.1585966570829090E-002   8.0877570597135406E-003   6.0179067285502652E-002
  -2.0862460089090280E-002   6.7916239086610042E-003   6.0718559328332006E-002
  -2.0138953607351455E-002   5.8497694979004755E-003   6.1228636251360574E-002
  -1.9415447125612644E-002   5.2621938274325306E-003   6.1709298054588385E-002
  -1.8691940643873826E-002   5.0288968972564962E-003   6.2160544738015355E-002
  -2.9073618512676092E-012  -2.2071233729548112E-012   6.6097449403887787E-002
  -2.7906878197203611E-012  -1.1468603844377867E-012   6.6167782138141118E-002
  -2.6740172576200649E-012  -3.3800739984712891E-013   6.6345334652451127E-002
  -2.5573484302432448E-012   2.1994905896605133E-013   6.6630106946817536E-002
  -2.4406726639725207E-012   5.2635673597478672E-013   6.7022099021240567E-002
  -4.4647760905681504E-003   1.2572242226587260E-003   6.5134282322875547E-002
  -4.3320418785150454E-003   1.2397032534467722E-003   6.5087841860402174E-002
  -4.1993076664619388E-003   1.2152191240470261E-003   6.5199650041745105E-002
  -4.0665734544088365E-003   1.1837718344595120E-003   6.5469706866904245E-002
  -3.9338392423557342E-003   1.1453613846840738E-003   6.5898012335879885E-002
  -9.0683582266161411E-003   2.5144484475246864E-003   6.4157075851559331E-002
  -8.7518609388668109E-003   2.4794065080404049E-003   6.3986899032422648E-002
  -8.4353636511174945E-003   2.4304382484319487E-003   6.4025999720861898E-002
  -8.1188663633681660E-003   2.3675436686990195E-003   6.4274377916877415E-002
  -7.8023690756188462E-003   2.2907227688418463E-003   6.4732033620469004E-002
  -1.3810746411051383E-002   3.7716726723905358E-003   6.3165829989939429E-002
  -1.3259457183846024E-002   3.7191097626340930E-003   6.2864953654202693E-002
  -1.2708167956640676E-002   3.6456573728168434E-003   6.2824383689801783E-002
  -1.2156878729435317E-002   3.5513155029386102E-003   6.3044120096736891E-002
  -1.1605589502229969E-002   3.4360841529995356E-003   6.3524162875008033E-002
  -1.8691940643873826E-002   5.0288968972564962E-003   6.2160544738015355E-002
  -1.7854830613452659E-002   4.9588130172277256E-003   6.1722005725742157E-002
  -1.7017720583031491E-002   4.8608764972017660E-003   6.1594801948564593E-002
  -1.6180610552610327E-002   4.7350873371780830E-003   6.1778933406482855E-002
  -1.5343500522189156E-002   4.5814455371572249E-003   6.2274400099496696E-002
  -2.4406726639725207E-012   5.2635673597478672E-013   6.7022099021240567E-002
  -2.2752216777277567E-012   6.8461902813510278E-013   6.6847724524080832E-002
  -2.1097810998238486E-012   7.9664053131978108E-013   6.6942391447072591E-002
  -1.9443318483025607E-012   8.6257390119470756E-013   6.7306099790215929E-002
  -1.7788895356751766E-012   8.8273832687946197E-013   6.7938849553510927E-002
  -3.9338392423557342E-003   1.1453613846840738E-003   6.5898012335879885E-002
  -3.6757183308176004E-003   1.0930334397634967E-003   6.5767590821518757E-002
  -3.4175974192794684E-003   1.0198336647398026E-003   6.5884369709751450E-002
  -3.1594765077413399E-003   9.2576205961320338E-004   6.6248349000577952E-002
  -2.9013555962032096E-003   8.1081862438348029E-004   6.6859528693998305E-002
  -7.8023690756188462E-003   2.2907227688418463E-003   6.4732033620469004E-002
  -7.3079682702657470E-003   2.1860668788425131E-003   6.4624693258849383E-002
  -6.8135674649126565E-003   2.0396673286830758E-003   6.4742712282266038E-002
  -6.3191666595595764E-003   1.8515241183637218E-003   6.5086090690718648E-002
  -5.8247658542064668E-003   1.6216372478840557E-003   6.5654828484207312E-002
  -1.1605589502229969E-002   3.4360841529995356E-003   6.3524162875008033E-002
  -1.0896749820619660E-002   3.2791003179215156E-003   6.3419031836072934E-002
  -1.0187910139009349E-002   3.0595009926261824E-003   6.3517419164616257E-002
  -9.4790704573990397E-003   2.7772861771141293E-003   6.3819324860638044E-002
  -8.7702307757887288E-003   2.4324558713846034E-003   6.4324748924138003E-002
  -1.5343500522189156E-002   4.5814455371572249E-003   6.2274400099496696E-002
  -1.4442062981879340E-002   4.3721337570003516E-003   6.2150606553189214E-002
  -1.3540625441569542E-002   4.0793346565696498E-003   6.2208490356802315E-002
  -1.2639187901259738E-002   3.7030482358647657E-003   6.2448051510335972E-002
  -1.1737750360949928E-002   3.2432744948852621E-003   6.2869290013790380E-002
  -1.7788895356751766E-012   8.8273832687946197E-013   6.7938849553510927E-002
  -1.6750142939336854E-012   8.8251628227453693E-013   6.7894521742340230E-002
  -1.5711459910860981E-012   8.8681839649495942E-013   6.8107387981568623E-002
  -1.4672742187915588E-012   8.9633162003721623E-013   6.8577448271196051E-002
  -1.3634024464970196E-012   9.1049390249509088E-013   6.9304702611222346E-002
  -2.9013555962032096E-003   8.1081862438348029E-004   6.6859528693998305E-002
  -2.6480110627791209E-003   6.9467784203913752E-004   6.6798535270109316E-002
  -2.3946665293550322E-003   5.9701419556881796E-004   6.6987036862461741E-002
  -2.1413219959309313E-003   5.1782768497238979E-004   6.7425033471055690E-002
  -1.8879774625068547E-003   4.5711831024985994E-004   6.8112525095891219E-002
  -5.8247658542064668E-003   1.6216372478840557E-003   6.5654828484207312E-002
  -5.3257758216197016E-003   1.3893556831959253E-003   6.5595646583469003E-002
  -4.8267857890329086E-003   1.1940283902506094E-003   6.5778260664814611E-002
  -4.3277957564461433E-003   1.0356553690485625E-003   6.6202670728244206E-002
  -3.8288057238593503E-003   9.1423661958905944E-004   6.6868876773757580E-002
  -8.7702307757887288E-003   2.4324558713846034E-003   6.4324748924138003E-002
  -8.0332942781967797E-003   2.0840335243525743E-003   6.4285855682419513E-002
  -7.2963577806048237E-003   1.7910425849328379E-003   6.4481059388627165E-002
  -6.5594212830128572E-003   1.5534830531243448E-003   6.4910360042761420E-002
  -5.8224847854209186E-003   1.3713549289282867E-003   6.5573757644821790E-002
  -1.1737750360949928E-002   3.2432744948852621E-003   6.2869290013790380E-002
  -1.0770566432510328E-002   2.7787113655093898E-003   6.2869162566960457E-002
  -9.8033825040707290E-003   2.3880567796143448E-003   6.3095433033899417E-002
  -8.8361985756311330E-003   2.0713107372007239E-003   6.3548101414607261E-002
  -7.8690146471915301E-003   1.8284732382676250E-003   6.4227167709084099E-002
  -1.3634024464970196E-012   9.1049390249509088E-013   6.9304702611222346E-002
  -1.2407158633820359E-012   9.2637009174723062E-013   6.9185805257257926E-002
  -1.1180327497140041E-012   9.4069196876489514E-013   6.9271352056927193E-002
  -9.9534790132249640E-013   9.5409791178724390E-013   6.9561343010230064E-002
  -8.7266305293098867E-013   9.6589403142388619E-013   7.0055778117166678E-002
  -1.8879774625068547E-003   4.5711831024985994E-004   6.8112525095891219E-002
  -1.6767635901538715E-003   4.1694638360006975E-004   6.7958845540449619E-002
  -1.4655497178008986E-003   3.9937221722188831E-004   6.8023149575835162E-002
  -1.2543358454479249E-003   4.0439581111604422E-004   6.8305437202047625E-002
  -1.0431219730949425E-003   4.3201716528185052E-004   6.8805708419087286E-002
  -3.8288057238593503E-003   9.1423661958905944E-004   6.6868876773757580E-002
  -3.3928385420826969E-003   8.3389276627376940E-004   6.6703012777112353E-002
  -2.9568713603060652E-003   7.9874443350330671E-004   6.6768671808487307E-002
  -2.5209041785294261E-003   8.0879162127810156E-004   6.7065853867882635E-002
  -2.0849369967527800E-003   8.6403432959791804E-004   6.7594558955298395E-002
  -5.8224847854209186E-003   1.3713549289282867E-003   6.5573757644821790E-002
  -5.1482248570272207E-003   1.2508391489475246E-003   6.5418306967245821E-002
  -4.4739649286335307E-003   1.1981166497845031E-003   6.5507918754883640E-002
  -3.7997050002398507E-003   1.2131874314404364E-003   6.5842593007735040E-002
  -3.1254450718461429E-003   1.2960514939137635E-003   6.6422329725800200E-002
  -7.8690146471915301E-003   1.8284732382676250E-003   6.4227167709084099E-002
  -6.9429225349874057E-003   1.6677855316211132E-003   6.4104728110850662E-002
  -6.0168304227833092E-003   1.5974888660658382E-003   6.4240890415024010E-002
  -5.0907383105791883E-003   1.6175832416019734E-003   6.4635654621604643E-002
  -4.1646461983750882E-003   1.7280686582299420E-003   6.5289020730592395E-002
  -8.7266305293098867E-013   9.6589403142388619E-013   7.0055778117166678E-002
  -7.7138989640346267E-013   9.8177022067602593E-013   6.8692616778691429E-002
  -6.7012020932288863E-013   1.0066114608520138E-012   6.7482165166832586E-002
  -5.6884358334841068E-013   1.0409104134190272E-012   6.6424423281590067E-002
  -4.6757736571478858E-013   1.0843548281513904E-012   6.5519391122963566E-002
  -1.0431219730949425E-003   4.3201716528185052E-004   6.8805708419087286E-002
  -8.9526630974211957E-004   5.0088898168892948E-004   6.7468951547921707E-002
  -7.4741064638928802E-004   6.2966396230701438E-004   6.6275196276643189E-002
  -5.9955498303645646E-004   8.1834210713641053E-004   6.5224442605251592E-002
  -4.5169931968363358E-004   1.0669234161765351E-003   6.4316690533746224E-002
  -2.0849369967527800E-003   8.6403432959791804E-004   6.7594558955298395E-002
  -1.7989337968778796E-003   1.0017779623964773E-003   6.6344109715644334E-002
  -1.5129305970030069E-003   1.2593279236078753E-003   6.5226953949147917E-002
  -1.2269273971281126E-003   1.6366842132320251E-003   6.4243091655808937E-002
  -9.4092419725323381E-004   2.1338468312687708E-003   6.3392522835626769E-002
  -3.1254450718461429E-003   1.2960514939137635E-003   6.6422329725800200E-002
  -2.7110024621787077E-003   1.5026669431041084E-003   6.5318091281859447E-002
  -2.2965598525112583E-003   1.8889918849085072E-003   6.4337438184346923E-002
  -1.8821172428438227E-003   2.4550263193274715E-003   6.3480370433261823E-002
  -1.4676746331763737E-003   3.2007702463607568E-003   6.2746888028604592E-002
  -4.1646461983750882E-003   1.7280686582299420E-003   6.5289020730592395E-002
  -3.6314723056445689E-003   2.0035559238112399E-003   6.4390896246566909E-002
  -3.0982984129140738E-003   2.5186558462091668E-003   6.3606648982239500E-002
  -2.5651245201835614E-003   3.2733684254229248E-003   6.2936278937610640E-002
  -2.0319506274530594E-003   4.2676936614532979E-003   6.2379786112679914E-002
  -4.6757736571478858E-013   1.0843548281513904E-012   6.5519391122963566E-002
  -4.5943804316550541E-013   1.1569634139618756E-012   6.0792373205780570E-002
  -4.5129872061622223E-013   1.2786161018851772E-012   5.5942055258987267E-002
  -4.4315939806693905E-013   1.4492504418761598E-012   5.0968437282584961E-002
  -4.3502701441155978E-013   1.6688872506165353E-012   4.5871519276572847E-002
  -4.5169931968363358E-004   1.0669234161765351E-003   6.4316690533746224E-002
  -5.5990755009724738E-004   1.3941367652507974E-003   5.9615919315350818E-002
  -6.6811578051086812E-004   1.8187110301829401E-003   5.4822031665721249E-002
  -7.7632401092447758E-004   2.3406462109722692E-003   4.9935027584858016E-002
  -8.8453224133810265E-004   2.9599423076189790E-003   4.4954907072760619E-002
  -9.4092419725323381E-004   2.1338468312687708E-003   6.3392522835626769E-002
  -1.1271570597128355E-003   2.7882735293445760E-003   5.8815359231827458E-002
  -1.3133899221724563E-003   3.6374220590871670E-003   5.4175262795169751E-002
  -1.4996227846320563E-003   4.6812924204951804E-003   4.9472233525654156E-002
  -1.6858556470916788E-003   5.9198846135692929E-003   4.4706271423279875E-002
  -1.4676746331763737E-003   3.2007702463607568E-003   6.2746888028604592E-002
  -1.7017485293061971E-003   4.1824102934388263E-003   5.8390692955209655E-002
  -1.9358224254360412E-003   5.4561330879912204E-003   5.4001748647332481E-002
  -2.1698963215658678E-003   7.0219386300178124E-003   4.9580055104973104E-002
  -2.4039702176957087E-003   8.8798269195196067E-003   4.5125612328131004E-002
  -2.0319506274530594E-003   4.2676936614532979E-003   6.2379786112679914E-002
  -2.2836819588773552E-003   5.5765470575321885E-003   5.8341920485498022E-002
  -2.5354132903016476E-003   7.2748441168957456E-003   5.4301489222210064E-002
  -2.7871446217259156E-003   9.3625848395410619E-003   5.0258492322815068E-002
  -3.0388759531502357E-003   1.1839769225469698E-002   4.6212929787313506E-002
  -2.6628653288692905E-002   4.8452290577675194E-003   6.7101236137749043E-002
  -2.5367981609226958E-002   7.3687894495179651E-003   6.4044558308733901E-002
  -2.4107309929761005E-002   8.7503975804259088E-003   6.1871970890354483E-002
  -2.2846638250295037E-002   8.9900534504909931E-003   6.0583473882610719E-002
  -2.1585966570829090E-002   8.0877570597135406E-003   6.0179067285502652E-002
  -3.4478510067380577E-002   8.0845831247072786E-003   6.5397443385498577E-002
  -3.2493944064333993E-002   9.1060387060331316E-003   6.2377249169944415E-002
  -3.0509378061287416E-002   9.5850393825619995E-003   5.9920753190916026E-002
  -2.8524812058240836E-002   9.5215851542938962E-003   5.8027955448413146E-002
  -2.6540246055194231E-002   8.9156760212288078E-003   5.6698855942435705E-002
  -4.1289483562732300E-002   1.1323937191647010E-002   6.1891797144800545E-002
  -3.8901415410215252E-002   1.0843287962548326E-002   5.9507583898753186E-002
  -3.6513347257698094E-002   1.0419681184698305E-002   5.7366676715121266E-002
  -3.4125279105181039E-002   1.0053116858096853E-002   5.5469075593904946E-002
  -3.1737210952663908E-002   9.7435949827441304E-003   5.3814780535103940E-002
  -4.7061573774748171E-002   1.4563291258586727E-002   5.6584297415655266E-002
  -4.4590395646870590E-002   1.2580537219063506E-002   5.5435562495160254E-002
  -4.2119217518993120E-002   1.1254322986834504E-002   5.4209741462970522E-002
  -3.9648039391115608E-002   1.0584648561899865E-002   5.2906834319086292E-002
  -3.7176861263238069E-002   1.0571513944259342E-002   5.1526841063507307E-002
  -5.1794780703427995E-002   1.7802645325526500E-002   4.9474944198062587E-002
  -4.9560884774300235E-002   1.4317786475578687E-002   5.0161184959165550E-002
  -4.7326988845172391E-002   1.2088964788970744E-002   5.0449947434463654E-002
  -4.5093092916044575E-002   1.1116180265702751E-002   5.0341231623957025E-002
  -4.2859196986916773E-002   1.1399432905774665E-002   4.9835037527645731E-002
  -2.1585966570829090E-002   8.0877570597135406E-003   6.0179067285502652E-002
  -2.0862460089090280E-002   6.7916239086610042E-003   6.0718559328332006E-002
  -2.0138953607351455E-002   5.8497694979004755E-003   6.1228636251360574E-002
  -1.9415447125612644E-002   5.2621938274325306E-003   6.1709298054588385E-002
  -1.8691940643873826E-002   5.0288968972564962E-003   6.2160544738015355E-002
  -2.6540246055194231E-002   8.9156760212288078E-003   5.6698855942435705E-002
  -2.5809116557788836E-002   8.1192027999185817E-003   5.7290503441927390E-002
  -2.5077987060383430E-002   7.4840563069149338E-003   5.7926812092553043E-002
  -2.4346857562978018E-002   7.0102365422178795E-003   5.8607781894312608E-002
  -2.3615728065572612E-002   6.6977435058277468E-003   5.9333412847206224E-002
  -3.1737210952663908E-002   9.7435949827441304E-003   5.3814780535103940E-002
  -3.0924382168657144E-002   9.4467816911762148E-003   5.4265631479272318E-002
  -3.0111553384650422E-002   9.1183431159292810E-003   5.4835219845509472E-002
  -2.9298724600643693E-002   8.7582792570036171E-003   5.5523545633815265E-002
  -2.8485895816636929E-002   8.3665901143988863E-003   5.6330608844189972E-002
  -3.7176861263238069E-002   1.0571513944259342E-002   5.1526841063507307E-002
  -3.6208256921695228E-002   1.0774360582433737E-002   5.1643943440366762E-002
  -3.5239652580152367E-002   1.0752629924943656E-002   5.1953859510229836E-002
  -3.4271048238609533E-002   1.0506321971789105E-002   5.2456589273096363E-002
  -3.3302443897066679E-002   1.0035436722970192E-002   5.3152132728966427E-002
  -4.2859196986916773E-002   1.1399432905774665E-002   4.9835037527645731E-002
  -4.1660740816903047E-002   1.2101939473691453E-002   4.9425439325210818E-002
  -4.0462284646889342E-002   1.2386916733958045E-002   4.9282731086714243E-002
  -3.9263828476875637E-002   1.2254364686574804E-002   4.9406912812155923E-002
  -3.8065372306861911E-002   1.1704283331541332E-002   4.9797984501535775E-002
  -1.8691940643873826E-002   5.0288968972564962E-003   6.2160544738015355E-002
  -1.7854830613452659E-002   4.9588130172277256E-003   6.1722005725742157E-002
  -1.7017720583031491E-002   4.8608764972017660E-003   6.1594801948564593E-002
  -1.6180610552610327E-002   4.7350873371780830E-003   6.1778933406482855E-002
  -1.5343500522189156E-002   4.5814455371572249E-003   6.2274400099496696E-002
  -2.3615728065572612E-002   6.6977435058277468E-003   5.9333412847206224E-002
  -2.2483289205926016E-002   6.4570785361423300E-003   5.8909725482250097E-002
  -2.1350850346279406E-002   6.1987429715602838E-003   5.8765360540649320E-002
  -2.0218411486632813E-002   5.9227368120818510E-003   5.8900318022403628E-002
  -1.9085972626986199E-002   5.6290600577065253E-003   5.9314597927513091E-002
  -2.8485895816636929E-002   8.3665901143988863E-003   5.6330608844189972E-002
  -2.7090140939505389E-002   7.9553440550567955E-003   5.5931955171651865E-002
  -2.5694386062373880E-002   7.5366094459190375E-003   5.5780611110728531E-002
  -2.4298631185242364E-002   7.1103862869853450E-003   5.5876576661419715E-002
  -2.2902876308110859E-002   6.6766745782557702E-003   5.6219851823725658E-002
  -3.3302443897066679E-002   1.0035436722970192E-002   5.3152132728966427E-002
  -3.1675385814190771E-002   9.4536095739713027E-003   5.2788694793947273E-002
  -3.0048327731314935E-002   8.8744759202776177E-003   5.2640553658802269E-002
  -2.8421269648439069E-002   8.2980357618888095E-003   5.2707709323531263E-002
  -2.6794211565563213E-002   7.7242890988051538E-003   5.2990161788134447E-002
  -3.8065372306861911E-002   1.1704283331541332E-002   4.9797984501535775E-002
  -3.6239023829982217E-002   1.0951875092885838E-002   4.9479944349136384E-002
  -3.4412675353102537E-002   1.0212342394636226E-002   4.9345188184870437E-002
  -3.2586326876222857E-002   9.4856852367925307E-003   4.9393716008738042E-002
  -3.0759978399343163E-002   8.7719036193542599E-003   4.9625527820739312E-002
  -1.5343500522189156E-002   4.5814455371572249E-003   6.2274400099496696E-002
  -1.4442062981879340E-002   4.3721337570003516E-003   6.2150606553189214E-002
  -1.3540625441569542E-002   4.0793346565696498E-003   6.2208490356802315E-002
  -1.2639187901259738E-002   3.7030482358647657E-003   6.2448051510335972E-002
  -1.1737750360949928E-002   3.2432744948852621E-003   6.2869290013790380E-002
  -1.9085972626986199E-002   5.6290600577065253E-003   5.9314597927513091E-002
  -1.8002333732970995E-002   5.3044588247999347E-003   5.9053063967442559E-002
  -1.6918694838955830E-002   4.9356792297272911E-003   5.8974255364861949E-002
  -1.5835055944940640E-002   4.5227212724881852E-003   5.9078172119771552E-002
  -1.4751417050925465E-002   4.0655849530829014E-003   5.9364814232171270E-002
  -2.2902876308110859E-002   6.6766745782557702E-003   5.6219851823725658E-002
  -2.1635988052820791E-002   6.2367838925992680E-003   5.5859886407999881E-002
  -2.0369099797530765E-002   5.7920238028846410E-003   5.5683694357333752E-002
  -1.9102211542240729E-002   5.3423943091117122E-003   5.5691275671727332E-002
  -1.7835323286950665E-002   4.8878954112804851E-003   5.5882630351180268E-002
  -2.6794211565563213E-002   7.7242890988051538E-003   5.2990161788134447E-002
  -2.5343025941428808E-002   7.1691089603987818E-003   5.2571073874861492E-002
  -2.3891840317294397E-002   6.6483683760419701E-003   5.2336807334217736E-002
  -2.2440654693159985E-002   6.1620673457351855E-003   5.2287362166202854E-002
  -2.0989469069025581E-002   5.7102058694780966E-003   5.2422738370817457E-002
  -3.0759978399343163E-002   8.7719036193542599E-003   4.9625527820739312E-002
  -2.9123447398794883E-002   8.1014340281982400E-003   4.9186626368027175E-002
  -2.7486916398246658E-002   7.5047129491995629E-003   4.8933594295513666E-002
  -2.5850385397698405E-002   6.9817403823588357E-003   4.8866431603198715E-002
  -2.4213854397150153E-002   6.5325163276757081E-003   4.8985138291082420E-002
  -1.1737750360949928E-002   3.2432744948852621E-003   6.2869290013790380E-002
  -1.0770566432510328E-002   2.7787113655093898E-003   6.2869162566960457E-002
  -9.8033825040707290E-003   2.3880567796143448E-003   6.3095433033899417E-002
  -8.8361985756311330E-003   2.0713107372007239E-003   6.3548101414607261E-002
  -7.8690146471915301E-003   1.8284732382676250E-003   6.4227167709084099E-002
  -1.4751417050925465E-002   4.0655849530829014E-003   5.9364814232171270E-002
  -1.3563191371580872E-002   3.6053536439129563E-003   5.9345039539486777E-002
  -1.2374965692236279E-002   3.1831107173802137E-003   5.9540950434843393E-002
  -1.1186740012891685E-002   2.7988561734845242E-003   5.9952546918241159E-002
  -9.9985143335471170E-003   2.4525900122255306E-003   6.0579828989679896E-002
  -1.7835323286950665E-002   4.8878954112804851E-003   5.5882630351180268E-002
  -1.6436768182428882E-002   4.4319959223167171E-003   5.5807288251797219E-002
  -1.5038213077907111E-002   3.9781646551458605E-003   5.5936919414727476E-002
  -1.3639657973385313E-002   3.5264016097681025E-003   5.6271523839970916E-002
  -1.2241102868863526E-002   3.0767067861833253E-003   5.6811101527527913E-002
  -2.0989469069025581E-002   5.7102058694780966E-003   5.2422738370817457E-002
  -1.9391296865054385E-002   5.2586382007202143E-003   5.2255908703891754E-002
  -1.7793124661083196E-002   4.7732185929117293E-003   5.2283339973551494E-002
  -1.6194952457112007E-002   4.2539470460518473E-003   5.2505032179796962E-002
  -1.4596780253140814E-002   3.7008235601410644E-003   5.2920985322627838E-002
  -2.4213854397150153E-002   6.5325163276757081E-003   4.8985138291082420E-002
  -2.2426777419457339E-002   6.0852804791239334E-003   4.8690900895770273E-002
  -2.0639700441764552E-002   5.5682725306773206E-003   4.8580212111315801E-002
  -1.8852623464071752E-002   4.9814924823356893E-003   4.8653071937718895E-002
  -1.7065546486378952E-002   4.3249403340989145E-003   4.8909480374979775E-002
  -7.8690146471915301E-003   1.8284732382676250E-003   6.4227167709084099E-002
  -6.9429225349874057E-003   1.6677855316211132E-003   6.4104728110850662E-002
  -6.0168304227833092E-003   1.5974888660658382E-003   6.4240890415024010E-002
  -5.0907383105791883E-003   1.6175832416019734E-003   6.4635654621604643E-002
  -4.1646461983750882E-003   1.7280686582299420E-003   6.5289020730592395E-002
  -9.9985143335471170E-003   2.4525900122255306E-003   6.0579828989679896E-002
  -8.8147450092193325E-003   2.1768005659256739E-003   6.0440053896388346E-002
  -7.6309756848915358E-003   2.0039761669067846E-003   6.0557031324937033E-002
  -6.4472063605637555E-003   1.9341168151690430E-003   6.0930761275325915E-002
  -5.2634370362359822E-003   1.9672225107127961E-003   6.1561243747555283E-002
  -1.2241102868863526E-002   3.0767067861833253E-003   5.6811101527527913E-002
  -1.0801505712978977E-002   2.6858156002303735E-003   5.6666564945367731E-002
  -9.3619085570943866E-003   2.4104634677480502E-003   5.6776931504481140E-002
  -7.9223114012097959E-003   2.2506503887364422E-003   5.7142201204867661E-002
  -6.4827142453252190E-003   2.2063763631954281E-003   5.7762374046527870E-002
  -1.4596780253140814E-002   3.7008235601410644E-003   5.2920985322627838E-002
  -1.2903204646266335E-002   3.1948306345350591E-003   5.2784261257788997E-002
  -1.1209629039391857E-002   2.8169507685892117E-003   5.2900590953656540E-002
  -9.5160534325173917E-003   2.5671839623036766E-003   5.3269974410230535E-002
  -7.8224778256428991E-003   2.4455302156781711E-003   5.3892411627511190E-002
  -1.7065546486378952E-002   4.3249403340989145E-003   4.8909480374979775E-002
  -1.5119841809081463E-002   3.7038456688396337E-003   4.8793142833651770E-002
  -1.3174137131783961E-002   3.2234380694303177E-003   4.8928009672463191E-002
  -1.1228432454486438E-002   2.8837175358708139E-003   4.9314080891414258E-002
  -9.2827277771889705E-003   2.6846840681610251E-003   4.9951356490504861E-002
  -4.1646461983750882E-003   1.7280686582299420E-003   6.5289020730592395E-002
  -3.6314723056445689E-003   2.0035559238112399E-003   6.4390896246566909E-002
  -3.0982984129140738E-003   2.5186558462091668E-003   6.3606648982239500E-002
  -2.5651245201835614E-003   3.2733684254229248E-003   6.2936278937610640E-002
  -2.0319506274530594E-003   4.2676936614532979E-003   6.2379786112679914E-002
  -5.2634370362359822E-003   1.9672225107127961E-003   6.1561243747555283E-002
  -4.5895005787095697E-003   2.2163805269525549E-003   6.0853894362862704E-002
  -3.9155641211831779E-003   2.7946781373045237E-003   6.0314192888063917E-002
  -3.2416276636567775E-003   3.7021153417687927E-003   5.9942139323158436E-002
  -2.5676912061303667E-003   4.9386921403445916E-003   5.9737733668146609E-002
  -6.4827142453252190E-003   2.2063763631954281E-003   5.7762374046527870E-002
  -5.6142445328077693E-003   2.4292051300937312E-003   5.7335326698464611E-002
  -4.7457748202903178E-003   3.0707004283998668E-003   5.7129697950490180E-002
  -3.8773051077728689E-003   4.1308622581141020E-003   5.7145487802604540E-002
  -3.0088353952554166E-003   5.6096906192360518E-003   5.7382696254807214E-002
  -7.8224778256428991E-003   2.4455302156781711E-003   5.3892411627511190E-002
  -6.7057041679392275E-003   2.6420297332345327E-003   5.3835193253373083E-002
  -5.5889305102355263E-003   3.3467227194953833E-003   5.4053164169518858E-002
  -4.4721568525318469E-003   4.5596091744595797E-003   5.4546324375948488E-002
  -3.3553831948281545E-003   6.2806890981277619E-003   5.5314673872661889E-002
  -9.2827277771889705E-003   2.6846840681610251E-003   4.9951356490504861E-002
  -7.8638794841038584E-003   2.8548543363761669E-003   5.0353494027587709E-002
  -6.4450311910187741E-003   3.6227450105904835E-003   5.1084591545149605E-002
  -5.0261828979336690E-003   4.9883560908051475E-003   5.2144649043190466E-002
  -3.6073346048485777E-003   6.9516875770190278E-003   5.3533666521710321E-002
  -2.0319506274530594E-003   4.2676936614532979E-003   6.2379786112679914E-002
  -2.2836819588773552E-003   5.5765470575321885E-003   5.8341920485498022E-002
  -2.5354132903016476E-003   7.2748441168957456E-003   5.4301489222210064E-002
  -2.7871446217259156E-003   9.3625848395410619E-003   5.0258492322815068E-002
  -3.0388759531502357E-003   1.1839769225469698E-002   4.6212929787313506E-002
  -2.5676912061303667E-003   4.9386921403445916E-003   5.9737733668146609E-002
  -2.8399697588528845E-003   6.5659536076088654E-003   5.6197319548599467E-002
  -3.1122483115754284E-003   8.6454448181384203E-003   5.2618376622562024E-002
  -3.3845268642980026E-003   1.1177165771932528E-002   4.9000904890035502E-002
  -3.6568054170205005E-003   1.4161116468991430E-002   4.5344904351017901E-002
  -3.0088353952554166E-003   5.6096906192360518E-003   5.7382696254807214E-002
  -3.3376243396594941E-003   7.5553601576854312E-003   5.4402519722876630E-002
  -3.6664132840635699E-003   1.0016045519381414E-002   5.1347851214072551E-002
  -3.9952022284676725E-003   1.2991746704324101E-002   4.8218690728394666E-002
  -4.3239911728717752E-003   1.6482463712513384E-002   4.5015038265844964E-002
  -3.3553831948281545E-003   6.2806890981277619E-003   5.5314673872661889E-002
  -3.7766457012971162E-003   8.5447667077617195E-003   5.2957521008329116E-002
  -4.1979082077660788E-003   1.1386646220624359E-002   5.0489912996739703E-002
  -4.6191707142350883E-003   1.4806327636715954E-002   4.7911849837894219E-002
  -5.0404332207040015E-003   1.8803810956035116E-002   4.5223331531791561E-002
  -3.6073346048485777E-003   6.9516875770190278E-003   5.3533666521710321E-002
  -4.1570338437657561E-003   9.5341732578384519E-003   5.1862323404957666E-002
  -4.7067330826829068E-003   1.2757246921867527E-002   5.0044561970565060E-002
  -5.2564323216000367E-003   1.6620908569107418E-002   4.8080382218532669E-002
  -5.8061315605172359E-003   2.1125158199557070E-002   4.5969784148860438E-002
  -5.1794780703427995E-002   1.7802645325526500E-002   4.9474944198062587E-002
  -4.9560884774300235E-002   1.4317786475578687E-002   5.0161184959165550E-002
  -4.7326988845172391E-002   1.2088964788970744E-002   5.0449947434463654E-002
  -4.5093092916044575E-002   1.1116180265702751E-002   5.0341231623957025E-002
  -4.2859196986916773E-002   1.1399432905774665E-002   4.9835037527645731E-002
  -5.6528440111098158E-002   1.8599811467054916E-002   4.2631363479434858E-002
  -5.4535471728653279E-002   1.6274739185032971E-002   4.3430938177088818E-002
  -5.2542503346208323E-002   1.4686772617162613E-002   4.4146136067181818E-002
  -5.0549534963763437E-002   1.3835911763443731E-002   4.4776957149713720E-002
  -4.8556566581318530E-002   1.3722156623876436E-002   4.5323401424684523E-002
  -6.2301887760084829E-002   1.9396977608583416E-002   3.7207035053327245E-002
  -6.0236745446079126E-002   1.8231691894487312E-002   3.7601012238343889E-002
  -5.8171603132073355E-002   1.7284580445354379E-002   3.8223714094043272E-002
  -5.6106460818067611E-002   1.6555643261184659E-002   3.9075140620425261E-002
  -5.4041318504061894E-002   1.6044880341978068E-002   4.0155291817490016E-002
  -6.9115123650387994E-002   2.0194143750111845E-002   3.3201958919739649E-002
  -6.6664705926577764E-002   2.0188644603941652E-002   3.2671407142930542E-002
  -6.4214288202767450E-002   1.9882388273546225E-002   3.2682681515047975E-002
  -6.1763870478957164E-002   1.9275374758925583E-002   3.3235782036091822E-002
  -5.9313452755146913E-002   1.8367604060079770E-002   3.4330708706061988E-002
  -7.6968147782007723E-002   2.0991309891640331E-002   3.0616135078672058E-002
  -7.3819353170149232E-002   2.2145597313395937E-002   2.8642122890849053E-002
  -7.0670558558290630E-002   2.2480196101737987E-002   2.7523038330196092E-002
  -6.7521763946432029E-002   2.1995106256666515E-002   2.7258881396713286E-002
  -6.4372969334573482E-002   2.0690327778181528E-002   2.7849652090400634E-002
  -4.2859196986916773E-002   1.1399432905774665E-002   4.9835037527645731E-002
  -4.1660740816903047E-002   1.2101939473691453E-002   4.9425439325210818E-002
  -4.0462284646889342E-002   1.2386916733958045E-002   4.9282731086714243E-002
  -3.9263828476875637E-002   1.2254364686574804E-002   4.9406912812155923E-002
  -3.8065372306861911E-002   1.1704283331541332E-002   4.9797984501535775E-002
  -4.8556566581318530E-002   1.3722156623876436E-002   4.5323401424684523E-002
  -4.7117442529243603E-002   1.3861319048698181E-002   4.4775798865519648E-002
  -4.5678318477168640E-002   1.3769210888147448E-002   4.4442642106538935E-002
  -4.4239194425093692E-002   1.3445832142223717E-002   4.4323931147742461E-002
  -4.2800070373018750E-002   1.2891182810927382E-002   4.4419665989130136E-002
  -5.4041318504061894E-002   1.6044880341978068E-002   4.0155291817490016E-002
  -5.2413970733679746E-002   1.5620698623705256E-002   3.9655943623872231E-002
  -5.0786622963297626E-002   1.5151505042336845E-002   3.9318597066684662E-002
  -4.9159275192915450E-002   1.4637299597872905E-002   3.9143252145927232E-002
  -4.7531927422533357E-002   1.4078082290313293E-002   3.9129908861600088E-002
  -5.9313452755146913E-002   1.8367604060079770E-002   3.4330708706061988E-002
  -5.7550325430211588E-002   1.7380078198712103E-002   3.4065873600268644E-002
  -5.5787198105276249E-002   1.6533799196526134E-002   3.3910595967151520E-002
  -5.4024070780340931E-002   1.5828767053521899E-002   3.3864875806710354E-002
  -5.2260943455405634E-002   1.5264981769699329E-002   3.3928713118945610E-002
  -6.4372969334573482E-002   2.0690327778181528E-002   2.7849652090400634E-002
  -6.2526506618839003E-002   1.9139457773719087E-002   2.8005588794708935E-002
  -6.0680043903104580E-002   1.7916093350715659E-002   2.8218638807939317E-002
  -5.8833581187370129E-002   1.7020234509171010E-002   2.8488802130091903E-002
  -5.6987118471635678E-002   1.6451881249085254E-002   2.8816078761166486E-002
  -3.8065372306861911E-002   1.1704283331541332E-002   4.9797984501535775E-002
  -3.6239023829982217E-002   1.0951875092885838E-002   4.9479944349136384E-002
  -3.4412675353102537E-002   1.0212342394636226E-002   4.9345188184870437E-002
  -3.2586326876222857E-002   9.4856852367925307E-003   4.9393716008738042E-002
  -3.0759978399343163E-002   8.7719036193542599E-003   4.9625527820739312E-002
  -4.2800070373018750E-002   1.2891182810927382E-002   4.4419665989130136E-002
  -4.0789357672982508E-002   1.2216363436599043E-002   4.4107450108253454E-002
  -3.8778644972946294E-002   1.1532474561579908E-002   4.3980678685556315E-002
  -3.6767932272910080E-002   1.0839516185869785E-002   4.4039351721038671E-002
  -3.4757219572873838E-002   1.0137488309468756E-002   4.4283469214700444E-002
  -4.7531927422533357E-002   1.4078082290313293E-002   3.9129908861600088E-002
  -4.5334690029294633E-002   1.3480851780312150E-002   3.8801572211149424E-002
  -4.3137452636055847E-002   1.2852606728523466E-002   3.8660840488924278E-002
  -4.0940215242817074E-002   1.2193347134947203E-002   3.8707713694924636E-002
  -3.8742977849578336E-002   1.1503072999583280E-002   3.8942191829150527E-002
  -5.2260943455405634E-002   1.5264981769699329E-002   3.3928713118945610E-002
  -4.9875020898918362E-002   1.4745340124025307E-002   3.3562310657824244E-002
  -4.7489098342431119E-002   1.4172738895467031E-002   3.3385673594974435E-002
  -4.5103175785943875E-002   1.3547178084024539E-002   3.3398801930396113E-002
  -4.2717253229456610E-002   1.2868657689697791E-002   3.3601695664089271E-002
  -5.6987118471635678E-002   1.6451881249085254E-002   2.8816078761166486E-002
  -5.4410350281853925E-002   1.6009828467738463E-002   2.8389665448277923E-002
  -5.1833582092072172E-002   1.5492871062410707E-002   2.8155178003706621E-002
  -4.9256813902290419E-002   1.4901009033102097E-002   2.8112616427453024E-002
  -4.6680045712508667E-002   1.4234242379812190E-002   2.8261980719516799E-002
  -3.0759978399343163E-002   8.7719036193542599E-003   4.9625527820739312E-002
  -2.9123447398794883E-002   8.1014340281982400E-003   4.9186626368027175E-002
  -2.7486916398246658E-002   7.5047129491995629E-003   4.8933594295513666E-002
  -2.5850385397698405E-002   6.9817403823588357E-003   4.8866431603198715E-002
  -2.4213854397150153E-002   6.5325163276757081E-003   4.8985138291082420E-002
  -3.4757219572873838E-002   1.0137488309468756E-002   4.4283469214700444E-002
  -3.2941236776227706E-002   9.4526556137454198E-003   4.3908237261815752E-002
  -3.1125253979581533E-002   8.8112827800679028E-003   4.3706039520928192E-002
  -2.9309271182935394E-002   8.2133698084362813E-003   4.3676875992037734E-002
  -2.7493288386289241E-002   7.6589166988503821E-003   4.3820746675144850E-002
  -3.8742977849578336E-002   1.1503072999583280E-002   3.8942191829150527E-002
  -3.6760378425035670E-002   1.0803877199292794E-002   3.8600340725981230E-002
  -3.4777779000492948E-002   1.0117852610936083E-002   3.8418688666607768E-002
  -3.2795179575950288E-002   9.4449992345135621E-003   3.8397235651030176E-002
  -3.0812580151407559E-002   8.7853170700249450E-003   3.8535981679248377E-002
  -4.2717253229456610E-002   1.2868657689697791E-002   3.3601695664089271E-002
  -4.0580872345218788E-002   1.2155098784840071E-002   3.3262936760523582E-002
  -3.8444491460980904E-002   1.1424422441804399E-002   3.3071541732552431E-002
  -3.6308110576743054E-002   1.0676628660590926E-002   3.3027510580175612E-002
  -3.4171729692505252E-002   9.9117174411996189E-003   3.3130843303393290E-002
  -4.6680045712508667E-002   1.4234242379812190E-002   2.8261980719516799E-002
  -4.4402718536777075E-002   1.3506320370387348E-002   2.7896025365442834E-002
  -4.2125391361045400E-002   1.2730992272672548E-002   2.7664598718762090E-002
  -3.9848064185313808E-002   1.1908258086668386E-002   2.7567700779474402E-002
  -3.7570737009582106E-002   1.1038117812374182E-002   2.7605331547579604E-002
  -2.4213854397150153E-002   6.5325163276757081E-003   4.8985138291082420E-002
  -2.2426777419457339E-002   6.0852804791239334E-003   4.8690900895770273E-002
  -2.0639700441764552E-002   5.5682725306773206E-003   4.8580212111315801E-002
  -1.8852623464071752E-002   4.9814924823356893E-003   4.8653071937718895E-002
  -1.7065546486378952E-002   4.3249403340989145E-003   4.8909480374979775E-002
  -2.7493288386289241E-002   7.6589166988503821E-003   4.3820746675144850E-002
  -2.5531792002467565E-002   7.1082320156317103E-003   4.3424674744521108E-002
  -2.3570295618645890E-002   6.5216243231012855E-003   4.3193893015297469E-002
  -2.1608799234824248E-002   5.8990936212593610E-003   4.3128401487473766E-002
  -1.9647302851002538E-002   5.2406399101059264E-003   4.3228200161050223E-002
  -3.0812580151407559E-002   8.7853170700249450E-003   3.8535981679248377E-002
  -2.8694922770914733E-002   8.1311835521393205E-003   3.8071924303896651E-002
  -2.6577265390421920E-002   7.4749761155255834E-003   3.7754898720487290E-002
  -2.4459608009929135E-002   6.8166947601834213E-003   3.7584904929020072E-002
  -2.2341950629436280E-002   6.1563394861129939E-003   3.7561942929495384E-002
  -3.4171729692505252E-002   9.9117174411996189E-003   3.3130843303393290E-002
  -3.1916169724798923E-002   9.1541350886470696E-003   3.2632649573897027E-002
  -2.9660609757092678E-002   8.4283279079496037E-003   3.2263229226885327E-002
  -2.7405049789386415E-002   7.7342958991071208E-003   3.2022582262358185E-002
  -2.5149489821680096E-002   7.0720390621200890E-003   3.1910708680315467E-002
  -3.7570737009582106E-002   1.1038117812374182E-002   2.7605331547579604E-002
  -3.5195532864120110E-002   1.0177086625154652E-002   2.7106850554522166E-002
  -3.2820328718658073E-002   9.3816797003737629E-003   2.6718884534491172E-002
  -3.0445124573196043E-002   8.6518970380312435E-003   2.6441433487487481E-002
  -2.8069920427734013E-002   7.9877386381270732E-003   2.6274497413510511E-002
  -1.7065546486378952E-002   4.3249403340989145E-003   4.8909480374979775E-002
  -1.5119841809081463E-002   3.7038456688396337E-003   4.8793142833651770E-002
  -1.3174137131783961E-002   3.2234380694303177E-003   4.8928009672463191E-002
  -1.1228432454486438E-002   2.8837175358708139E-003   4.9314080891414258E-002
  -9.2827277771889705E-003   2.6846840681610251E-003   4.9951356490504861E-002
  -1.9647302851002538E-002   5.2406399101059264E-003   4.3228200161050223E-002
  -1.7488009265346903E-002   4.6071361265918598E-003   4.3074610699350535E-002
  -1.5328715679691220E-002   4.0594552076676504E-003   4.3096994674227784E-002
  -1.3169422094035540E-002   3.5975971533338397E-003   4.3295352085681527E-002
  -1.1010128508379902E-002   3.2215619635900250E-003   4.3669682933712373E-002
  -2.2341950629436280E-002   6.1563394861129939E-003   3.7561942929495384E-002
  -2.0044299078985223E-002   5.5104265843438638E-003   3.7316237346164571E-002
  -1.7746647528534217E-002   4.8954723459050664E-003   3.7171274255847653E-002
  -1.5448995978083151E-002   4.3114767707967475E-003   3.7127053658544656E-002
  -1.3151344427632092E-002   3.7584398590187473E-003   3.7183575554255693E-002
  -2.5149489821680096E-002   7.0720390621200890E-003   3.1910708680315467E-002
  -2.2788711249996461E-002   6.4137170420959788E-003   3.1518022774093782E-002
  -2.0427932678312916E-002   5.7314894841422742E-003   3.1150848417323095E-002
  -1.8067154106629308E-002   5.0253563882596587E-003   3.0809185610003651E-002
  -1.5706375534945735E-002   4.2953177544475529E-003   3.0493034352135386E-002
  -2.8069920427734013E-002   7.9877386381270732E-003   2.6274497413510511E-002
  -2.5721245778380697E-002   7.3170074998480383E-003   2.5679966983138014E-002
  -2.3372571129027339E-002   6.5675066223798984E-003   2.5035717158653881E-002
  -2.1023896479673988E-002   5.7392360057227018E-003   2.4341747940058139E-002
  -1.8675221830320665E-002   4.8321956498764695E-003   2.3598059327350596E-002
  -9.2827277771889705E-003   2.6846840681610251E-003   4.9951356490504861E-002
  -7.8638794841038584E-003   2.8548543363761669E-003   5.0353494027587709E-002
  -6.4450311910187741E-003   3.6227450105904835E-003   5.1084591545149605E-002
  -5.0261828979336690E-003   4.9883560908051475E-003   5.2144649043190466E-002
  -3.6073346048485777E-003   6.9516875770190278E-003   5.3533666521710321E-002
  -1.1010128508379902E-002   3.2215619635900250E-003   4.3669682933712373E-002
  -9.2443133684983331E-003   3.1611415719335345E-003   4.4247575717843324E-002
  -7.4784982286168200E-003   3.6461279118618628E-003   4.5190442215088583E-002
  -5.7126830887352861E-003   4.6765209833751903E-003   4.6498282425447526E-002
  -3.9468679488537384E-003   6.2523207864730868E-003   4.8171096348920361E-002
  -1.3151344427632092E-002   3.7584398590187473E-003   3.7183575554255693E-002
  -1.1002548708319237E-002   3.4674288074909299E-003   3.7884909911020448E-002
  -8.8537529890063901E-003   3.6695108131330062E-003   3.8987231713533896E-002
  -6.7049572696935792E-003   4.3646858759453407E-003   4.0490540961796169E-002
  -4.5561615503806885E-003   5.5529539959270346E-003   4.2394837655807260E-002
  -1.5706375534945735E-002   4.2953177544475529E-003   3.0493034352135386E-002
  -1.3138585503566599E-002   3.7737160430484779E-003   3.1265496607118456E-002
  -1.0570795472187526E-002   3.6928937144043231E-003   3.2474960040485376E-002
  -8.0030054408084753E-003   4.0528507685149932E-003   3.4121424652235742E-002
  -5.4352154094293170E-003   4.8535872053810380E-003   3.6204890442370158E-002
  -1.8675221830320665E-002   4.8321956498764695E-003   2.3598059327350596E-002
  -1.5652423754240447E-002   4.0800032786056373E-003   2.4389335806137669E-002
  -1.2629625678160200E-002   3.7162766156754456E-003   2.5653627195943274E-002
  -9.6068276020799814E-003   3.7410156610856241E-003   2.7390933496767522E-002
  -6.5840295259997350E-003   4.1542204148349304E-003   2.9601254708610081E-002
  -3.6073346048485777E-003   6.9516875770190278E-003   5.3533666521710321E-002
  -4.1570338437657561E-003   9.5341732578384519E-003   5.1862323404957666E-002
  -4.7067330826829068E-003   1.2757246921867527E-002   5.0044561970565060E-002
  -5.2564323216000367E-003   1.6620908569107418E-002   4.8080382218532669E-002
  -5.8061315605172359E-003   2.1125158199557070E-002   4.5969784148860438E-002
  -3.9468679488537384E-003   6.2523207864730868E-003   4.8171096348920361E-002
  -4.5390419220714545E-003   8.6866635756096544E-003   4.7240070169836723E-002
  -5.1312158952891290E-003   1.2292685605238829E-002   4.6370512839791878E-002
  -5.7233898685068521E-003   1.7070386875360680E-002   4.5562424358786380E-002
  -6.3155638417245752E-003   2.3019767385974443E-002   4.4815804726818786E-002
  -4.5561615503806885E-003   5.5529539959270346E-003   4.2394837655807260E-002
  -4.9829230912202538E-003   7.8391538933814120E-003   4.2735219671674651E-002
  -5.4096846320597913E-003   1.1828124288610242E-002   4.3344957703259412E-002
  -5.8364461728993237E-003   1.7519865181613886E-002   4.4224051750562182E-002
  -6.2632077137388942E-003   2.4914376572392039E-002   4.5372501813581656E-002
  -5.4352154094293170E-003   4.8535872053810380E-003   3.6204890442370158E-002
  -5.4886773512120238E-003   6.9916442111527810E-003   3.8347771910471215E-002
  -5.5421392929947281E-003   1.1363562971981822E-002   4.0967896560967845E-002
  -5.5956012347774860E-003   1.7969343487867231E-002   4.4065264393861062E-002
  -5.6490631765601929E-003   2.6808985758809523E-002   4.7639875409150795E-002
  -6.5840295259997350E-003   4.1542204148349304E-003   2.9601254708610081E-002
  -6.0563047020469885E-003   6.1441345289243721E-003   3.4077726886226567E-002
  -5.5285798780941586E-003   1.0899001655352875E-002   3.9239329412917801E-002
  -5.0008550541413427E-003   1.8418821794120611E-002   4.5086062288683532E-002
  -4.4731302301885822E-003   2.8703594945227007E-002   5.1617925513524288E-002
  -7.6968147782007723E-002   2.0991309891640331E-002   3.0616135078672058E-002
  -7.3819353170149232E-002   2.2145597313395937E-002   2.8642122890849053E-002
  -7.0670558558290630E-002   2.2480196101737987E-002   2.7523038330196092E-002
  -6.7521763946432029E-002   2.1995106256666515E-002   2.7258881396713286E-002
  -6.4372969334573482E-002   2.0690327778181528E-002   2.7849652090400634E-002
  -8.4237975655262337E-002   2.3848814132151008E-002   2.3015055281296937E-002
  -8.0580363830279278E-002   2.3766051234255264E-002   2.2336495815830359E-002
  -7.6922752005296288E-002   2.3373741726483960E-002   2.1820643149442348E-002
  -7.3265140180313382E-002   2.2671885608837046E-002   2.1467497282133180E-002
  -6.9607528355330267E-002   2.1660482881314336E-002   2.1277058213902716E-002
  -8.9301622770470213E-002   2.6706318372661575E-002   1.3921854152501523E-002
  -8.5827414560454174E-002   2.5386505155114647E-002   1.5048889432929272E-002
  -8.2353206350438177E-002   2.4267287351229946E-002   1.5646410684344178E-002
  -7.8878998140422180E-002   2.3348664961007324E-002   1.5714417906746471E-002
  -7.5404789930406155E-002   2.2630637984447061E-002   1.5252911100136032E-002
  -9.2159089127631294E-002   2.9563822613172169E-002   3.3365316922860655E-003
  -8.9560505360673739E-002   2.7006959075973946E-002   6.7793037421458903E-003
  -8.6961921593716032E-002   2.5160832975975787E-002   9.0003409349015649E-003
  -8.4363337826758436E-002   2.4025444313177644E-002   9.9996432705529870E-003
  -8.1764754059800798E-002   2.3600793087579910E-002   9.7772107491006684E-003
  -9.2810374726745692E-002   3.2421326853682819E-002  -8.7409120993496847E-003
  -9.1779636230937878E-002   2.8627412996833357E-002  -2.4722612565198365E-003
  -9.0748897735130063E-002   2.6054378600721850E-002   1.8824339011143942E-003
  -8.9718159239322248E-002   2.4702223665348202E-002   4.3231733735531949E-003
  -8.8687420743514433E-002   2.4570948190712594E-002   4.8499571607963921E-003
  -6.4372969334573482E-002   2.0690327778181528E-002   2.7849652090400634E-002
  -6.2526506618839003E-002   1.9139457773719087E-002   2.8005588794708935E-002
  -6.0680043903104580E-002   1.7916093350715659E-002   2.8218638807939317E-002
  -5.8833581187370129E-002   1.7020234509171010E-002   2.8488802130091903E-002
  -5.6987118471635678E-002   1.6451881249085254E-002   2.8816078761166486E-002
  -6.9607528355330267E-002   2.1660482881314336E-002   2.1277058213902716E-002
  -6.7627247348565470E-002   2.0563838075957769E-002   2.1180281363833903E-002
  -6.5646966341800533E-002   1.9606255724809410E-002   2.1294027786903785E-002
  -6.3666685335035722E-002   1.8787735827868971E-002   2.1618297483112378E-002
  -6.1686404328270800E-002   1.8108278385136789E-002   2.2153090452459751E-002
  -7.5404789930406155E-002   2.2630637984447061E-002   1.5252911100136032E-002
  -7.3137280668394214E-002   2.1988218378196325E-002   1.4714977568439300E-002
  -7.0869771406382259E-002   2.1296418098903154E-002   1.4540977274097949E-002
  -6.8602262144370332E-002   2.0555237146566985E-002   1.4730910217111957E-002
  -6.6334752882358392E-002   1.9764675521188435E-002   1.5284776397481242E-002
  -8.1764754059800798E-002   2.3600793087579910E-002   9.7772107491006684E-003
  -7.9056606578325264E-002   2.3412598680435194E-002   8.6096774085251300E-003
  -7.6348459096849619E-002   2.2986580472996735E-002   7.9594872695217932E-003
  -7.3640311615373988E-002   2.2322738465265307E-002   7.8266403320902470E-003
  -7.0932164133898412E-002   2.1421072657240248E-002   8.2111365962308502E-003
  -8.8687420743514433E-002   2.4570948190712594E-002   4.8499571607963921E-003
  -8.5385225078358606E-002   2.4836978982673397E-002   2.8643808840916329E-003
  -8.2083029413202668E-002   2.4676742847090594E-002   1.5495577731753363E-003
  -7.8780833748046841E-002   2.4090239783962894E-002   9.0548782804750205E-004
  -7.5478638082890903E-002   2.3077469793291616E-002   9.3217104870846335E-004
  -5.6987118471635678E-002   1.6451881249085254E-002   2.8816078761166486E-002
  -5.4410350281853925E-002   1.6009828467738463E-002   2.8389665448277923E-002
  -5.1833582092072172E-002   1.5492871062410707E-002   2.8155178003706621E-002
  -4.9256813902290419E-002   1.4901009033102097E-002   2.8112616427453024E-002
  -4.6680045712508667E-002   1.4234242379812190E-002   2.8261980719516799E-002
  -6.1686404328270800E-002   1.8108278385136789E-002   2.2153090452459751E-002
  -5.8919128981207672E-002   1.7475818239062385E-002   2.1716209488645694E-002
  -5.6151853634144697E-002   1.6798290232095447E-002   2.1468416971076654E-002
  -5.3384578287081659E-002   1.6075694364235588E-002   2.1409712899752881E-002
  -5.0617302940018580E-002   1.5308030635483305E-002   2.1540097274674319E-002
  -6.6334752882358392E-002   1.9764675521188435E-002   1.5284776397481242E-002
  -6.3379807800086368E-002   1.8941808010386363E-002   1.4867264545830025E-002
  -6.0424862717814318E-002   1.8103709401779966E-002   1.4636003718351748E-002
  -5.7469917635542260E-002   1.7250379695369022E-002   1.4590993915046077E-002
  -5.4514972553270244E-002   1.6381818891154365E-002   1.4732235135913430E-002
  -7.0932164133898412E-002   2.1421072657240248E-002   8.2111365962308502E-003
  -6.7792386738489752E-002   2.0407797781710563E-002   7.8428306198307374E-003
  -6.4652609343081105E-002   1.9409128571464540E-002   7.6579382455315495E-003
  -6.1512831947672410E-002   1.8425065026502929E-002   7.6564594733326431E-003
  -5.8373054552263770E-002   1.7455607146825342E-002   7.8383943032339920E-003
  -7.5478638082890903E-002   2.3077469793291616E-002   9.3217104870846335E-004
  -7.2156865796417946E-002   2.1873787553034152E-002   6.4290771064823282E-004
  -6.8835093509944989E-002   2.0714547741149336E-002   5.3422055261584389E-004
  -6.5513321223472032E-002   1.9599750357636142E-002   6.0610957461190024E-004
  -6.2191548936999075E-002   1.8529395402496318E-002   8.5857477663631165E-004
  -4.6680045712508667E-002   1.4234242379812190E-002   2.8261980719516799E-002
  -4.4402718536777075E-002   1.3506320370387348E-002   2.7896025365442834E-002
  -4.2125391361045400E-002   1.2730992272672548E-002   2.7664598718762090E-002
  -3.9848064185313808E-002   1.1908258086668386E-002   2.7567700779474402E-002
  -3.7570737009582106E-002   1.1038117812374182E-002   2.7605331547579604E-002
  -5.0617302940018580E-002   1.5308030635483305E-002   2.1540097274674319E-002
  -4.8208283138866367E-002   1.4513862116258047E-002   2.1183219548714716E-002
  -4.5799263337714162E-002   1.3711751876979775E-002   2.0955198366202910E-002
  -4.3390243536561957E-002   1.2901699917648075E-002   2.0856033727139345E-002
  -4.0981223735409800E-002   1.2083706238263492E-002   2.0885725631523633E-002
  -5.4514972553270244E-002   1.6381818891154365E-002   1.4732235135913430E-002
  -5.1979932290642517E-002   1.5521403862128746E-002   1.4423899406304438E-002
  -4.9444892028014865E-002   1.4692511481286891E-002   1.4238748056198541E-002
  -4.6909851765387173E-002   1.3895141748627875E-002   1.4176781085595468E-002
  -4.4374811502759424E-002   1.3129294664152802E-002   1.4237998494495391E-002
  -5.8373054552263770E-002   1.7455607146825342E-002   7.8383943032339920E-003
  -5.5717665992105696E-002   1.6528945607999945E-002   7.6180649382123246E-003
  -5.3062277431947559E-002   1.5673271085593618E-002   7.5152477887486906E-003
  -5.0406888871789436E-002   1.4888583579608119E-002   7.5299428548425244E-003
  -4.7751500311631355E-002   1.4174883090042112E-002   7.6621501364945027E-003
  -6.2191548936999075E-002   1.8529395402496318E-002   8.5857477663631165E-004
  -5.9421484243255551E-002   1.7536487353870478E-002   7.6571614443821101E-004
  -5.6651419549512194E-002   1.6654030689900789E-002   7.8469756385310396E-004
  -5.3881354855768782E-002   1.5882025410587475E-002   9.1551903488103908E-004
  -5.1111290162025313E-002   1.5220471515931200E-002   1.1581805575212600E-003
  -3.7570737009582106E-002   1.1038117812374182E-002   2.7605331547579604E-002
  -3.5195532864120110E-002   1.0177086625154652E-002   2.7106850554522166E-002
  -3.2820328718658073E-002   9.3816797003737629E-003   2.6718884534491172E-002
  -3.0445124573196043E-002   8.6518970380312435E-003   2.6441433487487481E-002
  -2.8069920427734013E-002   7.9877386381270732E-003   2.6274497413510511E-002
  -4.0981223735409800E-002   1.2083706238263492E-002   2.0885725631523633E-002
  -3.8494947310301092E-002   1.1274371160751417E-002   2.0450142496682255E-002
  -3.6008670885192537E-002   1.0490295007038186E-002   2.0126188948107165E-002
  -3.3522394460083871E-002   9.7314777771237565E-003   1.9913864985798085E-002
  -3.1036118034975274E-002   8.9979194710076982E-003   1.9813170609755681E-002
  -4.4374811502759424E-002   1.3129294664152802E-002   1.4237998494495391E-002
  -4.1776348184764896E-002   1.2371655696348099E-002   1.3824947879230332E-002
  -3.9177884866770277E-002   1.1598910313702929E-002   1.3524641463470863E-002
  -3.6579421548775665E-002   1.0811058516216266E-002   1.3337079247217123E-002
  -3.3980958230781129E-002   1.0008100303888545E-002   1.3262261230468947E-002
  -4.7751500311631355E-002   1.4174883090042112E-002   7.6621501364945027E-003
  -4.5039735487511418E-002   1.3468940231945378E-002   7.2312667021660754E-003
  -4.2327970663391411E-002   1.2707525620367900E-002   6.9142420805826006E-003
  -3.9616205839271418E-002   1.1890639255308833E-002   6.7110762717438200E-003
  -3.6904441015151460E-002   1.1018281136769503E-002   6.6217692756505367E-003
  -5.1111290162025313E-002   1.5220471515931200E-002   1.1581805575212600E-003
  -4.8285109218540567E-002   1.4566224767541658E-002   6.6909896548927872E-004
  -4.5458928275055877E-002   1.3816140927032261E-002   2.9499079944192430E-004
  -4.2632747331571130E-002   1.2970219994401552E-002   3.5856059378690242E-005
  -3.9806566388086440E-002   1.2028461969649795E-002  -1.0830525469984753E-004
  -2.8069920427734013E-002   7.9877386381270732E-003   2.6274497413510511E-002
  -2.5721245778380697E-002   7.3170074998480383E-003   2.5679966983138014E-002
  -2.3372571129027339E-002   6.5675066223798984E-003   2.5035717158653881E-002
  -2.1023896479673988E-002   5.7392360057227018E-003   2.4341747940058139E-002
  -1.8675221830320665E-002   4.8321956498764695E-003   2.3598059327350596E-002
  -3.1036118034975274E-002   8.9979194710076982E-003   1.9813170609755681E-002
  -2.8721792729244217E-002   8.2710348307054038E-003   1.9210026975627625E-002
  -2.6407467423513228E-002   7.5322385982305451E-003   1.8587904048366272E-002
  -2.4093142117782143E-002   6.7815307735838021E-003   1.7946801827972092E-002
  -2.1778816812051127E-002   6.0189113567650221E-003   1.7286720314444948E-002
  -3.3980958230781129E-002   1.0008100303888545E-002   1.3262261230468947E-002
  -3.1670242167693638E-002   9.2250621615626860E-003   1.2717362539601651E-002
  -2.9359526104606248E-002   8.4969705740815388E-003   1.2184224656580409E-002
  -2.7048810041518719E-002   7.8238255414447948E-003   1.1662847581404796E-002
  -2.4738093978431311E-002   7.2056270636534636E-003   1.1153231314075002E-002
  -3.6904441015151460E-002   1.1018281136769503E-002   6.6217692756505367E-003
  -3.4566594093728975E-002   1.0179089492420454E-002   6.2019736750614923E-003
  -3.2228747172306373E-002   9.4617025499321369E-003   5.8246789832965030E-003
  -2.9890900250883756E-002   8.8661203093067294E-003   5.4898852003564067E-003
  -2.7553053329461279E-002   8.3923427705417386E-003   5.1975923262405771E-003
  -3.9806566388086440E-002   1.2028461969649795E-002  -1.0830525469984753E-004
  -3.7410848507349992E-002   1.1133116823277334E-002  -3.3613961799411340E-004
  -3.5015130626613655E-002   1.0426434525782957E-002  -4.9073297148510830E-004
  -3.2619412745877235E-002   9.9084150771670543E-003  -5.7208531517320693E-004
  -3.0223694865140871E-002   9.5790584774304577E-003  -5.8019664905784030E-004
  -1.8675221830320665E-002   4.8321956498764695E-003   2.3598059327350596E-002
  -1.5652423754240447E-002   4.0800032786056373E-003   2.4389335806137669E-002
  -1.2629625678160200E-002   3.7162766156754456E-003   2.5653627195943274E-002
  -9.6068276020799814E-003   3.7410156610856241E-003   2.7390933496767522E-002
  -6.5840295259997350E-003   4.1542204148349304E-003   2.9601254708610081E-002
  -2.1778816812051127E-002   6.0189113567650221E-003   1.7286720314444948E-002
  -1.8552040721631011E-002   5.3437453547749980E-003   1.8240919776988884E-002
  -1.5325264631210811E-002   4.8553977746151333E-003   1.9130060357193696E-002
  -1.2098488540790646E-002   4.5538686162853864E-003   1.9954142055059979E-002
  -8.8717124503704947E-003   4.4391578797859932E-003   2.0713164870587386E-002
  -2.4738093978431311E-002   7.2056270636534636E-003   1.1153231314075002E-002
  -2.1845413667028614E-002   6.6074874309439424E-003   1.2068706473865431E-002
  -1.8952733355625834E-002   5.9945189335550292E-003   1.2381048957959745E-002
  -1.6060053044223074E-002   5.3667215714852563E-003   1.2090258766358199E-002
  -1.3167372732820357E-002   4.7240953447371115E-003   1.1196335899060356E-002
  -2.7553053329461279E-002   8.3923427705417386E-003   5.1975923262405771E-003
  -2.5532542590433194E-002   7.8712295071128174E-003   5.8726958967676990E-003
  -2.3512031851405161E-002   7.1336400924948210E-003   5.4065929982415155E-003
  -2.1491521112377177E-002   6.1795745266855166E-003   3.7992836306618861E-003
  -1.9471010373349040E-002   5.0090328096877579E-003   1.0507677940289686E-003
  -3.0223694865140871E-002   9.5790584774304577E-003  -5.8019664905784030E-004
  -2.9613427491844924E-002   9.1349715832821365E-003  -3.4711195430431330E-004
  -2.9003160118548921E-002   8.2727612514345572E-003  -1.7933075219611905E-003
  -2.8392892745252890E-002   6.9924274818857629E-003  -4.9187833520288951E-003
  -2.7782625371956970E-002   5.2939702746390704E-003  -9.7235394445069900E-003
  -6.5840295259997350E-003   4.1542204148349304E-003   2.9601254708610081E-002
  -6.0563047020469885E-003   6.1441345289243721E-003   3.4077726886226567E-002
  -5.5285798780941586E-003   1.0899001655352875E-002   3.9239329412917801E-002
  -5.0008550541413427E-003   1.8418821794120611E-002   4.5086062288683532E-002
  -4.4731302301885822E-003   2.8703594945227007E-002   5.1617925513524288E-002
  -8.8717124503704947E-003   4.4391578797859932E-003   2.0713164870587386E-002
  -7.5863780990159252E-003   5.6588819598251128E-003   2.5877640980245031E-002
  -6.3010437476613002E-003   9.3606572511115704E-003   3.1872205795630992E-002
  -5.0157093963066404E-003   1.5544483753644811E-002   3.8696859316746740E-002
  -3.7303750449519946E-003   2.4210361467426500E-002   4.6351601543590304E-002
  -1.3167372732820357E-002   4.7240953447371115E-003   1.1196335899060356E-002
  -1.0979470497409910E-002   5.1736293907249653E-003   1.6765914139667160E-002
  -8.7915682619993454E-003   7.8223128468701414E-003   2.3310539442656944E-002
  -6.6036660265889231E-003   1.2670145713169840E-002   3.0830211808029730E-002
  -4.4157637911783343E-003   1.9717127989625771E-002   3.9324931235785621E-002
  -1.9471010373349040E-002   5.0090328096877579E-003   1.0507677940289686E-003
  -1.6235581897228742E-002   4.6883768216260391E-003   6.7425463644935485E-003
  -1.3000153421108386E-002   6.2839684426288858E-003   1.3554330353995201E-002
  -9.7647249449880590E-003   9.7958076726953423E-003   2.1486119762533791E-002
  -6.5292964688677332E-003   1.5223894511825375E-002   3.0537914590109211E-002
  -2.7782625371956970E-002   5.2939702746390704E-003  -9.7235394445069900E-003
  -2.3354712298472746E-002   4.2031242525255585E-003  -4.1924623452765375E-003
  -1.8926799224988466E-002   4.7456240383870196E-003   2.6035785296452119E-003
  -1.4498886151504103E-002   6.9214696322189712E-003   1.0664583180257925E-002
  -1.0070973078019962E-002   1.0730661034024536E-002   1.9990551606561047E-002
 </DataArray>
 </PointData>
 </Piece>
 </UnstructuredGrid>
 </VTKFile>
