 <VTKFile type="UnstructuredGrid"  version="0.1"   >
 <UnstructuredGrid>
 <Piece  NumberOfPoints="          1600 "  NumberOfCells="         1024 ">
 <Points>
 <DataArray  type="Float64" NumberOfComponents="3"  format="ascii" >
   0.0000000000000000        0.0000000000000000        0.0000000000000000     
   3.1250000000000000E-002   0.0000000000000000        0.0000000000000000     
   6.2500000000000000E-002   0.0000000000000000        0.0000000000000000     
   9.3750000000000000E-002   0.0000000000000000        0.0000000000000000     
  0.12500000000000000        0.0000000000000000        0.0000000000000000     
   0.0000000000000000        3.1250000000000000E-002   0.0000000000000000     
   3.1250000000000000E-002   3.1250000000000000E-002   0.0000000000000000     
   6.2500000000000000E-002   3.1250000000000000E-002   0.0000000000000000     
   9.3750000000000000E-002   3.1250000000000000E-002   0.0000000000000000     
  0.12500000000000000        3.1250000000000000E-002   0.0000000000000000     
   0.0000000000000000        6.2500000000000000E-002   0.0000000000000000     
   3.1250000000000000E-002   6.2500000000000000E-002   0.0000000000000000     
   6.2500000000000000E-002   6.2500000000000000E-002   0.0000000000000000     
   9.3750000000000000E-002   6.2500000000000000E-002   0.0000000000000000     
  0.12500000000000000        6.2500000000000000E-002   0.0000000000000000     
   0.0000000000000000        9.3750000000000000E-002   0.0000000000000000     
   3.1250000000000000E-002   9.3750000000000000E-002   0.0000000000000000     
   6.2500000000000000E-002   9.3750000000000000E-002   0.0000000000000000     
   9.3750000000000000E-002   9.3750000000000000E-002   0.0000000000000000     
  0.12500000000000000        9.3750000000000000E-002   0.0000000000000000     
   0.0000000000000000       0.12500000000000000        0.0000000000000000     
   3.1250000000000000E-002  0.12500000000000000        0.0000000000000000     
   6.2500000000000000E-002  0.12500000000000000        0.0000000000000000     
   9.3750000000000000E-002  0.12500000000000000        0.0000000000000000     
  0.12500000000000000       0.12500000000000000        0.0000000000000000     
  0.12500000000000000        0.0000000000000000        0.0000000000000000     
  0.15625000000000000        0.0000000000000000        0.0000000000000000     
  0.18750000000000000        0.0000000000000000        0.0000000000000000     
  0.21875000000000000        0.0000000000000000        0.0000000000000000     
  0.25000000000000000        0.0000000000000000        0.0000000000000000     
  0.12500000000000000        3.1250000000000000E-002   0.0000000000000000     
  0.15625000000000000        3.1250000000000000E-002   0.0000000000000000     
  0.18750000000000000        3.1250000000000000E-002   0.0000000000000000     
  0.21875000000000000        3.1250000000000000E-002   0.0000000000000000     
  0.25000000000000000        3.1250000000000000E-002   0.0000000000000000     
  0.12500000000000000        6.2500000000000000E-002   0.0000000000000000     
  0.15625000000000000        6.2500000000000000E-002   0.0000000000000000     
  0.18750000000000000        6.2500000000000000E-002   0.0000000000000000     
  0.21875000000000000        6.2500000000000000E-002   0.0000000000000000     
  0.25000000000000000        6.2500000000000000E-002   0.0000000000000000     
  0.12500000000000000        9.3750000000000000E-002   0.0000000000000000     
  0.15625000000000000        9.3750000000000000E-002   0.0000000000000000     
  0.18750000000000000        9.3750000000000000E-002   0.0000000000000000     
  0.21875000000000000        9.3750000000000000E-002   0.0000000000000000     
  0.25000000000000000        9.3750000000000000E-002   0.0000000000000000     
  0.12500000000000000       0.12500000000000000        0.0000000000000000     
  0.15625000000000000       0.12500000000000000        0.0000000000000000     
  0.18750000000000000       0.12500000000000000        0.0000000000000000     
  0.21875000000000000       0.12500000000000000        0.0000000000000000     
  0.25000000000000000       0.12500000000000000        0.0000000000000000     
  0.25000000000000000        0.0000000000000000        0.0000000000000000     
  0.28125000000000000        0.0000000000000000        0.0000000000000000     
  0.31250000000000000        0.0000000000000000        0.0000000000000000     
  0.34375000000000000        0.0000000000000000        0.0000000000000000     
  0.37500000000000000        0.0000000000000000        0.0000000000000000     
  0.25000000000000000        3.1250000000000000E-002   0.0000000000000000     
  0.28125000000000000        3.1250000000000000E-002   0.0000000000000000     
  0.31250000000000000        3.1250000000000000E-002   0.0000000000000000     
  0.34375000000000000        3.1250000000000000E-002   0.0000000000000000     
  0.37500000000000000        3.1250000000000000E-002   0.0000000000000000     
  0.25000000000000000        6.2500000000000000E-002   0.0000000000000000     
  0.28125000000000000        6.2500000000000000E-002   0.0000000000000000     
  0.31250000000000000        6.2500000000000000E-002   0.0000000000000000     
  0.34375000000000000        6.2500000000000000E-002   0.0000000000000000     
  0.37500000000000000        6.2500000000000000E-002   0.0000000000000000     
  0.25000000000000000        9.3750000000000000E-002   0.0000000000000000     
  0.28125000000000000        9.3750000000000000E-002   0.0000000000000000     
  0.31250000000000000        9.3750000000000000E-002   0.0000000000000000     
  0.34375000000000000        9.3750000000000000E-002   0.0000000000000000     
  0.37500000000000000        9.3750000000000000E-002   0.0000000000000000     
  0.25000000000000000       0.12500000000000000        0.0000000000000000     
  0.28125000000000000       0.12500000000000000        0.0000000000000000     
  0.31250000000000000       0.12500000000000000        0.0000000000000000     
  0.34375000000000000       0.12500000000000000        0.0000000000000000     
  0.37500000000000000       0.12500000000000000        0.0000000000000000     
  0.37500000000000000        0.0000000000000000        0.0000000000000000     
  0.40625000000000000        0.0000000000000000        0.0000000000000000     
  0.43750000000000000        0.0000000000000000        0.0000000000000000     
  0.46875000000000000        0.0000000000000000        0.0000000000000000     
  0.50000000000000000        0.0000000000000000        0.0000000000000000     
  0.37500000000000000        3.1250000000000000E-002   0.0000000000000000     
  0.40625000000000000        3.1250000000000000E-002   0.0000000000000000     
  0.43750000000000000        3.1250000000000000E-002   0.0000000000000000     
  0.46875000000000000        3.1250000000000000E-002   0.0000000000000000     
  0.50000000000000000        3.1250000000000000E-002   0.0000000000000000     
  0.37500000000000000        6.2500000000000000E-002   0.0000000000000000     
  0.40625000000000000        6.2500000000000000E-002   0.0000000000000000     
  0.43750000000000000        6.2500000000000000E-002   0.0000000000000000     
  0.46875000000000000        6.2500000000000000E-002   0.0000000000000000     
  0.50000000000000000        6.2500000000000000E-002   0.0000000000000000     
  0.37500000000000000        9.3750000000000000E-002   0.0000000000000000     
  0.40625000000000000        9.3750000000000000E-002   0.0000000000000000     
  0.43750000000000000        9.3750000000000000E-002   0.0000000000000000     
  0.46875000000000000        9.3750000000000000E-002   0.0000000000000000     
  0.50000000000000000        9.3750000000000000E-002   0.0000000000000000     
  0.37500000000000000       0.12500000000000000        0.0000000000000000     
  0.40625000000000000       0.12500000000000000        0.0000000000000000     
  0.43750000000000000       0.12500000000000000        0.0000000000000000     
  0.46875000000000000       0.12500000000000000        0.0000000000000000     
  0.50000000000000000       0.12500000000000000        0.0000000000000000     
  0.50000000000000000        0.0000000000000000        0.0000000000000000     
  0.53125000000000000        0.0000000000000000        0.0000000000000000     
  0.56250000000000000        0.0000000000000000        0.0000000000000000     
  0.59375000000000000        0.0000000000000000        0.0000000000000000     
  0.62500000000000000        0.0000000000000000        0.0000000000000000     
  0.50000000000000000        3.1250000000000000E-002   0.0000000000000000     
  0.53125000000000000        3.1250000000000000E-002   0.0000000000000000     
  0.56250000000000000        3.1250000000000000E-002   0.0000000000000000     
  0.59375000000000000        3.1250000000000000E-002   0.0000000000000000     
  0.62500000000000000        3.1250000000000000E-002   0.0000000000000000     
  0.50000000000000000        6.2500000000000000E-002   0.0000000000000000     
  0.53125000000000000        6.2500000000000000E-002   0.0000000000000000     
  0.56250000000000000        6.2500000000000000E-002   0.0000000000000000     
  0.59375000000000000        6.2500000000000000E-002   0.0000000000000000     
  0.62500000000000000        6.2500000000000000E-002   0.0000000000000000     
  0.50000000000000000        9.3750000000000000E-002   0.0000000000000000     
  0.53125000000000000        9.3750000000000000E-002   0.0000000000000000     
  0.56250000000000000        9.3750000000000000E-002   0.0000000000000000     
  0.59375000000000000        9.3750000000000000E-002   0.0000000000000000     
  0.62500000000000000        9.3750000000000000E-002   0.0000000000000000     
  0.50000000000000000       0.12500000000000000        0.0000000000000000     
  0.53125000000000000       0.12500000000000000        0.0000000000000000     
  0.56250000000000000       0.12500000000000000        0.0000000000000000     
  0.59375000000000000       0.12500000000000000        0.0000000000000000     
  0.62500000000000000       0.12500000000000000        0.0000000000000000     
  0.62500000000000000        0.0000000000000000        0.0000000000000000     
  0.65625000000000000        0.0000000000000000        0.0000000000000000     
  0.68750000000000000        0.0000000000000000        0.0000000000000000     
  0.71875000000000000        0.0000000000000000        0.0000000000000000     
  0.75000000000000000        0.0000000000000000        0.0000000000000000     
  0.62500000000000000        3.1250000000000000E-002   0.0000000000000000     
  0.65625000000000000        3.1250000000000000E-002   0.0000000000000000     
  0.68750000000000000        3.1250000000000000E-002   0.0000000000000000     
  0.71875000000000000        3.1250000000000000E-002   0.0000000000000000     
  0.75000000000000000        3.1250000000000000E-002   0.0000000000000000     
  0.62500000000000000        6.2500000000000000E-002   0.0000000000000000     
  0.65625000000000000        6.2500000000000000E-002   0.0000000000000000     
  0.68750000000000000        6.2500000000000000E-002   0.0000000000000000     
  0.71875000000000000        6.2500000000000000E-002   0.0000000000000000     
  0.75000000000000000        6.2500000000000000E-002   0.0000000000000000     
  0.62500000000000000        9.3750000000000000E-002   0.0000000000000000     
  0.65625000000000000        9.3750000000000000E-002   0.0000000000000000     
  0.68750000000000000        9.3750000000000000E-002   0.0000000000000000     
  0.71875000000000000        9.3750000000000000E-002   0.0000000000000000     
  0.75000000000000000        9.3750000000000000E-002   0.0000000000000000     
  0.62500000000000000       0.12500000000000000        0.0000000000000000     
  0.65625000000000000       0.12500000000000000        0.0000000000000000     
  0.68750000000000000       0.12500000000000000        0.0000000000000000     
  0.71875000000000000       0.12500000000000000        0.0000000000000000     
  0.75000000000000000       0.12500000000000000        0.0000000000000000     
  0.75000000000000000        0.0000000000000000        0.0000000000000000     
  0.78125000000000000        0.0000000000000000        0.0000000000000000     
  0.81250000000000000        0.0000000000000000        0.0000000000000000     
  0.84375000000000000        0.0000000000000000        0.0000000000000000     
  0.87500000000000000        0.0000000000000000        0.0000000000000000     
  0.75000000000000000        3.1250000000000000E-002   0.0000000000000000     
  0.78125000000000000        3.1250000000000000E-002   0.0000000000000000     
  0.81250000000000000        3.1250000000000000E-002   0.0000000000000000     
  0.84375000000000000        3.1250000000000000E-002   0.0000000000000000     
  0.87500000000000000        3.1250000000000000E-002   0.0000000000000000     
  0.75000000000000000        6.2500000000000000E-002   0.0000000000000000     
  0.78125000000000000        6.2500000000000000E-002   0.0000000000000000     
  0.81250000000000000        6.2500000000000000E-002   0.0000000000000000     
  0.84375000000000000        6.2500000000000000E-002   0.0000000000000000     
  0.87500000000000000        6.2500000000000000E-002   0.0000000000000000     
  0.75000000000000000        9.3750000000000000E-002   0.0000000000000000     
  0.78125000000000000        9.3750000000000000E-002   0.0000000000000000     
  0.81250000000000000        9.3750000000000000E-002   0.0000000000000000     
  0.84375000000000000        9.3750000000000000E-002   0.0000000000000000     
  0.87500000000000000        9.3750000000000000E-002   0.0000000000000000     
  0.75000000000000000       0.12500000000000000        0.0000000000000000     
  0.78125000000000000       0.12500000000000000        0.0000000000000000     
  0.81250000000000000       0.12500000000000000        0.0000000000000000     
  0.84375000000000000       0.12500000000000000        0.0000000000000000     
  0.87500000000000000       0.12500000000000000        0.0000000000000000     
  0.87500000000000000        0.0000000000000000        0.0000000000000000     
  0.90625000000000000        0.0000000000000000        0.0000000000000000     
  0.93750000000000000        0.0000000000000000        0.0000000000000000     
  0.96875000000000000        0.0000000000000000        0.0000000000000000     
   1.0000000000000000        0.0000000000000000        0.0000000000000000     
  0.87500000000000000        3.1250000000000000E-002   0.0000000000000000     
  0.90625000000000000        3.1250000000000000E-002   0.0000000000000000     
  0.93750000000000000        3.1250000000000000E-002   0.0000000000000000     
  0.96875000000000000        3.1250000000000000E-002   0.0000000000000000     
   1.0000000000000000        3.1250000000000000E-002   0.0000000000000000     
  0.87500000000000000        6.2500000000000000E-002   0.0000000000000000     
  0.90625000000000000        6.2500000000000000E-002   0.0000000000000000     
  0.93750000000000000        6.2500000000000000E-002   0.0000000000000000     
  0.96875000000000000        6.2500000000000000E-002   0.0000000000000000     
   1.0000000000000000        6.2500000000000000E-002   0.0000000000000000     
  0.87500000000000000        9.3750000000000000E-002   0.0000000000000000     
  0.90625000000000000        9.3750000000000000E-002   0.0000000000000000     
  0.93750000000000000        9.3750000000000000E-002   0.0000000000000000     
  0.96875000000000000        9.3750000000000000E-002   0.0000000000000000     
   1.0000000000000000        9.3750000000000000E-002   0.0000000000000000     
  0.87500000000000000       0.12500000000000000        0.0000000000000000     
  0.90625000000000000       0.12500000000000000        0.0000000000000000     
  0.93750000000000000       0.12500000000000000        0.0000000000000000     
  0.96875000000000000       0.12500000000000000        0.0000000000000000     
   1.0000000000000000       0.12500000000000000        0.0000000000000000     
   0.0000000000000000       0.12500000000000000        0.0000000000000000     
   3.1250000000000000E-002  0.12500000000000000        0.0000000000000000     
   6.2500000000000000E-002  0.12500000000000000        0.0000000000000000     
   9.3750000000000000E-002  0.12500000000000000        0.0000000000000000     
  0.12500000000000000       0.12500000000000000        0.0000000000000000     
   0.0000000000000000       0.15625000000000000        0.0000000000000000     
   3.1250000000000000E-002  0.15625000000000000        0.0000000000000000     
   6.2500000000000000E-002  0.15625000000000000        0.0000000000000000     
   9.3750000000000000E-002  0.15625000000000000        0.0000000000000000     
  0.12500000000000000       0.15625000000000000        0.0000000000000000     
   0.0000000000000000       0.18750000000000000        0.0000000000000000     
   3.1250000000000000E-002  0.18750000000000000        0.0000000000000000     
   6.2500000000000000E-002  0.18750000000000000        0.0000000000000000     
   9.3750000000000000E-002  0.18750000000000000        0.0000000000000000     
  0.12500000000000000       0.18750000000000000        0.0000000000000000     
   0.0000000000000000       0.21875000000000000        0.0000000000000000     
   3.1250000000000000E-002  0.21875000000000000        0.0000000000000000     
   6.2500000000000000E-002  0.21875000000000000        0.0000000000000000     
   9.3750000000000000E-002  0.21875000000000000        0.0000000000000000     
  0.12500000000000000       0.21875000000000000        0.0000000000000000     
   0.0000000000000000       0.25000000000000000        0.0000000000000000     
   3.1250000000000000E-002  0.25000000000000000        0.0000000000000000     
   6.2500000000000000E-002  0.25000000000000000        0.0000000000000000     
   9.3750000000000000E-002  0.25000000000000000        0.0000000000000000     
  0.12500000000000000       0.25000000000000000        0.0000000000000000     
  0.12500000000000000       0.12500000000000000        0.0000000000000000     
  0.15625000000000000       0.12500000000000000        0.0000000000000000     
  0.18750000000000000       0.12500000000000000        0.0000000000000000     
  0.21875000000000000       0.12500000000000000        0.0000000000000000     
  0.25000000000000000       0.12500000000000000        0.0000000000000000     
  0.12500000000000000       0.15625000000000000        0.0000000000000000     
  0.15625000000000000       0.15625000000000000        0.0000000000000000     
  0.18750000000000000       0.15625000000000000        0.0000000000000000     
  0.21875000000000000       0.15625000000000000        0.0000000000000000     
  0.25000000000000000       0.15625000000000000        0.0000000000000000     
  0.12500000000000000       0.18750000000000000        0.0000000000000000     
  0.15625000000000000       0.18750000000000000        0.0000000000000000     
  0.18750000000000000       0.18750000000000000        0.0000000000000000     
  0.21875000000000000       0.18750000000000000        0.0000000000000000     
  0.25000000000000000       0.18750000000000000        0.0000000000000000     
  0.12500000000000000       0.21875000000000000        0.0000000000000000     
  0.15625000000000000       0.21875000000000000        0.0000000000000000     
  0.18750000000000000       0.21875000000000000        0.0000000000000000     
  0.21875000000000000       0.21875000000000000        0.0000000000000000     
  0.25000000000000000       0.21875000000000000        0.0000000000000000     
  0.12500000000000000       0.25000000000000000        0.0000000000000000     
  0.15625000000000000       0.25000000000000000        0.0000000000000000     
  0.18750000000000000       0.25000000000000000        0.0000000000000000     
  0.21875000000000000       0.25000000000000000        0.0000000000000000     
  0.25000000000000000       0.25000000000000000        0.0000000000000000     
  0.25000000000000000       0.12500000000000000        0.0000000000000000     
  0.28125000000000000       0.12500000000000000        0.0000000000000000     
  0.31250000000000000       0.12500000000000000        0.0000000000000000     
  0.34375000000000000       0.12500000000000000        0.0000000000000000     
  0.37500000000000000       0.12500000000000000        0.0000000000000000     
  0.25000000000000000       0.15625000000000000        0.0000000000000000     
  0.28125000000000000       0.15625000000000000        0.0000000000000000     
  0.31250000000000000       0.15625000000000000        0.0000000000000000     
  0.34375000000000000       0.15625000000000000        0.0000000000000000     
  0.37500000000000000       0.15625000000000000        0.0000000000000000     
  0.25000000000000000       0.18750000000000000        0.0000000000000000     
  0.28125000000000000       0.18750000000000000        0.0000000000000000     
  0.31250000000000000       0.18750000000000000        0.0000000000000000     
  0.34375000000000000       0.18750000000000000        0.0000000000000000     
  0.37500000000000000       0.18750000000000000        0.0000000000000000     
  0.25000000000000000       0.21875000000000000        0.0000000000000000     
  0.28125000000000000       0.21875000000000000        0.0000000000000000     
  0.31250000000000000       0.21875000000000000        0.0000000000000000     
  0.34375000000000000       0.21875000000000000        0.0000000000000000     
  0.37500000000000000       0.21875000000000000        0.0000000000000000     
  0.25000000000000000       0.25000000000000000        0.0000000000000000     
  0.28125000000000000       0.25000000000000000        0.0000000000000000     
  0.31250000000000000       0.25000000000000000        0.0000000000000000     
  0.34375000000000000       0.25000000000000000        0.0000000000000000     
  0.37500000000000000       0.25000000000000000        0.0000000000000000     
  0.37500000000000000       0.12500000000000000        0.0000000000000000     
  0.40625000000000000       0.12500000000000000        0.0000000000000000     
  0.43750000000000000       0.12500000000000000        0.0000000000000000     
  0.46875000000000000       0.12500000000000000        0.0000000000000000     
  0.50000000000000000       0.12500000000000000        0.0000000000000000     
  0.37500000000000000       0.15625000000000000        0.0000000000000000     
  0.40625000000000000       0.15625000000000000        0.0000000000000000     
  0.43750000000000000       0.15625000000000000        0.0000000000000000     
  0.46875000000000000       0.15625000000000000        0.0000000000000000     
  0.50000000000000000       0.15625000000000000        0.0000000000000000     
  0.37500000000000000       0.18750000000000000        0.0000000000000000     
  0.40625000000000000       0.18750000000000000        0.0000000000000000     
  0.43750000000000000       0.18750000000000000        0.0000000000000000     
  0.46875000000000000       0.18750000000000000        0.0000000000000000     
  0.50000000000000000       0.18750000000000000        0.0000000000000000     
  0.37500000000000000       0.21875000000000000        0.0000000000000000     
  0.40625000000000000       0.21875000000000000        0.0000000000000000     
  0.43750000000000000       0.21875000000000000        0.0000000000000000     
  0.46875000000000000       0.21875000000000000        0.0000000000000000     
  0.50000000000000000       0.21875000000000000        0.0000000000000000     
  0.37500000000000000       0.25000000000000000        0.0000000000000000     
  0.40625000000000000       0.25000000000000000        0.0000000000000000     
  0.43750000000000000       0.25000000000000000        0.0000000000000000     
  0.46875000000000000       0.25000000000000000        0.0000000000000000     
  0.50000000000000000       0.25000000000000000        0.0000000000000000     
  0.50000000000000000       0.12500000000000000        0.0000000000000000     
  0.53125000000000000       0.12500000000000000        0.0000000000000000     
  0.56250000000000000       0.12500000000000000        0.0000000000000000     
  0.59375000000000000       0.12500000000000000        0.0000000000000000     
  0.62500000000000000       0.12500000000000000        0.0000000000000000     
  0.50000000000000000       0.15625000000000000        0.0000000000000000     
  0.53125000000000000       0.15625000000000000        0.0000000000000000     
  0.56250000000000000       0.15625000000000000        0.0000000000000000     
  0.59375000000000000       0.15625000000000000        0.0000000000000000     
  0.62500000000000000       0.15625000000000000        0.0000000000000000     
  0.50000000000000000       0.18750000000000000        0.0000000000000000     
  0.53125000000000000       0.18750000000000000        0.0000000000000000     
  0.56250000000000000       0.18750000000000000        0.0000000000000000     
  0.59375000000000000       0.18750000000000000        0.0000000000000000     
  0.62500000000000000       0.18750000000000000        0.0000000000000000     
  0.50000000000000000       0.21875000000000000        0.0000000000000000     
  0.53125000000000000       0.21875000000000000        0.0000000000000000     
  0.56250000000000000       0.21875000000000000        0.0000000000000000     
  0.59375000000000000       0.21875000000000000        0.0000000000000000     
  0.62500000000000000       0.21875000000000000        0.0000000000000000     
  0.50000000000000000       0.25000000000000000        0.0000000000000000     
  0.53125000000000000       0.25000000000000000        0.0000000000000000     
  0.56250000000000000       0.25000000000000000        0.0000000000000000     
  0.59375000000000000       0.25000000000000000        0.0000000000000000     
  0.62500000000000000       0.25000000000000000        0.0000000000000000     
  0.62500000000000000       0.12500000000000000        0.0000000000000000     
  0.65625000000000000       0.12500000000000000        0.0000000000000000     
  0.68750000000000000       0.12500000000000000        0.0000000000000000     
  0.71875000000000000       0.12500000000000000        0.0000000000000000     
  0.75000000000000000       0.12500000000000000        0.0000000000000000     
  0.62500000000000000       0.15625000000000000        0.0000000000000000     
  0.65625000000000000       0.15625000000000000        0.0000000000000000     
  0.68750000000000000       0.15625000000000000        0.0000000000000000     
  0.71875000000000000       0.15625000000000000        0.0000000000000000     
  0.75000000000000000       0.15625000000000000        0.0000000000000000     
  0.62500000000000000       0.18750000000000000        0.0000000000000000     
  0.65625000000000000       0.18750000000000000        0.0000000000000000     
  0.68750000000000000       0.18750000000000000        0.0000000000000000     
  0.71875000000000000       0.18750000000000000        0.0000000000000000     
  0.75000000000000000       0.18750000000000000        0.0000000000000000     
  0.62500000000000000       0.21875000000000000        0.0000000000000000     
  0.65625000000000000       0.21875000000000000        0.0000000000000000     
  0.68750000000000000       0.21875000000000000        0.0000000000000000     
  0.71875000000000000       0.21875000000000000        0.0000000000000000     
  0.75000000000000000       0.21875000000000000        0.0000000000000000     
  0.62500000000000000       0.25000000000000000        0.0000000000000000     
  0.65625000000000000       0.25000000000000000        0.0000000000000000     
  0.68750000000000000       0.25000000000000000        0.0000000000000000     
  0.71875000000000000       0.25000000000000000        0.0000000000000000     
  0.75000000000000000       0.25000000000000000        0.0000000000000000     
  0.75000000000000000       0.12500000000000000        0.0000000000000000     
  0.78125000000000000       0.12500000000000000        0.0000000000000000     
  0.81250000000000000       0.12500000000000000        0.0000000000000000     
  0.84375000000000000       0.12500000000000000        0.0000000000000000     
  0.87500000000000000       0.12500000000000000        0.0000000000000000     
  0.75000000000000000       0.15625000000000000        0.0000000000000000     
  0.78125000000000000       0.15625000000000000        0.0000000000000000     
  0.81250000000000000       0.15625000000000000        0.0000000000000000     
  0.84375000000000000       0.15625000000000000        0.0000000000000000     
  0.87500000000000000       0.15625000000000000        0.0000000000000000     
  0.75000000000000000       0.18750000000000000        0.0000000000000000     
  0.78125000000000000       0.18750000000000000        0.0000000000000000     
  0.81250000000000000       0.18750000000000000        0.0000000000000000     
  0.84375000000000000       0.18750000000000000        0.0000000000000000     
  0.87500000000000000       0.18750000000000000        0.0000000000000000     
  0.75000000000000000       0.21875000000000000        0.0000000000000000     
  0.78125000000000000       0.21875000000000000        0.0000000000000000     
  0.81250000000000000       0.21875000000000000        0.0000000000000000     
  0.84375000000000000       0.21875000000000000        0.0000000000000000     
  0.87500000000000000       0.21875000000000000        0.0000000000000000     
  0.75000000000000000       0.25000000000000000        0.0000000000000000     
  0.78125000000000000       0.25000000000000000        0.0000000000000000     
  0.81250000000000000       0.25000000000000000        0.0000000000000000     
  0.84375000000000000       0.25000000000000000        0.0000000000000000     
  0.87500000000000000       0.25000000000000000        0.0000000000000000     
  0.87500000000000000       0.12500000000000000        0.0000000000000000     
  0.90625000000000000       0.12500000000000000        0.0000000000000000     
  0.93750000000000000       0.12500000000000000        0.0000000000000000     
  0.96875000000000000       0.12500000000000000        0.0000000000000000     
   1.0000000000000000       0.12500000000000000        0.0000000000000000     
  0.87500000000000000       0.15625000000000000        0.0000000000000000     
  0.90625000000000000       0.15625000000000000        0.0000000000000000     
  0.93750000000000000       0.15625000000000000        0.0000000000000000     
  0.96875000000000000       0.15625000000000000        0.0000000000000000     
   1.0000000000000000       0.15625000000000000        0.0000000000000000     
  0.87500000000000000       0.18750000000000000        0.0000000000000000     
  0.90625000000000000       0.18750000000000000        0.0000000000000000     
  0.93750000000000000       0.18750000000000000        0.0000000000000000     
  0.96875000000000000       0.18750000000000000        0.0000000000000000     
   1.0000000000000000       0.18750000000000000        0.0000000000000000     
  0.87500000000000000       0.21875000000000000        0.0000000000000000     
  0.90625000000000000       0.21875000000000000        0.0000000000000000     
  0.93750000000000000       0.21875000000000000        0.0000000000000000     
  0.96875000000000000       0.21875000000000000        0.0000000000000000     
   1.0000000000000000       0.21875000000000000        0.0000000000000000     
  0.87500000000000000       0.25000000000000000        0.0000000000000000     
  0.90625000000000000       0.25000000000000000        0.0000000000000000     
  0.93750000000000000       0.25000000000000000        0.0000000000000000     
  0.96875000000000000       0.25000000000000000        0.0000000000000000     
   1.0000000000000000       0.25000000000000000        0.0000000000000000     
   0.0000000000000000       0.25000000000000000        0.0000000000000000     
   3.1250000000000000E-002  0.25000000000000000        0.0000000000000000     
   6.2500000000000000E-002  0.25000000000000000        0.0000000000000000     
   9.3750000000000000E-002  0.25000000000000000        0.0000000000000000     
  0.12500000000000000       0.25000000000000000        0.0000000000000000     
   0.0000000000000000       0.28125000000000000        0.0000000000000000     
   3.1250000000000000E-002  0.28125000000000000        0.0000000000000000     
   6.2500000000000000E-002  0.28125000000000000        0.0000000000000000     
   9.3750000000000000E-002  0.28125000000000000        0.0000000000000000     
  0.12500000000000000       0.28125000000000000        0.0000000000000000     
   0.0000000000000000       0.31250000000000000        0.0000000000000000     
   3.1250000000000000E-002  0.31250000000000000        0.0000000000000000     
   6.2500000000000000E-002  0.31250000000000000        0.0000000000000000     
   9.3750000000000000E-002  0.31250000000000000        0.0000000000000000     
  0.12500000000000000       0.31250000000000000        0.0000000000000000     
   0.0000000000000000       0.34375000000000000        0.0000000000000000     
   3.1250000000000000E-002  0.34375000000000000        0.0000000000000000     
   6.2500000000000000E-002  0.34375000000000000        0.0000000000000000     
   9.3750000000000000E-002  0.34375000000000000        0.0000000000000000     
  0.12500000000000000       0.34375000000000000        0.0000000000000000     
   0.0000000000000000       0.37500000000000000        0.0000000000000000     
   3.1250000000000000E-002  0.37500000000000000        0.0000000000000000     
   6.2500000000000000E-002  0.37500000000000000        0.0000000000000000     
   9.3750000000000000E-002  0.37500000000000000        0.0000000000000000     
  0.12500000000000000       0.37500000000000000        0.0000000000000000     
  0.12500000000000000       0.25000000000000000        0.0000000000000000     
  0.15625000000000000       0.25000000000000000        0.0000000000000000     
  0.18750000000000000       0.25000000000000000        0.0000000000000000     
  0.21875000000000000       0.25000000000000000        0.0000000000000000     
  0.25000000000000000       0.25000000000000000        0.0000000000000000     
  0.12500000000000000       0.28125000000000000        0.0000000000000000     
  0.15625000000000000       0.28125000000000000        0.0000000000000000     
  0.18750000000000000       0.28125000000000000        0.0000000000000000     
  0.21875000000000000       0.28125000000000000        0.0000000000000000     
  0.25000000000000000       0.28125000000000000        0.0000000000000000     
  0.12500000000000000       0.31250000000000000        0.0000000000000000     
  0.15625000000000000       0.31250000000000000        0.0000000000000000     
  0.18750000000000000       0.31250000000000000        0.0000000000000000     
  0.21875000000000000       0.31250000000000000        0.0000000000000000     
  0.25000000000000000       0.31250000000000000        0.0000000000000000     
  0.12500000000000000       0.34375000000000000        0.0000000000000000     
  0.15625000000000000       0.34375000000000000        0.0000000000000000     
  0.18750000000000000       0.34375000000000000        0.0000000000000000     
  0.21875000000000000       0.34375000000000000        0.0000000000000000     
  0.25000000000000000       0.34375000000000000        0.0000000000000000     
  0.12500000000000000       0.37500000000000000        0.0000000000000000     
  0.15625000000000000       0.37500000000000000        0.0000000000000000     
  0.18750000000000000       0.37500000000000000        0.0000000000000000     
  0.21875000000000000       0.37500000000000000        0.0000000000000000     
  0.25000000000000000       0.37500000000000000        0.0000000000000000     
  0.25000000000000000       0.25000000000000000        0.0000000000000000     
  0.28125000000000000       0.25000000000000000        0.0000000000000000     
  0.31250000000000000       0.25000000000000000        0.0000000000000000     
  0.34375000000000000       0.25000000000000000        0.0000000000000000     
  0.37500000000000000       0.25000000000000000        0.0000000000000000     
  0.25000000000000000       0.28125000000000000        0.0000000000000000     
  0.28125000000000000       0.28125000000000000        0.0000000000000000     
  0.31250000000000000       0.28125000000000000        0.0000000000000000     
  0.34375000000000000       0.28125000000000000        0.0000000000000000     
  0.37500000000000000       0.28125000000000000        0.0000000000000000     
  0.25000000000000000       0.31250000000000000        0.0000000000000000     
  0.28125000000000000       0.31250000000000000        0.0000000000000000     
  0.31250000000000000       0.31250000000000000        0.0000000000000000     
  0.34375000000000000       0.31250000000000000        0.0000000000000000     
  0.37500000000000000       0.31250000000000000        0.0000000000000000     
  0.25000000000000000       0.34375000000000000        0.0000000000000000     
  0.28125000000000000       0.34375000000000000        0.0000000000000000     
  0.31250000000000000       0.34375000000000000        0.0000000000000000     
  0.34375000000000000       0.34375000000000000        0.0000000000000000     
  0.37500000000000000       0.34375000000000000        0.0000000000000000     
  0.25000000000000000       0.37500000000000000        0.0000000000000000     
  0.28125000000000000       0.37500000000000000        0.0000000000000000     
  0.31250000000000000       0.37500000000000000        0.0000000000000000     
  0.34375000000000000       0.37500000000000000        0.0000000000000000     
  0.37500000000000000       0.37500000000000000        0.0000000000000000     
  0.37500000000000000       0.25000000000000000        0.0000000000000000     
  0.40625000000000000       0.25000000000000000        0.0000000000000000     
  0.43750000000000000       0.25000000000000000        0.0000000000000000     
  0.46875000000000000       0.25000000000000000        0.0000000000000000     
  0.50000000000000000       0.25000000000000000        0.0000000000000000     
  0.37500000000000000       0.28125000000000000        0.0000000000000000     
  0.40625000000000000       0.28125000000000000        0.0000000000000000     
  0.43750000000000000       0.28125000000000000        0.0000000000000000     
  0.46875000000000000       0.28125000000000000        0.0000000000000000     
  0.50000000000000000       0.28125000000000000        0.0000000000000000     
  0.37500000000000000       0.31250000000000000        0.0000000000000000     
  0.40625000000000000       0.31250000000000000        0.0000000000000000     
  0.43750000000000000       0.31250000000000000        0.0000000000000000     
  0.46875000000000000       0.31250000000000000        0.0000000000000000     
  0.50000000000000000       0.31250000000000000        0.0000000000000000     
  0.37500000000000000       0.34375000000000000        0.0000000000000000     
  0.40625000000000000       0.34375000000000000        0.0000000000000000     
  0.43750000000000000       0.34375000000000000        0.0000000000000000     
  0.46875000000000000       0.34375000000000000        0.0000000000000000     
  0.50000000000000000       0.34375000000000000        0.0000000000000000     
  0.37500000000000000       0.37500000000000000        0.0000000000000000     
  0.40625000000000000       0.37500000000000000        0.0000000000000000     
  0.43750000000000000       0.37500000000000000        0.0000000000000000     
  0.46875000000000000       0.37500000000000000        0.0000000000000000     
  0.50000000000000000       0.37500000000000000        0.0000000000000000     
  0.50000000000000000       0.25000000000000000        0.0000000000000000     
  0.53125000000000000       0.25000000000000000        0.0000000000000000     
  0.56250000000000000       0.25000000000000000        0.0000000000000000     
  0.59375000000000000       0.25000000000000000        0.0000000000000000     
  0.62500000000000000       0.25000000000000000        0.0000000000000000     
  0.50000000000000000       0.28125000000000000        0.0000000000000000     
  0.53125000000000000       0.28125000000000000        0.0000000000000000     
  0.56250000000000000       0.28125000000000000        0.0000000000000000     
  0.59375000000000000       0.28125000000000000        0.0000000000000000     
  0.62500000000000000       0.28125000000000000        0.0000000000000000     
  0.50000000000000000       0.31250000000000000        0.0000000000000000     
  0.53125000000000000       0.31250000000000000        0.0000000000000000     
  0.56250000000000000       0.31250000000000000        0.0000000000000000     
  0.59375000000000000       0.31250000000000000        0.0000000000000000     
  0.62500000000000000       0.31250000000000000        0.0000000000000000     
  0.50000000000000000       0.34375000000000000        0.0000000000000000     
  0.53125000000000000       0.34375000000000000        0.0000000000000000     
  0.56250000000000000       0.34375000000000000        0.0000000000000000     
  0.59375000000000000       0.34375000000000000        0.0000000000000000     
  0.62500000000000000       0.34375000000000000        0.0000000000000000     
  0.50000000000000000       0.37500000000000000        0.0000000000000000     
  0.53125000000000000       0.37500000000000000        0.0000000000000000     
  0.56250000000000000       0.37500000000000000        0.0000000000000000     
  0.59375000000000000       0.37500000000000000        0.0000000000000000     
  0.62500000000000000       0.37500000000000000        0.0000000000000000     
  0.62500000000000000       0.25000000000000000        0.0000000000000000     
  0.65625000000000000       0.25000000000000000        0.0000000000000000     
  0.68750000000000000       0.25000000000000000        0.0000000000000000     
  0.71875000000000000       0.25000000000000000        0.0000000000000000     
  0.75000000000000000       0.25000000000000000        0.0000000000000000     
  0.62500000000000000       0.28125000000000000        0.0000000000000000     
  0.65625000000000000       0.28125000000000000        0.0000000000000000     
  0.68750000000000000       0.28125000000000000        0.0000000000000000     
  0.71875000000000000       0.28125000000000000        0.0000000000000000     
  0.75000000000000000       0.28125000000000000        0.0000000000000000     
  0.62500000000000000       0.31250000000000000        0.0000000000000000     
  0.65625000000000000       0.31250000000000000        0.0000000000000000     
  0.68750000000000000       0.31250000000000000        0.0000000000000000     
  0.71875000000000000       0.31250000000000000        0.0000000000000000     
  0.75000000000000000       0.31250000000000000        0.0000000000000000     
  0.62500000000000000       0.34375000000000000        0.0000000000000000     
  0.65625000000000000       0.34375000000000000        0.0000000000000000     
  0.68750000000000000       0.34375000000000000        0.0000000000000000     
  0.71875000000000000       0.34375000000000000        0.0000000000000000     
  0.75000000000000000       0.34375000000000000        0.0000000000000000     
  0.62500000000000000       0.37500000000000000        0.0000000000000000     
  0.65625000000000000       0.37500000000000000        0.0000000000000000     
  0.68750000000000000       0.37500000000000000        0.0000000000000000     
  0.71875000000000000       0.37500000000000000        0.0000000000000000     
  0.75000000000000000       0.37500000000000000        0.0000000000000000     
  0.75000000000000000       0.25000000000000000        0.0000000000000000     
  0.78125000000000000       0.25000000000000000        0.0000000000000000     
  0.81250000000000000       0.25000000000000000        0.0000000000000000     
  0.84375000000000000       0.25000000000000000        0.0000000000000000     
  0.87500000000000000       0.25000000000000000        0.0000000000000000     
  0.75000000000000000       0.28125000000000000        0.0000000000000000     
  0.78125000000000000       0.28125000000000000        0.0000000000000000     
  0.81250000000000000       0.28125000000000000        0.0000000000000000     
  0.84375000000000000       0.28125000000000000        0.0000000000000000     
  0.87500000000000000       0.28125000000000000        0.0000000000000000     
  0.75000000000000000       0.31250000000000000        0.0000000000000000     
  0.78125000000000000       0.31250000000000000        0.0000000000000000     
  0.81250000000000000       0.31250000000000000        0.0000000000000000     
  0.84375000000000000       0.31250000000000000        0.0000000000000000     
  0.87500000000000000       0.31250000000000000        0.0000000000000000     
  0.75000000000000000       0.34375000000000000        0.0000000000000000     
  0.78125000000000000       0.34375000000000000        0.0000000000000000     
  0.81250000000000000       0.34375000000000000        0.0000000000000000     
  0.84375000000000000       0.34375000000000000        0.0000000000000000     
  0.87500000000000000       0.34375000000000000        0.0000000000000000     
  0.75000000000000000       0.37500000000000000        0.0000000000000000     
  0.78125000000000000       0.37500000000000000        0.0000000000000000     
  0.81250000000000000       0.37500000000000000        0.0000000000000000     
  0.84375000000000000       0.37500000000000000        0.0000000000000000     
  0.87500000000000000       0.37500000000000000        0.0000000000000000     
  0.87500000000000000       0.25000000000000000        0.0000000000000000     
  0.90625000000000000       0.25000000000000000        0.0000000000000000     
  0.93750000000000000       0.25000000000000000        0.0000000000000000     
  0.96875000000000000       0.25000000000000000        0.0000000000000000     
   1.0000000000000000       0.25000000000000000        0.0000000000000000     
  0.87500000000000000       0.28125000000000000        0.0000000000000000     
  0.90625000000000000       0.28125000000000000        0.0000000000000000     
  0.93750000000000000       0.28125000000000000        0.0000000000000000     
  0.96875000000000000       0.28125000000000000        0.0000000000000000     
   1.0000000000000000       0.28125000000000000        0.0000000000000000     
  0.87500000000000000       0.31250000000000000        0.0000000000000000     
  0.90625000000000000       0.31250000000000000        0.0000000000000000     
  0.93750000000000000       0.31250000000000000        0.0000000000000000     
  0.96875000000000000       0.31250000000000000        0.0000000000000000     
   1.0000000000000000       0.31250000000000000        0.0000000000000000     
  0.87500000000000000       0.34375000000000000        0.0000000000000000     
  0.90625000000000000       0.34375000000000000        0.0000000000000000     
  0.93750000000000000       0.34375000000000000        0.0000000000000000     
  0.96875000000000000       0.34375000000000000        0.0000000000000000     
   1.0000000000000000       0.34375000000000000        0.0000000000000000     
  0.87500000000000000       0.37500000000000000        0.0000000000000000     
  0.90625000000000000       0.37500000000000000        0.0000000000000000     
  0.93750000000000000       0.37500000000000000        0.0000000000000000     
  0.96875000000000000       0.37500000000000000        0.0000000000000000     
   1.0000000000000000       0.37500000000000000        0.0000000000000000     
   0.0000000000000000       0.37500000000000000        0.0000000000000000     
   3.1250000000000000E-002  0.37500000000000000        0.0000000000000000     
   6.2500000000000000E-002  0.37500000000000000        0.0000000000000000     
   9.3750000000000000E-002  0.37500000000000000        0.0000000000000000     
  0.12500000000000000       0.37500000000000000        0.0000000000000000     
   0.0000000000000000       0.40625000000000000        0.0000000000000000     
   3.1250000000000000E-002  0.40625000000000000        0.0000000000000000     
   6.2500000000000000E-002  0.40625000000000000        0.0000000000000000     
   9.3750000000000000E-002  0.40625000000000000        0.0000000000000000     
  0.12500000000000000       0.40625000000000000        0.0000000000000000     
   0.0000000000000000       0.43750000000000000        0.0000000000000000     
   3.1250000000000000E-002  0.43750000000000000        0.0000000000000000     
   6.2500000000000000E-002  0.43750000000000000        0.0000000000000000     
   9.3750000000000000E-002  0.43750000000000000        0.0000000000000000     
  0.12500000000000000       0.43750000000000000        0.0000000000000000     
   0.0000000000000000       0.46875000000000000        0.0000000000000000     
   3.1250000000000000E-002  0.46875000000000000        0.0000000000000000     
   6.2500000000000000E-002  0.46875000000000000        0.0000000000000000     
   9.3750000000000000E-002  0.46875000000000000        0.0000000000000000     
  0.12500000000000000       0.46875000000000000        0.0000000000000000     
   0.0000000000000000       0.50000000000000000        0.0000000000000000     
   3.1250000000000000E-002  0.50000000000000000        0.0000000000000000     
   6.2500000000000000E-002  0.50000000000000000        0.0000000000000000     
   9.3750000000000000E-002  0.50000000000000000        0.0000000000000000     
  0.12500000000000000       0.50000000000000000        0.0000000000000000     
  0.12500000000000000       0.37500000000000000        0.0000000000000000     
  0.15625000000000000       0.37500000000000000        0.0000000000000000     
  0.18750000000000000       0.37500000000000000        0.0000000000000000     
  0.21875000000000000       0.37500000000000000        0.0000000000000000     
  0.25000000000000000       0.37500000000000000        0.0000000000000000     
  0.12500000000000000       0.40625000000000000        0.0000000000000000     
  0.15625000000000000       0.40625000000000000        0.0000000000000000     
  0.18750000000000000       0.40625000000000000        0.0000000000000000     
  0.21875000000000000       0.40625000000000000        0.0000000000000000     
  0.25000000000000000       0.40625000000000000        0.0000000000000000     
  0.12500000000000000       0.43750000000000000        0.0000000000000000     
  0.15625000000000000       0.43750000000000000        0.0000000000000000     
  0.18750000000000000       0.43750000000000000        0.0000000000000000     
  0.21875000000000000       0.43750000000000000        0.0000000000000000     
  0.25000000000000000       0.43750000000000000        0.0000000000000000     
  0.12500000000000000       0.46875000000000000        0.0000000000000000     
  0.15625000000000000       0.46875000000000000        0.0000000000000000     
  0.18750000000000000       0.46875000000000000        0.0000000000000000     
  0.21875000000000000       0.46875000000000000        0.0000000000000000     
  0.25000000000000000       0.46875000000000000        0.0000000000000000     
  0.12500000000000000       0.50000000000000000        0.0000000000000000     
  0.15625000000000000       0.50000000000000000        0.0000000000000000     
  0.18750000000000000       0.50000000000000000        0.0000000000000000     
  0.21875000000000000       0.50000000000000000        0.0000000000000000     
  0.25000000000000000       0.50000000000000000        0.0000000000000000     
  0.25000000000000000       0.37500000000000000        0.0000000000000000     
  0.28125000000000000       0.37500000000000000        0.0000000000000000     
  0.31250000000000000       0.37500000000000000        0.0000000000000000     
  0.34375000000000000       0.37500000000000000        0.0000000000000000     
  0.37500000000000000       0.37500000000000000        0.0000000000000000     
  0.25000000000000000       0.40625000000000000        0.0000000000000000     
  0.28125000000000000       0.40625000000000000        0.0000000000000000     
  0.31250000000000000       0.40625000000000000        0.0000000000000000     
  0.34375000000000000       0.40625000000000000        0.0000000000000000     
  0.37500000000000000       0.40625000000000000        0.0000000000000000     
  0.25000000000000000       0.43750000000000000        0.0000000000000000     
  0.28125000000000000       0.43750000000000000        0.0000000000000000     
  0.31250000000000000       0.43750000000000000        0.0000000000000000     
  0.34375000000000000       0.43750000000000000        0.0000000000000000     
  0.37500000000000000       0.43750000000000000        0.0000000000000000     
  0.25000000000000000       0.46875000000000000        0.0000000000000000     
  0.28125000000000000       0.46875000000000000        0.0000000000000000     
  0.31250000000000000       0.46875000000000000        0.0000000000000000     
  0.34375000000000000       0.46875000000000000        0.0000000000000000     
  0.37500000000000000       0.46875000000000000        0.0000000000000000     
  0.25000000000000000       0.50000000000000000        0.0000000000000000     
  0.28125000000000000       0.50000000000000000        0.0000000000000000     
  0.31250000000000000       0.50000000000000000        0.0000000000000000     
  0.34375000000000000       0.50000000000000000        0.0000000000000000     
  0.37500000000000000       0.50000000000000000        0.0000000000000000     
  0.37500000000000000       0.37500000000000000        0.0000000000000000     
  0.40625000000000000       0.37500000000000000        0.0000000000000000     
  0.43750000000000000       0.37500000000000000        0.0000000000000000     
  0.46875000000000000       0.37500000000000000        0.0000000000000000     
  0.50000000000000000       0.37500000000000000        0.0000000000000000     
  0.37500000000000000       0.40625000000000000        0.0000000000000000     
  0.40625000000000000       0.40625000000000000        0.0000000000000000     
  0.43750000000000000       0.40625000000000000        0.0000000000000000     
  0.46875000000000000       0.40625000000000000        0.0000000000000000     
  0.50000000000000000       0.40625000000000000        0.0000000000000000     
  0.37500000000000000       0.43750000000000000        0.0000000000000000     
  0.40625000000000000       0.43750000000000000        0.0000000000000000     
  0.43750000000000000       0.43750000000000000        0.0000000000000000     
  0.46875000000000000       0.43750000000000000        0.0000000000000000     
  0.50000000000000000       0.43750000000000000        0.0000000000000000     
  0.37500000000000000       0.46875000000000000        0.0000000000000000     
  0.40625000000000000       0.46875000000000000        0.0000000000000000     
  0.43750000000000000       0.46875000000000000        0.0000000000000000     
  0.46875000000000000       0.46875000000000000        0.0000000000000000     
  0.50000000000000000       0.46875000000000000        0.0000000000000000     
  0.37500000000000000       0.50000000000000000        0.0000000000000000     
  0.40625000000000000       0.50000000000000000        0.0000000000000000     
  0.43750000000000000       0.50000000000000000        0.0000000000000000     
  0.46875000000000000       0.50000000000000000        0.0000000000000000     
  0.50000000000000000       0.50000000000000000        0.0000000000000000     
  0.50000000000000000       0.37500000000000000        0.0000000000000000     
  0.53125000000000000       0.37500000000000000        0.0000000000000000     
  0.56250000000000000       0.37500000000000000        0.0000000000000000     
  0.59375000000000000       0.37500000000000000        0.0000000000000000     
  0.62500000000000000       0.37500000000000000        0.0000000000000000     
  0.50000000000000000       0.40625000000000000        0.0000000000000000     
  0.53125000000000000       0.40625000000000000        0.0000000000000000     
  0.56250000000000000       0.40625000000000000        0.0000000000000000     
  0.59375000000000000       0.40625000000000000        0.0000000000000000     
  0.62500000000000000       0.40625000000000000        0.0000000000000000     
  0.50000000000000000       0.43750000000000000        0.0000000000000000     
  0.53125000000000000       0.43750000000000000        0.0000000000000000     
  0.56250000000000000       0.43750000000000000        0.0000000000000000     
  0.59375000000000000       0.43750000000000000        0.0000000000000000     
  0.62500000000000000       0.43750000000000000        0.0000000000000000     
  0.50000000000000000       0.46875000000000000        0.0000000000000000     
  0.53125000000000000       0.46875000000000000        0.0000000000000000     
  0.56250000000000000       0.46875000000000000        0.0000000000000000     
  0.59375000000000000       0.46875000000000000        0.0000000000000000     
  0.62500000000000000       0.46875000000000000        0.0000000000000000     
  0.50000000000000000       0.50000000000000000        0.0000000000000000     
  0.53125000000000000       0.50000000000000000        0.0000000000000000     
  0.56250000000000000       0.50000000000000000        0.0000000000000000     
  0.59375000000000000       0.50000000000000000        0.0000000000000000     
  0.62500000000000000       0.50000000000000000        0.0000000000000000     
  0.62500000000000000       0.37500000000000000        0.0000000000000000     
  0.65625000000000000       0.37500000000000000        0.0000000000000000     
  0.68750000000000000       0.37500000000000000        0.0000000000000000     
  0.71875000000000000       0.37500000000000000        0.0000000000000000     
  0.75000000000000000       0.37500000000000000        0.0000000000000000     
  0.62500000000000000       0.40625000000000000        0.0000000000000000     
  0.65625000000000000       0.40625000000000000        0.0000000000000000     
  0.68750000000000000       0.40625000000000000        0.0000000000000000     
  0.71875000000000000       0.40625000000000000        0.0000000000000000     
  0.75000000000000000       0.40625000000000000        0.0000000000000000     
  0.62500000000000000       0.43750000000000000        0.0000000000000000     
  0.65625000000000000       0.43750000000000000        0.0000000000000000     
  0.68750000000000000       0.43750000000000000        0.0000000000000000     
  0.71875000000000000       0.43750000000000000        0.0000000000000000     
  0.75000000000000000       0.43750000000000000        0.0000000000000000     
  0.62500000000000000       0.46875000000000000        0.0000000000000000     
  0.65625000000000000       0.46875000000000000        0.0000000000000000     
  0.68750000000000000       0.46875000000000000        0.0000000000000000     
  0.71875000000000000       0.46875000000000000        0.0000000000000000     
  0.75000000000000000       0.46875000000000000        0.0000000000000000     
  0.62500000000000000       0.50000000000000000        0.0000000000000000     
  0.65625000000000000       0.50000000000000000        0.0000000000000000     
  0.68750000000000000       0.50000000000000000        0.0000000000000000     
  0.71875000000000000       0.50000000000000000        0.0000000000000000     
  0.75000000000000000       0.50000000000000000        0.0000000000000000     
  0.75000000000000000       0.37500000000000000        0.0000000000000000     
  0.78125000000000000       0.37500000000000000        0.0000000000000000     
  0.81250000000000000       0.37500000000000000        0.0000000000000000     
  0.84375000000000000       0.37500000000000000        0.0000000000000000     
  0.87500000000000000       0.37500000000000000        0.0000000000000000     
  0.75000000000000000       0.40625000000000000        0.0000000000000000     
  0.78125000000000000       0.40625000000000000        0.0000000000000000     
  0.81250000000000000       0.40625000000000000        0.0000000000000000     
  0.84375000000000000       0.40625000000000000        0.0000000000000000     
  0.87500000000000000       0.40625000000000000        0.0000000000000000     
  0.75000000000000000       0.43750000000000000        0.0000000000000000     
  0.78125000000000000       0.43750000000000000        0.0000000000000000     
  0.81250000000000000       0.43750000000000000        0.0000000000000000     
  0.84375000000000000       0.43750000000000000        0.0000000000000000     
  0.87500000000000000       0.43750000000000000        0.0000000000000000     
  0.75000000000000000       0.46875000000000000        0.0000000000000000     
  0.78125000000000000       0.46875000000000000        0.0000000000000000     
  0.81250000000000000       0.46875000000000000        0.0000000000000000     
  0.84375000000000000       0.46875000000000000        0.0000000000000000     
  0.87500000000000000       0.46875000000000000        0.0000000000000000     
  0.75000000000000000       0.50000000000000000        0.0000000000000000     
  0.78125000000000000       0.50000000000000000        0.0000000000000000     
  0.81250000000000000       0.50000000000000000        0.0000000000000000     
  0.84375000000000000       0.50000000000000000        0.0000000000000000     
  0.87500000000000000       0.50000000000000000        0.0000000000000000     
  0.87500000000000000       0.37500000000000000        0.0000000000000000     
  0.90625000000000000       0.37500000000000000        0.0000000000000000     
  0.93750000000000000       0.37500000000000000        0.0000000000000000     
  0.96875000000000000       0.37500000000000000        0.0000000000000000     
   1.0000000000000000       0.37500000000000000        0.0000000000000000     
  0.87500000000000000       0.40625000000000000        0.0000000000000000     
  0.90625000000000000       0.40625000000000000        0.0000000000000000     
  0.93750000000000000       0.40625000000000000        0.0000000000000000     
  0.96875000000000000       0.40625000000000000        0.0000000000000000     
   1.0000000000000000       0.40625000000000000        0.0000000000000000     
  0.87500000000000000       0.43750000000000000        0.0000000000000000     
  0.90625000000000000       0.43750000000000000        0.0000000000000000     
  0.93750000000000000       0.43750000000000000        0.0000000000000000     
  0.96875000000000000       0.43750000000000000        0.0000000000000000     
   1.0000000000000000       0.43750000000000000        0.0000000000000000     
  0.87500000000000000       0.46875000000000000        0.0000000000000000     
  0.90625000000000000       0.46875000000000000        0.0000000000000000     
  0.93750000000000000       0.46875000000000000        0.0000000000000000     
  0.96875000000000000       0.46875000000000000        0.0000000000000000     
   1.0000000000000000       0.46875000000000000        0.0000000000000000     
  0.87500000000000000       0.50000000000000000        0.0000000000000000     
  0.90625000000000000       0.50000000000000000        0.0000000000000000     
  0.93750000000000000       0.50000000000000000        0.0000000000000000     
  0.96875000000000000       0.50000000000000000        0.0000000000000000     
   1.0000000000000000       0.50000000000000000        0.0000000000000000     
   0.0000000000000000       0.50000000000000000        0.0000000000000000     
   3.1250000000000000E-002  0.50000000000000000        0.0000000000000000     
   6.2500000000000000E-002  0.50000000000000000        0.0000000000000000     
   9.3750000000000000E-002  0.50000000000000000        0.0000000000000000     
  0.12500000000000000       0.50000000000000000        0.0000000000000000     
   0.0000000000000000       0.53125000000000000        0.0000000000000000     
   3.1250000000000000E-002  0.53125000000000000        0.0000000000000000     
   6.2500000000000000E-002  0.53125000000000000        0.0000000000000000     
   9.3750000000000000E-002  0.53125000000000000        0.0000000000000000     
  0.12500000000000000       0.53125000000000000        0.0000000000000000     
   0.0000000000000000       0.56250000000000000        0.0000000000000000     
   3.1250000000000000E-002  0.56250000000000000        0.0000000000000000     
   6.2500000000000000E-002  0.56250000000000000        0.0000000000000000     
   9.3750000000000000E-002  0.56250000000000000        0.0000000000000000     
  0.12500000000000000       0.56250000000000000        0.0000000000000000     
   0.0000000000000000       0.59375000000000000        0.0000000000000000     
   3.1250000000000000E-002  0.59375000000000000        0.0000000000000000     
   6.2500000000000000E-002  0.59375000000000000        0.0000000000000000     
   9.3750000000000000E-002  0.59375000000000000        0.0000000000000000     
  0.12500000000000000       0.59375000000000000        0.0000000000000000     
   0.0000000000000000       0.62500000000000000        0.0000000000000000     
   3.1250000000000000E-002  0.62500000000000000        0.0000000000000000     
   6.2500000000000000E-002  0.62500000000000000        0.0000000000000000     
   9.3750000000000000E-002  0.62500000000000000        0.0000000000000000     
  0.12500000000000000       0.62500000000000000        0.0000000000000000     
  0.12500000000000000       0.50000000000000000        0.0000000000000000     
  0.15625000000000000       0.50000000000000000        0.0000000000000000     
  0.18750000000000000       0.50000000000000000        0.0000000000000000     
  0.21875000000000000       0.50000000000000000        0.0000000000000000     
  0.25000000000000000       0.50000000000000000        0.0000000000000000     
  0.12500000000000000       0.53125000000000000        0.0000000000000000     
  0.15625000000000000       0.53125000000000000        0.0000000000000000     
  0.18750000000000000       0.53125000000000000        0.0000000000000000     
  0.21875000000000000       0.53125000000000000        0.0000000000000000     
  0.25000000000000000       0.53125000000000000        0.0000000000000000     
  0.12500000000000000       0.56250000000000000        0.0000000000000000     
  0.15625000000000000       0.56250000000000000        0.0000000000000000     
  0.18750000000000000       0.56250000000000000        0.0000000000000000     
  0.21875000000000000       0.56250000000000000        0.0000000000000000     
  0.25000000000000000       0.56250000000000000        0.0000000000000000     
  0.12500000000000000       0.59375000000000000        0.0000000000000000     
  0.15625000000000000       0.59375000000000000        0.0000000000000000     
  0.18750000000000000       0.59375000000000000        0.0000000000000000     
  0.21875000000000000       0.59375000000000000        0.0000000000000000     
  0.25000000000000000       0.59375000000000000        0.0000000000000000     
  0.12500000000000000       0.62500000000000000        0.0000000000000000     
  0.15625000000000000       0.62500000000000000        0.0000000000000000     
  0.18750000000000000       0.62500000000000000        0.0000000000000000     
  0.21875000000000000       0.62500000000000000        0.0000000000000000     
  0.25000000000000000       0.62500000000000000        0.0000000000000000     
  0.25000000000000000       0.50000000000000000        0.0000000000000000     
  0.28125000000000000       0.50000000000000000        0.0000000000000000     
  0.31250000000000000       0.50000000000000000        0.0000000000000000     
  0.34375000000000000       0.50000000000000000        0.0000000000000000     
  0.37500000000000000       0.50000000000000000        0.0000000000000000     
  0.25000000000000000       0.53125000000000000        0.0000000000000000     
  0.28125000000000000       0.53125000000000000        0.0000000000000000     
  0.31250000000000000       0.53125000000000000        0.0000000000000000     
  0.34375000000000000       0.53125000000000000        0.0000000000000000     
  0.37500000000000000       0.53125000000000000        0.0000000000000000     
  0.25000000000000000       0.56250000000000000        0.0000000000000000     
  0.28125000000000000       0.56250000000000000        0.0000000000000000     
  0.31250000000000000       0.56250000000000000        0.0000000000000000     
  0.34375000000000000       0.56250000000000000        0.0000000000000000     
  0.37500000000000000       0.56250000000000000        0.0000000000000000     
  0.25000000000000000       0.59375000000000000        0.0000000000000000     
  0.28125000000000000       0.59375000000000000        0.0000000000000000     
  0.31250000000000000       0.59375000000000000        0.0000000000000000     
  0.34375000000000000       0.59375000000000000        0.0000000000000000     
  0.37500000000000000       0.59375000000000000        0.0000000000000000     
  0.25000000000000000       0.62500000000000000        0.0000000000000000     
  0.28125000000000000       0.62500000000000000        0.0000000000000000     
  0.31250000000000000       0.62500000000000000        0.0000000000000000     
  0.34375000000000000       0.62500000000000000        0.0000000000000000     
  0.37500000000000000       0.62500000000000000        0.0000000000000000     
  0.37500000000000000       0.50000000000000000        0.0000000000000000     
  0.40625000000000000       0.50000000000000000        0.0000000000000000     
  0.43750000000000000       0.50000000000000000        0.0000000000000000     
  0.46875000000000000       0.50000000000000000        0.0000000000000000     
  0.50000000000000000       0.50000000000000000        0.0000000000000000     
  0.37500000000000000       0.53125000000000000        0.0000000000000000     
  0.40625000000000000       0.53125000000000000        0.0000000000000000     
  0.43750000000000000       0.53125000000000000        0.0000000000000000     
  0.46875000000000000       0.53125000000000000        0.0000000000000000     
  0.50000000000000000       0.53125000000000000        0.0000000000000000     
  0.37500000000000000       0.56250000000000000        0.0000000000000000     
  0.40625000000000000       0.56250000000000000        0.0000000000000000     
  0.43750000000000000       0.56250000000000000        0.0000000000000000     
  0.46875000000000000       0.56250000000000000        0.0000000000000000     
  0.50000000000000000       0.56250000000000000        0.0000000000000000     
  0.37500000000000000       0.59375000000000000        0.0000000000000000     
  0.40625000000000000       0.59375000000000000        0.0000000000000000     
  0.43750000000000000       0.59375000000000000        0.0000000000000000     
  0.46875000000000000       0.59375000000000000        0.0000000000000000     
  0.50000000000000000       0.59375000000000000        0.0000000000000000     
  0.37500000000000000       0.62500000000000000        0.0000000000000000     
  0.40625000000000000       0.62500000000000000        0.0000000000000000     
  0.43750000000000000       0.62500000000000000        0.0000000000000000     
  0.46875000000000000       0.62500000000000000        0.0000000000000000     
  0.50000000000000000       0.62500000000000000        0.0000000000000000     
  0.50000000000000000       0.50000000000000000        0.0000000000000000     
  0.53125000000000000       0.50000000000000000        0.0000000000000000     
  0.56250000000000000       0.50000000000000000        0.0000000000000000     
  0.59375000000000000       0.50000000000000000        0.0000000000000000     
  0.62500000000000000       0.50000000000000000        0.0000000000000000     
  0.50000000000000000       0.53125000000000000        0.0000000000000000     
  0.53125000000000000       0.53125000000000000        0.0000000000000000     
  0.56250000000000000       0.53125000000000000        0.0000000000000000     
  0.59375000000000000       0.53125000000000000        0.0000000000000000     
  0.62500000000000000       0.53125000000000000        0.0000000000000000     
  0.50000000000000000       0.56250000000000000        0.0000000000000000     
  0.53125000000000000       0.56250000000000000        0.0000000000000000     
  0.56250000000000000       0.56250000000000000        0.0000000000000000     
  0.59375000000000000       0.56250000000000000        0.0000000000000000     
  0.62500000000000000       0.56250000000000000        0.0000000000000000     
  0.50000000000000000       0.59375000000000000        0.0000000000000000     
  0.53125000000000000       0.59375000000000000        0.0000000000000000     
  0.56250000000000000       0.59375000000000000        0.0000000000000000     
  0.59375000000000000       0.59375000000000000        0.0000000000000000     
  0.62500000000000000       0.59375000000000000        0.0000000000000000     
  0.50000000000000000       0.62500000000000000        0.0000000000000000     
  0.53125000000000000       0.62500000000000000        0.0000000000000000     
  0.56250000000000000       0.62500000000000000        0.0000000000000000     
  0.59375000000000000       0.62500000000000000        0.0000000000000000     
  0.62500000000000000       0.62500000000000000        0.0000000000000000     
  0.62500000000000000       0.50000000000000000        0.0000000000000000     
  0.65625000000000000       0.50000000000000000        0.0000000000000000     
  0.68750000000000000       0.50000000000000000        0.0000000000000000     
  0.71875000000000000       0.50000000000000000        0.0000000000000000     
  0.75000000000000000       0.50000000000000000        0.0000000000000000     
  0.62500000000000000       0.53125000000000000        0.0000000000000000     
  0.65625000000000000       0.53125000000000000        0.0000000000000000     
  0.68750000000000000       0.53125000000000000        0.0000000000000000     
  0.71875000000000000       0.53125000000000000        0.0000000000000000     
  0.75000000000000000       0.53125000000000000        0.0000000000000000     
  0.62500000000000000       0.56250000000000000        0.0000000000000000     
  0.65625000000000000       0.56250000000000000        0.0000000000000000     
  0.68750000000000000       0.56250000000000000        0.0000000000000000     
  0.71875000000000000       0.56250000000000000        0.0000000000000000     
  0.75000000000000000       0.56250000000000000        0.0000000000000000     
  0.62500000000000000       0.59375000000000000        0.0000000000000000     
  0.65625000000000000       0.59375000000000000        0.0000000000000000     
  0.68750000000000000       0.59375000000000000        0.0000000000000000     
  0.71875000000000000       0.59375000000000000        0.0000000000000000     
  0.75000000000000000       0.59375000000000000        0.0000000000000000     
  0.62500000000000000       0.62500000000000000        0.0000000000000000     
  0.65625000000000000       0.62500000000000000        0.0000000000000000     
  0.68750000000000000       0.62500000000000000        0.0000000000000000     
  0.71875000000000000       0.62500000000000000        0.0000000000000000     
  0.75000000000000000       0.62500000000000000        0.0000000000000000     
  0.75000000000000000       0.50000000000000000        0.0000000000000000     
  0.78125000000000000       0.50000000000000000        0.0000000000000000     
  0.81250000000000000       0.50000000000000000        0.0000000000000000     
  0.84375000000000000       0.50000000000000000        0.0000000000000000     
  0.87500000000000000       0.50000000000000000        0.0000000000000000     
  0.75000000000000000       0.53125000000000000        0.0000000000000000     
  0.78125000000000000       0.53125000000000000        0.0000000000000000     
  0.81250000000000000       0.53125000000000000        0.0000000000000000     
  0.84375000000000000       0.53125000000000000        0.0000000000000000     
  0.87500000000000000       0.53125000000000000        0.0000000000000000     
  0.75000000000000000       0.56250000000000000        0.0000000000000000     
  0.78125000000000000       0.56250000000000000        0.0000000000000000     
  0.81250000000000000       0.56250000000000000        0.0000000000000000     
  0.84375000000000000       0.56250000000000000        0.0000000000000000     
  0.87500000000000000       0.56250000000000000        0.0000000000000000     
  0.75000000000000000       0.59375000000000000        0.0000000000000000     
  0.78125000000000000       0.59375000000000000        0.0000000000000000     
  0.81250000000000000       0.59375000000000000        0.0000000000000000     
  0.84375000000000000       0.59375000000000000        0.0000000000000000     
  0.87500000000000000       0.59375000000000000        0.0000000000000000     
  0.75000000000000000       0.62500000000000000        0.0000000000000000     
  0.78125000000000000       0.62500000000000000        0.0000000000000000     
  0.81250000000000000       0.62500000000000000        0.0000000000000000     
  0.84375000000000000       0.62500000000000000        0.0000000000000000     
  0.87500000000000000       0.62500000000000000        0.0000000000000000     
  0.87500000000000000       0.50000000000000000        0.0000000000000000     
  0.90625000000000000       0.50000000000000000        0.0000000000000000     
  0.93750000000000000       0.50000000000000000        0.0000000000000000     
  0.96875000000000000       0.50000000000000000        0.0000000000000000     
   1.0000000000000000       0.50000000000000000        0.0000000000000000     
  0.87500000000000000       0.53125000000000000        0.0000000000000000     
  0.90625000000000000       0.53125000000000000        0.0000000000000000     
  0.93750000000000000       0.53125000000000000        0.0000000000000000     
  0.96875000000000000       0.53125000000000000        0.0000000000000000     
   1.0000000000000000       0.53125000000000000        0.0000000000000000     
  0.87500000000000000       0.56250000000000000        0.0000000000000000     
  0.90625000000000000       0.56250000000000000        0.0000000000000000     
  0.93750000000000000       0.56250000000000000        0.0000000000000000     
  0.96875000000000000       0.56250000000000000        0.0000000000000000     
   1.0000000000000000       0.56250000000000000        0.0000000000000000     
  0.87500000000000000       0.59375000000000000        0.0000000000000000     
  0.90625000000000000       0.59375000000000000        0.0000000000000000     
  0.93750000000000000       0.59375000000000000        0.0000000000000000     
  0.96875000000000000       0.59375000000000000        0.0000000000000000     
   1.0000000000000000       0.59375000000000000        0.0000000000000000     
  0.87500000000000000       0.62500000000000000        0.0000000000000000     
  0.90625000000000000       0.62500000000000000        0.0000000000000000     
  0.93750000000000000       0.62500000000000000        0.0000000000000000     
  0.96875000000000000       0.62500000000000000        0.0000000000000000     
   1.0000000000000000       0.62500000000000000        0.0000000000000000     
   0.0000000000000000       0.62500000000000000        0.0000000000000000     
   3.1250000000000000E-002  0.62500000000000000        0.0000000000000000     
   6.2500000000000000E-002  0.62500000000000000        0.0000000000000000     
   9.3750000000000000E-002  0.62500000000000000        0.0000000000000000     
  0.12500000000000000       0.62500000000000000        0.0000000000000000     
   0.0000000000000000       0.65625000000000000        0.0000000000000000     
   3.1250000000000000E-002  0.65625000000000000        0.0000000000000000     
   6.2500000000000000E-002  0.65625000000000000        0.0000000000000000     
   9.3750000000000000E-002  0.65625000000000000        0.0000000000000000     
  0.12500000000000000       0.65625000000000000        0.0000000000000000     
   0.0000000000000000       0.68750000000000000        0.0000000000000000     
   3.1250000000000000E-002  0.68750000000000000        0.0000000000000000     
   6.2500000000000000E-002  0.68750000000000000        0.0000000000000000     
   9.3750000000000000E-002  0.68750000000000000        0.0000000000000000     
  0.12500000000000000       0.68750000000000000        0.0000000000000000     
   0.0000000000000000       0.71875000000000000        0.0000000000000000     
   3.1250000000000000E-002  0.71875000000000000        0.0000000000000000     
   6.2500000000000000E-002  0.71875000000000000        0.0000000000000000     
   9.3750000000000000E-002  0.71875000000000000        0.0000000000000000     
  0.12500000000000000       0.71875000000000000        0.0000000000000000     
   0.0000000000000000       0.75000000000000000        0.0000000000000000     
   3.1250000000000000E-002  0.75000000000000000        0.0000000000000000     
   6.2500000000000000E-002  0.75000000000000000        0.0000000000000000     
   9.3750000000000000E-002  0.75000000000000000        0.0000000000000000     
  0.12500000000000000       0.75000000000000000        0.0000000000000000     
  0.12500000000000000       0.62500000000000000        0.0000000000000000     
  0.15625000000000000       0.62500000000000000        0.0000000000000000     
  0.18750000000000000       0.62500000000000000        0.0000000000000000     
  0.21875000000000000       0.62500000000000000        0.0000000000000000     
  0.25000000000000000       0.62500000000000000        0.0000000000000000     
  0.12500000000000000       0.65625000000000000        0.0000000000000000     
  0.15625000000000000       0.65625000000000000        0.0000000000000000     
  0.18750000000000000       0.65625000000000000        0.0000000000000000     
  0.21875000000000000       0.65625000000000000        0.0000000000000000     
  0.25000000000000000       0.65625000000000000        0.0000000000000000     
  0.12500000000000000       0.68750000000000000        0.0000000000000000     
  0.15625000000000000       0.68750000000000000        0.0000000000000000     
  0.18750000000000000       0.68750000000000000        0.0000000000000000     
  0.21875000000000000       0.68750000000000000        0.0000000000000000     
  0.25000000000000000       0.68750000000000000        0.0000000000000000     
  0.12500000000000000       0.71875000000000000        0.0000000000000000     
  0.15625000000000000       0.71875000000000000        0.0000000000000000     
  0.18750000000000000       0.71875000000000000        0.0000000000000000     
  0.21875000000000000       0.71875000000000000        0.0000000000000000     
  0.25000000000000000       0.71875000000000000        0.0000000000000000     
  0.12500000000000000       0.75000000000000000        0.0000000000000000     
  0.15625000000000000       0.75000000000000000        0.0000000000000000     
  0.18750000000000000       0.75000000000000000        0.0000000000000000     
  0.21875000000000000       0.75000000000000000        0.0000000000000000     
  0.25000000000000000       0.75000000000000000        0.0000000000000000     
  0.25000000000000000       0.62500000000000000        0.0000000000000000     
  0.28125000000000000       0.62500000000000000        0.0000000000000000     
  0.31250000000000000       0.62500000000000000        0.0000000000000000     
  0.34375000000000000       0.62500000000000000        0.0000000000000000     
  0.37500000000000000       0.62500000000000000        0.0000000000000000     
  0.25000000000000000       0.65625000000000000        0.0000000000000000     
  0.28125000000000000       0.65625000000000000        0.0000000000000000     
  0.31250000000000000       0.65625000000000000        0.0000000000000000     
  0.34375000000000000       0.65625000000000000        0.0000000000000000     
  0.37500000000000000       0.65625000000000000        0.0000000000000000     
  0.25000000000000000       0.68750000000000000        0.0000000000000000     
  0.28125000000000000       0.68750000000000000        0.0000000000000000     
  0.31250000000000000       0.68750000000000000        0.0000000000000000     
  0.34375000000000000       0.68750000000000000        0.0000000000000000     
  0.37500000000000000       0.68750000000000000        0.0000000000000000     
  0.25000000000000000       0.71875000000000000        0.0000000000000000     
  0.28125000000000000       0.71875000000000000        0.0000000000000000     
  0.31250000000000000       0.71875000000000000        0.0000000000000000     
  0.34375000000000000       0.71875000000000000        0.0000000000000000     
  0.37500000000000000       0.71875000000000000        0.0000000000000000     
  0.25000000000000000       0.75000000000000000        0.0000000000000000     
  0.28125000000000000       0.75000000000000000        0.0000000000000000     
  0.31250000000000000       0.75000000000000000        0.0000000000000000     
  0.34375000000000000       0.75000000000000000        0.0000000000000000     
  0.37500000000000000       0.75000000000000000        0.0000000000000000     
  0.37500000000000000       0.62500000000000000        0.0000000000000000     
  0.40625000000000000       0.62500000000000000        0.0000000000000000     
  0.43750000000000000       0.62500000000000000        0.0000000000000000     
  0.46875000000000000       0.62500000000000000        0.0000000000000000     
  0.50000000000000000       0.62500000000000000        0.0000000000000000     
  0.37500000000000000       0.65625000000000000        0.0000000000000000     
  0.40625000000000000       0.65625000000000000        0.0000000000000000     
  0.43750000000000000       0.65625000000000000        0.0000000000000000     
  0.46875000000000000       0.65625000000000000        0.0000000000000000     
  0.50000000000000000       0.65625000000000000        0.0000000000000000     
  0.37500000000000000       0.68750000000000000        0.0000000000000000     
  0.40625000000000000       0.68750000000000000        0.0000000000000000     
  0.43750000000000000       0.68750000000000000        0.0000000000000000     
  0.46875000000000000       0.68750000000000000        0.0000000000000000     
  0.50000000000000000       0.68750000000000000        0.0000000000000000     
  0.37500000000000000       0.71875000000000000        0.0000000000000000     
  0.40625000000000000       0.71875000000000000        0.0000000000000000     
  0.43750000000000000       0.71875000000000000        0.0000000000000000     
  0.46875000000000000       0.71875000000000000        0.0000000000000000     
  0.50000000000000000       0.71875000000000000        0.0000000000000000     
  0.37500000000000000       0.75000000000000000        0.0000000000000000     
  0.40625000000000000       0.75000000000000000        0.0000000000000000     
  0.43750000000000000       0.75000000000000000        0.0000000000000000     
  0.46875000000000000       0.75000000000000000        0.0000000000000000     
  0.50000000000000000       0.75000000000000000        0.0000000000000000     
  0.50000000000000000       0.62500000000000000        0.0000000000000000     
  0.53125000000000000       0.62500000000000000        0.0000000000000000     
  0.56250000000000000       0.62500000000000000        0.0000000000000000     
  0.59375000000000000       0.62500000000000000        0.0000000000000000     
  0.62500000000000000       0.62500000000000000        0.0000000000000000     
  0.50000000000000000       0.65625000000000000        0.0000000000000000     
  0.53125000000000000       0.65625000000000000        0.0000000000000000     
  0.56250000000000000       0.65625000000000000        0.0000000000000000     
  0.59375000000000000       0.65625000000000000        0.0000000000000000     
  0.62500000000000000       0.65625000000000000        0.0000000000000000     
  0.50000000000000000       0.68750000000000000        0.0000000000000000     
  0.53125000000000000       0.68750000000000000        0.0000000000000000     
  0.56250000000000000       0.68750000000000000        0.0000000000000000     
  0.59375000000000000       0.68750000000000000        0.0000000000000000     
  0.62500000000000000       0.68750000000000000        0.0000000000000000     
  0.50000000000000000       0.71875000000000000        0.0000000000000000     
  0.53125000000000000       0.71875000000000000        0.0000000000000000     
  0.56250000000000000       0.71875000000000000        0.0000000000000000     
  0.59375000000000000       0.71875000000000000        0.0000000000000000     
  0.62500000000000000       0.71875000000000000        0.0000000000000000     
  0.50000000000000000       0.75000000000000000        0.0000000000000000     
  0.53125000000000000       0.75000000000000000        0.0000000000000000     
  0.56250000000000000       0.75000000000000000        0.0000000000000000     
  0.59375000000000000       0.75000000000000000        0.0000000000000000     
  0.62500000000000000       0.75000000000000000        0.0000000000000000     
  0.62500000000000000       0.62500000000000000        0.0000000000000000     
  0.65625000000000000       0.62500000000000000        0.0000000000000000     
  0.68750000000000000       0.62500000000000000        0.0000000000000000     
  0.71875000000000000       0.62500000000000000        0.0000000000000000     
  0.75000000000000000       0.62500000000000000        0.0000000000000000     
  0.62500000000000000       0.65625000000000000        0.0000000000000000     
  0.65625000000000000       0.65625000000000000        0.0000000000000000     
  0.68750000000000000       0.65625000000000000        0.0000000000000000     
  0.71875000000000000       0.65625000000000000        0.0000000000000000     
  0.75000000000000000       0.65625000000000000        0.0000000000000000     
  0.62500000000000000       0.68750000000000000        0.0000000000000000     
  0.65625000000000000       0.68750000000000000        0.0000000000000000     
  0.68750000000000000       0.68750000000000000        0.0000000000000000     
  0.71875000000000000       0.68750000000000000        0.0000000000000000     
  0.75000000000000000       0.68750000000000000        0.0000000000000000     
  0.62500000000000000       0.71875000000000000        0.0000000000000000     
  0.65625000000000000       0.71875000000000000        0.0000000000000000     
  0.68750000000000000       0.71875000000000000        0.0000000000000000     
  0.71875000000000000       0.71875000000000000        0.0000000000000000     
  0.75000000000000000       0.71875000000000000        0.0000000000000000     
  0.62500000000000000       0.75000000000000000        0.0000000000000000     
  0.65625000000000000       0.75000000000000000        0.0000000000000000     
  0.68750000000000000       0.75000000000000000        0.0000000000000000     
  0.71875000000000000       0.75000000000000000        0.0000000000000000     
  0.75000000000000000       0.75000000000000000        0.0000000000000000     
  0.75000000000000000       0.62500000000000000        0.0000000000000000     
  0.78125000000000000       0.62500000000000000        0.0000000000000000     
  0.81250000000000000       0.62500000000000000        0.0000000000000000     
  0.84375000000000000       0.62500000000000000        0.0000000000000000     
  0.87500000000000000       0.62500000000000000        0.0000000000000000     
  0.75000000000000000       0.65625000000000000        0.0000000000000000     
  0.78125000000000000       0.65625000000000000        0.0000000000000000     
  0.81250000000000000       0.65625000000000000        0.0000000000000000     
  0.84375000000000000       0.65625000000000000        0.0000000000000000     
  0.87500000000000000       0.65625000000000000        0.0000000000000000     
  0.75000000000000000       0.68750000000000000        0.0000000000000000     
  0.78125000000000000       0.68750000000000000        0.0000000000000000     
  0.81250000000000000       0.68750000000000000        0.0000000000000000     
  0.84375000000000000       0.68750000000000000        0.0000000000000000     
  0.87500000000000000       0.68750000000000000        0.0000000000000000     
  0.75000000000000000       0.71875000000000000        0.0000000000000000     
  0.78125000000000000       0.71875000000000000        0.0000000000000000     
  0.81250000000000000       0.71875000000000000        0.0000000000000000     
  0.84375000000000000       0.71875000000000000        0.0000000000000000     
  0.87500000000000000       0.71875000000000000        0.0000000000000000     
  0.75000000000000000       0.75000000000000000        0.0000000000000000     
  0.78125000000000000       0.75000000000000000        0.0000000000000000     
  0.81250000000000000       0.75000000000000000        0.0000000000000000     
  0.84375000000000000       0.75000000000000000        0.0000000000000000     
  0.87500000000000000       0.75000000000000000        0.0000000000000000     
  0.87500000000000000       0.62500000000000000        0.0000000000000000     
  0.90625000000000000       0.62500000000000000        0.0000000000000000     
  0.93750000000000000       0.62500000000000000        0.0000000000000000     
  0.96875000000000000       0.62500000000000000        0.0000000000000000     
   1.0000000000000000       0.62500000000000000        0.0000000000000000     
  0.87500000000000000       0.65625000000000000        0.0000000000000000     
  0.90625000000000000       0.65625000000000000        0.0000000000000000     
  0.93750000000000000       0.65625000000000000        0.0000000000000000     
  0.96875000000000000       0.65625000000000000        0.0000000000000000     
   1.0000000000000000       0.65625000000000000        0.0000000000000000     
  0.87500000000000000       0.68750000000000000        0.0000000000000000     
  0.90625000000000000       0.68750000000000000        0.0000000000000000     
  0.93750000000000000       0.68750000000000000        0.0000000000000000     
  0.96875000000000000       0.68750000000000000        0.0000000000000000     
   1.0000000000000000       0.68750000000000000        0.0000000000000000     
  0.87500000000000000       0.71875000000000000        0.0000000000000000     
  0.90625000000000000       0.71875000000000000        0.0000000000000000     
  0.93750000000000000       0.71875000000000000        0.0000000000000000     
  0.96875000000000000       0.71875000000000000        0.0000000000000000     
   1.0000000000000000       0.71875000000000000        0.0000000000000000     
  0.87500000000000000       0.75000000000000000        0.0000000000000000     
  0.90625000000000000       0.75000000000000000        0.0000000000000000     
  0.93750000000000000       0.75000000000000000        0.0000000000000000     
  0.96875000000000000       0.75000000000000000        0.0000000000000000     
   1.0000000000000000       0.75000000000000000        0.0000000000000000     
   0.0000000000000000       0.75000000000000000        0.0000000000000000     
   3.1250000000000000E-002  0.75000000000000000        0.0000000000000000     
   6.2500000000000000E-002  0.75000000000000000        0.0000000000000000     
   9.3750000000000000E-002  0.75000000000000000        0.0000000000000000     
  0.12500000000000000       0.75000000000000000        0.0000000000000000     
   0.0000000000000000       0.78125000000000000        0.0000000000000000     
   3.1250000000000000E-002  0.78125000000000000        0.0000000000000000     
   6.2500000000000000E-002  0.78125000000000000        0.0000000000000000     
   9.3750000000000000E-002  0.78125000000000000        0.0000000000000000     
  0.12500000000000000       0.78125000000000000        0.0000000000000000     
   0.0000000000000000       0.81250000000000000        0.0000000000000000     
   3.1250000000000000E-002  0.81250000000000000        0.0000000000000000     
   6.2500000000000000E-002  0.81250000000000000        0.0000000000000000     
   9.3750000000000000E-002  0.81250000000000000        0.0000000000000000     
  0.12500000000000000       0.81250000000000000        0.0000000000000000     
   0.0000000000000000       0.84375000000000000        0.0000000000000000     
   3.1250000000000000E-002  0.84375000000000000        0.0000000000000000     
   6.2500000000000000E-002  0.84375000000000000        0.0000000000000000     
   9.3750000000000000E-002  0.84375000000000000        0.0000000000000000     
  0.12500000000000000       0.84375000000000000        0.0000000000000000     
   0.0000000000000000       0.87500000000000000        0.0000000000000000     
   3.1250000000000000E-002  0.87500000000000000        0.0000000000000000     
   6.2500000000000000E-002  0.87500000000000000        0.0000000000000000     
   9.3750000000000000E-002  0.87500000000000000        0.0000000000000000     
  0.12500000000000000       0.87500000000000000        0.0000000000000000     
  0.12500000000000000       0.75000000000000000        0.0000000000000000     
  0.15625000000000000       0.75000000000000000        0.0000000000000000     
  0.18750000000000000       0.75000000000000000        0.0000000000000000     
  0.21875000000000000       0.75000000000000000        0.0000000000000000     
  0.25000000000000000       0.75000000000000000        0.0000000000000000     
  0.12500000000000000       0.78125000000000000        0.0000000000000000     
  0.15625000000000000       0.78125000000000000        0.0000000000000000     
  0.18750000000000000       0.78125000000000000        0.0000000000000000     
  0.21875000000000000       0.78125000000000000        0.0000000000000000     
  0.25000000000000000       0.78125000000000000        0.0000000000000000     
  0.12500000000000000       0.81250000000000000        0.0000000000000000     
  0.15625000000000000       0.81250000000000000        0.0000000000000000     
  0.18750000000000000       0.81250000000000000        0.0000000000000000     
  0.21875000000000000       0.81250000000000000        0.0000000000000000     
  0.25000000000000000       0.81250000000000000        0.0000000000000000     
  0.12500000000000000       0.84375000000000000        0.0000000000000000     
  0.15625000000000000       0.84375000000000000        0.0000000000000000     
  0.18750000000000000       0.84375000000000000        0.0000000000000000     
  0.21875000000000000       0.84375000000000000        0.0000000000000000     
  0.25000000000000000       0.84375000000000000        0.0000000000000000     
  0.12500000000000000       0.87500000000000000        0.0000000000000000     
  0.15625000000000000       0.87500000000000000        0.0000000000000000     
  0.18750000000000000       0.87500000000000000        0.0000000000000000     
  0.21875000000000000       0.87500000000000000        0.0000000000000000     
  0.25000000000000000       0.87500000000000000        0.0000000000000000     
  0.25000000000000000       0.75000000000000000        0.0000000000000000     
  0.28125000000000000       0.75000000000000000        0.0000000000000000     
  0.31250000000000000       0.75000000000000000        0.0000000000000000     
  0.34375000000000000       0.75000000000000000        0.0000000000000000     
  0.37500000000000000       0.75000000000000000        0.0000000000000000     
  0.25000000000000000       0.78125000000000000        0.0000000000000000     
  0.28125000000000000       0.78125000000000000        0.0000000000000000     
  0.31250000000000000       0.78125000000000000        0.0000000000000000     
  0.34375000000000000       0.78125000000000000        0.0000000000000000     
  0.37500000000000000       0.78125000000000000        0.0000000000000000     
  0.25000000000000000       0.81250000000000000        0.0000000000000000     
  0.28125000000000000       0.81250000000000000        0.0000000000000000     
  0.31250000000000000       0.81250000000000000        0.0000000000000000     
  0.34375000000000000       0.81250000000000000        0.0000000000000000     
  0.37500000000000000       0.81250000000000000        0.0000000000000000     
  0.25000000000000000       0.84375000000000000        0.0000000000000000     
  0.28125000000000000       0.84375000000000000        0.0000000000000000     
  0.31250000000000000       0.84375000000000000        0.0000000000000000     
  0.34375000000000000       0.84375000000000000        0.0000000000000000     
  0.37500000000000000       0.84375000000000000        0.0000000000000000     
  0.25000000000000000       0.87500000000000000        0.0000000000000000     
  0.28125000000000000       0.87500000000000000        0.0000000000000000     
  0.31250000000000000       0.87500000000000000        0.0000000000000000     
  0.34375000000000000       0.87500000000000000        0.0000000000000000     
  0.37500000000000000       0.87500000000000000        0.0000000000000000     
  0.37500000000000000       0.75000000000000000        0.0000000000000000     
  0.40625000000000000       0.75000000000000000        0.0000000000000000     
  0.43750000000000000       0.75000000000000000        0.0000000000000000     
  0.46875000000000000       0.75000000000000000        0.0000000000000000     
  0.50000000000000000       0.75000000000000000        0.0000000000000000     
  0.37500000000000000       0.78125000000000000        0.0000000000000000     
  0.40625000000000000       0.78125000000000000        0.0000000000000000     
  0.43750000000000000       0.78125000000000000        0.0000000000000000     
  0.46875000000000000       0.78125000000000000        0.0000000000000000     
  0.50000000000000000       0.78125000000000000        0.0000000000000000     
  0.37500000000000000       0.81250000000000000        0.0000000000000000     
  0.40625000000000000       0.81250000000000000        0.0000000000000000     
  0.43750000000000000       0.81250000000000000        0.0000000000000000     
  0.46875000000000000       0.81250000000000000        0.0000000000000000     
  0.50000000000000000       0.81250000000000000        0.0000000000000000     
  0.37500000000000000       0.84375000000000000        0.0000000000000000     
  0.40625000000000000       0.84375000000000000        0.0000000000000000     
  0.43750000000000000       0.84375000000000000        0.0000000000000000     
  0.46875000000000000       0.84375000000000000        0.0000000000000000     
  0.50000000000000000       0.84375000000000000        0.0000000000000000     
  0.37500000000000000       0.87500000000000000        0.0000000000000000     
  0.40625000000000000       0.87500000000000000        0.0000000000000000     
  0.43750000000000000       0.87500000000000000        0.0000000000000000     
  0.46875000000000000       0.87500000000000000        0.0000000000000000     
  0.50000000000000000       0.87500000000000000        0.0000000000000000     
  0.50000000000000000       0.75000000000000000        0.0000000000000000     
  0.53125000000000000       0.75000000000000000        0.0000000000000000     
  0.56250000000000000       0.75000000000000000        0.0000000000000000     
  0.59375000000000000       0.75000000000000000        0.0000000000000000     
  0.62500000000000000       0.75000000000000000        0.0000000000000000     
  0.50000000000000000       0.78125000000000000        0.0000000000000000     
  0.53125000000000000       0.78125000000000000        0.0000000000000000     
  0.56250000000000000       0.78125000000000000        0.0000000000000000     
  0.59375000000000000       0.78125000000000000        0.0000000000000000     
  0.62500000000000000       0.78125000000000000        0.0000000000000000     
  0.50000000000000000       0.81250000000000000        0.0000000000000000     
  0.53125000000000000       0.81250000000000000        0.0000000000000000     
  0.56250000000000000       0.81250000000000000        0.0000000000000000     
  0.59375000000000000       0.81250000000000000        0.0000000000000000     
  0.62500000000000000       0.81250000000000000        0.0000000000000000     
  0.50000000000000000       0.84375000000000000        0.0000000000000000     
  0.53125000000000000       0.84375000000000000        0.0000000000000000     
  0.56250000000000000       0.84375000000000000        0.0000000000000000     
  0.59375000000000000       0.84375000000000000        0.0000000000000000     
  0.62500000000000000       0.84375000000000000        0.0000000000000000     
  0.50000000000000000       0.87500000000000000        0.0000000000000000     
  0.53125000000000000       0.87500000000000000        0.0000000000000000     
  0.56250000000000000       0.87500000000000000        0.0000000000000000     
  0.59375000000000000       0.87500000000000000        0.0000000000000000     
  0.62500000000000000       0.87500000000000000        0.0000000000000000     
  0.62500000000000000       0.75000000000000000        0.0000000000000000     
  0.65625000000000000       0.75000000000000000        0.0000000000000000     
  0.68750000000000000       0.75000000000000000        0.0000000000000000     
  0.71875000000000000       0.75000000000000000        0.0000000000000000     
  0.75000000000000000       0.75000000000000000        0.0000000000000000     
  0.62500000000000000       0.78125000000000000        0.0000000000000000     
  0.65625000000000000       0.78125000000000000        0.0000000000000000     
  0.68750000000000000       0.78125000000000000        0.0000000000000000     
  0.71875000000000000       0.78125000000000000        0.0000000000000000     
  0.75000000000000000       0.78125000000000000        0.0000000000000000     
  0.62500000000000000       0.81250000000000000        0.0000000000000000     
  0.65625000000000000       0.81250000000000000        0.0000000000000000     
  0.68750000000000000       0.81250000000000000        0.0000000000000000     
  0.71875000000000000       0.81250000000000000        0.0000000000000000     
  0.75000000000000000       0.81250000000000000        0.0000000000000000     
  0.62500000000000000       0.84375000000000000        0.0000000000000000     
  0.65625000000000000       0.84375000000000000        0.0000000000000000     
  0.68750000000000000       0.84375000000000000        0.0000000000000000     
  0.71875000000000000       0.84375000000000000        0.0000000000000000     
  0.75000000000000000       0.84375000000000000        0.0000000000000000     
  0.62500000000000000       0.87500000000000000        0.0000000000000000     
  0.65625000000000000       0.87500000000000000        0.0000000000000000     
  0.68750000000000000       0.87500000000000000        0.0000000000000000     
  0.71875000000000000       0.87500000000000000        0.0000000000000000     
  0.75000000000000000       0.87500000000000000        0.0000000000000000     
  0.75000000000000000       0.75000000000000000        0.0000000000000000     
  0.78125000000000000       0.75000000000000000        0.0000000000000000     
  0.81250000000000000       0.75000000000000000        0.0000000000000000     
  0.84375000000000000       0.75000000000000000        0.0000000000000000     
  0.87500000000000000       0.75000000000000000        0.0000000000000000     
  0.75000000000000000       0.78125000000000000        0.0000000000000000     
  0.78125000000000000       0.78125000000000000        0.0000000000000000     
  0.81250000000000000       0.78125000000000000        0.0000000000000000     
  0.84375000000000000       0.78125000000000000        0.0000000000000000     
  0.87500000000000000       0.78125000000000000        0.0000000000000000     
  0.75000000000000000       0.81250000000000000        0.0000000000000000     
  0.78125000000000000       0.81250000000000000        0.0000000000000000     
  0.81250000000000000       0.81250000000000000        0.0000000000000000     
  0.84375000000000000       0.81250000000000000        0.0000000000000000     
  0.87500000000000000       0.81250000000000000        0.0000000000000000     
  0.75000000000000000       0.84375000000000000        0.0000000000000000     
  0.78125000000000000       0.84375000000000000        0.0000000000000000     
  0.81250000000000000       0.84375000000000000        0.0000000000000000     
  0.84375000000000000       0.84375000000000000        0.0000000000000000     
  0.87500000000000000       0.84375000000000000        0.0000000000000000     
  0.75000000000000000       0.87500000000000000        0.0000000000000000     
  0.78125000000000000       0.87500000000000000        0.0000000000000000     
  0.81250000000000000       0.87500000000000000        0.0000000000000000     
  0.84375000000000000       0.87500000000000000        0.0000000000000000     
  0.87500000000000000       0.87500000000000000        0.0000000000000000     
  0.87500000000000000       0.75000000000000000        0.0000000000000000     
  0.90625000000000000       0.75000000000000000        0.0000000000000000     
  0.93750000000000000       0.75000000000000000        0.0000000000000000     
  0.96875000000000000       0.75000000000000000        0.0000000000000000     
   1.0000000000000000       0.75000000000000000        0.0000000000000000     
  0.87500000000000000       0.78125000000000000        0.0000000000000000     
  0.90625000000000000       0.78125000000000000        0.0000000000000000     
  0.93750000000000000       0.78125000000000000        0.0000000000000000     
  0.96875000000000000       0.78125000000000000        0.0000000000000000     
   1.0000000000000000       0.78125000000000000        0.0000000000000000     
  0.87500000000000000       0.81250000000000000        0.0000000000000000     
  0.90625000000000000       0.81250000000000000        0.0000000000000000     
  0.93750000000000000       0.81250000000000000        0.0000000000000000     
  0.96875000000000000       0.81250000000000000        0.0000000000000000     
   1.0000000000000000       0.81250000000000000        0.0000000000000000     
  0.87500000000000000       0.84375000000000000        0.0000000000000000     
  0.90625000000000000       0.84375000000000000        0.0000000000000000     
  0.93750000000000000       0.84375000000000000        0.0000000000000000     
  0.96875000000000000       0.84375000000000000        0.0000000000000000     
   1.0000000000000000       0.84375000000000000        0.0000000000000000     
  0.87500000000000000       0.87500000000000000        0.0000000000000000     
  0.90625000000000000       0.87500000000000000        0.0000000000000000     
  0.93750000000000000       0.87500000000000000        0.0000000000000000     
  0.96875000000000000       0.87500000000000000        0.0000000000000000     
   1.0000000000000000       0.87500000000000000        0.0000000000000000     
   0.0000000000000000       0.87500000000000000        0.0000000000000000     
   3.1250000000000000E-002  0.87500000000000000        0.0000000000000000     
   6.2500000000000000E-002  0.87500000000000000        0.0000000000000000     
   9.3750000000000000E-002  0.87500000000000000        0.0000000000000000     
  0.12500000000000000       0.87500000000000000        0.0000000000000000     
   0.0000000000000000       0.90625000000000000        0.0000000000000000     
   3.1250000000000000E-002  0.90625000000000000        0.0000000000000000     
   6.2500000000000000E-002  0.90625000000000000        0.0000000000000000     
   9.3750000000000000E-002  0.90625000000000000        0.0000000000000000     
  0.12500000000000000       0.90625000000000000        0.0000000000000000     
   0.0000000000000000       0.93750000000000000        0.0000000000000000     
   3.1250000000000000E-002  0.93750000000000000        0.0000000000000000     
   6.2500000000000000E-002  0.93750000000000000        0.0000000000000000     
   9.3750000000000000E-002  0.93750000000000000        0.0000000000000000     
  0.12500000000000000       0.93750000000000000        0.0000000000000000     
   0.0000000000000000       0.96875000000000000        0.0000000000000000     
   3.1250000000000000E-002  0.96875000000000000        0.0000000000000000     
   6.2500000000000000E-002  0.96875000000000000        0.0000000000000000     
   9.3750000000000000E-002  0.96875000000000000        0.0000000000000000     
  0.12500000000000000       0.96875000000000000        0.0000000000000000     
   0.0000000000000000        1.0000000000000000        0.0000000000000000     
   3.1250000000000000E-002   1.0000000000000000        0.0000000000000000     
   6.2500000000000000E-002   1.0000000000000000        0.0000000000000000     
   9.3750000000000000E-002   1.0000000000000000        0.0000000000000000     
  0.12500000000000000        1.0000000000000000        0.0000000000000000     
  0.12500000000000000       0.87500000000000000        0.0000000000000000     
  0.15625000000000000       0.87500000000000000        0.0000000000000000     
  0.18750000000000000       0.87500000000000000        0.0000000000000000     
  0.21875000000000000       0.87500000000000000        0.0000000000000000     
  0.25000000000000000       0.87500000000000000        0.0000000000000000     
  0.12500000000000000       0.90625000000000000        0.0000000000000000     
  0.15625000000000000       0.90625000000000000        0.0000000000000000     
  0.18750000000000000       0.90625000000000000        0.0000000000000000     
  0.21875000000000000       0.90625000000000000        0.0000000000000000     
  0.25000000000000000       0.90625000000000000        0.0000000000000000     
  0.12500000000000000       0.93750000000000000        0.0000000000000000     
  0.15625000000000000       0.93750000000000000        0.0000000000000000     
  0.18750000000000000       0.93750000000000000        0.0000000000000000     
  0.21875000000000000       0.93750000000000000        0.0000000000000000     
  0.25000000000000000       0.93750000000000000        0.0000000000000000     
  0.12500000000000000       0.96875000000000000        0.0000000000000000     
  0.15625000000000000       0.96875000000000000        0.0000000000000000     
  0.18750000000000000       0.96875000000000000        0.0000000000000000     
  0.21875000000000000       0.96875000000000000        0.0000000000000000     
  0.25000000000000000       0.96875000000000000        0.0000000000000000     
  0.12500000000000000        1.0000000000000000        0.0000000000000000     
  0.15625000000000000        1.0000000000000000        0.0000000000000000     
  0.18750000000000000        1.0000000000000000        0.0000000000000000     
  0.21875000000000000        1.0000000000000000        0.0000000000000000     
  0.25000000000000000        1.0000000000000000        0.0000000000000000     
  0.25000000000000000       0.87500000000000000        0.0000000000000000     
  0.28125000000000000       0.87500000000000000        0.0000000000000000     
  0.31250000000000000       0.87500000000000000        0.0000000000000000     
  0.34375000000000000       0.87500000000000000        0.0000000000000000     
  0.37500000000000000       0.87500000000000000        0.0000000000000000     
  0.25000000000000000       0.90625000000000000        0.0000000000000000     
  0.28125000000000000       0.90625000000000000        0.0000000000000000     
  0.31250000000000000       0.90625000000000000        0.0000000000000000     
  0.34375000000000000       0.90625000000000000        0.0000000000000000     
  0.37500000000000000       0.90625000000000000        0.0000000000000000     
  0.25000000000000000       0.93750000000000000        0.0000000000000000     
  0.28125000000000000       0.93750000000000000        0.0000000000000000     
  0.31250000000000000       0.93750000000000000        0.0000000000000000     
  0.34375000000000000       0.93750000000000000        0.0000000000000000     
  0.37500000000000000       0.93750000000000000        0.0000000000000000     
  0.25000000000000000       0.96875000000000000        0.0000000000000000     
  0.28125000000000000       0.96875000000000000        0.0000000000000000     
  0.31250000000000000       0.96875000000000000        0.0000000000000000     
  0.34375000000000000       0.96875000000000000        0.0000000000000000     
  0.37500000000000000       0.96875000000000000        0.0000000000000000     
  0.25000000000000000        1.0000000000000000        0.0000000000000000     
  0.28125000000000000        1.0000000000000000        0.0000000000000000     
  0.31250000000000000        1.0000000000000000        0.0000000000000000     
  0.34375000000000000        1.0000000000000000        0.0000000000000000     
  0.37500000000000000        1.0000000000000000        0.0000000000000000     
  0.37500000000000000       0.87500000000000000        0.0000000000000000     
  0.40625000000000000       0.87500000000000000        0.0000000000000000     
  0.43750000000000000       0.87500000000000000        0.0000000000000000     
  0.46875000000000000       0.87500000000000000        0.0000000000000000     
  0.50000000000000000       0.87500000000000000        0.0000000000000000     
  0.37500000000000000       0.90625000000000000        0.0000000000000000     
  0.40625000000000000       0.90625000000000000        0.0000000000000000     
  0.43750000000000000       0.90625000000000000        0.0000000000000000     
  0.46875000000000000       0.90625000000000000        0.0000000000000000     
  0.50000000000000000       0.90625000000000000        0.0000000000000000     
  0.37500000000000000       0.93750000000000000        0.0000000000000000     
  0.40625000000000000       0.93750000000000000        0.0000000000000000     
  0.43750000000000000       0.93750000000000000        0.0000000000000000     
  0.46875000000000000       0.93750000000000000        0.0000000000000000     
  0.50000000000000000       0.93750000000000000        0.0000000000000000     
  0.37500000000000000       0.96875000000000000        0.0000000000000000     
  0.40625000000000000       0.96875000000000000        0.0000000000000000     
  0.43750000000000000       0.96875000000000000        0.0000000000000000     
  0.46875000000000000       0.96875000000000000        0.0000000000000000     
  0.50000000000000000       0.96875000000000000        0.0000000000000000     
  0.37500000000000000        1.0000000000000000        0.0000000000000000     
  0.40625000000000000        1.0000000000000000        0.0000000000000000     
  0.43750000000000000        1.0000000000000000        0.0000000000000000     
  0.46875000000000000        1.0000000000000000        0.0000000000000000     
  0.50000000000000000        1.0000000000000000        0.0000000000000000     
  0.50000000000000000       0.87500000000000000        0.0000000000000000     
  0.53125000000000000       0.87500000000000000        0.0000000000000000     
  0.56250000000000000       0.87500000000000000        0.0000000000000000     
  0.59375000000000000       0.87500000000000000        0.0000000000000000     
  0.62500000000000000       0.87500000000000000        0.0000000000000000     
  0.50000000000000000       0.90625000000000000        0.0000000000000000     
  0.53125000000000000       0.90625000000000000        0.0000000000000000     
  0.56250000000000000       0.90625000000000000        0.0000000000000000     
  0.59375000000000000       0.90625000000000000        0.0000000000000000     
  0.62500000000000000       0.90625000000000000        0.0000000000000000     
  0.50000000000000000       0.93750000000000000        0.0000000000000000     
  0.53125000000000000       0.93750000000000000        0.0000000000000000     
  0.56250000000000000       0.93750000000000000        0.0000000000000000     
  0.59375000000000000       0.93750000000000000        0.0000000000000000     
  0.62500000000000000       0.93750000000000000        0.0000000000000000     
  0.50000000000000000       0.96875000000000000        0.0000000000000000     
  0.53125000000000000       0.96875000000000000        0.0000000000000000     
  0.56250000000000000       0.96875000000000000        0.0000000000000000     
  0.59375000000000000       0.96875000000000000        0.0000000000000000     
  0.62500000000000000       0.96875000000000000        0.0000000000000000     
  0.50000000000000000        1.0000000000000000        0.0000000000000000     
  0.53125000000000000        1.0000000000000000        0.0000000000000000     
  0.56250000000000000        1.0000000000000000        0.0000000000000000     
  0.59375000000000000        1.0000000000000000        0.0000000000000000     
  0.62500000000000000        1.0000000000000000        0.0000000000000000     
  0.62500000000000000       0.87500000000000000        0.0000000000000000     
  0.65625000000000000       0.87500000000000000        0.0000000000000000     
  0.68750000000000000       0.87500000000000000        0.0000000000000000     
  0.71875000000000000       0.87500000000000000        0.0000000000000000     
  0.75000000000000000       0.87500000000000000        0.0000000000000000     
  0.62500000000000000       0.90625000000000000        0.0000000000000000     
  0.65625000000000000       0.90625000000000000        0.0000000000000000     
  0.68750000000000000       0.90625000000000000        0.0000000000000000     
  0.71875000000000000       0.90625000000000000        0.0000000000000000     
  0.75000000000000000       0.90625000000000000        0.0000000000000000     
  0.62500000000000000       0.93750000000000000        0.0000000000000000     
  0.65625000000000000       0.93750000000000000        0.0000000000000000     
  0.68750000000000000       0.93750000000000000        0.0000000000000000     
  0.71875000000000000       0.93750000000000000        0.0000000000000000     
  0.75000000000000000       0.93750000000000000        0.0000000000000000     
  0.62500000000000000       0.96875000000000000        0.0000000000000000     
  0.65625000000000000       0.96875000000000000        0.0000000000000000     
  0.68750000000000000       0.96875000000000000        0.0000000000000000     
  0.71875000000000000       0.96875000000000000        0.0000000000000000     
  0.75000000000000000       0.96875000000000000        0.0000000000000000     
  0.62500000000000000        1.0000000000000000        0.0000000000000000     
  0.65625000000000000        1.0000000000000000        0.0000000000000000     
  0.68750000000000000        1.0000000000000000        0.0000000000000000     
  0.71875000000000000        1.0000000000000000        0.0000000000000000     
  0.75000000000000000        1.0000000000000000        0.0000000000000000     
  0.75000000000000000       0.87500000000000000        0.0000000000000000     
  0.78125000000000000       0.87500000000000000        0.0000000000000000     
  0.81250000000000000       0.87500000000000000        0.0000000000000000     
  0.84375000000000000       0.87500000000000000        0.0000000000000000     
  0.87500000000000000       0.87500000000000000        0.0000000000000000     
  0.75000000000000000       0.90625000000000000        0.0000000000000000     
  0.78125000000000000       0.90625000000000000        0.0000000000000000     
  0.81250000000000000       0.90625000000000000        0.0000000000000000     
  0.84375000000000000       0.90625000000000000        0.0000000000000000     
  0.87500000000000000       0.90625000000000000        0.0000000000000000     
  0.75000000000000000       0.93750000000000000        0.0000000000000000     
  0.78125000000000000       0.93750000000000000        0.0000000000000000     
  0.81250000000000000       0.93750000000000000        0.0000000000000000     
  0.84375000000000000       0.93750000000000000        0.0000000000000000     
  0.87500000000000000       0.93750000000000000        0.0000000000000000     
  0.75000000000000000       0.96875000000000000        0.0000000000000000     
  0.78125000000000000       0.96875000000000000        0.0000000000000000     
  0.81250000000000000       0.96875000000000000        0.0000000000000000     
  0.84375000000000000       0.96875000000000000        0.0000000000000000     
  0.87500000000000000       0.96875000000000000        0.0000000000000000     
  0.75000000000000000        1.0000000000000000        0.0000000000000000     
  0.78125000000000000        1.0000000000000000        0.0000000000000000     
  0.81250000000000000        1.0000000000000000        0.0000000000000000     
  0.84375000000000000        1.0000000000000000        0.0000000000000000     
  0.87500000000000000        1.0000000000000000        0.0000000000000000     
  0.87500000000000000       0.87500000000000000        0.0000000000000000     
  0.90625000000000000       0.87500000000000000        0.0000000000000000     
  0.93750000000000000       0.87500000000000000        0.0000000000000000     
  0.96875000000000000       0.87500000000000000        0.0000000000000000     
   1.0000000000000000       0.87500000000000000        0.0000000000000000     
  0.87500000000000000       0.90625000000000000        0.0000000000000000     
  0.90625000000000000       0.90625000000000000        0.0000000000000000     
  0.93750000000000000       0.90625000000000000        0.0000000000000000     
  0.96875000000000000       0.90625000000000000        0.0000000000000000     
   1.0000000000000000       0.90625000000000000        0.0000000000000000     
  0.87500000000000000       0.93750000000000000        0.0000000000000000     
  0.90625000000000000       0.93750000000000000        0.0000000000000000     
  0.93750000000000000       0.93750000000000000        0.0000000000000000     
  0.96875000000000000       0.93750000000000000        0.0000000000000000     
   1.0000000000000000       0.93750000000000000        0.0000000000000000     
  0.87500000000000000       0.96875000000000000        0.0000000000000000     
  0.90625000000000000       0.96875000000000000        0.0000000000000000     
  0.93750000000000000       0.96875000000000000        0.0000000000000000     
  0.96875000000000000       0.96875000000000000        0.0000000000000000     
   1.0000000000000000       0.96875000000000000        0.0000000000000000     
  0.87500000000000000        1.0000000000000000        0.0000000000000000     
  0.90625000000000000        1.0000000000000000        0.0000000000000000     
  0.93750000000000000        1.0000000000000000        0.0000000000000000     
  0.96875000000000000        1.0000000000000000        0.0000000000000000     
   1.0000000000000000        1.0000000000000000        0.0000000000000000     
 </DataArray>
 </Points>
 <Cells>
 <DataArray  type="Int32"  Name="connectivity"  format="ascii">
           0           1           6           5
           1           2           7           6
           2           3           8           7
           3           4           9           8
           5           6          11          10
           6           7          12          11
           7           8          13          12
           8           9          14          13
          10          11          16          15
          11          12          17          16
          12          13          18          17
          13          14          19          18
          15          16          21          20
          16          17          22          21
          17          18          23          22
          18          19          24          23
          25          26          31          30
          26          27          32          31
          27          28          33          32
          28          29          34          33
          30          31          36          35
          31          32          37          36
          32          33          38          37
          33          34          39          38
          35          36          41          40
          36          37          42          41
          37          38          43          42
          38          39          44          43
          40          41          46          45
          41          42          47          46
          42          43          48          47
          43          44          49          48
          50          51          56          55
          51          52          57          56
          52          53          58          57
          53          54          59          58
          55          56          61          60
          56          57          62          61
          57          58          63          62
          58          59          64          63
          60          61          66          65
          61          62          67          66
          62          63          68          67
          63          64          69          68
          65          66          71          70
          66          67          72          71
          67          68          73          72
          68          69          74          73
          75          76          81          80
          76          77          82          81
          77          78          83          82
          78          79          84          83
          80          81          86          85
          81          82          87          86
          82          83          88          87
          83          84          89          88
          85          86          91          90
          86          87          92          91
          87          88          93          92
          88          89          94          93
          90          91          96          95
          91          92          97          96
          92          93          98          97
          93          94          99          98
         100         101         106         105
         101         102         107         106
         102         103         108         107
         103         104         109         108
         105         106         111         110
         106         107         112         111
         107         108         113         112
         108         109         114         113
         110         111         116         115
         111         112         117         116
         112         113         118         117
         113         114         119         118
         115         116         121         120
         116         117         122         121
         117         118         123         122
         118         119         124         123
         125         126         131         130
         126         127         132         131
         127         128         133         132
         128         129         134         133
         130         131         136         135
         131         132         137         136
         132         133         138         137
         133         134         139         138
         135         136         141         140
         136         137         142         141
         137         138         143         142
         138         139         144         143
         140         141         146         145
         141         142         147         146
         142         143         148         147
         143         144         149         148
         150         151         156         155
         151         152         157         156
         152         153         158         157
         153         154         159         158
         155         156         161         160
         156         157         162         161
         157         158         163         162
         158         159         164         163
         160         161         166         165
         161         162         167         166
         162         163         168         167
         163         164         169         168
         165         166         171         170
         166         167         172         171
         167         168         173         172
         168         169         174         173
         175         176         181         180
         176         177         182         181
         177         178         183         182
         178         179         184         183
         180         181         186         185
         181         182         187         186
         182         183         188         187
         183         184         189         188
         185         186         191         190
         186         187         192         191
         187         188         193         192
         188         189         194         193
         190         191         196         195
         191         192         197         196
         192         193         198         197
         193         194         199         198
         200         201         206         205
         201         202         207         206
         202         203         208         207
         203         204         209         208
         205         206         211         210
         206         207         212         211
         207         208         213         212
         208         209         214         213
         210         211         216         215
         211         212         217         216
         212         213         218         217
         213         214         219         218
         215         216         221         220
         216         217         222         221
         217         218         223         222
         218         219         224         223
         225         226         231         230
         226         227         232         231
         227         228         233         232
         228         229         234         233
         230         231         236         235
         231         232         237         236
         232         233         238         237
         233         234         239         238
         235         236         241         240
         236         237         242         241
         237         238         243         242
         238         239         244         243
         240         241         246         245
         241         242         247         246
         242         243         248         247
         243         244         249         248
         250         251         256         255
         251         252         257         256
         252         253         258         257
         253         254         259         258
         255         256         261         260
         256         257         262         261
         257         258         263         262
         258         259         264         263
         260         261         266         265
         261         262         267         266
         262         263         268         267
         263         264         269         268
         265         266         271         270
         266         267         272         271
         267         268         273         272
         268         269         274         273
         275         276         281         280
         276         277         282         281
         277         278         283         282
         278         279         284         283
         280         281         286         285
         281         282         287         286
         282         283         288         287
         283         284         289         288
         285         286         291         290
         286         287         292         291
         287         288         293         292
         288         289         294         293
         290         291         296         295
         291         292         297         296
         292         293         298         297
         293         294         299         298
         300         301         306         305
         301         302         307         306
         302         303         308         307
         303         304         309         308
         305         306         311         310
         306         307         312         311
         307         308         313         312
         308         309         314         313
         310         311         316         315
         311         312         317         316
         312         313         318         317
         313         314         319         318
         315         316         321         320
         316         317         322         321
         317         318         323         322
         318         319         324         323
         325         326         331         330
         326         327         332         331
         327         328         333         332
         328         329         334         333
         330         331         336         335
         331         332         337         336
         332         333         338         337
         333         334         339         338
         335         336         341         340
         336         337         342         341
         337         338         343         342
         338         339         344         343
         340         341         346         345
         341         342         347         346
         342         343         348         347
         343         344         349         348
         350         351         356         355
         351         352         357         356
         352         353         358         357
         353         354         359         358
         355         356         361         360
         356         357         362         361
         357         358         363         362
         358         359         364         363
         360         361         366         365
         361         362         367         366
         362         363         368         367
         363         364         369         368
         365         366         371         370
         366         367         372         371
         367         368         373         372
         368         369         374         373
         375         376         381         380
         376         377         382         381
         377         378         383         382
         378         379         384         383
         380         381         386         385
         381         382         387         386
         382         383         388         387
         383         384         389         388
         385         386         391         390
         386         387         392         391
         387         388         393         392
         388         389         394         393
         390         391         396         395
         391         392         397         396
         392         393         398         397
         393         394         399         398
         400         401         406         405
         401         402         407         406
         402         403         408         407
         403         404         409         408
         405         406         411         410
         406         407         412         411
         407         408         413         412
         408         409         414         413
         410         411         416         415
         411         412         417         416
         412         413         418         417
         413         414         419         418
         415         416         421         420
         416         417         422         421
         417         418         423         422
         418         419         424         423
         425         426         431         430
         426         427         432         431
         427         428         433         432
         428         429         434         433
         430         431         436         435
         431         432         437         436
         432         433         438         437
         433         434         439         438
         435         436         441         440
         436         437         442         441
         437         438         443         442
         438         439         444         443
         440         441         446         445
         441         442         447         446
         442         443         448         447
         443         444         449         448
         450         451         456         455
         451         452         457         456
         452         453         458         457
         453         454         459         458
         455         456         461         460
         456         457         462         461
         457         458         463         462
         458         459         464         463
         460         461         466         465
         461         462         467         466
         462         463         468         467
         463         464         469         468
         465         466         471         470
         466         467         472         471
         467         468         473         472
         468         469         474         473
         475         476         481         480
         476         477         482         481
         477         478         483         482
         478         479         484         483
         480         481         486         485
         481         482         487         486
         482         483         488         487
         483         484         489         488
         485         486         491         490
         486         487         492         491
         487         488         493         492
         488         489         494         493
         490         491         496         495
         491         492         497         496
         492         493         498         497
         493         494         499         498
         500         501         506         505
         501         502         507         506
         502         503         508         507
         503         504         509         508
         505         506         511         510
         506         507         512         511
         507         508         513         512
         508         509         514         513
         510         511         516         515
         511         512         517         516
         512         513         518         517
         513         514         519         518
         515         516         521         520
         516         517         522         521
         517         518         523         522
         518         519         524         523
         525         526         531         530
         526         527         532         531
         527         528         533         532
         528         529         534         533
         530         531         536         535
         531         532         537         536
         532         533         538         537
         533         534         539         538
         535         536         541         540
         536         537         542         541
         537         538         543         542
         538         539         544         543
         540         541         546         545
         541         542         547         546
         542         543         548         547
         543         544         549         548
         550         551         556         555
         551         552         557         556
         552         553         558         557
         553         554         559         558
         555         556         561         560
         556         557         562         561
         557         558         563         562
         558         559         564         563
         560         561         566         565
         561         562         567         566
         562         563         568         567
         563         564         569         568
         565         566         571         570
         566         567         572         571
         567         568         573         572
         568         569         574         573
         575         576         581         580
         576         577         582         581
         577         578         583         582
         578         579         584         583
         580         581         586         585
         581         582         587         586
         582         583         588         587
         583         584         589         588
         585         586         591         590
         586         587         592         591
         587         588         593         592
         588         589         594         593
         590         591         596         595
         591         592         597         596
         592         593         598         597
         593         594         599         598
         600         601         606         605
         601         602         607         606
         602         603         608         607
         603         604         609         608
         605         606         611         610
         606         607         612         611
         607         608         613         612
         608         609         614         613
         610         611         616         615
         611         612         617         616
         612         613         618         617
         613         614         619         618
         615         616         621         620
         616         617         622         621
         617         618         623         622
         618         619         624         623
         625         626         631         630
         626         627         632         631
         627         628         633         632
         628         629         634         633
         630         631         636         635
         631         632         637         636
         632         633         638         637
         633         634         639         638
         635         636         641         640
         636         637         642         641
         637         638         643         642
         638         639         644         643
         640         641         646         645
         641         642         647         646
         642         643         648         647
         643         644         649         648
         650         651         656         655
         651         652         657         656
         652         653         658         657
         653         654         659         658
         655         656         661         660
         656         657         662         661
         657         658         663         662
         658         659         664         663
         660         661         666         665
         661         662         667         666
         662         663         668         667
         663         664         669         668
         665         666         671         670
         666         667         672         671
         667         668         673         672
         668         669         674         673
         675         676         681         680
         676         677         682         681
         677         678         683         682
         678         679         684         683
         680         681         686         685
         681         682         687         686
         682         683         688         687
         683         684         689         688
         685         686         691         690
         686         687         692         691
         687         688         693         692
         688         689         694         693
         690         691         696         695
         691         692         697         696
         692         693         698         697
         693         694         699         698
         700         701         706         705
         701         702         707         706
         702         703         708         707
         703         704         709         708
         705         706         711         710
         706         707         712         711
         707         708         713         712
         708         709         714         713
         710         711         716         715
         711         712         717         716
         712         713         718         717
         713         714         719         718
         715         716         721         720
         716         717         722         721
         717         718         723         722
         718         719         724         723
         725         726         731         730
         726         727         732         731
         727         728         733         732
         728         729         734         733
         730         731         736         735
         731         732         737         736
         732         733         738         737
         733         734         739         738
         735         736         741         740
         736         737         742         741
         737         738         743         742
         738         739         744         743
         740         741         746         745
         741         742         747         746
         742         743         748         747
         743         744         749         748
         750         751         756         755
         751         752         757         756
         752         753         758         757
         753         754         759         758
         755         756         761         760
         756         757         762         761
         757         758         763         762
         758         759         764         763
         760         761         766         765
         761         762         767         766
         762         763         768         767
         763         764         769         768
         765         766         771         770
         766         767         772         771
         767         768         773         772
         768         769         774         773
         775         776         781         780
         776         777         782         781
         777         778         783         782
         778         779         784         783
         780         781         786         785
         781         782         787         786
         782         783         788         787
         783         784         789         788
         785         786         791         790
         786         787         792         791
         787         788         793         792
         788         789         794         793
         790         791         796         795
         791         792         797         796
         792         793         798         797
         793         794         799         798
         800         801         806         805
         801         802         807         806
         802         803         808         807
         803         804         809         808
         805         806         811         810
         806         807         812         811
         807         808         813         812
         808         809         814         813
         810         811         816         815
         811         812         817         816
         812         813         818         817
         813         814         819         818
         815         816         821         820
         816         817         822         821
         817         818         823         822
         818         819         824         823
         825         826         831         830
         826         827         832         831
         827         828         833         832
         828         829         834         833
         830         831         836         835
         831         832         837         836
         832         833         838         837
         833         834         839         838
         835         836         841         840
         836         837         842         841
         837         838         843         842
         838         839         844         843
         840         841         846         845
         841         842         847         846
         842         843         848         847
         843         844         849         848
         850         851         856         855
         851         852         857         856
         852         853         858         857
         853         854         859         858
         855         856         861         860
         856         857         862         861
         857         858         863         862
         858         859         864         863
         860         861         866         865
         861         862         867         866
         862         863         868         867
         863         864         869         868
         865         866         871         870
         866         867         872         871
         867         868         873         872
         868         869         874         873
         875         876         881         880
         876         877         882         881
         877         878         883         882
         878         879         884         883
         880         881         886         885
         881         882         887         886
         882         883         888         887
         883         884         889         888
         885         886         891         890
         886         887         892         891
         887         888         893         892
         888         889         894         893
         890         891         896         895
         891         892         897         896
         892         893         898         897
         893         894         899         898
         900         901         906         905
         901         902         907         906
         902         903         908         907
         903         904         909         908
         905         906         911         910
         906         907         912         911
         907         908         913         912
         908         909         914         913
         910         911         916         915
         911         912         917         916
         912         913         918         917
         913         914         919         918
         915         916         921         920
         916         917         922         921
         917         918         923         922
         918         919         924         923
         925         926         931         930
         926         927         932         931
         927         928         933         932
         928         929         934         933
         930         931         936         935
         931         932         937         936
         932         933         938         937
         933         934         939         938
         935         936         941         940
         936         937         942         941
         937         938         943         942
         938         939         944         943
         940         941         946         945
         941         942         947         946
         942         943         948         947
         943         944         949         948
         950         951         956         955
         951         952         957         956
         952         953         958         957
         953         954         959         958
         955         956         961         960
         956         957         962         961
         957         958         963         962
         958         959         964         963
         960         961         966         965
         961         962         967         966
         962         963         968         967
         963         964         969         968
         965         966         971         970
         966         967         972         971
         967         968         973         972
         968         969         974         973
         975         976         981         980
         976         977         982         981
         977         978         983         982
         978         979         984         983
         980         981         986         985
         981         982         987         986
         982         983         988         987
         983         984         989         988
         985         986         991         990
         986         987         992         991
         987         988         993         992
         988         989         994         993
         990         991         996         995
         991         992         997         996
         992         993         998         997
         993         994         999         998
        1000        1001        1006        1005
        1001        1002        1007        1006
        1002        1003        1008        1007
        1003        1004        1009        1008
        1005        1006        1011        1010
        1006        1007        1012        1011
        1007        1008        1013        1012
        1008        1009        1014        1013
        1010        1011        1016        1015
        1011        1012        1017        1016
        1012        1013        1018        1017
        1013        1014        1019        1018
        1015        1016        1021        1020
        1016        1017        1022        1021
        1017        1018        1023        1022
        1018        1019        1024        1023
        1025        1026        1031        1030
        1026        1027        1032        1031
        1027        1028        1033        1032
        1028        1029        1034        1033
        1030        1031        1036        1035
        1031        1032        1037        1036
        1032        1033        1038        1037
        1033        1034        1039        1038
        1035        1036        1041        1040
        1036        1037        1042        1041
        1037        1038        1043        1042
        1038        1039        1044        1043
        1040        1041        1046        1045
        1041        1042        1047        1046
        1042        1043        1048        1047
        1043        1044        1049        1048
        1050        1051        1056        1055
        1051        1052        1057        1056
        1052        1053        1058        1057
        1053        1054        1059        1058
        1055        1056        1061        1060
        1056        1057        1062        1061
        1057        1058        1063        1062
        1058        1059        1064        1063
        1060        1061        1066        1065
        1061        1062        1067        1066
        1062        1063        1068        1067
        1063        1064        1069        1068
        1065        1066        1071        1070
        1066        1067        1072        1071
        1067        1068        1073        1072
        1068        1069        1074        1073
        1075        1076        1081        1080
        1076        1077        1082        1081
        1077        1078        1083        1082
        1078        1079        1084        1083
        1080        1081        1086        1085
        1081        1082        1087        1086
        1082        1083        1088        1087
        1083        1084        1089        1088
        1085        1086        1091        1090
        1086        1087        1092        1091
        1087        1088        1093        1092
        1088        1089        1094        1093
        1090        1091        1096        1095
        1091        1092        1097        1096
        1092        1093        1098        1097
        1093        1094        1099        1098
        1100        1101        1106        1105
        1101        1102        1107        1106
        1102        1103        1108        1107
        1103        1104        1109        1108
        1105        1106        1111        1110
        1106        1107        1112        1111
        1107        1108        1113        1112
        1108        1109        1114        1113
        1110        1111        1116        1115
        1111        1112        1117        1116
        1112        1113        1118        1117
        1113        1114        1119        1118
        1115        1116        1121        1120
        1116        1117        1122        1121
        1117        1118        1123        1122
        1118        1119        1124        1123
        1125        1126        1131        1130
        1126        1127        1132        1131
        1127        1128        1133        1132
        1128        1129        1134        1133
        1130        1131        1136        1135
        1131        1132        1137        1136
        1132        1133        1138        1137
        1133        1134        1139        1138
        1135        1136        1141        1140
        1136        1137        1142        1141
        1137        1138        1143        1142
        1138        1139        1144        1143
        1140        1141        1146        1145
        1141        1142        1147        1146
        1142        1143        1148        1147
        1143        1144        1149        1148
        1150        1151        1156        1155
        1151        1152        1157        1156
        1152        1153        1158        1157
        1153        1154        1159        1158
        1155        1156        1161        1160
        1156        1157        1162        1161
        1157        1158        1163        1162
        1158        1159        1164        1163
        1160        1161        1166        1165
        1161        1162        1167        1166
        1162        1163        1168        1167
        1163        1164        1169        1168
        1165        1166        1171        1170
        1166        1167        1172        1171
        1167        1168        1173        1172
        1168        1169        1174        1173
        1175        1176        1181        1180
        1176        1177        1182        1181
        1177        1178        1183        1182
        1178        1179        1184        1183
        1180        1181        1186        1185
        1181        1182        1187        1186
        1182        1183        1188        1187
        1183        1184        1189        1188
        1185        1186        1191        1190
        1186        1187        1192        1191
        1187        1188        1193        1192
        1188        1189        1194        1193
        1190        1191        1196        1195
        1191        1192        1197        1196
        1192        1193        1198        1197
        1193        1194        1199        1198
        1200        1201        1206        1205
        1201        1202        1207        1206
        1202        1203        1208        1207
        1203        1204        1209        1208
        1205        1206        1211        1210
        1206        1207        1212        1211
        1207        1208        1213        1212
        1208        1209        1214        1213
        1210        1211        1216        1215
        1211        1212        1217        1216
        1212        1213        1218        1217
        1213        1214        1219        1218
        1215        1216        1221        1220
        1216        1217        1222        1221
        1217        1218        1223        1222
        1218        1219        1224        1223
        1225        1226        1231        1230
        1226        1227        1232        1231
        1227        1228        1233        1232
        1228        1229        1234        1233
        1230        1231        1236        1235
        1231        1232        1237        1236
        1232        1233        1238        1237
        1233        1234        1239        1238
        1235        1236        1241        1240
        1236        1237        1242        1241
        1237        1238        1243        1242
        1238        1239        1244        1243
        1240        1241        1246        1245
        1241        1242        1247        1246
        1242        1243        1248        1247
        1243        1244        1249        1248
        1250        1251        1256        1255
        1251        1252        1257        1256
        1252        1253        1258        1257
        1253        1254        1259        1258
        1255        1256        1261        1260
        1256        1257        1262        1261
        1257        1258        1263        1262
        1258        1259        1264        1263
        1260        1261        1266        1265
        1261        1262        1267        1266
        1262        1263        1268        1267
        1263        1264        1269        1268
        1265        1266        1271        1270
        1266        1267        1272        1271
        1267        1268        1273        1272
        1268        1269        1274        1273
        1275        1276        1281        1280
        1276        1277        1282        1281
        1277        1278        1283        1282
        1278        1279        1284        1283
        1280        1281        1286        1285
        1281        1282        1287        1286
        1282        1283        1288        1287
        1283        1284        1289        1288
        1285        1286        1291        1290
        1286        1287        1292        1291
        1287        1288        1293        1292
        1288        1289        1294        1293
        1290        1291        1296        1295
        1291        1292        1297        1296
        1292        1293        1298        1297
        1293        1294        1299        1298
        1300        1301        1306        1305
        1301        1302        1307        1306
        1302        1303        1308        1307
        1303        1304        1309        1308
        1305        1306        1311        1310
        1306        1307        1312        1311
        1307        1308        1313        1312
        1308        1309        1314        1313
        1310        1311        1316        1315
        1311        1312        1317        1316
        1312        1313        1318        1317
        1313        1314        1319        1318
        1315        1316        1321        1320
        1316        1317        1322        1321
        1317        1318        1323        1322
        1318        1319        1324        1323
        1325        1326        1331        1330
        1326        1327        1332        1331
        1327        1328        1333        1332
        1328        1329        1334        1333
        1330        1331        1336        1335
        1331        1332        1337        1336
        1332        1333        1338        1337
        1333        1334        1339        1338
        1335        1336        1341        1340
        1336        1337        1342        1341
        1337        1338        1343        1342
        1338        1339        1344        1343
        1340        1341        1346        1345
        1341        1342        1347        1346
        1342        1343        1348        1347
        1343        1344        1349        1348
        1350        1351        1356        1355
        1351        1352        1357        1356
        1352        1353        1358        1357
        1353        1354        1359        1358
        1355        1356        1361        1360
        1356        1357        1362        1361
        1357        1358        1363        1362
        1358        1359        1364        1363
        1360        1361        1366        1365
        1361        1362        1367        1366
        1362        1363        1368        1367
        1363        1364        1369        1368
        1365        1366        1371        1370
        1366        1367        1372        1371
        1367        1368        1373        1372
        1368        1369        1374        1373
        1375        1376        1381        1380
        1376        1377        1382        1381
        1377        1378        1383        1382
        1378        1379        1384        1383
        1380        1381        1386        1385
        1381        1382        1387        1386
        1382        1383        1388        1387
        1383        1384        1389        1388
        1385        1386        1391        1390
        1386        1387        1392        1391
        1387        1388        1393        1392
        1388        1389        1394        1393
        1390        1391        1396        1395
        1391        1392        1397        1396
        1392        1393        1398        1397
        1393        1394        1399        1398
        1400        1401        1406        1405
        1401        1402        1407        1406
        1402        1403        1408        1407
        1403        1404        1409        1408
        1405        1406        1411        1410
        1406        1407        1412        1411
        1407        1408        1413        1412
        1408        1409        1414        1413
        1410        1411        1416        1415
        1411        1412        1417        1416
        1412        1413        1418        1417
        1413        1414        1419        1418
        1415        1416        1421        1420
        1416        1417        1422        1421
        1417        1418        1423        1422
        1418        1419        1424        1423
        1425        1426        1431        1430
        1426        1427        1432        1431
        1427        1428        1433        1432
        1428        1429        1434        1433
        1430        1431        1436        1435
        1431        1432        1437        1436
        1432        1433        1438        1437
        1433        1434        1439        1438
        1435        1436        1441        1440
        1436        1437        1442        1441
        1437        1438        1443        1442
        1438        1439        1444        1443
        1440        1441        1446        1445
        1441        1442        1447        1446
        1442        1443        1448        1447
        1443        1444        1449        1448
        1450        1451        1456        1455
        1451        1452        1457        1456
        1452        1453        1458        1457
        1453        1454        1459        1458
        1455        1456        1461        1460
        1456        1457        1462        1461
        1457        1458        1463        1462
        1458        1459        1464        1463
        1460        1461        1466        1465
        1461        1462        1467        1466
        1462        1463        1468        1467
        1463        1464        1469        1468
        1465        1466        1471        1470
        1466        1467        1472        1471
        1467        1468        1473        1472
        1468        1469        1474        1473
        1475        1476        1481        1480
        1476        1477        1482        1481
        1477        1478        1483        1482
        1478        1479        1484        1483
        1480        1481        1486        1485
        1481        1482        1487        1486
        1482        1483        1488        1487
        1483        1484        1489        1488
        1485        1486        1491        1490
        1486        1487        1492        1491
        1487        1488        1493        1492
        1488        1489        1494        1493
        1490        1491        1496        1495
        1491        1492        1497        1496
        1492        1493        1498        1497
        1493        1494        1499        1498
        1500        1501        1506        1505
        1501        1502        1507        1506
        1502        1503        1508        1507
        1503        1504        1509        1508
        1505        1506        1511        1510
        1506        1507        1512        1511
        1507        1508        1513        1512
        1508        1509        1514        1513
        1510        1511        1516        1515
        1511        1512        1517        1516
        1512        1513        1518        1517
        1513        1514        1519        1518
        1515        1516        1521        1520
        1516        1517        1522        1521
        1517        1518        1523        1522
        1518        1519        1524        1523
        1525        1526        1531        1530
        1526        1527        1532        1531
        1527        1528        1533        1532
        1528        1529        1534        1533
        1530        1531        1536        1535
        1531        1532        1537        1536
        1532        1533        1538        1537
        1533        1534        1539        1538
        1535        1536        1541        1540
        1536        1537        1542        1541
        1537        1538        1543        1542
        1538        1539        1544        1543
        1540        1541        1546        1545
        1541        1542        1547        1546
        1542        1543        1548        1547
        1543        1544        1549        1548
        1550        1551        1556        1555
        1551        1552        1557        1556
        1552        1553        1558        1557
        1553        1554        1559        1558
        1555        1556        1561        1560
        1556        1557        1562        1561
        1557        1558        1563        1562
        1558        1559        1564        1563
        1560        1561        1566        1565
        1561        1562        1567        1566
        1562        1563        1568        1567
        1563        1564        1569        1568
        1565        1566        1571        1570
        1566        1567        1572        1571
        1567        1568        1573        1572
        1568        1569        1574        1573
        1575        1576        1581        1580
        1576        1577        1582        1581
        1577        1578        1583        1582
        1578        1579        1584        1583
        1580        1581        1586        1585
        1581        1582        1587        1586
        1582        1583        1588        1587
        1583        1584        1589        1588
        1585        1586        1591        1590
        1586        1587        1592        1591
        1587        1588        1593        1592
        1588        1589        1594        1593
        1590        1591        1596        1595
        1591        1592        1597        1596
        1592        1593        1598        1597
        1593        1594        1599        1598
 </DataArray>
 <DataArray  type="Int32"  Name="offsets"  format="ascii"> 
           4
           8
          12
          16
          20
          24
          28
          32
          36
          40
          44
          48
          52
          56
          60
          64
          68
          72
          76
          80
          84
          88
          92
          96
         100
         104
         108
         112
         116
         120
         124
         128
         132
         136
         140
         144
         148
         152
         156
         160
         164
         168
         172
         176
         180
         184
         188
         192
         196
         200
         204
         208
         212
         216
         220
         224
         228
         232
         236
         240
         244
         248
         252
         256
         260
         264
         268
         272
         276
         280
         284
         288
         292
         296
         300
         304
         308
         312
         316
         320
         324
         328
         332
         336
         340
         344
         348
         352
         356
         360
         364
         368
         372
         376
         380
         384
         388
         392
         396
         400
         404
         408
         412
         416
         420
         424
         428
         432
         436
         440
         444
         448
         452
         456
         460
         464
         468
         472
         476
         480
         484
         488
         492
         496
         500
         504
         508
         512
         516
         520
         524
         528
         532
         536
         540
         544
         548
         552
         556
         560
         564
         568
         572
         576
         580
         584
         588
         592
         596
         600
         604
         608
         612
         616
         620
         624
         628
         632
         636
         640
         644
         648
         652
         656
         660
         664
         668
         672
         676
         680
         684
         688
         692
         696
         700
         704
         708
         712
         716
         720
         724
         728
         732
         736
         740
         744
         748
         752
         756
         760
         764
         768
         772
         776
         780
         784
         788
         792
         796
         800
         804
         808
         812
         816
         820
         824
         828
         832
         836
         840
         844
         848
         852
         856
         860
         864
         868
         872
         876
         880
         884
         888
         892
         896
         900
         904
         908
         912
         916
         920
         924
         928
         932
         936
         940
         944
         948
         952
         956
         960
         964
         968
         972
         976
         980
         984
         988
         992
         996
        1000
        1004
        1008
        1012
        1016
        1020
        1024
        1028
        1032
        1036
        1040
        1044
        1048
        1052
        1056
        1060
        1064
        1068
        1072
        1076
        1080
        1084
        1088
        1092
        1096
        1100
        1104
        1108
        1112
        1116
        1120
        1124
        1128
        1132
        1136
        1140
        1144
        1148
        1152
        1156
        1160
        1164
        1168
        1172
        1176
        1180
        1184
        1188
        1192
        1196
        1200
        1204
        1208
        1212
        1216
        1220
        1224
        1228
        1232
        1236
        1240
        1244
        1248
        1252
        1256
        1260
        1264
        1268
        1272
        1276
        1280
        1284
        1288
        1292
        1296
        1300
        1304
        1308
        1312
        1316
        1320
        1324
        1328
        1332
        1336
        1340
        1344
        1348
        1352
        1356
        1360
        1364
        1368
        1372
        1376
        1380
        1384
        1388
        1392
        1396
        1400
        1404
        1408
        1412
        1416
        1420
        1424
        1428
        1432
        1436
        1440
        1444
        1448
        1452
        1456
        1460
        1464
        1468
        1472
        1476
        1480
        1484
        1488
        1492
        1496
        1500
        1504
        1508
        1512
        1516
        1520
        1524
        1528
        1532
        1536
        1540
        1544
        1548
        1552
        1556
        1560
        1564
        1568
        1572
        1576
        1580
        1584
        1588
        1592
        1596
        1600
        1604
        1608
        1612
        1616
        1620
        1624
        1628
        1632
        1636
        1640
        1644
        1648
        1652
        1656
        1660
        1664
        1668
        1672
        1676
        1680
        1684
        1688
        1692
        1696
        1700
        1704
        1708
        1712
        1716
        1720
        1724
        1728
        1732
        1736
        1740
        1744
        1748
        1752
        1756
        1760
        1764
        1768
        1772
        1776
        1780
        1784
        1788
        1792
        1796
        1800
        1804
        1808
        1812
        1816
        1820
        1824
        1828
        1832
        1836
        1840
        1844
        1848
        1852
        1856
        1860
        1864
        1868
        1872
        1876
        1880
        1884
        1888
        1892
        1896
        1900
        1904
        1908
        1912
        1916
        1920
        1924
        1928
        1932
        1936
        1940
        1944
        1948
        1952
        1956
        1960
        1964
        1968
        1972
        1976
        1980
        1984
        1988
        1992
        1996
        2000
        2004
        2008
        2012
        2016
        2020
        2024
        2028
        2032
        2036
        2040
        2044
        2048
        2052
        2056
        2060
        2064
        2068
        2072
        2076
        2080
        2084
        2088
        2092
        2096
        2100
        2104
        2108
        2112
        2116
        2120
        2124
        2128
        2132
        2136
        2140
        2144
        2148
        2152
        2156
        2160
        2164
        2168
        2172
        2176
        2180
        2184
        2188
        2192
        2196
        2200
        2204
        2208
        2212
        2216
        2220
        2224
        2228
        2232
        2236
        2240
        2244
        2248
        2252
        2256
        2260
        2264
        2268
        2272
        2276
        2280
        2284
        2288
        2292
        2296
        2300
        2304
        2308
        2312
        2316
        2320
        2324
        2328
        2332
        2336
        2340
        2344
        2348
        2352
        2356
        2360
        2364
        2368
        2372
        2376
        2380
        2384
        2388
        2392
        2396
        2400
        2404
        2408
        2412
        2416
        2420
        2424
        2428
        2432
        2436
        2440
        2444
        2448
        2452
        2456
        2460
        2464
        2468
        2472
        2476
        2480
        2484
        2488
        2492
        2496
        2500
        2504
        2508
        2512
        2516
        2520
        2524
        2528
        2532
        2536
        2540
        2544
        2548
        2552
        2556
        2560
        2564
        2568
        2572
        2576
        2580
        2584
        2588
        2592
        2596
        2600
        2604
        2608
        2612
        2616
        2620
        2624
        2628
        2632
        2636
        2640
        2644
        2648
        2652
        2656
        2660
        2664
        2668
        2672
        2676
        2680
        2684
        2688
        2692
        2696
        2700
        2704
        2708
        2712
        2716
        2720
        2724
        2728
        2732
        2736
        2740
        2744
        2748
        2752
        2756
        2760
        2764
        2768
        2772
        2776
        2780
        2784
        2788
        2792
        2796
        2800
        2804
        2808
        2812
        2816
        2820
        2824
        2828
        2832
        2836
        2840
        2844
        2848
        2852
        2856
        2860
        2864
        2868
        2872
        2876
        2880
        2884
        2888
        2892
        2896
        2900
        2904
        2908
        2912
        2916
        2920
        2924
        2928
        2932
        2936
        2940
        2944
        2948
        2952
        2956
        2960
        2964
        2968
        2972
        2976
        2980
        2984
        2988
        2992
        2996
        3000
        3004
        3008
        3012
        3016
        3020
        3024
        3028
        3032
        3036
        3040
        3044
        3048
        3052
        3056
        3060
        3064
        3068
        3072
        3076
        3080
        3084
        3088
        3092
        3096
        3100
        3104
        3108
        3112
        3116
        3120
        3124
        3128
        3132
        3136
        3140
        3144
        3148
        3152
        3156
        3160
        3164
        3168
        3172
        3176
        3180
        3184
        3188
        3192
        3196
        3200
        3204
        3208
        3212
        3216
        3220
        3224
        3228
        3232
        3236
        3240
        3244
        3248
        3252
        3256
        3260
        3264
        3268
        3272
        3276
        3280
        3284
        3288
        3292
        3296
        3300
        3304
        3308
        3312
        3316
        3320
        3324
        3328
        3332
        3336
        3340
        3344
        3348
        3352
        3356
        3360
        3364
        3368
        3372
        3376
        3380
        3384
        3388
        3392
        3396
        3400
        3404
        3408
        3412
        3416
        3420
        3424
        3428
        3432
        3436
        3440
        3444
        3448
        3452
        3456
        3460
        3464
        3468
        3472
        3476
        3480
        3484
        3488
        3492
        3496
        3500
        3504
        3508
        3512
        3516
        3520
        3524
        3528
        3532
        3536
        3540
        3544
        3548
        3552
        3556
        3560
        3564
        3568
        3572
        3576
        3580
        3584
        3588
        3592
        3596
        3600
        3604
        3608
        3612
        3616
        3620
        3624
        3628
        3632
        3636
        3640
        3644
        3648
        3652
        3656
        3660
        3664
        3668
        3672
        3676
        3680
        3684
        3688
        3692
        3696
        3700
        3704
        3708
        3712
        3716
        3720
        3724
        3728
        3732
        3736
        3740
        3744
        3748
        3752
        3756
        3760
        3764
        3768
        3772
        3776
        3780
        3784
        3788
        3792
        3796
        3800
        3804
        3808
        3812
        3816
        3820
        3824
        3828
        3832
        3836
        3840
        3844
        3848
        3852
        3856
        3860
        3864
        3868
        3872
        3876
        3880
        3884
        3888
        3892
        3896
        3900
        3904
        3908
        3912
        3916
        3920
        3924
        3928
        3932
        3936
        3940
        3944
        3948
        3952
        3956
        3960
        3964
        3968
        3972
        3976
        3980
        3984
        3988
        3992
        3996
        4000
        4004
        4008
        4012
        4016
        4020
        4024
        4028
        4032
        4036
        4040
        4044
        4048
        4052
        4056
        4060
        4064
        4068
        4072
        4076
        4080
        4084
        4088
        4092
        4096
 </DataArray>
 <DataArray  type="UInt8"  Name="types"  format="ascii">
 9
 9
 9
 9
 9
 9
 9
 9
 9
 9
 9
 9
 9
 9
 9
 9
 9
 9
 9
 9
 9
 9
 9
 9
 9
 9
 9
 9
 9
 9
 9
 9
 9
 9
 9
 9
 9
 9
 9
 9
 9
 9
 9
 9
 9
 9
 9
 9
 9
 9
 9
 9
 9
 9
 9
 9
 9
 9
 9
 9
 9
 9
 9
 9
 9
 9
 9
 9
 9
 9
 9
 9
 9
 9
 9
 9
 9
 9
 9
 9
 9
 9
 9
 9
 9
 9
 9
 9
 9
 9
 9
 9
 9
 9
 9
 9
 9
 9
 9
 9
 9
 9
 9
 9
 9
 9
 9
 9
 9
 9
 9
 9
 9
 9
 9
 9
 9
 9
 9
 9
 9
 9
 9
 9
 9
 9
 9
 9
 9
 9
 9
 9
 9
 9
 9
 9
 9
 9
 9
 9
 9
 9
 9
 9
 9
 9
 9
 9
 9
 9
 9
 9
 9
 9
 9
 9
 9
 9
 9
 9
 9
 9
 9
 9
 9
 9
 9
 9
 9
 9
 9
 9
 9
 9
 9
 9
 9
 9
 9
 9
 9
 9
 9
 9
 9
 9
 9
 9
 9
 9
 9
 9
 9
 9
 9
 9
 9
 9
 9
 9
 9
 9
 9
 9
 9
 9
 9
 9
 9
 9
 9
 9
 9
 9
 9
 9
 9
 9
 9
 9
 9
 9
 9
 9
 9
 9
 9
 9
 9
 9
 9
 9
 9
 9
 9
 9
 9
 9
 9
 9
 9
 9
 9
 9
 9
 9
 9
 9
 9
 9
 9
 9
 9
 9
 9
 9
 9
 9
 9
 9
 9
 9
 9
 9
 9
 9
 9
 9
 9
 9
 9
 9
 9
 9
 9
 9
 9
 9
 9
 9
 9
 9
 9
 9
 9
 9
 9
 9
 9
 9
 9
 9
 9
 9
 9
 9
 9
 9
 9
 9
 9
 9
 9
 9
 9
 9
 9
 9
 9
 9
 9
 9
 9
 9
 9
 9
 9
 9
 9
 9
 9
 9
 9
 9
 9
 9
 9
 9
 9
 9
 9
 9
 9
 9
 9
 9
 9
 9
 9
 9
 9
 9
 9
 9
 9
 9
 9
 9
 9
 9
 9
 9
 9
 9
 9
 9
 9
 9
 9
 9
 9
 9
 9
 9
 9
 9
 9
 9
 9
 9
 9
 9
 9
 9
 9
 9
 9
 9
 9
 9
 9
 9
 9
 9
 9
 9
 9
 9
 9
 9
 9
 9
 9
 9
 9
 9
 9
 9
 9
 9
 9
 9
 9
 9
 9
 9
 9
 9
 9
 9
 9
 9
 9
 9
 9
 9
 9
 9
 9
 9
 9
 9
 9
 9
 9
 9
 9
 9
 9
 9
 9
 9
 9
 9
 9
 9
 9
 9
 9
 9
 9
 9
 9
 9
 9
 9
 9
 9
 9
 9
 9
 9
 9
 9
 9
 9
 9
 9
 9
 9
 9
 9
 9
 9
 9
 9
 9
 9
 9
 9
 9
 9
 9
 9
 9
 9
 9
 9
 9
 9
 9
 9
 9
 9
 9
 9
 9
 9
 9
 9
 9
 9
 9
 9
 9
 9
 9
 9
 9
 9
 9
 9
 9
 9
 9
 9
 9
 9
 9
 9
 9
 9
 9
 9
 9
 9
 9
 9
 9
 9
 9
 9
 9
 9
 9
 9
 9
 9
 9
 9
 9
 9
 9
 9
 9
 9
 9
 9
 9
 9
 9
 9
 9
 9
 9
 9
 9
 9
 9
 9
 9
 9
 9
 9
 9
 9
 9
 9
 9
 9
 9
 9
 9
 9
 9
 9
 9
 9
 9
 9
 9
 9
 9
 9
 9
 9
 9
 9
 9
 9
 9
 9
 9
 9
 9
 9
 9
 9
 9
 9
 9
 9
 9
 9
 9
 9
 9
 9
 9
 9
 9
 9
 9
 9
 9
 9
 9
 9
 9
 9
 9
 9
 9
 9
 9
 9
 9
 9
 9
 9
 9
 9
 9
 9
 9
 9
 9
 9
 9
 9
 9
 9
 9
 9
 9
 9
 9
 9
 9
 9
 9
 9
 9
 9
 9
 9
 9
 9
 9
 9
 9
 9
 9
 9
 9
 9
 9
 9
 9
 9
 9
 9
 9
 9
 9
 9
 9
 9
 9
 9
 9
 9
 9
 9
 9
 9
 9
 9
 9
 9
 9
 9
 9
 9
 9
 9
 9
 9
 9
 9
 9
 9
 9
 9
 9
 9
 9
 9
 9
 9
 9
 9
 9
 9
 9
 9
 9
 9
 9
 9
 9
 9
 9
 9
 9
 9
 9
 9
 9
 9
 9
 9
 9
 9
 9
 9
 9
 9
 9
 9
 9
 9
 9
 9
 9
 9
 9
 9
 9
 9
 9
 9
 9
 9
 9
 9
 9
 9
 9
 9
 9
 9
 9
 9
 9
 9
 9
 9
 9
 9
 9
 9
 9
 9
 9
 9
 9
 9
 9
 9
 9
 9
 9
 9
 9
 9
 9
 9
 9
 9
 9
 9
 9
 9
 9
 9
 9
 9
 9
 9
 9
 9
 9
 9
 9
 9
 9
 9
 9
 9
 9
 9
 9
 9
 9
 9
 9
 9
 9
 9
 9
 9
 9
 9
 9
 9
 9
 9
 9
 9
 9
 9
 9
 9
 9
 9
 9
 9
 9
 9
 9
 9
 9
 9
 9
 9
 9
 9
 9
 9
 9
 9
 9
 9
 9
 9
 9
 9
 9
 9
 9
 9
 9
 9
 9
 9
 9
 9
 9
 9
 9
 9
 9
 9
 9
 9
 9
 9
 9
 9
 9
 9
 9
 9
 9
 9
 9
 9
 9
 9
 9
 9
 9
 9
 9
 9
 9
 9
 9
 9
 9
 9
 9
 9
 9
 9
 9
 9
 9
 9
 9
 9
 9
 9
 9
 9
 9
 9
 9
 9
 9
 9
 9
 9
 9
 9
 9
 9
 9
 9
 9
 9
 9
 9
 9
 9
 9
 9
 9
 9
 9
 9
 9
 9
 9
 9
 9
 9
 9
 9
 9
 9
 9
 9
 9
 9
 9
 9
 9
 9
 9
 9
 9
 9
 9
 9
 9
 9
 9
 9
 9
 9
 9
 9
 9
 9
 9
 9
 9
 9
 9
 9
 9
 9
 9
 9
 9
 9
 9
 9
 9
 9
 9
 9
 9
 9
 9
 9
 9
 9
 9
 9
 9
 9
 9
 9
 9
 9
 9
 9
 9
 9
 9
 9
 9
 9
 9
 9
 9
 9
 9
 9
 9
 9
 9
 9
 9
 9
 9
 9
 9
 9
 9
 9
 </DataArray>
 </Cells> 
 <PointData>
 <DataArray  type="Float64" Name="disp" NumberOfComponents="3" format="ascii">
   0.0000000000000000        0.0000000000000000        0.0000000000000000     
   6.0952930037950570E-003   3.7910030982210639E-003   0.0000000000000000     
   1.1665839006910299E-002   7.3239013020523968E-003   0.0000000000000000     
   1.6711638009345723E-002   1.0598694611493998E-002   0.0000000000000000     
   2.1232690011101334E-002   1.3615383026545868E-002   0.0000000000000000     
   0.0000000000000000        0.0000000000000000        0.0000000000000000     
   4.8912889608546490E-003   3.0217953386819348E-003   0.0000000000000000     
   9.5744669424870400E-003   6.0594607701641868E-003   0.0000000000000000     
   1.4049533944897177E-002   9.1129962944467569E-003   0.0000000000000000     
   1.8316489968085055E-002   1.2182401911529646E-002   0.0000000000000000     
   0.0000000000000000        0.0000000000000000        0.0000000000000000     
   3.9541321540623878E-003   2.4241192267091161E-003   0.0000000000000000     
   7.9119122864734805E-003   5.0610573301358699E-003   0.0000000000000000     
   1.1873340397233281E-002   7.9108143102802619E-003   0.0000000000000000     
   1.5838416486341787E-002   1.0973390167142293E-002   0.0000000000000000     
   0.0000000000000000        0.0000000000000000        0.0000000000000000     
   3.2838225834182738E-003   1.9979747623026086E-003   0.0000000000000000     
   6.6781750388696191E-003   4.3286909819674471E-003   0.0000000000000000     
   1.0183057366354036E-002   6.9921486589945162E-003   0.0000000000000000     
   1.3798469565871527E-002   9.9883477933838151E-003   0.0000000000000000     
   0.0000000000000000        0.0000000000000000        0.0000000000000000     
   2.8803602489223066E-003   1.7433619454624125E-003   0.0000000000000000     
   5.8732551996754558E-003   3.8623617256589174E-003   0.0000000000000000     
   8.9786848522594442E-003   6.3569993405895153E-003   0.0000000000000000     
   1.2196649206674277E-002   9.2272747902542064E-003   0.0000000000000000     
   2.1232690011101334E-002   1.3615383026545868E-002   0.0000000000000000     
   2.5440327384246501E-002   1.6606208574262340E-002   0.0000000000000000     
   2.9545882500850600E-002   1.9803413281697744E-002   0.0000000000000000     
   3.3549355360913628E-002   2.3206997148852087E-002   0.0000000000000000     
   3.7450745964435588E-002   2.6816960175725366E-002   0.0000000000000000     
   1.8316489968085055E-002   1.2182401911529646E-002   0.0000000000000000     
   2.2412702548109315E-002   1.5336680604496625E-002   0.0000000000000000     
   2.6375539221028598E-002   1.8644835356431473E-002   0.0000000000000000     
   3.0204999986842902E-002   2.2106866167334191E-002   0.0000000000000000     
   3.3901084845552223E-002   2.5722773037204782E-002   0.0000000000000000     
   1.5838416486341787E-002   1.0973390167142293E-002   0.0000000000000000     
   1.9734946495527397E-002   1.4207492181560080E-002   0.0000000000000000     
   2.3490736366518522E-002   1.7571827634371741E-002   0.0000000000000000     
   2.7105786099315153E-002   2.1066396525577277E-002   0.0000000000000000     
   3.0580095693917300E-002   2.4691198855176684E-002   0.0000000000000000     
   1.3798469565871527E-002   9.9883477933838151E-003   0.0000000000000000     
   1.7407059226500751E-002   1.3218643305452703E-002   0.0000000000000000     
   2.0891473937320375E-002   1.6584390115518544E-002   0.0000000000000000     
   2.4251713698330391E-002   2.0085588223581335E-002   0.0000000000000000     
   2.7487778509530800E-002   2.3722237629641079E-002   0.0000000000000000     
   1.2196649206674277E-002   9.2272747902542064E-003   0.0000000000000000     
   1.5429040741029371E-002   1.2370133976174496E-002   0.0000000000000000     
   1.8577751933434149E-002   1.5682522799871881E-002   0.0000000000000000     
   2.1642782783888610E-002   1.9164441261346372E-002   0.0000000000000000     
   2.4624133292392755E-002   2.2815889360597957E-002   0.0000000000000000     
   3.7450745964435588E-002   2.6816960175725366E-002   0.0000000000000000     
   4.1259754857025960E-002   3.0626007546323834E-002   0.0000000000000000     
   4.4986082584294235E-002   3.4626844444653748E-002   0.0000000000000000     
   4.8629729146240412E-002   3.8819470870715113E-002   0.0000000000000000     
   5.2190694542864499E-002   4.3203886824507924E-002   0.0000000000000000     
   3.3901084845552223E-002   2.5722773037204782E-002   0.0000000000000000     
   3.7490941049708147E-002   2.9520573796184460E-002   0.0000000000000000     
   4.1001715851862248E-002   3.3528286274414468E-002   0.0000000000000000     
   4.4433409252014520E-002   3.7745910471894781E-002   0.0000000000000000     
   4.7786021250164970E-002   4.2173446388625413E-002   0.0000000000000000     
   3.0580095693917300E-002   2.4691198855176684E-002   0.0000000000000000     
   3.3946090866884764E-002   2.8491506990468471E-002   0.0000000000000000     
   3.7236197334777357E-002   3.2512593298751120E-002   0.0000000000000000     
   4.0450415097595102E-002   3.6754457780024653E-002   0.0000000000000000     
   4.3588744155337963E-002   4.1217100434289049E-002   0.0000000000000000     
   2.7487778509530800E-002   2.3722237629641079E-002   0.0000000000000000     
   3.0625204308555809E-002   2.7538807129175846E-002   0.0000000000000000     
   3.3689527033039589E-002   3.1579765517663727E-002   0.0000000000000000     
   3.6680746682982157E-002   3.5845112795104724E-002   0.0000000000000000     
   3.9598863258383479E-002   4.0334848961498818E-002   0.0000000000000000     
   2.4624133292392755E-002   2.2815889360597957E-002   0.0000000000000000     
   2.7528281374721290E-002   2.6662474212306608E-002   0.0000000000000000     
   3.0361704946648933E-002   3.0729802931152284E-002   0.0000000000000000     
   3.3124404008175679E-002   3.5017875517134998E-002   0.0000000000000000     
   3.5816378559301525E-002   3.9526691970254726E-002   0.0000000000000000     
   5.2190694542864499E-002   4.3203886824507924E-002   0.0000000000000000     
   5.5650230997109362E-002   4.7789538727294981E-002   0.0000000000000000     
   5.8989590731917917E-002   5.2585873000339074E-002   0.0000000000000000     
   6.2208773747290128E-002   5.7592889643640205E-002   0.0000000000000000     
   6.5307780043226016E-002   6.2810588657198380E-002   0.0000000000000000     
   4.7786021250164970E-002   4.2173446388625413E-002   0.0000000000000000     
   5.1040198604165282E-002   4.6806351934895934E-002   0.0000000000000000     
   5.4176588071867142E-002   5.1640085020995909E-002   0.0000000000000000     
   5.7195189653270549E-002   5.6674645646925328E-002   0.0000000000000000     
   6.0096003348375511E-002   6.1910033812684194E-002   0.0000000000000000     
   4.3588744155337963E-002   4.1217100434289049E-002   0.0000000000000000     
   4.6632841971648679E-002   4.5887162371127395E-002   0.0000000000000000     
   4.9564366010169961E-002   5.0751284700122745E-002   0.0000000000000000     
   5.2383316270901793E-002   5.5809467421275107E-002   0.0000000000000000     
   5.5089692753844212E-002   6.1061710534584486E-002   0.0000000000000000     
   3.9598863258383479E-002   4.0334848961498818E-002   0.0000000000000000     
   4.2428161099559561E-002   4.5031970035989334E-002   0.0000000000000000     
   4.5152924546826366E-002   4.9919472037719577E-002   0.0000000000000000     
   4.7773153600183894E-002   5.4997354966689553E-002   0.0000000000000000     
   5.0288848259632139E-002   6.0265618822899256E-002   0.0000000000000000     
   3.5816378559301525E-002   3.9526691970254726E-002   0.0000000000000000     
   3.8426155987897934E-002   4.4240774929481766E-002   0.0000000000000000     
   4.0942263681836358E-002   4.9144647033786411E-002   0.0000000000000000     
   4.3364701641116811E-002   5.4238308283168647E-002   0.0000000000000000     
   4.5693469865739286E-002   5.9521758677628496E-002   0.0000000000000000     
   6.5307780043226016E-002   6.2810588657198380E-002   0.0000000000000000     
   6.8328941987540512E-002   6.8227404224873667E-002   0.0000000000000000     
   7.1314591948048525E-002   7.3831770530526086E-002   0.0000000000000000     
   7.4264729924750084E-002   7.9623687574155694E-002   0.0000000000000000     
   7.7179355917645159E-002   8.5603155355762461E-002   0.0000000000000000     
   6.0096003348375511E-002   6.1910033812684194E-002   0.0000000000000000     
   6.2921536512221099E-002   6.7339938456690715E-002   0.0000000000000000     
   6.5714296499846461E-002   7.2958048517363080E-002   0.0000000000000000     
   6.8474283311251535E-002   7.8764363994701297E-002   0.0000000000000000     
   7.1201496946436377E-002   8.4758884888705366E-002   0.0000000000000000     
   5.5089692753844212E-002   6.1061710534584486E-002   0.0000000000000000     
   5.7724539409804286E-002   6.6506282454037183E-002   0.0000000000000000     
   6.0328900189589148E-002   7.2141451593619538E-002   0.0000000000000000     
   6.2902775093198776E-002   7.7967217953331530E-002   0.0000000000000000     
   6.5446164120633185E-002   8.3983581533173146E-002   0.0000000000000000     
   5.0288848259632139E-002   6.0265618822899256E-002   0.0000000000000000     
   5.2737950680290066E-002   6.5726436216913084E-002   0.0000000000000000     
   5.5158403017276612E-002   7.1381979759295472E-002   0.0000000000000000     
   5.7550205270591785E-002   7.7232249450046378E-002   0.0000000000000000     
   5.9913357440235578E-002   8.3277245289165816E-002   0.0000000000000000     
   4.5693469865739286E-002   5.9521758677628496E-002   0.0000000000000000     
   4.7961770323678418E-002   6.5000399745318405E-002   0.0000000000000000     
   5.0202804982908841E-002   7.0679633014390841E-002   0.0000000000000000     
   5.2416573843430549E-002   7.6559458484845841E-002   0.0000000000000000     
   5.4603076905243568E-002   8.2639876156683362E-002   0.0000000000000000     
   7.7179355917645159E-002   8.5603155355762461E-002   0.0000000000000000     
   8.0011580709095934E-002   9.1751066448703483E-002   0.0000000000000000     
   8.2714515081464560E-002   9.8048313426335798E-002   0.0000000000000000     
   8.5288159034751024E-002  0.10449489628865952        0.0000000000000000     
   8.7732512568955354E-002  0.11109081503567453        0.0000000000000000     
   7.1201496946436377E-002   8.4758884888705366E-002   0.0000000000000000     
   7.3852342271386789E-002   9.0925820909088531E-002   0.0000000000000000     
   7.6383224152088619E-002   9.7249381765564039E-002   0.0000000000000000     
   7.8794142588541838E-002  0.10372956745813190        0.0000000000000000     
   8.1085097580746460E-002  0.11036637798679211        0.0000000000000000     
   6.5446164120633185E-002   8.3983581533173146E-002   0.0000000000000000     
   6.7918625652790249E-002   9.0175679745556458E-002   0.0000000000000000     
   7.0279718070567834E-002   9.6528650002893485E-002   0.0000000000000000     
   7.2529441373965955E-002  0.10304249230518421        0.0000000000000000     
   7.4667795562984612E-002  0.10971720665242861        0.0000000000000000     
   5.9913357440235578E-002   8.3277245289165816E-002   0.0000000000000000     
   6.2210430853306298E-002   8.9500642958107238E-002   0.0000000000000000     
   6.4403996836902233E-002   9.5886118138324081E-002   0.0000000000000000     
   6.6494055391023391E-002  0.10243367082981637        0.0000000000000000     
   6.8480606515669770E-002  0.10914330103258407        0.0000000000000000     
   5.4603076905243568E-002   8.2639876156683362E-002   0.0000000000000000     
   5.6727757872934957E-002   8.8900710546740896E-002   0.0000000000000000     
   5.8756060451091822E-002   9.5321786171855924E-002   0.0000000000000000     
   6.0687984639714171E-002  0.10190310303202844        0.0000000000000000     
   6.2523530438801989E-002  0.10864466112725846        0.0000000000000000     
   8.7732512568955354E-002  0.11109081503567453        0.0000000000000000     
   9.0003196191065393E-002  0.11779713497777569        0.0000000000000000     
   9.2055830408068987E-002  0.12457492142535785        0.0000000000000000     
   9.3890415219966161E-002  0.13142417437842099        0.0000000000000000     
   9.5506950626756903E-002  0.13834489383696513        0.0000000000000000     
   8.1085097580746460E-002  0.11036637798679211        0.0000000000000000     
   8.3212397786375611E-002  0.11711854747323673        0.0000000000000000     
   8.5132351863102362E-002  0.12394481003915779        0.0000000000000000     
   8.6844959810926742E-002  0.13084516568455534        0.0000000000000000     
   8.8350221629848721E-002  0.13781961440942936        0.0000000000000000     
   7.4667795562984612E-002  0.10971720665242861        0.0000000000000000     
   7.6652612348854288E-002  0.11650785865387034        0.0000000000000000     
   7.8441723442805478E-002  0.12336951391875291        0.0000000000000000     
   8.0035128844838169E-002  0.13030217244707637        0.0000000000000000     
   8.1432828554952388E-002  0.13730583423884063        0.0000000000000000     
   6.8480606515669770E-002  0.10914330103258407        0.0000000000000000     
   7.0323839878501410E-002  0.11596506851967657        0.0000000000000000     
   7.1983945147178305E-002  0.12284903306414321        0.0000000000000000     
   7.3460922321700498E-002  0.12979519466598399        0.0000000000000000     
   7.4754771402067932E-002  0.13680355332519897        0.0000000000000000     
   6.2523530438801989E-002  0.10864466112725846        0.0000000000000000     
   6.4226080375317005E-002  0.11549017707065540        0.0000000000000000     
   6.5759016976220885E-002  0.12238336747532869        0.0000000000000000     
   6.7122340241513673E-002  0.12932423234127835        0.0000000000000000     
   6.8316050171195339E-002  0.13631277166850433        0.0000000000000000     
   9.5506950626756903E-002  0.13834489383696513        0.0000000000000000     
   9.7293827042105888E-002  0.14560891158959036        0.0000000000000000     
   9.9639434879677774E-002  0.15348805942489677        0.0000000000000000     
  0.10254377413947255       0.16198233734288436        0.0000000000000000     
  0.10600684482149024       0.17109174534355315        0.0000000000000000     
   8.8350221629848721E-002  0.13781961440942936        0.0000000000000000     
   8.9952304701071031E-002  0.14503442975248018        0.0000000000000000     
   9.1955376405796402E-002  0.15265588525240811        0.0000000000000000     
   9.4359436744024805E-002  0.16068398090921321        0.0000000000000000     
   9.7164485715756241E-002  0.16911871672289541        0.0000000000000000     
   8.1432828554952388E-002  0.13730583423884063        0.0000000000000000     
   8.2879038031858726E-002  0.14449348861676853        0.0000000000000000     
   8.4617972734267785E-002  0.15197812490358278        0.0000000000000000     
   8.6649632662179579E-002  0.15975974309928340        0.0000000000000000     
   8.8974017815594109E-002  0.16783834320387037        0.0000000000000000     
   7.4754771402067932E-002  0.13680355332519897        0.0000000000000000     
   7.6074027034468999E-002  0.14398608818245542        0.0000000000000000     
   7.7627223865091979E-002  0.15145477837842078        0.0000000000000000     
   7.9414361893936927E-002  0.15920962391309493        0.0000000000000000     
   8.1435441121003802E-002  0.16725062478647798        0.0000000000000000     
   6.8316050171195339E-002  0.13631277166850433        0.0000000000000000     
   6.9537271708901796E-002  0.14351222844954084        0.0000000000000000     
   7.0983129798268971E-002  0.15108584567692201        0.0000000000000000     
   7.2653624439296821E-002  0.15903362335064780        0.0000000000000000     
   7.4548755631985361E-002  0.16735556147071828        0.0000000000000000     
   0.0000000000000000        0.0000000000000000        0.0000000000000000     
   2.8803602489223066E-003   1.7433619454624125E-003   0.0000000000000000     
   5.8732551996754558E-003   3.8623617256589174E-003   0.0000000000000000     
   8.9786848522594442E-003   6.3569993405895153E-003   0.0000000000000000     
   1.2196649206674277E-002   9.2272747902542064E-003   0.0000000000000000     
   0.0000000000000000        0.0000000000000000        0.0000000000000000     
   2.6101576338463531E-003   1.5875199287899533E-003   0.0000000000000000     
   5.2895418140470399E-003   3.5546268249010663E-003   0.0000000000000000     
   8.0381525406020594E-003   5.9013206883333381E-003   0.0000000000000000     
   1.0855989813511413E-002   8.6276015190867705E-003   0.0000000000000000     
   0.0000000000000000        0.0000000000000000        0.0000000000000000     
   2.3396272214622803E-003   1.4576878648866565E-003   0.0000000000000000     
   4.7194239271404256E-003   3.2980435433846754E-003   0.0000000000000000     
   7.1393901170344366E-003   5.5210670354940566E-003   0.0000000000000000     
   9.5995257911443126E-003   8.1267583412148008E-003   0.0000000000000000     
   0.0000000000000000        0.0000000000000000        0.0000000000000000     
   2.0687690117700869E-003   1.3538657537525223E-003   0.0000000000000000     
   4.1629015389556111E-003   3.0926118811097467E-003   0.0000000000000000     
   6.2823975815565749E-003   5.2162383820716718E-003   0.0000000000000000     
   8.4272571395729769E-003   7.7247452566382999E-003   0.0000000000000000     
   0.0000000000000000        0.0000000000000000        0.0000000000000000     
   1.7975830047697742E-003   1.2760535953875508E-003   0.0000000000000000     
   3.6199746494925997E-003   2.9383318380762783E-003   0.0000000000000000     
   5.4671749341684743E-003   4.9868347280661836E-003   0.0000000000000000     
   7.3391838587974004E-003   7.4215622653572653E-003   0.0000000000000000     
   1.2196649206674277E-002   9.2272747902542064E-003   0.0000000000000000     
   1.5429040741029371E-002   1.2370133976174496E-002   0.0000000000000000     
   1.8577751933434149E-002   1.5682522799871881E-002   0.0000000000000000     
   2.1642782783888610E-002   1.9164441261346372E-002   0.0000000000000000     
   2.4624133292392755E-002   2.2815889360597957E-002   0.0000000000000000     
   1.0855989813511413E-002   8.6276015190867705E-003   0.0000000000000000     
   1.3689144039067498E-002   1.1650051434347365E-002   0.0000000000000000     
   1.6483705623562713E-002   1.4885252551301126E-002   0.0000000000000000     
   1.9239674566997059E-002   1.8333204869948057E-002   0.0000000000000000     
   2.1957050869370529E-002   2.1993908390288149E-002   0.0000000000000000     
   9.5995257911443126E-003   8.1267583412148008E-003   0.0000000000000000     
   1.2075622120569370E-002   1.1046482920593225E-002   0.0000000000000000     
   1.4543470276408926E-002   1.4211606233675643E-002   0.0000000000000000     
   1.7003070258662979E-002   1.7622128280462061E-002   0.0000000000000000     
   1.9454422067331528E-002   2.1278049060952473E-002   0.0000000000000000     
   8.4272571395729769E-003   7.7247452566382999E-003   0.0000000000000000     
   1.0588474985534989E-002   1.0559428434912071E-002   0.0000000000000000     
   1.2757045891972789E-002   1.3661583846995435E-002   0.0000000000000000     
   1.4932969858886379E-002   1.7031211492888384E-002   0.0000000000000000     
   1.7116246886275752E-002   2.0668311372590925E-002   0.0000000000000000     
   7.3391838587974004E-003   7.4215622653572653E-003   0.0000000000000000     
   9.2277026339643523E-003   1.0188887977303912E-002   0.0000000000000000     
   1.1124432470254303E-002   1.3235185391260500E-002   0.0000000000000000     
   1.3029373367667251E-002   1.6560454507227037E-002   0.0000000000000000     
   1.4942525326203202E-002   2.0164695325203517E-002   0.0000000000000000     
   2.4624133292392755E-002   2.2815889360597957E-002   0.0000000000000000     
   2.7528281374721290E-002   2.6662474212306608E-002   0.0000000000000000     
   3.0361704946648933E-002   3.0729802931152284E-002   0.0000000000000000     
   3.3124404008175679E-002   3.5017875517134998E-002   0.0000000000000000     
   3.5816378559301525E-002   3.9526691970254726E-002   0.0000000000000000     
   2.1957050869370529E-002   2.1993908390288149E-002   0.0000000000000000     
   2.4621572145686586E-002   2.5868917090997715E-002   0.0000000000000000     
   2.7218976010948678E-002   2.9959784950753056E-002   0.0000000000000000     
   2.9749262465156794E-002   3.4266511969554179E-002   0.0000000000000000     
   3.2212431508310949E-002   3.8789098147401072E-002   0.0000000000000000     
   1.9454422067331528E-002   2.1278049060952473E-002   0.0000000000000000     
   2.1871326701757073E-002   2.5164544616386130E-002   0.0000000000000000     
   2.4227585161282105E-002   2.9266790988002302E-002   0.0000000000000000     
   2.6523197445906616E-002   3.3584788175800982E-002   0.0000000000000000     
   2.8758163555630625E-002   3.8118536179782170E-002   0.0000000000000000     
   1.7116246886275752E-002   2.0668311372590925E-002   0.0000000000000000     
   1.9277545042932751E-002   2.4549356788471872E-002   0.0000000000000000     
   2.1387532397649220E-002   2.8650821042900034E-002   0.0000000000000000     
   2.3446208950425148E-002   3.2972704135875414E-002   0.0000000000000000     
   2.5453574701260539E-002   3.7515006067398021E-002   0.0000000000000000     
   1.4942525326203202E-002   2.0164695325203517E-002   0.0000000000000000     
   1.6840227169213632E-002   2.4023353607254931E-002   0.0000000000000000     
   1.8698817720050026E-002   2.8111875115446248E-002   0.0000000000000000     
   2.0518296978712384E-002   3.2430259849777480E-002   0.0000000000000000     
   2.2298664945200698E-002   3.6978507810248619E-002   0.0000000000000000     
   3.5816378559301525E-002   3.9526691970254726E-002   0.0000000000000000     
   3.8426155987897934E-002   4.4240774929481766E-002   0.0000000000000000     
   4.0942263681836358E-002   4.9144647033786411E-002   0.0000000000000000     
   4.3364701641116811E-002   5.4238308283168647E-002   0.0000000000000000     
   4.5693469865739286E-002   5.9521758677628496E-002   0.0000000000000000     
   3.2212431508310949E-002   3.8789098147401072E-002   0.0000000000000000     
   3.4600912079554964E-002   4.3514759925213822E-002   0.0000000000000000     
   3.6907133118032669E-002   4.8430713743912501E-002   0.0000000000000000     
   3.9131094623744055E-002   5.3536959603497108E-002   0.0000000000000000     
   4.1272796596689129E-002   5.8833497503967644E-002   0.0000000000000000     
   2.8758163555630625E-002   3.8118536179782170E-002   0.0000000000000000     
   3.0926514817421837E-002   4.2855107896794628E-002   0.0000000000000000     
   3.3022282558248003E-002   4.7781576223687110E-002   0.0000000000000000     
   3.5045466778109095E-002   5.2897941160459622E-002   0.0000000000000000     
   3.6996067477005144E-002   5.8204202707112157E-002   0.0000000000000000     
   2.5453574701260539E-002   3.7515006067398021E-002   0.0000000000000000     
   2.7402964201498556E-002   4.2261818844224183E-002   0.0000000000000000     
   2.9287712002482355E-002   4.7197234473110236E-002   0.0000000000000000     
   3.1107818104211950E-002   5.2321252954056187E-002   0.0000000000000000     
   3.2863282506687311E-002   5.7633874287062029E-002   0.0000000000000000     
   2.2298664945200698E-002   3.6978507810248619E-002   0.0000000000000000     
   2.4030260231785113E-002   4.1734892767502474E-002   0.0000000000000000     
   2.5703421450735741E-002   4.6677688492181880E-002   0.0000000000000000     
   2.7318148602052589E-002   5.1806894984286797E-002   0.0000000000000000     
   2.8874441685735656E-002   5.7122512243817251E-002   0.0000000000000000     
   4.5693469865739286E-002   5.9521758677628496E-002   0.0000000000000000     
   4.7961770323678418E-002   6.5000399745318405E-002   0.0000000000000000     
   5.0202804982908841E-002   7.0679633014390841E-002   0.0000000000000000     
   5.2416573843430549E-002   7.6559458484845841E-002   0.0000000000000000     
   5.4603076905243568E-002   8.2639876156683362E-002   0.0000000000000000     
   4.1272796596689129E-002   5.8833497503967644E-002   0.0000000000000000     
   4.3360434415847582E-002   6.4328666151168168E-002   0.0000000000000000     
   4.5422203460199109E-002   7.0030804250942671E-002   0.0000000000000000     
   4.7458103729743698E-002   7.5939911803291141E-002   0.0000000000000000     
   4.9468135224481354E-002   8.2055988808213631E-002   0.0000000000000000     
   3.6996067477005144E-002   5.8204202707112157E-002   0.0000000000000000     
   3.8898379032675776E-002   6.3711728546377355E-002   0.0000000000000000     
   4.0776695822860656E-002   6.9431886360987793E-002   0.0000000000000000     
   4.2631017847559786E-002   7.5364676150943513E-002   0.0000000000000000     
   4.4461345106773180E-002   8.1510097916244501E-002   0.0000000000000000     
   3.2863282506687311E-002   5.7633874287062029E-002   0.0000000000000000     
   3.4575604174163006E-002   6.3149586930945995E-002   0.0000000000000000     
   3.6266282070893503E-002   6.8882879344526290E-002   0.0000000000000000     
   3.7935316196878850E-002   7.4833751527802944E-002   0.0000000000000000     
   3.9582706552119019E-002   8.1002203480775928E-002   0.0000000000000000     
   2.8874441685735656E-002   5.7122512243817251E-002   0.0000000000000000     
   3.0392109840309246E-002   6.2642241304874099E-002   0.0000000000000000     
   3.1890962204297643E-002   6.8383783201558149E-002   0.0000000000000000     
   3.3370998777700854E-002   7.4347137933869462E-002   0.0000000000000000     
   3.4832219560518886E-002   8.0532305501807969E-002   0.0000000000000000     
   5.4603076905243568E-002   8.2639876156683362E-002   0.0000000000000000     
   5.6727757872934957E-002   8.8900710546740896E-002   0.0000000000000000     
   5.8756060451091822E-002   9.5321786171855924E-002   0.0000000000000000     
   6.0687984639714171E-002  0.10190310303202844        0.0000000000000000     
   6.2523530438801989E-002  0.10864466112725846        0.0000000000000000     
   4.9468135224481354E-002   8.2055988808213631E-002   0.0000000000000000     
   5.1420528527235471E-002   8.8354061154258451E-002   0.0000000000000000     
   5.3283514220829435E-002   9.4809154729973935E-002   0.0000000000000000     
   5.5057092305263240E-002  0.10142126953536010        0.0000000000000000     
   5.6741262780536914E-002  0.10819040557041691        0.0000000000000000     
   4.4461345106773180E-002   8.1510097916244501E-002   0.0000000000000000     
   4.6238664631767123E-002   8.7838873423460945E-002   0.0000000000000000     
   4.7933963453807946E-002   9.4321724439163118E-002   0.0000000000000000     
   4.9547241572895639E-002  0.10095865096335098        0.0000000000000000     
   5.1078498989030219E-002  0.10774965299602457        0.0000000000000000     
   3.9582706552119019E-002   8.1002203480775928E-002   0.0000000000000000     
   4.1182166186529888E-002   8.7355147354348406E-002   0.0000000000000000     
   4.2707408150027326E-002   9.3859495299423445E-002   0.0000000000000000     
   4.4158432442611341E-002  0.10051524731600114        0.0000000000000000     
   4.5535239064281932E-002  0.10732240340408143        0.0000000000000000     
   3.4832219560518886E-002   8.0532305501807969E-002   0.0000000000000000     
   3.6251033191523785E-002   8.6902882946920806E-002   0.0000000000000000     
   3.7603848309487611E-002   9.3422467310754986E-002   0.0000000000000000     
   3.8890664914410358E-002  0.10009105859331058        0.0000000000000000     
   4.0111483006292033E-002  0.10690865679458751        0.0000000000000000     
   6.2523530438801989E-002  0.10864466112725846        0.0000000000000000     
   6.4226080375317005E-002  0.11549017707065540        0.0000000000000000     
   6.5759016976220885E-002  0.12238336747532869        0.0000000000000000     
   6.7122340241513673E-002  0.12932423234127835        0.0000000000000000     
   6.8316050171195339E-002  0.13631277166850433        0.0000000000000000     
   5.6741262780536914E-002  0.10819040557041691        0.0000000000000000     
   5.8302878138273520E-002  0.11505426660639786        0.0000000000000000     
   5.9708790870096215E-002  0.12195055641455640        0.0000000000000000     
   6.0959000976004964E-002  0.12887927499489257        0.0000000000000000     
   6.2053508455999787E-002  0.13584042234740629        0.0000000000000000     
   5.1078498989030219E-002  0.10774965299602457        0.0000000000000000     
   5.2497777466343494E-002  0.11462841942649500        0.0000000000000000     
   5.3775118768967289E-002  0.12152863914407343        0.0000000000000000     
   5.4910522896901612E-002  0.12845031214875988        0.0000000000000000     
   5.5903989850146441E-002  0.13539343844055432        0.0000000000000000     
   4.5535239064281932E-002  0.10732240340408143        0.0000000000000000     
   4.6810778359526919E-002  0.11421263553094682        0.0000000000000000     
   4.7958000672834136E-002  0.12111761566387978        0.0000000000000000     
   4.8976906004203617E-002  0.12803734380288032        0.0000000000000000     
   4.9867494353635307E-002  0.13497181994794843        0.0000000000000000     
   4.0111483006292033E-002  0.10690865679458751        0.0000000000000000     
   4.1241880817823783E-002  0.11380691491975331        0.0000000000000000     
   4.2257436581696756E-002  0.12071748597397543        0.0000000000000000     
   4.3158150297910952E-002  0.12764036995725386        0.0000000000000000     
   4.3944021966466386E-002  0.13457556686958863        0.0000000000000000     
   6.8316050171195339E-002  0.13631277166850433        0.0000000000000000     
   6.9537271708901796E-002  0.14351222844954084        0.0000000000000000     
   7.0983129798268971E-002  0.15108584567692201        0.0000000000000000     
   7.2653624439296821E-002  0.15903362335064780        0.0000000000000000     
   7.4548755631985361E-002  0.16735556147071828        0.0000000000000000     
   6.2053508455999787E-002  0.13584042234740629        0.0000000000000000     
   6.3186635291126197E-002  0.14305990253142317        0.0000000000000000     
   6.4552703462429695E-002  0.15076361960626883        0.0000000000000000     
   6.6151712969910292E-002  0.15895157357194317        0.0000000000000000     
   6.7983663813567977E-002  0.16762376442844626        0.0000000000000000     
   5.5903989850146441E-002  0.13539343844055432        0.0000000000000000     
   5.6939981017111167E-002  0.14261710354150078        0.0000000000000000     
   5.8202957786205135E-002  0.15038039297364342        0.0000000000000000     
   5.9692920157428393E-002  0.15868330673698214        0.0000000000000000     
   6.1409868130780892E-002  0.16752584483151700        0.0000000000000000     
   4.9867494353635307E-002  0.13497181994794843        0.0000000000000000     
   5.0797308886856719E-002  0.14218383147977373        0.0000000000000000     
   5.1933892769595320E-002  0.14993616577904584        0.0000000000000000     
   5.3277246001851117E-002  0.15822882284576481        0.0000000000000000     
   5.4827368583624081E-002  0.16706180267993045        0.0000000000000000     
   4.3944021966466386E-002  0.13457556686958863        0.0000000000000000     
   4.4758618900362868E-002  0.14176008634624196        0.0000000000000000     
   4.5745508412600222E-002  0.14943093802247606        0.0000000000000000     
   4.6904690503178449E-002  0.15758812189829094        0.0000000000000000     
   4.8236165172097563E-002  0.16623163797368665        0.0000000000000000     
   0.0000000000000000        0.0000000000000000        0.0000000000000000     
   1.7975830047697742E-003   1.2760535953875508E-003   0.0000000000000000     
   3.6199746494925997E-003   2.9383318380762783E-003   0.0000000000000000     
   5.4671749341684743E-003   4.9868347280661836E-003   0.0000000000000000     
   7.3391838587974004E-003   7.4215622653572653E-003   0.0000000000000000     
   0.0000000000000000        0.0000000000000000        0.0000000000000000     
   1.5342941117516189E-003   1.2170796920752194E-003   0.0000000000000000     
   3.0979434995964598E-003   2.8206086017280264E-003   0.0000000000000000     
   4.6909481635345231E-003   4.8105867289584209E-003   0.0000000000000000     
   6.3133081035658088E-003   7.1870140737664012E-003   0.0000000000000000     
   0.0000000000000000        0.0000000000000000        0.0000000000000000     
   1.2871272440058974E-003   1.1697723460990059E-003   0.0000000000000000     
   2.6041083301122665E-003   2.7248473595087429E-003   0.0000000000000000     
   3.9509432583191067E-003   4.6652250402292109E-003   0.0000000000000000     
   5.3276320286264195E-003   6.9909053882604094E-003   0.0000000000000000     
   0.0000000000000000        0.0000000000000000        0.0000000000000000     
   1.0560824015326102E-003   1.1341315574589107E-003   0.0000000000000000     
   2.1384691410400191E-003   2.6510481114184288E-003   0.0000000000000000     
   3.2471602185222262E-003   4.5507496618785535E-003   0.0000000000000000     
   4.3821556339792324E-003   6.8332362088392891E-003   0.0000000000000000     
   0.0000000000000000        0.0000000000000000        0.0000000000000000     
   8.4115958433175688E-004   1.1101573261549326E-003   0.0000000000000000     
   1.7010259323797172E-003   2.5992108574570839E-003   0.0000000000000000     
   2.5795990441438814E-003   4.4671605939064531E-003   0.0000000000000000     
   3.4768789196242484E-003   6.7140065355030401E-003   0.0000000000000000     
   7.3391838587974004E-003   7.4215622653572653E-003   0.0000000000000000     
   9.2277026339643523E-003   1.0188887977303912E-002   0.0000000000000000     
   1.1124432470254303E-002   1.3235185391260500E-002   0.0000000000000000     
   1.3029373367667251E-002   1.6560454507227037E-002   0.0000000000000000     
   1.4942525326203202E-002   2.0164695325203517E-002   0.0000000000000000     
   6.3133081035658088E-003   7.1870140737664012E-003   0.0000000000000000     
   7.9518080778438870E-003   9.8991884029402972E-003   0.0000000000000000     
   9.5932328445223255E-003   1.2896407483268436E-002   0.0000000000000000     
   1.1237582403601129E-002   1.6178671314750818E-002   0.0000000000000000     
   1.2884856755080294E-002   1.9745979897387446E-002   0.0000000000000000     
   5.3276320286264195E-003   6.9909053882604094E-003   0.0000000000000000     
   6.7192943291600202E-003   9.6546565669928010E-003   0.0000000000000000     
   8.1110498480457278E-003   1.2609246739816848E-002   0.0000000000000000     
   9.5028985852835379E-003   1.5854675906732549E-002   0.0000000000000000     
   1.0894840540873455E-002   1.9390944067739904E-002   0.0000000000000000     
   4.3821556339792324E-003   6.8332362088392891E-003   0.0000000000000000     
   5.5301613879127527E-003   9.4552924694614199E-003   0.0000000000000000     
   6.6778834808245008E-003   1.2373703160905731E-002   0.0000000000000000     
   7.8253219127144783E-003   1.5588468283172225E-002   0.0000000000000000     
   8.9724766835826836E-003   1.9099587836260909E-002   0.0000000000000000     
   3.4768789196242484E-003   6.7140065355030401E-003   0.0000000000000000     
   4.3844092541020846E-003   9.3010961103461506E-003   0.0000000000000000     
   5.2937337428586506E-003   1.2189776746535088E-002   0.0000000000000000     
   6.2048523858939508E-003   1.5380048444069851E-002   0.0000000000000000     
   7.1177651832079816E-003   1.8871911202950443E-002   0.0000000000000000     
   1.4942525326203202E-002   2.0164695325203517E-002   0.0000000000000000     
   1.6840227169213632E-002   2.4023353607254931E-002   0.0000000000000000     
   1.8698817720050026E-002   2.8111875115446248E-002   0.0000000000000000     
   2.0518296978712384E-002   3.2430259849777480E-002   0.0000000000000000     
   2.2298664945200698E-002   3.6978507810248619E-002   0.0000000000000000     
   1.2884856755080294E-002   1.9745979897387446E-002   0.0000000000000000     
   1.4520077840141556E-002   2.3576076184128419E-002   0.0000000000000000     
   1.6128267599966644E-002   2.7646703127923840E-002   0.0000000000000000     
   1.7709426034555564E-002   3.1957860728773727E-002   0.0000000000000000     
   1.9263553143908315E-002   3.6509548986678061E-002   0.0000000000000000     
   1.0894840540873455E-002   1.9390944067739904E-002   0.0000000000000000     
   1.2277801815258380E-002   2.3197065630485451E-002   0.0000000000000000     
   1.3642708508881213E-002   2.7252055002615721E-002   0.0000000000000000     
   1.4989560621741950E-002   3.1555912184130716E-002   0.0000000000000000     
   1.6318358153840602E-002   3.6108637175030427E-002   0.0000000000000000     
   8.9724766835826836E-003   1.9099587836260909E-002   0.0000000000000000     
   1.0113399094564105E-002   2.2886321946326036E-002   0.0000000000000000     
   1.1242140446793721E-002   2.6927930739521877E-002   0.0000000000000000     
   1.2358700740271540E-002   3.1224414215848449E-002   0.0000000000000000     
   1.3463079974997554E-002   3.5775772375305728E-002   0.0000000000000000     
   7.1177651832079816E-003   1.8871911202950443E-002   0.0000000000000000     
   8.0268696780587297E-003   2.2643845131650166E-002   0.0000000000000000     
   8.9265634137041788E-003   2.6674330338642322E-002   0.0000000000000000     
   9.8168463901443272E-003   3.0963366823926922E-002   0.0000000000000000     
   1.0697718607379177E-002   3.5510954587503953E-002   0.0000000000000000     
   2.2298664945200698E-002   3.6978507810248619E-002   0.0000000000000000     
   2.4030260231785113E-002   4.1734892767502474E-002   0.0000000000000000     
   2.5703421450735741E-002   4.6677688492181880E-002   0.0000000000000000     
   2.7318148602052589E-002   5.1806894984286797E-002   0.0000000000000000     
   2.8874441685735656E-002   5.7122512243817251E-002   0.0000000000000000     
   1.9263553143908315E-002   3.6509548986678061E-002   0.0000000000000000     
   2.0777880182499705E-002   4.1273713325209085E-002   0.0000000000000000     
   2.2239638404804547E-002   4.6222299167939053E-002   0.0000000000000000     
   2.3648827810822837E-002   5.1355306514867964E-002   0.0000000000000000     
   2.5005448400554575E-002   5.6672735365995791E-002   0.0000000000000000     
   1.6318358153840602E-002   3.6108637175030427E-002   0.0000000000000000     
   1.7615301327860548E-002   4.0877664175923568E-002   0.0000000000000000     
   1.8866590366485178E-002   4.5830427387418812E-002   0.0000000000000000     
   2.0072225269714482E-002   5.0966926809516151E-002   0.0000000000000000     
   2.1232206037548475E-002   5.6287162442215613E-002   0.0000000000000000     
   1.3463079974997554E-002   3.5775772375305728E-002   0.0000000000000000     
   1.4542523667867631E-002   4.0546745319645888E-002   0.0000000000000000     
   1.5584277335777623E-002   4.5502073150621110E-002   0.0000000000000000     
   1.6588340978727537E-002   5.0641755868231379E-002   0.0000000000000000     
   1.7554714596717366E-002   5.5965793472476710E-002   0.0000000000000000     
   1.0697718607379177E-002   3.5510954587503953E-002   0.0000000000000000     
   1.1559547202520958E-002   4.0280956756376080E-002   0.0000000000000000     
   1.2392699312681894E-002   4.5237236457545980E-002   0.0000000000000000     
   1.3197174937861992E-002   5.0379793691013648E-002   0.0000000000000000     
   1.3972974078061246E-002   5.5708628456779083E-002   0.0000000000000000     
   2.8874441685735656E-002   5.7122512243817251E-002   0.0000000000000000     
   3.0392109840309246E-002   6.2642241304874099E-002   0.0000000000000000     
   3.1890962204297643E-002   6.8383783201558149E-002   0.0000000000000000     
   3.3370998777700854E-002   7.4347137933869462E-002   0.0000000000000000     
   3.4832219560518886E-002   8.0532305501807969E-002   0.0000000000000000     
   2.5005448400554575E-002   5.6672735365995791E-002   0.0000000000000000     
   2.6327847035098686E-002   6.2195149578144204E-002   0.0000000000000000     
   2.7634370575554089E-002   6.7943113008134812E-002   0.0000000000000000     
   2.8925019021920788E-002   7.3916625655967613E-002   0.0000000000000000     
   3.0199792374198779E-002   8.0115687521642623E-002   0.0000000000000000     
   2.1232206037548475E-002   5.6287162442215613E-002   0.0000000000000000     
   2.2362766762515491E-002   6.1813769660738892E-002   0.0000000000000000     
   2.3480141537143871E-002   6.7569383840307709E-002   0.0000000000000000     
   2.4584330361433600E-002   7.3554004980922044E-002   0.0000000000000000     
   2.5675333235384699E-002   7.9767633082581918E-002   0.0000000000000000     
   1.7554714596717366E-002   5.5965793472476710E-002   0.0000000000000000     
   1.8496869022559669E-002   6.1498101552658169E-002   0.0000000000000000     
   1.9428275089066978E-002   6.7262595698076869E-002   0.0000000000000000     
   2.0348932796239307E-002   7.3259275908732741E-002   0.0000000000000000     
   2.1258842144076646E-002   7.9488142184625868E-002   0.0000000000000000     
   1.3972974078061246E-002   5.5708628456779083E-002   0.0000000000000000     
   1.4730153815231208E-002   6.1248145253902021E-002   0.0000000000000000     
   1.5478771231323423E-002   6.7022748581442249E-002   0.0000000000000000     
   1.6218826326337893E-002   7.3032438439399716E-002   0.0000000000000000     
   1.6950319100274620E-002   7.9277214827774445E-002   0.0000000000000000     
   3.4832219560518886E-002   8.0532305501807969E-002   0.0000000000000000     
   3.6251033191523785E-002   8.6902882946920806E-002   0.0000000000000000     
   3.7603848309487611E-002   9.3422467310754986E-002   0.0000000000000000     
   3.8890664914410358E-002  0.10009105859331058        0.0000000000000000     
   4.0111483006292033E-002  0.10690865679458751        0.0000000000000000     
   3.0199792374198779E-002   8.0115687521642623E-002   0.0000000000000000     
   3.1437754426105004E-002   8.6501087695417006E-002   0.0000000000000000     
   3.2617968971356395E-002   9.3033615267547984E-002   0.0000000000000000     
   3.3740436009952968E-002   9.9713270238035487E-002   0.0000000000000000     
   3.4805155541894707E-002  0.10654005260687960        0.0000000000000000     
   2.5675333235384699E-002   7.9767633082581918E-002   0.0000000000000000     
   2.6734818669629751E-002   8.6168769094075920E-002   0.0000000000000000     
   2.7744455174801334E-002   9.2715913964192709E-002   0.0000000000000000     
   2.8704242750899469E-002   9.9409067692932215E-002   0.0000000000000000     
   2.9614181397924141E-002  0.10624823028029451        0.0000000000000000     
   2.1258842144076646E-002   7.9488142184625868E-002   0.0000000000000000     
   2.2142225922098017E-002   8.5905927142897548E-002   0.0000000000000000     
   2.2983306919822415E-002   9.2469363400689189E-002   0.0000000000000000     
   2.3782085137249855E-002   9.9178450958000736E-002   0.0000000000000000     
   2.4538560574380329E-002  0.10603318981483224        0.0000000000000000     
   1.6950319100274620E-002   7.9277214827774445E-002   0.0000000000000000     
   1.7659976183509802E-002   8.5712561841881890E-002   0.0000000000000000     
   1.8334524206419636E-002   9.2293963577037424E-002   0.0000000000000000     
   1.8973963169004130E-002   9.9021420033241048E-002   0.0000000000000000     
   1.9578293071263273E-002  0.10589493121049282        0.0000000000000000     
   4.0111483006292033E-002  0.10690865679458751        0.0000000000000000     
   4.1241880817823783E-002  0.11380691491975331        0.0000000000000000     
   4.2257436581696756E-002  0.12071748597397543        0.0000000000000000     
   4.3158150297910952E-002  0.12764036995725386        0.0000000000000000     
   4.3944021966466386E-002  0.13457556686958863        0.0000000000000000     
   3.4805155541894707E-002  0.10654005260687960        0.0000000000000000     
   3.5790567174227690E-002  0.11344568909104483        0.0000000000000000     
   3.6675110513997973E-002  0.12036190640749575        0.0000000000000000     
   3.7458785561205556E-002  0.12728870455623242        0.0000000000000000     
   3.8141592315850445E-002  0.13422608353725476        0.0000000000000000     
   2.9614181397924141E-002  0.10624823028029451        0.0000000000000000     
   3.0456319761732232E-002  0.11316338954295174        0.0000000000000000     
   3.1212706488180610E-002  0.12008453329757618        0.0000000000000000     
   3.1883341577269284E-002  0.12701166154416782        0.0000000000000000     
   3.2468225028998238E-002  0.13394477428272661        0.0000000000000000     
   2.4538560574380329E-002  0.10603318981483224        0.0000000000000000     
   2.5239138580337415E-002  0.11296001627547408        0.0000000000000000     
   2.5870224504244685E-002  0.11988536664421671        0.0000000000000000     
   2.6431818346102146E-002  0.12680924092106008        0.0000000000000000     
   2.6923920105909788E-002  0.13373163910600422        0.0000000000000000     
   1.9578293071263273E-002  0.10589493121049282        0.0000000000000000     
   2.0139023630043242E-002  0.11283556928861185        0.0000000000000000     
   2.0647664562190197E-002  0.11976440644741732        0.0000000000000000     
   2.1104215867704140E-002  0.12668144268690920        0.0000000000000000     
   2.1508677546585080E-002  0.13358667800708754        0.0000000000000000     
   4.3944021966466386E-002  0.13457556686958863        0.0000000000000000     
   4.4758618900362868E-002  0.14176008634624196        0.0000000000000000     
   4.5745508412600222E-002  0.14943093802247606        0.0000000000000000     
   4.6904690503178449E-002  0.15758812189829094        0.0000000000000000     
   4.8236165172097563E-002  0.16623163797368665        0.0000000000000000     
   3.8141592315850445E-002  0.13422608353725476        0.0000000000000000     
   3.8840867619092591E-002  0.14138346827591933        0.0000000000000000     
   3.9673948312091992E-002  0.14897028369758253        0.0000000000000000     
   4.0640834394848627E-002  0.15698652980224448        0.0000000000000000     
   4.1741525867362489E-002  0.16543220658990507        0.0000000000000000     
   3.2468225028998238E-002  0.13394477428272661        0.0000000000000000     
   3.3061011604508930E-002  0.14109157740381958        0.0000000000000000     
   3.3755356064942794E-002  0.14865977679801365        0.0000000000000000     
   3.4551258410299823E-002  0.15664937246530886        0.0000000000000000     
   3.5448718640580031E-002  0.16506036440570515        0.0000000000000000     
   2.6923920105909788E-002  0.13373163910600422        0.0000000000000000     
   2.7419050856611858E-002  0.14088441372994276        0.0000000000000000     
   2.7989731671152620E-002  0.14849941732376945        0.0000000000000000     
   2.8635962549532060E-002  0.15657664988748418        0.0000000000000000     
   2.9357743491750184E-002  0.16511611142108701        0.0000000000000000     
   2.1508677546585080E-002  0.13358667800708754        0.0000000000000000     
   2.1914985375401392E-002  0.14076197725428891        0.0000000000000000     
   2.2377075130721475E-002  0.14848920527484985        0.0000000000000000     
   2.2894946812545326E-002  0.15676836206877037        0.0000000000000000     
   2.3468600420872947E-002  0.16559944763605050        0.0000000000000000     
   0.0000000000000000        0.0000000000000000        0.0000000000000000     
   8.4115958433175688E-004   1.1101573261549326E-003   0.0000000000000000     
   1.7010259323797172E-003   2.5992108574570839E-003   0.0000000000000000     
   2.5795990441438814E-003   4.4671605939064531E-003   0.0000000000000000     
   3.4768789196242484E-003   6.7140065355030401E-003   0.0000000000000000     
   0.0000000000000000        0.0000000000000000        0.0000000000000000     
   6.3344075694774123E-004   1.0942839925687901E-003   0.0000000000000000     
   1.2772028978938609E-003   2.5634616326184159E-003   0.0000000000000000     
   1.9312864228383589E-003   4.4075329201488768E-003   0.0000000000000000     
   2.5956913317812351E-003   6.6264978551601730E-003   0.0000000000000000     
   0.0000000000000000        0.0000000000000000        0.0000000000000000     
   4.2400788392496687E-004   1.0829458970822003E-003   0.0000000000000000     
   8.5242423134494955E-004   2.5379264718961335E-003   0.0000000000000000     
   1.2852490422599480E-003   4.3649417244417989E-003   0.0000000000000000     
   1.7224823166699622E-003   6.5639916547191981E-003   0.0000000000000000     
   0.0000000000000000        0.0000000000000000        0.0000000000000000     
   2.1286096526343371E-004   1.0761430396951628E-003   0.0000000000000000     
   4.2668993273298325E-004   2.5226053752902371E-003   0.0000000000000000     
   6.4148690240864838E-004   4.3393870067852209E-003   0.0000000000000000     
   8.5725187429042929E-004   6.5264879341801144E-003   0.0000000000000000     
   0.0000000000000000        0.0000000000000000        0.0000000000000000     
   9.6314189262924899E-013   1.0738754204076785E-003   0.0000000000000000     
   2.0579619280404471E-012   2.5174983428007253E-003   0.0000000000000000     
   3.2844600520234857E-012   4.3308687671791404E-003   0.0000000000000000     
   4.6426364543137449E-012   6.5139866935429239E-003   0.0000000000000000     
   3.4768789196242484E-003   6.7140065355030401E-003   0.0000000000000000     
   4.3844092541020846E-003   9.3010961103461506E-003   0.0000000000000000     
   5.2937337428586506E-003   1.2189776746535088E-002   0.0000000000000000     
   6.2048523858939508E-003   1.5380048444069851E-002   0.0000000000000000     
   7.1177651832079816E-003   1.8871911202950443E-002   0.0000000000000000     
   2.5956913317812351E-003   6.6264978551601730E-003   0.0000000000000000     
   3.2673373785335842E-003   9.1859351815831037E-003   0.0000000000000000     
   3.9431443169064984E-003   1.2051423643348462E-002   0.0000000000000000     
   4.6231121468999787E-003   1.5222963240456251E-002   0.0000000000000000     
   5.3072408685140258E-003   1.8700553972906472E-002   0.0000000000000000     
   1.7224823166699622E-003   6.5639916547191981E-003   0.0000000000000000     
   2.1642452120128244E-003   9.1036773751083794E-003   0.0000000000000000     
   2.6106588857263678E-003   1.1952599997989397E-002   0.0000000000000000     
   3.0617233378105913E-003   1.5110759523362251E-002   0.0000000000000000     
   3.5174385682654953E-003   1.8578155951226933E-002   0.0000000000000000     
   8.5725187429042929E-004   6.5264879341801144E-003   0.0000000000000000     
   1.0751327545398062E-003   9.0543226909219864E-003   0.0000000000000000     
   1.2962774493182586E-003   1.1893305810457899E-002   0.0000000000000000     
   1.5206859586257870E-003   1.5043437292787849E-002   0.0000000000000000     
   1.7483582824623909E-003   1.8504717137911842E-002   0.0000000000000000     
   4.6426364543137449E-012   6.5139866935429239E-003   0.0000000000000000     
   6.1145278293719962E-012   9.0378711290239177E-003   0.0000000000000000     
   7.6821707971201116E-012   1.1873541080753959E-002   0.0000000000000000     
   9.3455655896451184E-012   1.5020996548733049E-002   0.0000000000000000     
   1.1104711551343516E-011   1.8480237532961189E-002   0.0000000000000000     
   7.1177651832079816E-003   1.8871911202950443E-002   0.0000000000000000     
   8.0268696780587297E-003   2.2643845131650166E-002   0.0000000000000000     
   8.9265634137041788E-003   2.6674330338642322E-002   0.0000000000000000     
   9.8168463901443272E-003   3.0963366823926922E-002   0.0000000000000000     
   1.0697718607379177E-002   3.5510954587503953E-002   0.0000000000000000     
   5.3072408685140258E-003   1.8700553972906472E-002   0.0000000000000000     
   5.9894957506813045E-003   2.2461544674121578E-002   0.0000000000000000     
   6.6638420623344819E-003   2.6483284177524050E-002   0.0000000000000000     
   7.3302798034735571E-003   3.0765772483113882E-002   0.0000000000000000     
   7.9888089740985310E-003   3.5309009590891074E-002   0.0000000000000000     
   3.5174385682654953E-003   1.8578155951226933E-002   0.0000000000000000     
   3.9725594973708776E-003   2.2331330061404024E-002   0.0000000000000000     
   4.4218410454065363E-003   2.6346822633714080E-002   0.0000000000000000     
   4.8652832123724709E-003   3.0624633668157094E-002   0.0000000000000000     
   5.3028859982686815E-003   3.5164763164733076E-002   0.0000000000000000     
   1.7483582824623909E-003   1.8504717137911842E-002   0.0000000000000000     
   1.9760609181274495E-003   2.2253201293497483E-002   0.0000000000000000     
   2.2005603629203416E-003   2.6264945707212387E-002   0.0000000000000000     
   2.4218566168410678E-003   3.0539950379056543E-002   0.0000000000000000     
   2.6399496798896272E-003   3.5078215309029957E-002   0.0000000000000000     
   1.1104711551343516E-011   1.8480237532961189E-002   0.0000000000000000     
   1.2951019380189055E-011   2.2227158370401970E-002   0.0000000000000000     
   1.4875898364692663E-011   2.6237653398018985E-002   0.0000000000000000     
   1.6879348206698744E-011   3.0511722615812236E-002   0.0000000000000000     
   1.8961369366993219E-011   3.5049366023781711E-002   0.0000000000000000     
   1.0697718607379177E-002   3.5510954587503953E-002   0.0000000000000000     
   1.1559547202520958E-002   4.0280956756376080E-002   0.0000000000000000     
   1.2392699312681894E-002   4.5237236457545980E-002   0.0000000000000000     
   1.3197174937861992E-002   5.0379793691013648E-002   0.0000000000000000     
   1.3972974078061246E-002   5.5708628456779083E-002   0.0000000000000000     
   7.9888089740985310E-003   3.5309009590891074E-002   0.0000000000000000     
   8.6335186026570039E-003   4.0076886266753702E-002   0.0000000000000000     
   9.2584977175965786E-003   4.5033293276599828E-002   0.0000000000000000     
   9.8637463189172533E-003   5.0178230620429469E-002   0.0000000000000000     
   1.0449264406619028E-002   5.5511698298242616E-002   0.0000000000000000     
   5.3028859982686815E-003   3.5164763164733076E-002   0.0000000000000000     
   5.7315845391122519E-003   3.9931121631418307E-002   0.0000000000000000     
   6.1483139709202659E-003   4.4887619576189072E-002   0.0000000000000000     
   6.5530742936927237E-003   5.0034256999045380E-002   0.0000000000000000     
   6.9458655074296268E-003   5.5371033899987224E-002   0.0000000000000000     
   2.6399496798896272E-003   3.5078215309029957E-002   0.0000000000000000     
   2.8537450118866986E-003   3.9843662850369922E-002   0.0000000000000000     
   3.0621480726529589E-003   4.4800215356313733E-002   0.0000000000000000     
   3.2651588621884077E-003   4.9947872826861382E-002   0.0000000000000000     
   3.4627773804930470E-003   5.5286635262012884E-002   0.0000000000000000     
   1.8961369366993219E-011   3.5049366023781711E-002   0.0000000000000000     
   2.0980344414903151E-011   3.9814509923608528E-002   0.0000000000000000     
   2.2794655702915168E-011   4.4771080616973782E-002   0.0000000000000000     
   2.4404303393659593E-011   4.9919078103877475E-002   0.0000000000000000     
   2.5809286999245451E-011   5.5258502384319605E-002   0.0000000000000000     
   1.3972974078061246E-002   5.5708628456779083E-002   0.0000000000000000     
   1.4730153815231208E-002   6.1248145253902021E-002   0.0000000000000000     
   1.5478771231323423E-002   6.7022748581442249E-002   0.0000000000000000     
   1.6218826326337893E-002   7.3032438439399716E-002   0.0000000000000000     
   1.6950319100274620E-002   7.9277214827774445E-002   0.0000000000000000     
   1.0449264406619028E-002   5.5511698298242616E-002   0.0000000000000000     
   1.1021676247699803E-002   6.1058182409478134E-002   0.0000000000000000     
   1.1587606109157480E-002   6.6842169053574915E-002   0.0000000000000000     
   1.2147053990992057E-002   7.2863658230532924E-002   0.0000000000000000     
   1.2700019893203537E-002   7.9122649940352174E-002   0.0000000000000000     
   6.9458655074296268E-003   5.5371033899987224E-002   0.0000000000000000     
   7.3304914271351369E-003   6.0922494664394186E-002   0.0000000000000000     
   7.7107558678134206E-003   6.6713183677645893E-002   0.0000000000000000     
   8.0866588294644763E-003   7.2743100939742344E-002   0.0000000000000000     
   8.4582003120883074E-003   7.9012246450683526E-002   0.0000000000000000     
   3.4627773804930470E-003   5.5286635262012884E-002   0.0000000000000000     
   3.6565993535372151E-003   6.0841082018650169E-002   0.0000000000000000     
   3.8482205072912518E-003   6.6635792453655196E-002   0.0000000000000000     
   4.0376408417551564E-003   7.2670766567027964E-002   0.0000000000000000     
   4.2248603569289304E-003   7.8946004358768460E-002   0.0000000000000000     
   2.5809286999245451E-011   5.5258502384319605E-002   0.0000000000000000     
   2.6906034149808133E-011   6.0813944472246070E-002   0.0000000000000000     
   2.7590969439716950E-011   6.6609995381602810E-002   0.0000000000000000     
   2.7864095471057115E-011   7.2646655112389796E-002   0.0000000000000000     
   2.7725409641743415E-011   7.8923923664607029E-002   0.0000000000000000     
   1.6950319100274620E-002   7.9277214827774445E-002   0.0000000000000000     
   1.7659976183509802E-002   8.5712561841881890E-002   0.0000000000000000     
   1.8334524206419636E-002   9.2293963577037424E-002   0.0000000000000000     
   1.8973963169004130E-002   9.9021420033241048E-002   0.0000000000000000     
   1.9578293071263273E-002  0.10589493121049282        0.0000000000000000     
   1.2700019893203537E-002   7.9122649940352174E-002   0.0000000000000000     
   1.3235918998165650E-002   8.5573763238574824E-002   0.0000000000000000     
   1.3744166488252132E-002   9.2171617180743029E-002   0.0000000000000000     
   1.4224762363462980E-002   9.8916211766856721E-002   0.0000000000000000     
   1.4677706623798196E-002  0.10580754699691597        0.0000000000000000     
   8.4582003120883074E-003   7.9012246450683526E-002   0.0000000000000000     
   8.8179039103660935E-003   8.5474621380522323E-002   0.0000000000000000     
   9.1582932189790273E-003   9.2084226899311561E-002   0.0000000000000000     
   9.4793682379271053E-003   9.8841063007051311E-002   0.0000000000000000     
   9.7811289672103275E-003  0.10574512970374150        0.0000000000000000     
   4.2248603569289304E-003   7.8946004358768460E-002   0.0000000000000000     
   4.4059309201111329E-003   8.5415136267724304E-002   0.0000000000000000     
   4.5769043986003217E-003   9.2031792732743103E-002   0.0000000000000000     
   4.7377807923964996E-003   9.8795973753824790E-002   0.0000000000000000     
   4.8885601014996621E-003  0.10570767933096942        0.0000000000000000     
   2.7725409641743415E-011   7.8923923664607029E-002   0.0000000000000000     
   2.7400765901033908E-011   8.5395307900180850E-002   0.0000000000000000     
   2.7116018848707957E-011   9.2014314681037573E-002   0.0000000000000000     
   2.6871164852688284E-011   9.8780944007177157E-002   0.0000000000000000     
   2.6666205701908474E-011  0.10569519587859968        0.0000000000000000     
   1.9578293071263273E-002  0.10589493121049282        0.0000000000000000     
   2.0139023630043242E-002  0.11283556928861185        0.0000000000000000     
   2.0647664562190197E-002  0.11976440644741732        0.0000000000000000     
   2.1104215867704140E-002  0.12668144268690920        0.0000000000000000     
   2.1508677546585080E-002  0.13358667800708754        0.0000000000000000     
   1.4677706623798196E-002  0.10580754699691597        0.0000000000000000     
   1.5099148278767922E-002  0.11276120842402625        0.0000000000000000     
   1.5485236337882295E-002  0.11969278160129296        0.0000000000000000     
   1.5835970801141314E-002  0.12660226652871615        0.0000000000000000     
   1.6151351668544985E-002  0.13348966320629579        0.0000000000000000     
   9.7811289672103275E-003  0.10574512970374150        0.0000000000000000     
   1.0062685894429678E-002  0.11270809352337850        0.0000000000000000     
   1.0323149507186135E-002  0.11964162099995862        0.0000000000000000     
   1.0562519805479698E-002  0.12654571213348181        0.0000000000000000     
   1.0780796789310373E-002  0.13342036692394810        0.0000000000000000     
   4.8885601014996621E-003  0.10570767933096942        0.0000000000000000     
   5.0296364770285049E-003  0.11267622458666869        0.0000000000000000     
   5.1614040701017157E-003  0.11961092464341427        0.0000000000000000     
   5.2838628807192946E-003  0.12651177950120618        0.0000000000000000     
   5.3970129088812425E-003  0.13337878916004445        0.0000000000000000     
   2.6666205701908474E-011  0.10569519587859968        0.0000000000000000     
   2.6564408658891203E-011  0.11266560161389673        0.0000000000000000     
   2.6629041853520885E-011  0.11960069253165993        0.0000000000000000     
   2.6860104418435782E-011  0.12650046863188935        0.0000000000000000     
   2.7257597220997631E-011  0.13336492991458487        0.0000000000000000     
   2.1508677546585080E-002  0.13358667800708754        0.0000000000000000     
   2.1914985375401392E-002  0.14076197725428891        0.0000000000000000     
   2.2377075130721475E-002  0.14848920527484985        0.0000000000000000     
   2.2894946812545326E-002  0.15676836206877037        0.0000000000000000     
   2.3468600420872947E-002  0.16559944763605050        0.0000000000000000     
   1.6151351668544985E-002  0.13348966320629579        0.0000000000000000     
   1.6468960405192544E-002  0.14069191348989721        0.0000000000000000     
   1.6826378476183238E-002  0.14854595923538580        0.0000000000000000     
   1.7223605881517060E-002  0.15705180044276149        0.0000000000000000     
   1.7660642621194021E-002  0.16620943711202429        0.0000000000000000     
   1.0780796789310373E-002  0.13342036692394810        0.0000000000000000     
   1.1001121190300337E-002  0.14064186794980701        0.0000000000000000     
   1.1246633740071781E-002  0.14858649778950817        0.0000000000000000     
   1.1517334438624700E-002  0.15725425644305149        0.0000000000000000     
   1.1813223285959098E-002  0.16664514391043705        0.0000000000000000     
   5.3970129088812425E-003  0.13337878916004445        0.0000000000000000     
   5.5114677307247758E-003  0.14061184063401827        0.0000000000000000     
   5.6378409223871093E-003  0.14861082093721692        0.0000000000000000     
   5.7761324838682447E-003  0.15737573006964042        0.0000000000000000     
   5.9263424151681805E-003  0.16690656803128867        0.0000000000000000     
   2.7257597220997631E-011  0.13336492991458487        0.0000000000000000     
   2.6465857283497485E-011  0.14060183154253098        0.0000000000000000     
   2.3129222061907262E-011  0.14861892867851209        0.0000000000000000     
   1.7247691447806746E-011  0.15741622132252819        0.0000000000000000     
   8.8212666338183254E-012  0.16699370947457925        0.0000000000000000     
   0.0000000000000000        0.0000000000000000        0.0000000000000000     
   9.6314189262924899E-013   1.0738754204076785E-003   0.0000000000000000     
   2.0579619280404471E-012   2.5174983428007253E-003   0.0000000000000000     
   3.2844600520234857E-012   4.3308687671791404E-003   0.0000000000000000     
   4.6426364543137449E-012   6.5139866935429239E-003   0.0000000000000000     
   0.0000000000000000        0.0000000000000000        0.0000000000000000     
  -2.1286096336949804E-004   1.0761430392335696E-003   0.0000000000000000     
  -4.2668992868535719E-004   2.5226053744519575E-003   0.0000000000000000     
  -6.4148689594757777E-004   4.3393870056551622E-003   0.0000000000000000     
  -8.5725186515615956E-004   6.5264879328431865E-003   0.0000000000000000     
   0.0000000000000000        0.0000000000000000        0.0000000000000000     
  -4.2400788212807524E-004   1.0829458961866601E-003   0.0000000000000000     
  -8.5242422750221732E-004   2.5379264702682903E-003   0.0000000000000000     
  -1.2852490361224263E-003   4.3649417222448922E-003   0.0000000000000000     
  -1.7224823079887020E-003   6.5639916521164640E-003   0.0000000000000000     
   0.0000000000000000        0.0000000000000000        0.0000000000000000     
  -6.3344075531258990E-004   1.0942839912669493E-003   0.0000000000000000     
  -1.2772028943926186E-003   2.5634616302497252E-003   0.0000000000000000     
  -1.9312864172400855E-003   4.4075329169483268E-003   0.0000000000000000     
  -2.5956913238549917E-003   6.6264978513627558E-003   0.0000000000000000     
   0.0000000000000000        0.0000000000000000        0.0000000000000000     
  -8.4115958292304194E-004   1.1101573244744381E-003   0.0000000000000000     
  -1.7010259293565606E-003   2.5992108543962610E-003   0.0000000000000000     
  -2.5795990393005551E-003   4.4671605897654686E-003   0.0000000000000000     
  -3.4768789127550270E-003   6.7140065305820625E-003   0.0000000000000000     
   4.6426364543137449E-012   6.5139866935429239E-003   0.0000000000000000     
   6.1145278293719962E-012   9.0378711290239177E-003   0.0000000000000000     
   7.6821707971201116E-012   1.1873541080753959E-002   0.0000000000000000     
   9.3455655896451184E-012   1.5020996548733049E-002   0.0000000000000000     
   1.1104711551343516E-011   1.8480237532961189E-002   0.0000000000000000     
  -8.5725186515615956E-004   6.5264879328431865E-003   0.0000000000000000     
  -1.0751327425074428E-003   9.0543226894513919E-003   0.0000000000000000     
  -1.2962774341977680E-003   1.1893305808915140E-002   0.0000000000000000     
  -1.5206859402271352E-003   1.5043437291234434E-002   0.0000000000000000     
  -1.7483582605955443E-003   1.8504717136409270E-002   0.0000000000000000     
  -1.7224823079887020E-003   6.5639916521164640E-003   0.0000000000000000     
  -2.1642452005705389E-003   9.1036773722416274E-003   0.0000000000000000     
  -2.6106588713374311E-003   1.1952599994979000E-002   0.0000000000000000     
  -3.0617233202893772E-003   1.5110759520328592E-002   0.0000000000000000     
  -3.5174385474263789E-003   1.8578155948290393E-002   0.0000000000000000     
  -2.5956913238549917E-003   6.6264978513627558E-003   0.0000000000000000     
  -3.2673373680747603E-003   9.1859351773946225E-003   0.0000000000000000     
  -3.9431443037368169E-003   1.2051423638945544E-002   0.0000000000000000     
  -4.6231121308411612E-003   1.5222963236015515E-002   0.0000000000000000     
  -5.3072408493877923E-003   1.8700553968604542E-002   0.0000000000000000     
  -3.4768789127550270E-003   6.7140065305820625E-003   0.0000000000000000     
  -4.3844092450201072E-003   9.3010961049103807E-003   0.0000000000000000     
  -5.2937337313959257E-003   1.2189776740814765E-002   0.0000000000000000     
  -6.2048523718824852E-003   1.5380048438295213E-002   0.0000000000000000     
  -7.1177651664797847E-003   1.8871911197351730E-002   0.0000000000000000     
   1.1104711551343516E-011   1.8480237532961189E-002   0.0000000000000000     
   1.2951019380189055E-011   2.2227158370401970E-002   0.0000000000000000     
   1.4875898364692663E-011   2.6237653398018985E-002   0.0000000000000000     
   1.6879348206698744E-011   3.0511722615812236E-002   0.0000000000000000     
   1.8961369366993219E-011   3.5049366023781711E-002   0.0000000000000000     
  -1.7483582605955443E-003   1.8504717136409270E-002   0.0000000000000000     
  -1.9760608926203058E-003   2.2253201292149610E-002   0.0000000000000000     
  -2.2005603336187314E-003   2.6264945706165402E-002   0.0000000000000000     
  -2.4218565835908202E-003   3.0539950378456641E-002   0.0000000000000000     
  -2.6399496425365725E-003   3.5078215309023338E-002   0.0000000000000000     
  -3.5174385474263789E-003   1.8578155948290393E-002   0.0000000000000000     
  -3.9725594730484204E-003   2.2331330058772535E-002   0.0000000000000000     
  -4.4218410174554834E-003   2.6346822631683156E-002   0.0000000000000000     
  -4.8652831806475704E-003   3.0624633667022252E-002   0.0000000000000000     
  -5.3028859626246807E-003   3.5164763164789829E-002   0.0000000000000000     
  -5.3072408493877923E-003   1.8700553968604542E-002   0.0000000000000000     
  -5.9894957283333217E-003   2.2461544670270742E-002   0.0000000000000000     
  -6.6638420366343584E-003   2.6483284174572252E-002   0.0000000000000000     
  -7.3302797742909017E-003   3.0765772481509069E-002   0.0000000000000000     
  -7.9888089413029523E-003   3.5309009591081186E-002   0.0000000000000000     
  -7.1177651664797847E-003   1.8871911197351730E-002   0.0000000000000000     
  -8.0268696584750113E-003   2.2643845126644243E-002   0.0000000000000000     
  -8.9265633911553548E-003   2.6674330334832696E-002   0.0000000000000000     
  -9.8168463645208152E-003   3.0963366821917079E-002   0.0000000000000000     
  -1.0697718578571391E-002   3.5510954587897402E-002   0.0000000000000000     
   1.8961369366993219E-011   3.5049366023781711E-002   0.0000000000000000     
   2.0980344414903151E-011   3.9814509923608528E-002   0.0000000000000000     
   2.2794655702915168E-011   4.4771080616973782E-002   0.0000000000000000     
   2.4404303393659593E-011   4.9919078103877475E-002   0.0000000000000000     
   2.5809286999245451E-011   5.5258502384319605E-002   0.0000000000000000     
  -2.6399496425365725E-003   3.5078215309023338E-002   0.0000000000000000     
  -2.8537449705597195E-003   3.9843662851159818E-002   0.0000000000000000     
  -3.0621480277639901E-003   4.4800215358160415E-002   0.0000000000000000     
  -3.2651588141493844E-003   4.9947872830025129E-002   0.0000000000000000     
  -3.4627773297159024E-003   5.5286635266753967E-002   0.0000000000000000     
  -5.3028859626246807E-003   3.5164763164789829E-002   0.0000000000000000     
  -5.7315844996864030E-003   3.9931121633049488E-002   0.0000000000000000     
  -6.1483139281323261E-003   4.4887619579864826E-002   0.0000000000000000     
  -6.5530742479624491E-003   5.0034257005235845E-002   0.0000000000000000     
  -6.9458654591767737E-003   5.5371033909162551E-002   0.0000000000000000     
  -7.9888089413029523E-003   3.5309009591081186E-002   0.0000000000000000     
  -8.6335185663997064E-003   4.0076886269277516E-002   0.0000000000000000     
  -9.2584976783103498E-003   4.5033293282087002E-002   0.0000000000000000     
  -9.8637462770348912E-003   5.0178230629509608E-002   0.0000000000000000     
  -1.0449264362573322E-002   5.5511698311545350E-002   0.0000000000000000     
  -1.0697718578571391E-002   3.5510954587897402E-002   0.0000000000000000     
  -1.1559547170699626E-002   4.0280956759843931E-002   0.0000000000000000     
  -1.2392699278298069E-002   4.5237236464826927E-002   0.0000000000000000     
  -1.3197174901366708E-002   5.0379793702846412E-002   0.0000000000000000     
  -1.3972974039905550E-002   5.5708628473902358E-002   0.0000000000000000     
   2.5809286999245451E-011   5.5258502384319605E-002   0.0000000000000000     
   2.6906034149808133E-011   6.0813944472246070E-002   0.0000000000000000     
   2.7590969439716950E-011   6.6609995381602810E-002   0.0000000000000000     
   2.7864095471057115E-011   7.2646655112389796E-002   0.0000000000000000     
   2.7725409641743415E-011   7.8923923664607029E-002   0.0000000000000000     
  -3.4627773297159024E-003   5.5286635266753967E-002   0.0000000000000000     
  -3.6565993006438058E-003   6.0841082024960288E-002   0.0000000000000000     
  -3.8482204531133518E-003   6.6635792461257504E-002   0.0000000000000000     
  -4.0376407871245456E-003   7.2670766575645571E-002   0.0000000000000000     
  -4.2248603026773827E-003   7.8946004368124517E-002   0.0000000000000000     
  -6.9458654591767737E-003   5.5371033909162551E-002   0.0000000000000000     
  -7.3304913769977028E-003   6.0922494676571182E-002   0.0000000000000000     
  -7.7107558166476459E-003   6.6713183692388031E-002   0.0000000000000000     
  -8.0866587781266014E-003   7.2743100956613058E-002   0.0000000000000000     
  -8.4582002614345710E-003   7.9012246469246261E-002   0.0000000000000000     
  -1.0449264362573322E-002   5.5511698311545350E-002   0.0000000000000000     
  -1.1021676202155656E-002   6.1058182427078757E-002   0.0000000000000000     
  -1.1587606063011907E-002   6.6842169074994393E-002   0.0000000000000000     
  -1.2147053945142074E-002   7.2863658255292230E-002   0.0000000000000000     
  -1.2700019848546155E-002   7.9122649967972275E-002   0.0000000000000000     
  -1.3972974039905550E-002   5.5708628473902358E-002   0.0000000000000000     
  -1.4730153776117671E-002   6.1248145276483021E-002   0.0000000000000000     
  -1.5478771192206140E-002   6.7022748609076602E-002   0.0000000000000000     
  -1.6218826288170965E-002   7.3032438471683087E-002   0.0000000000000000     
  -1.6950319064012138E-002   7.9277214864302517E-002   0.0000000000000000     
   2.7725409641743415E-011   7.8923923664607029E-002   0.0000000000000000     
   2.7400765901033908E-011   8.5395307900180850E-002   0.0000000000000000     
   2.7116018848707957E-011   9.2014314681037573E-002   0.0000000000000000     
   2.6871164852688284E-011   9.8780944007177157E-002   0.0000000000000000     
   2.6666205701908474E-011  0.10569519587859968        0.0000000000000000     
  -4.2248603026773827E-003   7.8946004368124517E-002   0.0000000000000000     
  -4.4059308666355114E-003   8.5415136277894932E-002   0.0000000000000000     
  -4.5769043458625787E-003   9.2031792744157362E-002   0.0000000000000000     
  -4.7377807403585857E-003   9.8795973766911779E-002   0.0000000000000000     
  -4.8885600501235313E-003  0.10570767934615827        0.0000000000000000     
  -8.4582002614345710E-003   7.9012246469246261E-002   0.0000000000000000     
  -8.8179038608682033E-003   8.5474621400869574E-002   0.0000000000000000     
  -9.1582931707241619E-003   9.2084226922064791E-002   0.0000000000000000     
  -9.4793681910024345E-003   9.8841063032831980E-002   0.0000000000000000     
  -9.7811289217030299E-003  0.10574512973317107        0.0000000000000000     
  -1.2700019848546155E-002   7.9122649967972275E-002   0.0000000000000000     
  -1.3235918955297318E-002   8.5573763269104750E-002   0.0000000000000000     
  -1.3744166447468727E-002   9.2171617214759888E-002   0.0000000000000000     
  -1.4224762325060383E-002   9.8916211804937676E-002   0.0000000000000000     
  -1.4677706588072291E-002  0.10580754703963814        0.0000000000000000     
  -1.6950319064012138E-002   7.9277214864302517E-002   0.0000000000000000     
  -1.7659976149922846E-002   8.5712561882600499E-002   0.0000000000000000     
  -1.8334524176096278E-002   9.2293963622242639E-002   0.0000000000000000     
  -1.8973963142532434E-002   9.9021420083228950E-002   0.0000000000000000     
  -1.9578293049231314E-002  0.10589493126555945        0.0000000000000000     
   2.6666205701908474E-011  0.10569519587859968        0.0000000000000000     
   2.6564408658891203E-011  0.11266560161389673        0.0000000000000000     
   2.6629041853520885E-011  0.11960069253165993        0.0000000000000000     
   2.6860104418435782E-011  0.12650046863188935        0.0000000000000000     
   2.7257597220997631E-011  0.13336492991458487        0.0000000000000000     
  -4.8885600501235313E-003  0.10570767934615827        0.0000000000000000     
  -5.0296364261156008E-003  0.11267622460429888        0.0000000000000000     
  -5.1614040192929801E-003  0.11961092466373580        0.0000000000000000     
  -5.2838628296556734E-003  0.12651177952446901        0.0000000000000000     
  -5.3970128572036731E-003  0.13337878918649854        0.0000000000000000     
  -9.7811289217030299E-003  0.10574512973317107        0.0000000000000000     
  -1.0062685850164508E-002  0.11270809355711137        0.0000000000000000     
  -1.0323149463725445E-002  0.11964162103868205        0.0000000000000000     
  -1.0562519762385833E-002  0.12654571217788316        0.0000000000000000     
  -1.0780796746145672E-002  0.13342036697471465        0.0000000000000000     
  -1.4677706588072291E-002  0.10580754703963814        0.0000000000000000     
  -1.5099148245582322E-002  0.11276120847233417        0.0000000000000000     
  -1.5485236306668345E-002  0.11969278165649869        0.0000000000000000     
  -1.5835970771330379E-002  0.12660226659213170        0.0000000000000000     
  -1.6151351639568406E-002  0.13348966327923323        0.0000000000000000     
  -1.9578293049231314E-002  0.10589493126555945        0.0000000000000000     
  -2.0139023612369029E-002  0.11283556934996730        0.0000000000000000     
  -2.0647664548121693E-002  0.11976440651718571        0.0000000000000000     
  -2.1104215856489306E-002  0.12668144276721469        0.0000000000000000     
  -2.1508677537471866E-002  0.13358667810005423        0.0000000000000000     
   2.7257597220997631E-011  0.13336492991458487        0.0000000000000000     
   2.6465857283497485E-011  0.14060183154253098        0.0000000000000000     
   2.3129222061907262E-011  0.14861892867851209        0.0000000000000000     
   1.7247691447806746E-011  0.15741622132252819        0.0000000000000000     
   8.8212666338183254E-012  0.16699370947457925        0.0000000000000000     
  -5.3970128572036731E-003  0.13337878918649854        0.0000000000000000     
  -5.5114676807098010E-003  0.14061184067264099        0.0000000000000000     
  -5.6378408789468752E-003  0.14861082100571293        0.0000000000000000     
  -5.7761324519148977E-003  0.15737573018571444        0.0000000000000000     
  -5.9263423996138657E-003  0.16690656821264541        0.0000000000000000     
  -1.0780796746145672E-002  0.13342036697471465        0.0000000000000000     
  -1.1001121149035583E-002  0.14064186802164402        0.0000000000000000     
  -1.1246633705086181E-002  0.14858649791113868        0.0000000000000000     
  -1.1517334414297463E-002  0.15725425664319859        0.0000000000000000     
  -1.1813223276669435E-002  0.16664514421782389        0.0000000000000000     
  -1.6151351639568406E-002  0.13348966327923323        0.0000000000000000     
  -1.6468960378511491E-002  0.14069191358954014        0.0000000000000000     
  -1.6826378455288692E-002  0.14854595939478932        0.0000000000000000     
  -1.7223605869900013E-002  0.15705180069498087        0.0000000000000000     
  -1.7660642622345443E-002  0.16620943749011466        0.0000000000000000     
  -2.1508677537471866E-002  0.13358667810005423        0.0000000000000000     
  -2.1914985369137521E-002  0.14076197737632928        0.0000000000000000     
  -2.2377075129554409E-002  0.14848920545666494        0.0000000000000000     
  -2.2894946818722534E-002  0.15676836234106106        0.0000000000000000     
  -2.3468600436641892E-002  0.16559944802951776        0.0000000000000000     
   0.0000000000000000        0.0000000000000000        0.0000000000000000     
  -8.4115958292304194E-004   1.1101573244744381E-003   0.0000000000000000     
  -1.7010259293565606E-003   2.5992108543962610E-003   0.0000000000000000     
  -2.5795990393005551E-003   4.4671605897654686E-003   0.0000000000000000     
  -3.4768789127550270E-003   6.7140065305820625E-003   0.0000000000000000     
   0.0000000000000000        0.0000000000000000        0.0000000000000000     
  -1.0560824004017984E-003   1.1341315554441926E-003   0.0000000000000000     
  -2.1384691386029699E-003   2.6510481077464754E-003   0.0000000000000000     
  -3.2471602146035140E-003   4.5507496569068473E-003   0.0000000000000000     
  -4.3821556284034313E-003   6.8332362029253088E-003   0.0000000000000000     
   0.0000000000000000        0.0000000000000000        0.0000000000000000     
  -1.2871272431912262E-003   1.1697723438112808E-003   0.0000000000000000     
  -2.6041083283407734E-003   2.7248473553389435E-003   0.0000000000000000     
  -3.9509432554486390E-003   4.6652250345829904E-003   0.0000000000000000     
  -5.3276320245148256E-003   6.9909053815434170E-003   0.0000000000000000     
   0.0000000000000000        0.0000000000000000        0.0000000000000000     
  -1.5342941112913256E-003   1.2170796895757019E-003   0.0000000000000000     
  -3.0979434985699689E-003   2.8206085971736682E-003   0.0000000000000000     
  -4.6909481618359304E-003   4.8105867227938980E-003   0.0000000000000000     
  -6.3133081010892100E-003   7.1870140664363905E-003   0.0000000000000000     
   0.0000000000000000        0.0000000000000000        0.0000000000000000     
  -1.7975830047020961E-003   1.2760535927374569E-003   0.0000000000000000     
  -3.6199746492905594E-003   2.9383318332506471E-003   0.0000000000000000     
  -5.4671749337653879E-003   4.9868347215395693E-003   0.0000000000000000     
  -7.3391838581265854E-003   7.4215622576042266E-003   0.0000000000000000     
  -3.4768789127550270E-003   6.7140065305820625E-003   0.0000000000000000     
  -4.3844092450201072E-003   9.3010961049103807E-003   0.0000000000000000     
  -5.2937337313959257E-003   1.2189776740814765E-002   0.0000000000000000     
  -6.2048523718824852E-003   1.5380048438295213E-002   0.0000000000000000     
  -7.1177651664797847E-003   1.8871911197351730E-002   0.0000000000000000     
  -4.3821556284034313E-003   6.8332362029253088E-003   0.0000000000000000     
  -5.5301613805165970E-003   9.4552924629222219E-003   0.0000000000000000     
  -6.6778834714568891E-003   1.2373703154017947E-002   0.0000000000000000     
  -7.8253219012243049E-003   1.5588468276212486E-002   0.0000000000000000     
  -8.9724766698188428E-003   1.9099587829505837E-002   0.0000000000000000     
  -5.3276320245148256E-003   6.9909053815434170E-003   0.0000000000000000     
  -6.7192943236742504E-003   9.6546565595634643E-003   0.0000000000000000     
  -8.1110498410618299E-003   1.2609246731986374E-002   0.0000000000000000     
  -9.5028985766775660E-003   1.5854675898812138E-002   0.0000000000000000     
  -1.0894840530521458E-002   1.9390944060040757E-002   0.0000000000000000     
  -6.3133081010892100E-003   7.1870140664363905E-003   0.0000000000000000     
  -7.9518080744930657E-003   9.8991883948341165E-003   0.0000000000000000     
  -9.5932328402107536E-003   1.2896407474720040E-002   0.0000000000000000     
  -1.1237582398242275E-002   1.6178671306094166E-002   0.0000000000000000     
  -1.2884856748587629E-002   1.9745979888956485E-002   0.0000000000000000     
  -7.3391838581265854E-003   7.4215622576042266E-003   0.0000000000000000     
  -9.2277026329730429E-003   1.0188887968734170E-002   0.0000000000000000     
  -1.1124432468903656E-002   1.3235185382218951E-002   0.0000000000000000     
  -1.3029373365918428E-002   1.6560454498058572E-002   0.0000000000000000     
  -1.4942525324017355E-002   2.0164695316253031E-002   0.0000000000000000     
  -7.1177651664797847E-003   1.8871911197351730E-002   0.0000000000000000     
  -8.0268696584750113E-003   2.2643845126644243E-002   0.0000000000000000     
  -8.9265633911553548E-003   2.6674330334832696E-002   0.0000000000000000     
  -9.8168463645208152E-003   3.0963366821917079E-002   0.0000000000000000     
  -1.0697718578571391E-002   3.5510954587897402E-002   0.0000000000000000     
  -8.9724766698188428E-003   1.9099587829505837E-002   0.0000000000000000     
  -1.0113399078404809E-002   2.2886321940286752E-002   0.0000000000000000     
  -1.1242140428146504E-002   2.6927930734943990E-002   0.0000000000000000     
  -1.2358700719043924E-002   3.1224414213477537E-002   0.0000000000000000     
  -1.3463079951097068E-002   3.5775772375887409E-002   0.0000000000000000     
  -1.0894840530521458E-002   1.9390944060040757E-002   0.0000000000000000     
  -1.2277801803054033E-002   2.3197065623592004E-002   0.0000000000000000     
  -1.3642708494735827E-002   2.7252054997385648E-002   0.0000000000000000     
  -1.4989560605566835E-002   3.1555912181421682E-002   0.0000000000000000     
  -1.6318358135547058E-002   3.6108637175700120E-002   0.0000000000000000     
  -1.2884856748587629E-002   1.9745979888956485E-002   0.0000000000000000     
  -1.4520077832422691E-002   2.3576076176559997E-002   0.0000000000000000     
  -1.6128267590923329E-002   2.7646703122157671E-002   0.0000000000000000     
  -1.7709426024089557E-002   3.1957860725749528E-002   0.0000000000000000     
  -1.9263553131921365E-002   3.6509548987335536E-002   0.0000000000000000     
  -1.4942525324017355E-002   2.0164695316253031E-002   0.0000000000000000     
  -1.6840227166510770E-002   2.4023353599190729E-002   0.0000000000000000     
  -1.8698817716709015E-002   2.8111875109260068E-002   0.0000000000000000     
  -2.0518296974612084E-002   3.2430259846461050E-002   0.0000000000000000     
  -2.2298664940219981E-002   3.6978507810793662E-002   0.0000000000000000     
  -1.0697718578571391E-002   3.5510954587897402E-002   0.0000000000000000     
  -1.1559547170699626E-002   4.0280956759843931E-002   0.0000000000000000     
  -1.2392699278298069E-002   4.5237236464826927E-002   0.0000000000000000     
  -1.3197174901366708E-002   5.0379793702846412E-002   0.0000000000000000     
  -1.3972974039905550E-002   5.5708628473902358E-002   0.0000000000000000     
  -1.3463079951097068E-002   3.5775772375887409E-002   0.0000000000000000     
  -1.4542523641469915E-002   4.0546745323978457E-002   0.0000000000000000     
  -1.5584277307326439E-002   4.5502073159555539E-002   0.0000000000000000     
  -1.6588340948666635E-002   5.0641755882618662E-002   0.0000000000000000     
  -1.7554714565490508E-002   5.5965793493167819E-002   0.0000000000000000     
  -1.6318358135547058E-002   3.6108637175700120E-002   0.0000000000000000     
  -1.7615301307594318E-002   4.0877664180910829E-002   0.0000000000000000     
  -1.8866590344626431E-002   4.5830427397743699E-002   0.0000000000000000     
  -2.0072225246643417E-002   5.0966926826198744E-002   0.0000000000000000     
  -2.1232206013645245E-002   5.6287162466275929E-002   0.0000000000000000     
  -1.9263553131921365E-002   3.6509548987335536E-002   0.0000000000000000     
  -2.0777880169072841E-002   4.1273713330641060E-002   0.0000000000000000     
  -2.2239638390198067E-002   4.6222299179391427E-002   0.0000000000000000     
  -2.3648827795297041E-002   5.1355306533586637E-002   0.0000000000000000     
  -2.5005448384369772E-002   5.6672735393226689E-002   0.0000000000000000     
  -2.2298664940219981E-002   3.6978507810793662E-002   0.0000000000000000     
  -2.4030260225905469E-002   4.1734892773169142E-002   0.0000000000000000     
  -2.5703421444041308E-002   4.6677688504498702E-002   0.0000000000000000     
  -2.7318148594627518E-002   5.1806895004782361E-002   0.0000000000000000     
  -2.8874441677664071E-002   5.7122512274020106E-002   0.0000000000000000     
  -1.3972974039905550E-002   5.5708628473902358E-002   0.0000000000000000     
  -1.4730153776117671E-002   6.1248145276483021E-002   0.0000000000000000     
  -1.5478771192206140E-002   6.7022748609076602E-002   0.0000000000000000     
  -1.6218826288170965E-002   7.3032438471683087E-002   0.0000000000000000     
  -1.6950319064012138E-002   7.9277214864302517E-002   0.0000000000000000     
  -1.7554714565490508E-002   5.5965793493167819E-002   0.0000000000000000     
  -1.8496868990903054E-002   6.1498101579941108E-002   0.0000000000000000     
  -1.9428275058009266E-002   6.7262595731676630E-002   0.0000000000000000     
  -2.0348932766809148E-002   7.3259275948374378E-002   0.0000000000000000     
  -2.1258842117302702E-002   7.9488142230034337E-002   0.0000000000000000     
  -2.1232206013645245E-002   5.6287162466275929E-002   0.0000000000000000     
  -2.2362766738531124E-002   6.1813769692610210E-002   0.0000000000000000     
  -2.3480141514200213E-002   6.7569383879836464E-002   0.0000000000000000     
  -2.4584330340652515E-002   7.3554005027954741E-002   0.0000000000000000     
  -2.5675333217888036E-002   7.9767633136964999E-002   0.0000000000000000     
  -2.5005448384369772E-002   5.6672735393226689E-002   0.0000000000000000     
  -2.6327847019001867E-002   6.2195149614490290E-002   0.0000000000000000     
  -2.7634370560778967E-002   6.7943113053556131E-002   0.0000000000000000     
  -2.8925019009701056E-002   7.3916625710424219E-002   0.0000000000000000     
  -3.0199792365768145E-002   8.0115687585094561E-002   0.0000000000000000     
  -2.8874441677664071E-002   5.7122512274020106E-002   0.0000000000000000     
  -3.0392109832315300E-002   6.2642241345581370E-002   0.0000000000000000     
  -3.1890962197745537E-002   6.8383783252835603E-002   0.0000000000000000     
  -3.3370998773954774E-002   7.4347137995782811E-002   0.0000000000000000     
  -3.4832219560943019E-002   8.0532305574422966E-002   0.0000000000000000     
  -1.6950319064012138E-002   7.9277214864302517E-002   0.0000000000000000     
  -1.7659976149922846E-002   8.5712561882600499E-002   0.0000000000000000     
  -1.8334524176096278E-002   9.2293963622242639E-002   0.0000000000000000     
  -1.8973963142532434E-002   9.9021420083228950E-002   0.0000000000000000     
  -1.9578293049231314E-002  0.10589493126555945        0.0000000000000000     
  -2.1258842117302702E-002   7.9488142230034337E-002   0.0000000000000000     
  -2.2142225898969477E-002   8.5905927193898390E-002   0.0000000000000000     
  -2.2983306901289045E-002   9.2469363457208409E-002   0.0000000000000000     
  -2.3782085124261391E-002   9.9178451019964420E-002   0.0000000000000000     
  -2.4538560567886523E-002  0.10603318988216641        0.0000000000000000     
  -2.5675333217888036E-002   7.9767633136964999E-002   0.0000000000000000     
  -2.6734818656661902E-002   8.6168769155540045E-002   0.0000000000000000     
  -2.7744455167729245E-002   9.2715914032352631E-002   0.0000000000000000     
  -2.8704242751090063E-002   9.9409067767402742E-002   0.0000000000000000     
  -2.9614181406744350E-002  0.10624823036069045        0.0000000000000000     
  -3.0199792365768145E-002   8.0115687585094561E-002   0.0000000000000000     
  -3.1437754423000126E-002   8.6501087767525450E-002   0.0000000000000000     
  -3.2617968975416890E-002   9.3033615347675250E-002   0.0000000000000000     
  -3.3740436023018454E-002   9.9713270325543960E-002   0.0000000000000000     
  -3.4805155565804789E-002  0.10654005270113157        0.0000000000000000     
  -3.4832219560943019E-002   8.0532305574422966E-002   0.0000000000000000     
  -3.6251033197984131E-002   8.6902883029854633E-002   0.0000000000000000     
  -3.7603848324351971E-002   9.3422467403176321E-002   0.0000000000000000     
  -3.8890664940046539E-002  0.10009105869438803        0.0000000000000000     
  -4.0111483045067842E-002  0.10690865690348976        0.0000000000000000     
  -1.9578293049231314E-002  0.10589493126555945        0.0000000000000000     
  -2.0139023612369029E-002  0.11283556934996730        0.0000000000000000     
  -2.0647664548121693E-002  0.11976440651718571        0.0000000000000000     
  -2.1104215856489306E-002  0.12668144276721469        0.0000000000000000     
  -2.1508677537471866E-002  0.13358667810005423        0.0000000000000000     
  -2.4538560567886523E-002  0.10603318988216641        0.0000000000000000     
  -2.5239138580400843E-002  0.11296001634940091        0.0000000000000000     
  -2.5870224510040743E-002  0.11988536672725446        0.0000000000000000     
  -2.6431818356806233E-002  0.12680924101572708        0.0000000000000000     
  -2.6923920120697300E-002  0.13373163921481873        0.0000000000000000     
  -2.9614181406744350E-002  0.10624823036069045        0.0000000000000000     
  -3.0456319779553973E-002  0.11316338963002513        0.0000000000000000     
  -3.1212706514380781E-002  0.12008453339321624        0.0000000000000000     
  -3.1883341611224768E-002  0.12701166165026381        0.0000000000000000     
  -3.2468225070085947E-002  0.13394477440116784        0.0000000000000000     
  -3.4805155565804789E-002  0.10654005270113157        0.0000000000000000     
  -3.5790567209828414E-002  0.11344568919183998        0.0000000000000000     
  -3.6675110561141804E-002  0.12036190651507112        0.0000000000000000     
  -3.7458785619744923E-002  0.12728870467082495        0.0000000000000000     
  -3.8141592385637788E-002  0.13422608365910155        0.0000000000000000     
  -4.0111483045067842E-002  0.10690865690348976        0.0000000000000000     
  -4.1241880871224164E-002  0.11380691503484544        0.0000000000000000     
  -4.2257436650323776E-002  0.12071748609281902        0.0000000000000000     
  -4.3158150382366665E-002  0.12764037007741044        0.0000000000000000     
  -4.3944022067352859E-002  0.13457556698861980        0.0000000000000000     
  -2.1508677537471866E-002  0.13358667810005423        0.0000000000000000     
  -2.1914985369137521E-002  0.14076197737632928        0.0000000000000000     
  -2.2377075129554409E-002  0.14848920545666494        0.0000000000000000     
  -2.2894946818722534E-002  0.15676836234106106        0.0000000000000000     
  -2.3468600436641892E-002  0.16559944802951776        0.0000000000000000     
  -2.6923920120697300E-002  0.13373163921481873        0.0000000000000000     
  -2.7419050875629826E-002  0.14088441386783387        0.0000000000000000     
  -2.7989731695519673E-002  0.14849941751807688        0.0000000000000000     
  -2.8635962580366856E-002  0.15657665016554773        0.0000000000000000     
  -2.9357743530171364E-002  0.16511611181024641        0.0000000000000000     
  -3.2468225070085947E-002  0.13394477440116784        0.0000000000000000     
  -3.3061011652704544E-002  0.14109157754987617        0.0000000000000000     
  -3.3755356120820833E-002  0.14865977700033661        0.0000000000000000     
  -3.4551258474434791E-002  0.15664937275254912        0.0000000000000000     
  -3.5448718713546427E-002  0.16506036480651382        0.0000000000000000     
  -3.8141592385637788E-002  0.13422608365910155        0.0000000000000000     
  -3.8840867700361700E-002  0.14138346842245614        0.0000000000000000     
  -3.9673948405457883E-002  0.14897028390344408        0.0000000000000000     
  -4.0640834500926350E-002  0.15698653010206537        0.0000000000000000     
  -4.1741525986767100E-002  0.16543220701832001        0.0000000000000000     
  -4.3944022067352859E-002  0.13457556698861980        0.0000000000000000     
  -4.4758619018601266E-002  0.14176008648557384        0.0000000000000000     
  -4.5745508549430818E-002  0.14943093822739936        0.0000000000000000     
  -4.6904690659841521E-002  0.15758812221409643        0.0000000000000000     
  -4.8236165349833368E-002  0.16623163844566496        0.0000000000000000     
   0.0000000000000000        0.0000000000000000        0.0000000000000000     
  -1.7975830047020961E-003   1.2760535927374569E-003   0.0000000000000000     
  -3.6199746492905594E-003   2.9383318332506471E-003   0.0000000000000000     
  -5.4671749337653879E-003   4.9868347215395693E-003   0.0000000000000000     
  -7.3391838581265854E-003   7.4215622576042266E-003   0.0000000000000000     
   0.0000000000000000        0.0000000000000000        0.0000000000000000     
  -2.0687690121121210E-003   1.3538657510341464E-003   0.0000000000000000     
  -4.1629015396133871E-003   3.0926118761567698E-003   0.0000000000000000     
  -6.2823975825037955E-003   5.2162383753678702E-003   0.0000000000000000     
  -8.4272571407833508E-003   7.7247452486674485E-003   0.0000000000000000     
   0.0000000000000000        0.0000000000000000        0.0000000000000000     
  -2.3396272222099839E-003   1.4576878622033725E-003   0.0000000000000000     
  -4.7194239286492959E-003   3.2980435384789264E-003   0.0000000000000000     
  -7.1393901193179373E-003   5.5210670288266617E-003   0.0000000000000000     
  -9.5995257942159077E-003   8.1267583332465792E-003   0.0000000000000000     
   0.0000000000000000        0.0000000000000000        0.0000000000000000     
  -2.6101576349956829E-003   1.5875199262451352E-003   0.0000000000000000     
  -5.2895418163982875E-003   3.5546268202171164E-003   0.0000000000000000     
  -8.0381525442078123E-003   5.9013206819159437E-003   0.0000000000000000     
  -1.0855989818424261E-002   8.6276015113416170E-003   0.0000000000000000     
   0.0000000000000000        0.0000000000000000        0.0000000000000000     
  -2.8803602504692202E-003   1.7433619431594344E-003   0.0000000000000000     
  -5.8732552028603604E-003   3.8623617213713398E-003   0.0000000000000000     
  -8.9786848571734197E-003   6.3569993346357153E-003   0.0000000000000000     
  -1.2196649213408402E-002   9.2272747829525645E-003   0.0000000000000000     
  -7.3391838581265854E-003   7.4215622576042266E-003   0.0000000000000000     
  -9.2277026329730429E-003   1.0188887968734170E-002   0.0000000000000000     
  -1.1124432468903656E-002   1.3235185382218951E-002   0.0000000000000000     
  -1.3029373365918428E-002   1.6560454498058572E-002   0.0000000000000000     
  -1.4942525324017355E-002   2.0164695316253031E-002   0.0000000000000000     
  -8.4272571407833508E-003   7.7247452486674485E-003   0.0000000000000000     
  -1.0588474987001195E-002   1.0559428426095210E-002   0.0000000000000000     
  -1.2757045893706478E-002   1.3661583837690864E-002   0.0000000000000000     
  -1.4932969860899203E-002   1.7031211483454413E-002   0.0000000000000000     
  -1.7116246888579364E-002   2.0668311363385851E-002   0.0000000000000000     
  -9.5995257942159077E-003   8.1267583332465792E-003   0.0000000000000000     
  -1.2075622124464541E-002   1.1046482911748824E-002   0.0000000000000000     
  -1.4543470281185165E-002   1.4211606224343545E-002   0.0000000000000000     
  -1.7003070264377782E-002   1.7622128271030747E-002   0.0000000000000000     
  -1.9454422074042393E-002   2.1278049051810421E-002   0.0000000000000000     
  -1.0855989818424261E-002   8.6276015113416170E-003   0.0000000000000000     
  -1.3689144045363076E-002   1.1650051425695009E-002   0.0000000000000000     
  -1.6483705631339707E-002   1.4885252542176992E-002   0.0000000000000000     
  -1.9239674576354164E-002   1.8333204860787562E-002   0.0000000000000000     
  -2.1957050880406438E-002   2.1993908381526730E-002   0.0000000000000000     
  -1.2196649213408402E-002   9.2272747829525645E-003   0.0000000000000000     
  -1.5429040749696803E-002   1.2370133967933765E-002   0.0000000000000000     
  -1.8577751944170117E-002   1.5682522791191204E-002   0.0000000000000000     
  -2.1642782796828349E-002   1.9164441252724880E-002   0.0000000000000000     
  -2.4624133307671499E-002   2.2815889352534792E-002   0.0000000000000000     
  -1.4942525324017355E-002   2.0164695316253031E-002   0.0000000000000000     
  -1.6840227166510770E-002   2.4023353599190729E-002   0.0000000000000000     
  -1.8698817716709015E-002   2.8111875109260068E-002   0.0000000000000000     
  -2.0518296974612084E-002   3.2430259846461050E-002   0.0000000000000000     
  -2.2298664940219981E-002   3.6978507810793662E-002   0.0000000000000000     
  -1.7116246888579364E-002   2.0668311363385851E-002   0.0000000000000000     
  -1.9277545045473295E-002   2.4549356780176678E-002   0.0000000000000000     
  -2.1387532400307312E-002   2.8650821036518389E-002   0.0000000000000000     
  -2.3446208953081429E-002   3.2972704132410983E-002   0.0000000000000000     
  -2.5453574703795633E-002   3.7515006067854455E-002   0.0000000000000000     
  -1.9454422074042393E-002   2.1278049051810421E-002   0.0000000000000000     
  -2.1871326709465264E-002   2.5164544608210316E-002   0.0000000000000000     
  -2.4227585169932654E-002   2.9266790981758193E-002   0.0000000000000000     
  -2.6523197455444576E-002   3.3584788172454048E-002   0.0000000000000000     
  -2.8758163566001024E-002   3.8118536180297875E-002   0.0000000000000000     
  -2.1957050880406438E-002   2.1993908381526730E-002   0.0000000000000000     
  -2.4621572158486683E-002   2.5868917083291653E-002   0.0000000000000000     
  -2.7218976025585047E-002   2.9959784944979490E-002   0.0000000000000000     
  -2.9749262481701549E-002   3.4266511966590252E-002   0.0000000000000000     
  -3.2212431526836165E-002   3.8789098148123931E-002   0.0000000000000000     
  -2.4624133307671499E-002   2.2815889352534792E-002   0.0000000000000000     
  -2.7528281392537553E-002   2.6662474205420679E-002   0.0000000000000000     
  -3.0361704967264487E-002   3.0729802926182274E-002   0.0000000000000000     
  -3.3124404031852329E-002   3.5017875514819594E-002   0.0000000000000000     
  -3.5816378586301045E-002   3.9526691971332614E-002   0.0000000000000000     
  -2.2298664940219981E-002   3.6978507810793662E-002   0.0000000000000000     
  -2.4030260225905469E-002   4.1734892773169142E-002   0.0000000000000000     
  -2.5703421444041308E-002   4.6677688504498702E-002   0.0000000000000000     
  -2.7318148594627518E-002   5.1806895004782361E-002   0.0000000000000000     
  -2.8874441677664071E-002   5.7122512274020106E-002   0.0000000000000000     
  -2.5453574703795633E-002   3.7515006067854455E-002   0.0000000000000000     
  -2.7402964203799653E-002   4.2261818849990876E-002   0.0000000000000000     
  -2.9287712004443210E-002   4.7197234485962303E-002   0.0000000000000000     
  -3.1107818105726302E-002   5.2321252975768728E-002   0.0000000000000000     
  -3.2863282507648930E-002   5.7633874319410160E-002   0.0000000000000000     
  -2.8758163566001024E-002   3.8118536180297875E-002   0.0000000000000000     
  -3.0926514828462818E-002   4.2855107902602052E-002   0.0000000000000000     
  -3.3022282569690767E-002   4.7781576236678933E-002   0.0000000000000000     
  -3.5045466789684877E-002   5.2897941182528538E-002   0.0000000000000000     
  -3.6996067488445160E-002   5.8204202740150847E-002   0.0000000000000000     
  -3.2212431526836165E-002   3.8789098148123931E-002   0.0000000000000000     
  -3.4600912099894958E-002   4.3514759931002678E-002   0.0000000000000000     
  -3.6907133139783978E-002   4.8430713756648633E-002   0.0000000000000000     
  -3.9131094646503245E-002   5.3536959625061796E-002   0.0000000000000000     
  -4.1272796620052725E-002   5.8833497536242188E-002   0.0000000000000000     
  -3.5816378586301045E-002   3.9526691971332614E-002   0.0000000000000000     
  -3.8426156018096090E-002   4.4240774935192739E-002   0.0000000000000000     
  -4.0942263714722864E-002   4.9144647045871376E-002   0.0000000000000000     
  -4.3364701676181387E-002   5.4238308303368510E-002   0.0000000000000000     
  -4.5693469902471640E-002   5.9521758707684155E-002   0.0000000000000000     
  -2.8874441677664071E-002   5.7122512274020106E-002   0.0000000000000000     
  -3.0392109832315300E-002   6.2642241345581370E-002   0.0000000000000000     
  -3.1890962197745537E-002   6.8383783252835603E-002   0.0000000000000000     
  -3.3370998773954774E-002   7.4347137995782811E-002   0.0000000000000000     
  -3.4832219560943019E-002   8.0532305574422966E-002   0.0000000000000000     
  -3.2863282507648930E-002   5.7633874319410160E-002   0.0000000000000000     
  -3.4575604175202668E-002   6.3149586974966337E-002   0.0000000000000000     
  -3.6266282073379064E-002   6.8882879400517030E-002   0.0000000000000000     
  -3.7935316202178132E-002   7.4833751596062204E-002   0.0000000000000000     
  -3.9582706561599866E-002   8.1002203561601899E-002   0.0000000000000000     
  -3.6996067488445160E-002   5.8204202740150847E-002   0.0000000000000000     
  -3.8898379044395207E-002   6.3711728591728106E-002   0.0000000000000000     
  -4.0776695835958686E-002   6.9431886419442562E-002   0.0000000000000000     
  -4.2631017863135570E-002   7.5364676223294153E-002   0.0000000000000000     
  -4.4461345125925880E-002   8.1510098003282974E-002   0.0000000000000000     
  -4.1272796620052725E-002   5.8833497536242188E-002   0.0000000000000000     
  -4.3360434439892945E-002   6.4328666195866677E-002   0.0000000000000000     
  -4.5422203485484397E-002   7.0030804309612157E-002   0.0000000000000000     
  -4.7458103756827102E-002   7.5939911877478658E-002   0.0000000000000000     
  -4.9468135253921040E-002   8.2055988899466165E-002   0.0000000000000000     
  -4.5693469902471640E-002   5.9521758707684155E-002   0.0000000000000000     
  -4.7961770361695848E-002   6.5000399787382035E-002   0.0000000000000000     
  -5.0202805021956211E-002   7.0679633071025885E-002   0.0000000000000000     
  -5.2416573883252722E-002   7.6559458558615720E-002   0.0000000000000000     
  -5.4603076945585381E-002   8.2639876250151539E-002   0.0000000000000000     
  -3.4832219560943019E-002   8.0532305574422966E-002   0.0000000000000000     
  -3.6251033197984131E-002   8.6902883029854633E-002   0.0000000000000000     
  -3.7603848324351971E-002   9.3422467403176321E-002   0.0000000000000000     
  -3.8890664940046539E-002  0.10009105869438803        0.0000000000000000     
  -4.0111483045067842E-002  0.10690865690348976        0.0000000000000000     
  -3.9582706561599866E-002   8.1002203561601899E-002   0.0000000000000000     
  -4.1182166202223175E-002   8.7355147447349582E-002   0.0000000000000000     
  -4.2707408174626996E-002   9.3859495403518858E-002   0.0000000000000000     
  -4.4158432478811308E-002  0.10051524743010967        0.0000000000000000     
  -4.5535239114776131E-002  0.10732240352712205        0.0000000000000000     
  -4.4461345125925880E-002   8.1510098003282974E-002   0.0000000000000000     
  -4.6238664656326527E-002   8.7838873524832398E-002   0.0000000000000000     
  -4.7933963486334462E-002   9.4321724553365960E-002   0.0000000000000000     
  -4.9547241615949707E-002  0.10095865108888363        0.0000000000000000     
  -5.1078499045172233E-002  0.10774965313138544        0.0000000000000000     
  -4.9468135253921040E-002   8.2055988899466165E-002   0.0000000000000000     
  -5.1420528560294165E-002   8.8354061262303024E-002   0.0000000000000000     
  -5.3283514259474384E-002   9.4809154852717639E-002   0.0000000000000000     
  -5.5057092351461730E-002  0.10142126967070993        0.0000000000000000     
  -5.6741262836256169E-002  0.10819040571627993        0.0000000000000000     
  -5.4603076945585381E-002   8.2639876250151539E-002   0.0000000000000000     
  -5.6727757914126105E-002   8.8900710659761531E-002   0.0000000000000000     
  -5.8756060494046768E-002   9.5321786301573841E-002   0.0000000000000000     
  -6.0687984685347383E-002  0.10190310317558855        0.0000000000000000     
  -6.2523530488027945E-002  0.10864466128180555        0.0000000000000000     
  -4.0111483045067842E-002  0.10690865690348976        0.0000000000000000     
  -4.1241880871224164E-002  0.11380691503484544        0.0000000000000000     
  -4.2257436650323776E-002  0.12071748609281902        0.0000000000000000     
  -4.3158150382366665E-002  0.12764037007741044        0.0000000000000000     
  -4.3944022067352859E-002  0.13457556698861980        0.0000000000000000     
  -4.5535239114776131E-002  0.10732240352712205        0.0000000000000000     
  -4.6810778426387221E-002  0.11421263565961440        0.0000000000000000     
  -4.7958000757510347E-002  0.12111761579264517        0.0000000000000000     
  -4.8976906108145500E-002  0.12803734392621435        0.0000000000000000     
  -4.9867494478292702E-002  0.13497182006032196        0.0000000000000000     
  -5.1078499045172233E-002  0.10774965313138544        0.0000000000000000     
  -5.2497777537963537E-002  0.11462841956671971        0.0000000000000000     
  -5.3775118858285065E-002  0.12152863928073476        0.0000000000000000     
  -5.4910523006136858E-002  0.12845031227343065        0.0000000000000000     
  -5.5903989981518860E-002  0.13539343854480732        0.0000000000000000     
  -5.6741262836256169E-002  0.10819040571627993        0.0000000000000000     
  -5.8302878205953118E-002  0.11505426675616133        0.0000000000000000     
  -5.9708790952647979E-002  0.12195055655708782        0.0000000000000000     
  -6.0959001076340710E-002  0.12887927511905931        0.0000000000000000     
  -6.2053508577031360E-002  0.13584042244207589        0.0000000000000000     
  -6.2523530488027945E-002  0.10864466128180555        0.0000000000000000     
  -6.4226080430355992E-002  0.11549017722793935        0.0000000000000000     
  -6.5759017040599041E-002  0.12238336762170429        0.0000000000000000     
  -6.7122340318757120E-002  0.12932423246310040        0.0000000000000000     
  -6.8316050264830175E-002  0.13631277175212764        0.0000000000000000     
  -4.3944022067352859E-002  0.13457556698861980        0.0000000000000000     
  -4.4758619018601266E-002  0.14176008648557384        0.0000000000000000     
  -4.5745508549430818E-002  0.14943093822739936        0.0000000000000000     
  -4.6904690659841521E-002  0.15758812221409643        0.0000000000000000     
  -4.8236165349833368E-002  0.16623163844566496        0.0000000000000000     
  -4.9867494478292702E-002  0.13497182006032196        0.0000000000000000     
  -5.0797309033306821E-002  0.14218383160341463        0.0000000000000000     
  -5.1933892938542767E-002  0.14993616596393908        0.0000000000000000     
  -5.3277246194000531E-002  0.15822882314189521        0.0000000000000000     
  -5.4827368799680115E-002  0.16706180313728314        0.0000000000000000     
  -5.5903989981518860E-002  0.13539343854480732        0.0000000000000000     
  -5.6939981170361920E-002  0.14261710364016400        0.0000000000000000     
  -5.8202957958596833E-002  0.15038039310479984        0.0000000000000000     
  -5.9692920346223602E-002  0.15868330693871491        0.0000000000000000     
  -6.1409868333242218E-002  0.16752584514190907        0.0000000000000000     
  -6.2053508577031360E-002  0.13584042244207589        0.0000000000000000     
  -6.3186635429766574E-002  0.14305990259582185        0.0000000000000000     
  -6.4552703609593018E-002  0.15076361964998169        0.0000000000000000     
  -6.6151713116510719E-002  0.15895157360455531        0.0000000000000000     
  -6.7983663950519690E-002  0.16762376445954269        0.0000000000000000     
  -6.8316050264830175E-002  0.13631277175212764        0.0000000000000000     
  -6.9537271811520765E-002  0.14351222847038833        0.0000000000000000     
  -7.0983129891531341E-002  0.15108584559948460        0.0000000000000000     
  -7.2653624504861916E-002  0.15903362313941652        0.0000000000000000     
  -7.4548755651512491E-002  0.16735556109018407        0.0000000000000000     
   0.0000000000000000        0.0000000000000000        0.0000000000000000     
  -2.8803602504692202E-003   1.7433619431594344E-003   0.0000000000000000     
  -5.8732552028603604E-003   3.8623617213713398E-003   0.0000000000000000     
  -8.9786848571734197E-003   6.3569993346357153E-003   0.0000000000000000     
  -1.2196649213408402E-002   9.2272747829525645E-003   0.0000000000000000     
   0.0000000000000000        0.0000000000000000        0.0000000000000000     
  -3.2838225852581441E-003   1.9979747603159478E-003   0.0000000000000000     
  -6.6781750426996673E-003   4.3286909782062387E-003   0.0000000000000000     
  -1.0183057372324571E-002   6.9921486536708710E-003   0.0000000000000000     
  -1.3798469574132855E-002   9.9883477867098464E-003   0.0000000000000000     
   0.0000000000000000        0.0000000000000000        0.0000000000000000     
  -3.9541321559900039E-003   2.4241192250843537E-003   0.0000000000000000     
  -7.9119122905803602E-003   5.0610573269864534E-003   0.0000000000000000     
  -1.1873340403771072E-002   7.9108143057063009E-003   0.0000000000000000     
  -1.5838416495562137E-002   1.0973390161243895E-002   0.0000000000000000     
   0.0000000000000000        0.0000000000000000        0.0000000000000000     
  -4.8912889626647983E-003   3.0217953374646507E-003   0.0000000000000000     
  -9.5744669465024409E-003   6.0594607677119869E-003   0.0000000000000000     
  -1.4049533951512923E-002   9.1129962907420051E-003   0.0000000000000000     
  -1.8316489977696249E-002   1.2182401906554710E-002   0.0000000000000000     
   0.0000000000000000        0.0000000000000000        0.0000000000000000     
  -6.0952930052825304E-003   3.7910030974568406E-003   0.0000000000000000     
  -1.1665839010465905E-002   7.3239013003828348E-003   0.0000000000000000     
  -1.6711638015550125E-002   1.0598694608777985E-002   0.0000000000000000     
  -2.1232690020535187E-002   1.3615383022642286E-002   0.0000000000000000     
  -1.2196649213408402E-002   9.2272747829525645E-003   0.0000000000000000     
  -1.5429040749696803E-002   1.2370133967933765E-002   0.0000000000000000     
  -1.8577751944170117E-002   1.5682522791191204E-002   0.0000000000000000     
  -2.1642782796828349E-002   1.9164441252724880E-002   0.0000000000000000     
  -2.4624133307671499E-002   2.2815889352534792E-002   0.0000000000000000     
  -1.3798469574132855E-002   9.9883477867098464E-003   0.0000000000000000     
  -1.7407059237217165E-002   1.3218643297818015E-002   0.0000000000000000     
  -2.0891473950670144E-002   1.6584390107490240E-002   0.0000000000000000     
  -2.4251713714491790E-002   2.0085588215726501E-002   0.0000000000000000     
  -2.7487778528682109E-002   2.3722237622526822E-002   0.0000000000000000     
  -1.5838416495562137E-002   1.0973390161243895E-002   0.0000000000000000     
  -1.9734946507675610E-002   1.4207492174700692E-002   0.0000000000000000     
  -2.3490736381833546E-002   1.7571827627178148E-002   0.0000000000000000     
  -2.7105786118035945E-002   2.1066396518676263E-002   0.0000000000000000     
  -3.0580095716282799E-002   2.4691198849195035E-002   0.0000000000000000     
  -1.8316489977696249E-002   1.2182401906554710E-002   0.0000000000000000     
  -2.2412702561072140E-002   1.5336680598581788E-002   0.0000000000000000     
  -2.6375539237660325E-002   1.8644835350254938E-002   0.0000000000000000     
  -3.0205000007460805E-002   2.2106866161574156E-002   0.0000000000000000     
  -3.3901084870473573E-002   2.5722773032539444E-002   0.0000000000000000     
  -2.1232690020535187E-002   1.3615383022642286E-002   0.0000000000000000     
  -2.5440327397406749E-002   1.6606208569461305E-002   0.0000000000000000     
  -2.9545882518150480E-002   1.9803413276720604E-002   0.0000000000000000     
  -3.3549355382766370E-002   2.3206997144420181E-002   0.0000000000000000     
  -3.7450745991254426E-002   2.6816960172560043E-002   0.0000000000000000     
  -2.4624133307671499E-002   2.2815889352534792E-002   0.0000000000000000     
  -2.7528281392537553E-002   2.6662474205420679E-002   0.0000000000000000     
  -3.0361704967264487E-002   3.0729802926182274E-002   0.0000000000000000     
  -3.3124404031852329E-002   3.5017875514819594E-002   0.0000000000000000     
  -3.5816378586301045E-002   3.9526691971332614E-002   0.0000000000000000     
  -2.7487778528682109E-002   2.3722237622526822E-002   0.0000000000000000     
  -3.0625204331003790E-002   2.7538807123383375E-002   0.0000000000000000     
  -3.3689527059219536E-002   3.1579765513788376E-002   0.0000000000000000     
  -3.6680746713329347E-002   3.5845112793741800E-002   0.0000000000000000     
  -3.9598863293333210E-002   4.0334848963243672E-002   0.0000000000000000     
  -3.0580095716282799E-002   2.4691198849195035E-002   0.0000000000000000     
  -3.3946090893271330E-002   2.8491506985965726E-002   0.0000000000000000     
  -3.7236197365698741E-002   3.2512593296219597E-002   0.0000000000000000     
  -4.0450415133565037E-002   3.6754457779956638E-002   0.0000000000000000     
  -4.3588744196870192E-002   4.1217100437176871E-002   0.0000000000000000     
  -3.3901084870473573E-002   2.5722773032539444E-002   0.0000000000000000     
  -3.7490941079340166E-002   2.9520573793167734E-002   0.0000000000000000     
  -4.1001715886702102E-002   3.3528286273475955E-002   0.0000000000000000     
  -4.4433409292559373E-002   3.7745910473464102E-002   0.0000000000000000     
  -4.7786021296911993E-002   4.2173446393132204E-002   0.0000000000000000     
  -3.7450745991254426E-002   2.6816960172560043E-002   0.0000000000000000     
  -4.1259754889210284E-002   3.0626007544989394E-002   0.0000000000000000     
  -4.4986082622229612E-002   3.4626844445557442E-002   0.0000000000000000     
  -4.8629729190312374E-002   3.8819470874264204E-002   0.0000000000000000     
  -5.2190694593458604E-002   4.3203886831109678E-002   0.0000000000000000     
  -3.5816378586301045E-002   3.9526691971332614E-002   0.0000000000000000     
  -3.8426156018096090E-002   4.4240774935192739E-002   0.0000000000000000     
  -4.0942263714722864E-002   4.9144647045871376E-002   0.0000000000000000     
  -4.3364701676181387E-002   5.4238308303368510E-002   0.0000000000000000     
  -4.5693469902471640E-002   5.9521758707684155E-002   0.0000000000000000     
  -3.9598863293333210E-002   4.0334848963243672E-002   0.0000000000000000     
  -4.2428161139076589E-002   4.5031970041917189E-002   0.0000000000000000     
  -4.5152924590404923E-002   4.9919472049385565E-002   0.0000000000000000     
  -4.7773153647318212E-002   5.4997354985648804E-002   0.0000000000000000     
  -5.0288848309816468E-002   6.0265618850706887E-002   0.0000000000000000     
  -4.3588744196870192E-002   4.1217100437176871E-002   0.0000000000000000     
  -4.6632842018846869E-002   4.5887162377920961E-002   0.0000000000000000     
  -4.9564366062727690E-002   5.0751284712229602E-002   0.0000000000000000     
  -5.2383316328512640E-002   5.5809467440102796E-002   0.0000000000000000     
  -5.5089692816201748E-002   6.1061710561540541E-002   0.0000000000000000     
  -4.7786021296911993E-002   4.2173446393132204E-002   0.0000000000000000     
  -5.1040198657406922E-002   4.6806351943204053E-002   0.0000000000000000     
  -5.4176588131691156E-002   5.1640085034403475E-002   0.0000000000000000     
  -5.7195189719764672E-002   5.6674645666730507E-002   0.0000000000000000     
  -6.0096003421627485E-002   6.1910033840185098E-002   0.0000000000000000     
  -5.2190694593458604E-002   4.3203886831109678E-002   0.0000000000000000     
  -5.5650231054756763E-002   4.7789538737766465E-002   0.0000000000000000     
  -5.8989590797295335E-002   5.2585873015907211E-002   0.0000000000000000     
  -6.2208773821074301E-002   5.7592889665531916E-002   0.0000000000000000     
  -6.5307780126093687E-002   6.2810588686640564E-002   0.0000000000000000     
  -4.5693469902471640E-002   5.9521758707684155E-002   0.0000000000000000     
  -4.7961770361695848E-002   6.5000399787382035E-002   0.0000000000000000     
  -5.0202805021956211E-002   7.0679633071025885E-002   0.0000000000000000     
  -5.2416573883252722E-002   7.6559458558615720E-002   0.0000000000000000     
  -5.4603076945585381E-002   8.2639876250151539E-002   0.0000000000000000     
  -5.0288848309816468E-002   6.0265618850706887E-002   0.0000000000000000     
  -5.2737950732689269E-002   6.5726436256092355E-002   0.0000000000000000     
  -5.5158403070726260E-002   7.1381979813337729E-002   0.0000000000000000     
  -5.7550205323927399E-002   7.7232249522442981E-002   0.0000000000000000     
  -5.9913357492292707E-002   8.3277245383408152E-002   0.0000000000000000     
  -5.5089692816201748E-002   6.1061710561540541E-002   0.0000000000000000     
  -5.7724539475758563E-002   6.6506282491815852E-002   0.0000000000000000     
  -6.0328900257146684E-002   7.2141451646201685E-002   0.0000000000000000     
  -6.2902775160366103E-002   7.7967218024698123E-002   0.0000000000000000     
  -6.5446164185416822E-002   8.3983581627305098E-002   0.0000000000000000     
  -6.0096003421627485E-002   6.1910033840185098E-002   0.0000000000000000     
  -6.2921536590903715E-002   6.7339938494552470E-002   0.0000000000000000     
  -6.5714296581217496E-002   7.2958048569617837E-002   0.0000000000000000     
  -6.8474283392568822E-002   7.8764364065381121E-002   0.0000000000000000     
  -7.1201497024957733E-002   8.4758884981842406E-002   0.0000000000000000     
  -6.5307780126093687E-002   6.2810588686640564E-002   0.0000000000000000     
  -6.8328942078124733E-002   6.8227404264302252E-002   0.0000000000000000     
  -7.1314592042938704E-002   7.3831770583586059E-002   0.0000000000000000     
  -7.4264730020535602E-002   7.9623687644491986E-002   0.0000000000000000     
  -7.7179356010915426E-002   8.5603155447020046E-002   0.0000000000000000     
  -5.4603076945585381E-002   8.2639876250151539E-002   0.0000000000000000     
  -5.6727757914126105E-002   8.8900710659761531E-002   0.0000000000000000     
  -5.8756060494046768E-002   9.5321786301573841E-002   0.0000000000000000     
  -6.0687984685347383E-002  0.10190310317558855        0.0000000000000000     
  -6.2523530488027945E-002  0.10864466128180555        0.0000000000000000     
  -5.9913357492292707E-002   8.3277245383408152E-002   0.0000000000000000     
  -6.2210430903257077E-002   8.9500643074185676E-002   0.0000000000000000     
  -6.4403996884255438E-002   9.5886118272728055E-002   0.0000000000000000     
  -6.6494055435287747E-002  0.10243367097903525        0.0000000000000000     
  -6.8480606556354032E-002  0.10914330119310729        0.0000000000000000     
  -6.5446164185416822E-002   8.3983581627305098E-002   0.0000000000000000     
  -6.7918625713121850E-002   9.0175679862553385E-002   0.0000000000000000     
  -7.0279718124304197E-002   9.6528650138973632E-002   0.0000000000000000     
  -7.2529441418963919E-002  0.10304249245656591        0.0000000000000000     
  -7.4667795597100961E-002  0.10971720681533016        0.0000000000000000     
  -7.1201497024957733E-002   8.4758884981842406E-002   0.0000000000000000     
  -7.3852342343720401E-002   9.0925821024864573E-002   0.0000000000000000     
  -7.6383224214193121E-002   9.7249381900310627E-002   0.0000000000000000     
  -7.8794142636375894E-002  0.10372956760818045        0.0000000000000000     
  -8.1085097610268678E-002  0.11036637814847415        0.0000000000000000     
  -7.7179356010915426E-002   8.5603155447020046E-002   0.0000000000000000     
  -8.0011580795052745E-002   9.1751066561119310E-002   0.0000000000000000     
  -8.2714515153922155E-002   9.8048313556738959E-002   0.0000000000000000     
  -8.5288159087523657E-002  0.10449489643387892        0.0000000000000000     
  -8.7732512595857223E-002  0.11109081519253926        0.0000000000000000     
  -6.2523530488027945E-002  0.10864466128180555        0.0000000000000000     
  -6.4226080430355992E-002  0.11549017722793935        0.0000000000000000     
  -6.5759017040599041E-002  0.12238336762170429        0.0000000000000000     
  -6.7122340318757120E-002  0.12932423246310040        0.0000000000000000     
  -6.8316050264830175E-002  0.13631277175212764        0.0000000000000000     
  -6.8480606556354032E-002  0.10914330119310729        0.0000000000000000     
  -7.0323839916596492E-002  0.11596506868165665        0.0000000000000000     
  -7.1983945185157341E-002  0.12284903321139580        0.0000000000000000     
  -7.3460922362036579E-002  0.12979519478232476        0.0000000000000000     
  -7.4754771447234220E-002  0.13680355339444353        0.0000000000000000     
  -7.4667795597100961E-002  0.10971720681533016        0.0000000000000000     
  -7.6652612370099044E-002  0.11650785881691622        0.0000000000000000     
  -7.8441723449341999E-002  0.12336951406297397        0.0000000000000000     
  -8.0035128834829744E-002  0.13030217255350332        0.0000000000000000     
  -8.1432828526562334E-002  0.13730583428850435        0.0000000000000000     
  -8.1085097610268678E-002  0.11036637814847415        0.0000000000000000     
  -8.3212397790863646E-002  0.11711854763371810        0.0000000000000000     
  -8.5132351833152944E-002  0.12394481017643874        0.0000000000000000     
  -8.6844959737136559E-002  0.13084516577663607        0.0000000000000000     
  -8.8350221502814533E-002  0.13781961443431015        0.0000000000000000     
  -8.7732512595857223E-002  0.11109081519253926        0.0000000000000000     
  -9.0003196178890271E-002  0.11779713513206223        0.0000000000000000     
  -9.2055830336590233E-002  0.12457492155179017        0.0000000000000000     
  -9.3890415068957081E-002  0.13142417445172308        0.0000000000000000     
  -9.5506950375990801E-002  0.13834489383186094        0.0000000000000000     
  -6.8316050264830175E-002  0.13631277175212764        0.0000000000000000     
  -6.9537271811520765E-002  0.14351222847038833        0.0000000000000000     
  -7.0983129891531341E-002  0.15108584559948460        0.0000000000000000     
  -7.2653624504861916E-002  0.15903362313941652        0.0000000000000000     
  -7.4548755651512491E-002  0.16735556109018407        0.0000000000000000     
  -7.4754771447234220E-002  0.13680355339444353        0.0000000000000000     
  -7.6074027072934827E-002  0.14398608815647612        0.0000000000000000     
  -7.7627223871323092E-002  0.15145477817714659        0.0000000000000000     
  -7.9414361842398973E-002  0.15920962345645498        0.0000000000000000     
  -8.1435440986162469E-002  0.16725062399440127        0.0000000000000000     
  -8.1432828526562334E-002  0.13730583428850435        0.0000000000000000     
  -8.2879037971319153E-002  0.14449348854669811        0.0000000000000000     
  -8.4617972615879583E-002  0.15197812460680568        0.0000000000000000     
  -8.6649632460243653E-002  0.15975974246882707        0.0000000000000000     
  -8.8974017504411376E-002  0.16783834213276241        0.0000000000000000     
  -8.8350221502814533E-002  0.13781961443431015        0.0000000000000000     
  -8.9952304506673644E-002  0.14503442964105429        0.0000000000000000     
  -9.1955376125200813E-002  0.15265588488846188        0.0000000000000000     
  -9.4359436358396012E-002  0.16068398017653290        0.0000000000000000     
  -9.7164485206259241E-002  0.16911871550526747        0.0000000000000000     
  -9.5506950375990801E-002  0.13834489383186094        0.0000000000000000     
  -9.7293826678998399E-002  0.14560891143954466        0.0000000000000000     
  -9.9639434399286783E-002  0.15348805902211515        0.0000000000000000     
 -0.10254377353685599       0.16198233657957242        0.0000000000000000     
 -0.10600684409170603       0.17109174411191649        0.0000000000000000     
 </DataArray>
 <DataArray  type="Float64" Name="stress" NumberOfComponents="3" format="ascii">
   13413977679.053991        4024193303.7161970        2894810248.9225326     
   11765649079.824451        1888145443.9685478        1716570823.3932676     
   10315115139.016903        411413112.29420948        810878760.37540448     
   9062375856.6313496       -406003691.30681658        177734059.86894423     
   8007431232.6677914       -564104966.83452988       -182863278.12611464     
   10539627851.532188        3161888355.4596567        2225619908.1465416     
   9667940340.4308987        1588173585.4777997        1446756893.6977911     
   8945292440.4053478        511257519.08173800        862993563.81341732     
   8371684151.4555359       -68859843.728525639        474329918.49342030     
   7947115473.5814629       -152178502.95299387        280765957.73780137     
   8338935908.3351955        2501680772.5005589        1711539536.0125268     
   8022610405.5135117        1423915368.3299005        1275172044.0736594     
   7806569466.4213152        680431843.25752473        956456558.75214422     
   7690813091.0586014        271230197.28342819        755393080.04798150     
   7675341279.4253712        196310430.40761375        671981607.96117043     
   6811901849.4630079        2043570554.8389022        1352569132.5204875     
   6829659275.0722895        1395370792.5248518        1201816274.5208733     
   6898946217.0648031        918936084.82156682        1091267745.1915865     
   7019762675.4405451        614266431.72904682        1020923544.5326276     
   7192108650.1995173        481361833.24729252        990783672.54399371     
   5958525674.9156265        1787557702.4746881        1148708697.6704240     
   6089086949.1072330        1502539858.0626521        1226689585.0394328     
   6222422692.3358126        1226770243.7738652        1267427123.1317434     
   6358532904.6013670        960248859.60832870        1270921311.9473562     
   6497417585.9038973        702975705.56604195        1237172151.4862719     
   8007431232.6677914       -564104966.83452988       -182863278.12611464     
   7921976802.2938938       -195626626.21800423       -80155643.327172533     
   7794155773.7621813        31629720.539138317       -9392643.8275133651     
   7623968147.0726528        117664073.43690157        29425720.372867759     
   7411413922.2253151        62476432.475283623        36299449.273967706     
   7947115473.5814629       -152178502.95299387        280765957.73780137     
   7742699957.9423618        20042250.388539314        279527097.66746819     
   7514185576.6531334        111933451.56297350        264014558.21741351     
   7261572329.7137737        123495100.57031155        234228339.38762921     
   6984860217.1242847        54727197.410551548        190168441.17812625     
   7675341279.4253712        196310430.40761375        671981607.96117043     
   7402453124.0055151        187420130.11948967        588108607.61386430     
   7123733835.4432087        159092719.35654736        507632883.80638975     
   6839183413.7384624        111328198.11879516        430554436.53874439     
   6548801858.8912687        44126566.406224012        356873265.81093240     
   7192108650.1995173        481361833.24729252        990783672.54399371     
   6901236300.4833431        306507012.97484183        845588886.51201284     
   6622800550.1324120        173107523.91985917        721462332.93941700     
   6356801399.1467218        81163366.082346439        618404011.82621062     
   6103238847.5262680        30674539.462301254        536413923.17239195     
   6497417585.9038973        702975705.56604195        1237172151.4862719     
   6239049487.3758574        377302898.95459986        1051967934.3619139     
   6011385720.7207413        153977865.25290966        905502905.61650014     
   5814426285.9385529        33000604.460971594        797777065.25002813     
   5648171183.0292873        14371116.578784466        728790413.26250005     
   7411413922.2253151        62476432.475283623        36299449.273967706     
   7225494104.3847170       -28096835.598618031        17831272.540919311     
   7053341357.7474442       -72779866.328109741        2171684.0049885036     
   6894955682.3134975       -71572659.713177681       -10679316.333823429     
   6750337078.0828705       -24475215.753840923       -20721728.475514568     
   6984860217.1242847        54727197.410551548        190168441.17812625     
   6815241325.2431555       -4548136.0482034683        181605875.84066898     
   6654796861.7518263       -33242041.540973663        175551295.82527220     
   6503526826.6502895       -31354519.067754507        172004701.13192508     
   6361431219.9385481        1114431.3714423180        170966091.76063943     
   6548801858.8912687        44126566.406224012        356873265.81093240     
   6394625027.6122856        15891507.955417395        352858228.58662236     
   6245029981.9095659        2929068.0921664238        351050573.80930483     
   6100016721.7831221        5239246.8164820671        351450301.47897542     
   5959585247.2329378        22822044.128346443        354057411.59563893     
   6103238847.5262680        30674539.462301254        536413923.17239195     
   5963645211.4921045        33222096.412244081        531588330.77877593     
   5824040718.2206812        35733462.571322918        528669517.95708603     
   5684425367.7119923        38208637.939525843        527657484.70732540     
   5544799159.9660473        40647622.516861439        528552231.02948916     
   5648171183.0292873        14371116.578784466        728790413.26250005     
   5522301876.8826160        47443629.322282791        717796182.41712940     
   5391829070.6851540        65171141.896484375        708408128.26862049     
   5256752764.4369030        67553654.301385880        700626250.81697595     
   5117072958.1378622        54591166.536988020        694450550.06219161     
   6750337078.0828705       -24475215.753840923       -20721728.475514568     
   6529883018.9273109        9808924.7867686749       -15047767.563510697     
   6302213976.2994614        20043120.419766665       -8652923.8559629042     
   6067329950.1993332        6227371.1451628208       -1537197.3528718245     
   5825230940.6269245       -31638323.037050962        6299411.9457721468     
   6361431219.9385481        1114431.3714423180        170966091.76063943     
   6139626107.9756289        15606530.471807241        165876777.93592674     
   5912560413.9326992        12563355.972135305        163594704.10391623     
   5680234137.8097591       -8015092.1275610924        164119870.26459923     
   5442647279.6068134       -46128813.827293396        167452276.41798377     
   5959585247.2329378        22822044.128346443        354057411.59563893     
   5742390103.0259504        19310407.957443714        340484957.99187112     
   5521888778.1312275        4778169.4940905571        331806101.57794613     
   5298081272.5487700       -20774671.261716604        328020842.35388029     
   5070967586.2785778       -57348114.309970856        329129180.31965536     
   5544799159.9660473        40647622.516861439        528552231.02948916     
   5338175004.0782785        20920557.243687153        508776772.60431302     
   5130199068.8950462       -3312439.0143680573        495981268.56613731     
   4920871354.4163542       -32051366.257292986        490165718.91496277     
   4710191860.6421986       -65296224.485092402        491330123.65078658     
   5117072958.1378622        54591166.536988020        694450550.06219161     
   4926980811.1326027        20436978.330523252        670752221.77326083     
   4737491286.2241592       -11708469.553231955        656120205.06848240     
   4548604383.4125214       -41845177.114291906        650554499.94785118     
   4360320102.6976938       -69973144.352653265        654055106.41137385     
   5825230940.6269245       -31638323.037050962        6299411.9457721468     
   5758090037.0151300       -28164638.714951038       -1490750.8481321053     
   5690813752.0730629       -25142225.493756771       -7091699.1016232679     
   5623402085.8007326       -22571083.373438120       -10503432.814705504     
   5555855038.1981239       -20451212.354060411       -11725951.987375291     
   5442647279.6068134       -46128813.827293396        167452276.41798377     
   5382283907.0452881       -37591727.889416218        163795246.87113884     
   5322884695.8682756       -25840770.669810534        161994010.91121033     
   5264449646.0757856       -10875942.168466330        162048568.53821105     
   5206978757.6678181        7302757.6146094799        163958919.75212440     
   5070967586.2785778       -57348114.309970856        329129180.31965536     
   5016429113.4716263       -44033416.145034552        330888083.85378641     
   4963954344.7639875       -23839704.315724373        334169360.02134883     
   4913543280.1556683        3233021.1779708862        338973008.82234687     
   4865195919.6466522        37184760.336031199        345299030.25677204     
   4710191860.6421986       -65296224.485092402        491330123.65078658     
   4660525656.2941494       -47489703.481791973        499787760.09981740     
   4614022698.7602062       -19139026.431478500        509434348.22879064     
   4570682988.0403652        19755806.665847778        520269888.03771544     
   4530506524.1346292        69194795.810183764        532294379.52657729     
   4360320102.6976938       -69973144.352653265        654055106.41137385     
   4314573535.5128593       -47960589.899698496        670494275.60922956     
   4273089757.8569217       -11738737.017095089        687788975.53354156     
   4235868769.7298813        38692414.295166492        705939206.18430483     
   4202910571.1317348        103332864.03707910        724944967.56152916     
   5555855038.1981239       -20451212.354060411       -11725951.987375291     
   5293166270.4797173       -68621755.956324100       -36494999.615093425     
   5036053830.0782404       -98204541.835496664       -54105919.994230814     
   4784517716.9936886       -109199569.99158168       -64558713.124805391     
   4538557931.2260580       -101606840.42460060       -67853379.006806910     
   5206978757.6678181        7302757.6146094799        163958919.75212440     
   4967853568.0437393       -22015164.608002186        146784672.20417631     
   4732379382.9862061       -39163071.608783960        136227521.77722687     
   4500556202.4952269       -44140963.387722254        132287468.47125554     
   4272384026.5708008       -36948839.944822311        134964512.28628671     
   4865195919.6466522        37184760.336031199        345299030.25677204     
   4648088507.7523670        26255719.383671999        333473372.91316783     
   4432706777.6742620        21078951.151929140        327723782.56297046     
   4219050729.4123411        21654455.640789747        328050259.20617223     
   4007120362.9666071        27982232.850271225        334452802.84278953     
   4530506524.1346292        69194795.810183764        532294379.52657729     
   4333871089.6056175        76190896.018744230        523571102.51187259     
   4137036014.1424232        82521526.446680307        520382862.36299682     
   3940001297.7450438        88186687.093995094        522729659.07995069     
   3742766940.4134712        93186377.960684061        530611492.66272408     
   4202910571.1317348        103332864.03707910        724944967.56152916     
   4025201313.6034875        127790365.29720044        717077861.00030196     
   3845367092.3906841        145164654.27546668        714204761.17731619     
   3663407907.4933238        155455730.97187507        716325668.09257567     
   3479323758.9114008        158663595.38641346        723440581.74607646     
   4538557931.2260580       -101606840.42460060       -67853379.006806910     
   4109850441.3241005       -135115614.08331299       -121293558.22695108     
   3684614629.3895597       -157052127.85062361       -167175808.23052371     
   3262850495.4224429       -167416381.72654057       -205500129.01752287     
   2844558039.4227495       -166208375.71102500       -236266520.58794406     
   4272384026.5708008       -36948839.944822311        134964512.28628671     
   3861596186.5680447       -79226414.978728771        84128569.903241247     
   3450661738.0954447       -121992684.91211963        41542613.928042345     
   3039580681.1530075       -165247649.74496496        7206644.3607072989     
   2628353015.7407260       -208991309.47729206       -18879338.798770942     
   4007120362.9666071        27982232.850271225        334452802.84278953     
   3616229479.1238561       -22470951.680587769        281999763.12003648     
   3221573700.3739953       -85473785.901809812        238488766.99641526     
   2823153026.7170348       -161026269.81336415        203919814.47193369     
   2420967458.1529627       -249128403.41529429        178292905.54658812     
   3742766940.4134712        93186377.960684061        530611492.66272408     
   3373750318.9915233        35150775.811115146        472320021.42344964     
   2997350516.2252035       -47495430.819692612        423662650.97459173     
   2613567532.1145153       -154752241.93173397        384639381.31615376     
   2222401366.6594539       -286619657.52501369        355250212.44812673     
   3479323758.9114008        158663595.38641346        723440581.74607646     
   3134158706.1710544        93638767.496378899        655089344.81348431     
   2777992185.6490707       -8057619.6657966375        597064265.86257720     
   2410824197.3454537       -146425566.10007274        549365344.89337134     
   2032654741.2602041       -321465071.80646205        511992581.90586406     
   2844558039.4227495       -166208375.71102500       -236266520.58794406     
   3985300684.2041717        60386004.667142868        70842547.952985570     
   4962797482.3115635       -257172437.20144987        243195324.25051051     
   5777048433.7449293       -1118883701.3167963        280791808.30460137     
   6428053538.5042610       -2524747787.6789279        183632000.11529776     
   2628353015.7407260       -208991309.47729206       -18879338.798770942     
   3450227218.3923960       -35737888.391222477        155624061.31628573     
   4171412768.2386742       -198113309.98980594        231909788.79621020     
   4791909665.2795391       -696117574.27306271        209977843.64099219     
   5311717909.5150261       -1529750681.2409627        89828225.850618884     
   2420967458.1529627       -249128403.41529429        178292905.54658812     
   3028369274.6985202       -97897124.814208150        293174030.08250499     
   3597639632.3073130       -73770709.335683584        346376101.59155178     
   4128778530.9793367       -176749156.97974658        337899120.07373434     
   4621785970.7145767       -406832467.74636173        267743085.52904686     
   2222401366.6594539       -286619657.52501369        355250212.44812673     
   2719726853.1225376       -126091704.60183072        483492454.25164342     
   3241478074.5174813        115855364.76087415        586594262.63655210     
   3787655030.8442826        439221550.56312120        664555637.60287595     
   4358257722.1029453        844006852.80488443        717376579.15060091     
   2032654741.2602041       -321465071.80646205        511992581.90586406     
   2524299953.6644506       -120321627.75408781        726579333.82369804     
   3102928094.8691802        370764912.29990959        952564271.93121195     
   3768539164.8743930        1151794548.3555162        1189947396.2284102     
   4521133163.6800976        2222767280.4127526        1438728706.7152693     
   5958525674.9156265        1787557702.4746881        1148708697.6704240     
   6089086949.1072330        1502539858.0626521        1226689585.0394328     
   6222422692.3358126        1226770243.7738652        1267427123.1317434     
   6358532904.6013670        960248859.60832870        1270921311.9473562     
   6497417585.9038973        702975705.56604195        1237172151.4862719     
   5434115574.1591625        1630234672.2477486        1032167221.0186141     
   5489764842.0652094        1372682335.2668371        1112822325.2089994     
   5547638982.4071388        1122546239.7388690        1166757964.4338543     
   5607737995.1849527        879826385.66384506        1193974138.6931796     
   5670061880.3986473        644522773.04176474        1194470847.9869759     
   4893979736.6597214        1468193920.9979162        935153692.12133551     
   4904785239.1692619        1247127563.7148452        1017841817.0984895     
   4917266017.5135937        1031645459.2144113        1084334361.4212821     
   4931422071.6927166        821747607.49661565        1134631325.0897138     
   4947253401.7066317        617434008.56145763        1168732708.1037836     
   4338118162.4173031        1301435448.7251911        857668110.97858822     
   4334148140.4193897        1125875543.4066753        941748060.70790422     
   4331303797.6551771        954067902.20049191        1020156314.0940275     
   4329585134.1246605        786012525.10663986        1092892871.1369567     
   4328992149.8278456        621709412.12511969        1159957731.8366935     
   3766530851.4319100        1129959255.4295731        799710477.59037209     
   3777853545.8155942        1008926274.3423290        884541056.03724325     
   3789752322.8318853        889813568.69711041        974223822.45208919     
   3802227182.4807854        772621138.49391878        1068758776.8349106     
   3815278124.7622919        657348983.73275149        1168145919.1857066     
   6497417585.9038973        702975705.56604195        1237172151.4862719     
   6239049487.3758574        377302898.95459986        1051967934.3619139     
   6011385720.7207413        153977865.25290966        905502905.61650014     
   5814426285.9385529        33000604.460971594        797777065.25002813     
   5648171183.0292873        14371116.578784466        728790413.26250005     
   5670061880.3986473        644522773.04176474        1194470847.9869759     
   5518017223.7822428        384700153.77665377        1072331967.4169927     
   5389983885.4372091        204915262.08277535        978044964.39709508     
   5285961865.3635435        105168097.96012592        911609838.92728245     
   5205951163.5612478        85458661.408708811        873026591.00755644     
   4947253401.7066317        617434008.56145763        1168732708.1037836     
   4870425584.6336975        414129595.93222857        1101850648.2196929     
   4810916072.2305775        268552865.53571010        1051933155.0568292     
   4768724864.4972696        180703817.37190080        1018980228.6151935     
   4743851961.4337759        150582451.44080162        1002991868.8947861     
   4328992149.8278456        621709412.12511969        1159957731.8366935     
   4296274569.9302177        465591225.42132282        1140523976.7700119     
   4274182281.1008477        344890675.61171520        1127167477.5957012     
   4262715283.3397350        259607762.69629645        1119888234.3137593     
   4261873576.6468801        209742486.67506862        1118686246.9241877     
   3815278124.7622919        657348983.73275149        1168145919.1857066     
   3795564179.6718059        539085042.24393737        1188351953.0679526     
   3779782512.0480213        433928692.31079197        1203747932.0137107     
   3767933121.8909373        341879933.93331504        1214333856.0229819     
   3760016009.2005534        262938767.11150503        1220109725.0957634     
   5648171183.0292873        14371116.578784466        728790413.26250005     
   5522301876.8826160        47443629.322282791        717796182.41712940     
   5391829070.6851540        65171141.896484375        708408128.26862049     
   5256752764.4369030        67553654.301385880        700626250.81697595     
   5117072958.1378622        54591166.536988020        694450550.06219161     
   5205951163.5612478        85458661.408708811        873026591.00755644     
   5076971881.6372757        85079152.407530069        852525004.61563802     
   4946412381.3892393        79432248.992791176        835744649.79309595     
   4814272662.8171339        68517951.164494991        822685526.53992319     
   4680552725.9209595        52336258.922638416        813347634.85612226     
   4743851961.4337759        150582451.44080162        1002991868.8947861     
   4617805717.6539660        118563824.87138343        976510088.97083223     
   4493202537.2768078        91355409.644144535        955864595.48876226     
   4370042420.3023052        68957205.759084940        941055388.44857264     
   4248325366.7304559        51369213.216208458        932082467.85026586     
   4261873576.6468801        209742486.67506862        1118686246.9241877     
   4144803384.9326811        147897646.71384597        1089751435.4827073     
   4032199538.3478575        100940623.85054111        1068767965.3556188     
   3924062036.8924141        68871418.085157871        1055735836.5429212     
   3820390880.5663419        51690029.417693853        1050655049.0446143     
   3760016009.2005534        262938767.11150503        1220109725.0957634     
   3657964883.4734259        173080617.93491721        1192249044.1512654     
   3563403384.6023951        108187891.61198449        1174454759.3936677     
   3476331512.5874619        68260588.142712235        1166726870.8229706     
   3396749267.4286275        53298707.527102351        1169065378.4391718     
   5117072958.1378622        54591166.536988020        694450550.06219161     
   4926980811.1326027        20436978.330523252        670752221.77326083     
   4737491286.2241592       -11708469.553231955        656120205.06848240     
   4548604383.4125214       -41845177.114291906        650554499.94785118     
   4360320102.6976938       -69973144.352653265        654055106.41137385     
   4680552725.9209595        52336258.922638416        813347634.85612226     
   4514111472.4384089        23993090.351866961        790882864.99766374     
   4347704229.7944250       -4236708.7570035458        776203774.04120338     
   4181330997.9890156       -32353138.403965235        769310361.98674548     
   4014991777.0221782       -60356198.589027166        770202628.83428884     
   4248325366.7304559        51369213.216208458        932082467.85026586     
   4101876056.2501802        27739379.124997377        910187876.62099481     
   3954892145.3502388        2327543.6348955631        894798331.61157548     
   3807373634.0306263       -24866293.254099846        885913832.82200897     
   3659320522.2913499       -53842131.541990042        883534380.25229263     
   3820390880.5663419        51690029.417693853        1050655049.0446143     
   3690274562.5679207        31675844.649920702        1028667256.6432567     
   3559055032.8915877        7984287.6224503517        1011903877.7795988     
   3426732291.5373521       -19384641.664698362        1000364912.4536459     
   3293306338.5052071       -50430943.211546898        994050360.66539299     
   3396749267.4286275        53298707.527102351        1169065378.4391718     
   3279306991.3916273        35802486.926632404        1146321005.0644448     
   3160192892.4184818        12733523.205673575        1127520412.5452712     
   3039406970.5091929       -15908183.635762811        1112663600.8816504     
   2916949225.6637526       -50122633.597700715        1101750570.0735831     
   4360320102.6976938       -69973144.352653265        654055106.41137385     
   4314573535.5128593       -47960589.899698496        670494275.60922956     
   4273089757.8569217       -11738737.017095089        687788975.53354156     
   4235868769.7298813        38692414.295166492        705939206.18430483     
   4202910571.1317348        103332864.03707910        724944967.56152916     
   4014991777.0221782       -60356198.589027166        770202628.83428884     
   3969553058.9830251       -46258433.288505554        787907245.28210115     
   3927924730.9452620       -19459367.983352423        806819627.84300625     
   3890106792.9088898        20040997.326439381        826939776.51700580     
   3856099244.8739066        72242662.640856981        848267691.30409408     
   3659320522.2913499       -53842131.541990042        883534380.25229263     
   3615196040.2168336       -47357239.348220587        901976644.50130963     
   3574429548.6162066       -29679045.574833155        921978910.25005472     
   3537021047.4894624       -807550.22182846069        943541177.49852502     
   3502970536.8366051        39257246.710794687        966663446.24672353     
   3293306338.5052071       -50430943.211546898        994050360.66539299     
   3251502479.2142916       -51257008.078842402        1012702473.2668575     
   3212604210.8697586       -42397769.791529059        1033266822.7546815     
   3176611533.4716034       -23853228.349622846        1055743409.1288707     
   3143524447.0198274        4376616.2468852997        1080132232.3894241     
   2916949225.6637526       -50122633.597700715        1101750570.0735831     
   2878472375.9753952       -57957739.480367780        1120084731.5787370     
   2842448717.7059145       -57615540.633449912        1140683365.3568928     
   2808878250.8553085       -49096037.056944728        1163546471.4080441     
   2777760975.4235783       -32399228.750859141        1188674049.7321973     
   4202910571.1317348        103332864.03707910        724944967.56152916     
   4025201313.6034875        127790365.29720044        717077861.00030196     
   3845367092.3906841        145164654.27546668        714204761.17731619     
   3663407907.4933238        155455730.97187507        716325668.09257567     
   3479323758.9114008        158663595.38641346        723440581.74607646     
   3856099244.8739066        72242662.640856981        848267691.30409408     
   3688961258.2302547        87324739.120329380        835965297.44952869     
   3519871920.7594895        95902312.842750430        828964203.25578701     
   3348831232.4616089        97975383.808122396        827264408.72287369     
   3175839193.3366141        93543952.016448975        830865913.85078573     
   3502970536.8366051        39257246.710794687        966663446.24672353     
   3347281800.8563538        45227292.343261957        950128313.43251026     
   3189815326.9064250        45271544.743479967        939201773.20169878     
   3030571114.9868269        39390003.911466122        933883825.55429697     
   2869549165.0975580        27582669.847208619        934174470.49029708     
   3143524447.0198274        4376616.2468852997        1080132232.3894241     
   3000162941.4817729        1498024.9659787416        1059566908.9492438     
   2855197310.8314910       -6727650.0223565102        1044917471.0150459     
   2708627555.0689764       -20300408.718124628        1036183918.5868396     
   2560453674.1942401       -39220251.121309638        1033366251.6646134     
   2777760975.4235783       -32399228.750859141        1188674049.7321973     
   2647604680.1065259       -43863063.011486411        1164281083.9997306     
   2516017872.5346832       -60095271.454753995        1146111296.6958315     
   2383000552.7080579       -81095854.080628037        1134164687.8204999     
   2248552720.6266484       -106864810.88911641        1128441257.3737369     
   3479323758.9114008        158663595.38641346        723440581.74607646     
   3134158706.1710544        93638767.496378899        655089344.81348431     
   2777992185.6490707       -8057619.6657966375        597064265.86257720     
   2410824197.3454537       -146425566.10007274        549365344.89337134     
   2032654741.2602041       -321465071.80646205        511992581.90586406     
   3175839193.3366141        93543952.016448975        830865913.85078573     
   2857846993.9107008        30066759.779229760        750220776.06129360     
   2531556225.0776639       -61072330.481734753        679794528.45824945     
   2196966886.8374896       -179873318.76648259        619587171.04165173     
   1854078979.1901960       -326336205.07497489        569598703.81150413     
   2869549165.0975580        27582669.847208619        934174470.49029708     
   2578423339.5710855       -34438830.561685443        844388813.28083575     
   2281701843.0119939       -115112567.74597216        764714778.46257496     
   1979384675.4202824       -214438541.70565891        695152366.03551352     
   1671471836.7959521       -332416752.44075537        635701575.99965417     
   2560453674.1942401       -39220251.121309638        1033366251.6646134     
   2295887743.1522150       -99878003.526376724        937593456.47210836     
   2028429039.4520798       -170178331.45847762        851825015.87555611     
   1758077563.0938325       -250121234.91761816        776060929.87495112     
   1484833314.0774727       -339706713.90380156        710301198.47031343     
   2248552720.6266484       -106864810.88911641        1128441257.3737369     
   2010240204.6540825       -166250759.11485004        1029834705.6351115     
   1771737814.3979151       -226269621.61925077        941125240.69719160     
   1533045549.8581390       -286921398.40234929        862312862.55997574     
   1294163411.0347567       -348206089.46413517        793397571.22347152     
   2032654741.2602041       -321465071.80646205        511992581.90586406     
   2524299953.6644506       -120321627.75408781        726579333.82369804     
   3102928094.8691802        370764912.29990959        952564271.93121195     
   3768539164.8743930        1151794548.3555162        1189947396.2284102     
   4521133163.6800976        2222767280.4127526        1438728706.7152693     
   1854078979.1901960       -326336205.07497489        569598703.81150413     
   2353221134.7881098       -153353571.28200006        858796270.91884792     
   2904729882.5148306        194184369.60699916        1148861179.7376666     
   3508605222.3703747        716277617.59206653        1439793430.2679539     
   4164847154.3547301        1412926172.6731877        1731593022.5097091     
   1671471836.7959521       -332416752.44075537        635701575.99965417     
   2148022808.5069432       -196621367.03138185        959124232.17956007     
   2642324035.6750789       -1658463.4315246344        1272883385.5927250     
   3154375518.3003631        252471958.35881734        1576979036.2391584     
   3684177256.3827910        565769898.33965826        1871411184.1188579     
   1484833314.0774727       -339706713.90380156        710301198.47031343     
   1908704974.8209548       -250125015.00219929        1027563217.6058270     
   2315710554.3499093       -216763586.81566727        1324630889.4964015     
   2705850052.6643438       -239622429.34422660        1601504214.1420343     
   3079123469.7642460       -318701542.58785641        1858183191.5427184     
   1294163411.0347567       -348206089.46413517        793397571.22347152     
   1635267633.7301407       -313864515.19446778        1064113227.1976503     
   1924889438.5393286       -451131000.54545760        1304103691.4486854     
   2163028825.4623194       -760005545.51708817        1513368963.9765704     
   2349685794.4991302       -1240488150.1093426        1691909044.7813110     
   3766530851.4319100        1129959255.4295731        799710477.59037209     
   3777853545.8155942        1008926274.3423290        884541056.03724325     
   3789752322.8318853        889813568.69711041        974223822.45208919     
   3802227182.4807854        772621138.49391878        1068758776.8349106     
   3815278124.7622919        657348983.73275149        1168145919.1857066     
   3206223768.6962800        961867130.60888398        756077599.96536052     
   3234523911.8873634        868327174.24920595        852979510.50983965     
   3262532263.6089430        773814579.65784836        951744264.92413580     
   3290248823.8610187        678329346.83481157        1052371863.2082493     
   3317673592.6435895        581871475.78009462        1154862305.3621795     
   2684202879.2031541        805260863.76094627        721566286.11222684     
   2720939488.0640426        736651637.18755615        829527008.96851707     
   2756516431.3533154        664176858.70878100        936361231.59646654     
   2790933709.0709734        587836528.32462120        1042068953.9960750     
   2824191321.2170153        507630646.03507626        1146650176.1673424     
   2200468182.9525328        660140454.88575983        696176536.03097093     
   2237100274.3456321        613899663.15737927        814183551.41327560     
   2271704826.0650043        560900405.84990835        928074722.46908128     
   2304281838.1106491        501142682.96334720        1037850049.1983875     
   2334831310.4825673        434626494.49769562        1143509531.6011956     
   1755019679.9444151        526505903.98332453        679908349.72159278     
   1783006270.7321310        500071252.15867519        806949137.84411490     
   1808097447.7440083        463985221.08123022        926884737.54197967     
   1830293210.9800472        418247810.75098962        1039715148.8151878     
   1849593560.4402468        362859021.16795331        1145440371.6637390     
   3815278124.7622919        657348983.73275149        1168145919.1857066     
   3795564179.6718059        539085042.24393737        1188351953.0679526     
   3779782512.0480213        433928692.31079197        1203747932.0137107     
   3767933121.8909373        341879933.93331504        1214333856.0229819     
   3760016009.2005534        262938767.11150503        1220109725.0957634     
   3317673592.6435895        581871475.78009462        1154862305.3621795     
   3291064950.7128105        474457331.31517923        1181902192.5037673     
   3268212111.1111879        379562527.94745004        1205944722.3145640     
   3249115073.8387213        297187065.67690921        1226989894.7945688     
   3233773838.8954105        227330944.50355458        1245037709.9437833     
   2824191321.2170153        507630646.03507626        1146650176.1673424     
   2795867118.4622164        412620039.39894038        1180318028.9078043     
   2771122242.8990302        329540523.40151119        1212801221.9231710     
   2749956694.5274558        258392098.04278815        1244099755.2134428     
   2732370473.3474927        199174763.32277226        1274213628.7786179     
   2334831310.4825673        434626494.49769562        1143509531.6011956     
   2309970682.9200244        353573166.49522251        1183599462.2800634     
   2288512907.4115486        283862678.67297477        1224317430.8395314     
   2270457983.9571409        225495031.03095239        1265663437.2796011     
   2255805912.5568013        178470223.56915772        1307637481.6002705     
   1849593560.4402468        362859021.16795331        1145440371.6637390     
   1833375644.0862336        297316712.60402554        1191746492.6205444     
   1820384104.6487441        242528993.76184136        1240493349.0636463     
   1810618942.1277785        198495864.64140302        1291680940.9930453     
   1804080156.5233362        165217325.24271011        1345309268.4087415     
   3760016009.2005534        262938767.11150503        1220109725.0957634     
   3657964883.4734259        173080617.93491721        1192249044.1512654     
   3563403384.6023951        108187891.61198449        1174454759.3936677     
   3476331512.5874619        68260588.142712235        1166726870.8229706     
   3396749267.4286275        53298707.527102351        1169065378.4391718     
   3233773838.8954105        227330944.50355458        1245037709.9437833     
   3160113707.4519653        154797654.53689098        1232602292.8915009     
   3092468213.3431411        102313155.68563306        1227941661.5913217     
   3030837356.5689392        69877447.949784160        1231055816.0432467     
   2975221137.1293626        57490531.329344153        1241944756.2472727     
   2732370473.3474927        199174763.32277226        1274213628.7786179     
   2680553877.8025932        142002095.05049205        1275482654.5101647     
   2633276930.0708413        99961586.155368805        1282234855.5590172     
   2590539630.1522350        73053236.637401819        1294470231.9251754     
   2552341978.0467772        61277046.496591687        1312188783.6086388     
   2255805912.5568013        178470223.56915772        1307637481.6002705     
   2219285394.5253129        134693939.47572005        1320890129.0072591     
   2185829534.7854953        101133183.02118909        1337334341.2967544     
   2155438333.3373485        77787954.205562472        1356970118.4687588     
   2128111790.1808753        64658253.028843284        1379797460.5232689     
   1804080156.5233362        165217325.24271011        1345309268.4087415     
   1776308257.6201205        132873187.81257427        1368824716.3827817     
   1750126027.4871032        105827946.28309733        1393240118.8045328     
   1725533466.1242802        84081600.654270232        1418555475.6739943     
   1702530573.5316548        67634150.926100314        1444770786.9911659     
   3396749267.4286275        53298707.527102351        1169065378.4391718     
   3279306991.3916273        35802486.926632404        1146321005.0644448     
   3160192892.4184818        12733523.205673575        1127520412.5452712     
   3039406970.5091929       -15908183.635762811        1112663600.8816504     
   2916949225.6637526       -50122633.597700715        1101750570.0735831     
   2975221137.1293626        57490531.329344153        1241944756.2472727     
   2868307709.9842334        37552865.079505444        1217646010.0934539     
   2760547829.6905913        14793688.334626913        1198066008.1507571     
   2651941496.2484407       -10786998.905288577        1183204750.4191880     
   2542488709.6577754       -39189196.640243530        1173062236.8987420     
   2552341978.0467772        61277046.496591687        1312188783.6086388     
   2458171580.8094378        39562188.902158618        1287298596.0946341     
   2363980100.2112217        17777053.438136816        1267902116.1473248     
   2269767536.2521305       -4078359.8954743147        1253999343.7667127     
   2175533888.9321589       -26004051.098677397        1245590278.9527960     
   2128111790.1808753        64658253.028843284        1379797460.5232689     
   2048898603.8672438        41830458.394592166        1355278763.0679860     
   1970489703.9803703        21683618.516198516        1337028736.5349705     
   1892885090.5202565        4217733.3936706781        1325047380.9242241     
   1816084763.4868975       -10567196.973004341        1319334696.2357438     
   1702530573.5316548        67634150.926100314        1444770786.9911659     
   1640488779.1576498        44357673.556803823        1421586511.0135109     
   1580076640.9980407        26513383.568825603        1405445869.3136959     
   1521294159.0528200        14101280.962142825        1396348861.8917191     
   1464141333.3219938        7121365.7367745638        1394295488.7475836     
   2916949225.6637526       -50122633.597700715        1101750570.0735831     
   2878472375.9753952       -57957739.480367780        1120084731.5787370     
   2842448717.7059145       -57615540.633449912        1140683365.3568928     
   2808878250.8553085       -49096037.056944728        1163546471.4080441     
   2777760975.4235783       -32399228.750859141        1188674049.7321973     
   2542488709.6577754       -39189196.640243530        1173062236.8987420     
   2511170829.1083484       -41981529.637285829        1196689685.2967117     
   2482129770.6693287       -37184455.599628448        1222395843.9395578     
   2455365534.3407130       -24797974.527294636        1250180712.8272827     
   2430878120.1225090       -4822086.4202558994        1280044291.9598882     
   2175533888.9321589       -26004051.098677397        1245590278.9527960     
   2150844228.8698859       -23912835.805625916        1274305250.0503652     
   2128255021.6095536       -14820111.172771931        1304913169.3646922     
   2107766267.1511617        1274122.7998771667        1337414036.8957767     
   2089377965.4947052        24369866.112323403        1371807852.6436198     
   1816084763.4868975       -10567196.973004341        1319334696.2357438     
   1797492575.2600102       -3751657.9853880405        1352931425.8397005     
   1780824470.5265932        9477492.6471328735        1388235341.6322968     
   1766080449.2866485        29120254.924561262        1425246443.6135285     
   1753260511.5401728        55176628.846889317        1463964731.7834013     
   1464141333.3219938        7121365.7367745638        1394295488.7475836     
   1451115868.2787170        18502003.823422194        1432568212.6647153     
   1439838117.4204440        35708355.860081196        1472362360.7423675     
   1430308080.7471738        58740421.846750855        1513677932.9805341     
   1422525758.2589064        87598201.783428252        1556514929.3792174     
   2777760975.4235783       -32399228.750859141        1188674049.7321973     
   2647604680.1065259       -43863063.011486411        1164281083.9997306     
   2516017872.5346832       -60095271.454753995        1146111296.6958315     
   2383000552.7080579       -81095854.080628037        1134164687.8204999     
   2248552720.6266484       -106864810.88911641        1128441257.3737369     
   2430878120.1225090       -4822086.4202558994        1280044291.9598882     
   2318708509.5076880       -9136745.8787597418        1256017190.4041774     
   2205590062.2902293       -16614194.012722611        1237953012.1595845     
   2091522778.4701262       -27254430.822167993        1225851757.2261178     
   1976506658.0473857       -41057456.307066917        1219713425.6037638     
   2089377965.4947052        24369866.112323403        1371807852.6436198     
   1994451453.5322709        26981305.641003966        1348708570.1921692     
   1899057780.6193435        28035542.001368880        1331311955.9343920     
   1803196946.7559185        27532575.193412423        1319618009.8702822     
   1706868951.9420009        25472405.217146039        1313626731.9998527     
   1753260511.5401728        55176628.846889317        1463964731.7834013     
   1674833512.1802728        64491091.547786295        1442355223.3637078     
   1596421027.5220280        73853936.587534845        1426188128.0202432     
   1518023057.5654314        83265163.966107428        1415463445.7530031     
   1439639602.3104866        92724773.683523476        1410181176.5619903     
   1422525758.2589064        87598201.783428252        1556514929.3792174     
   1359854685.4516966        103392611.84160173        1536957149.9187932     
   1297679802.9982858        120840989.74577790        1522581528.4171450     
   1236001110.8986661        139943335.49591947        1513388064.8742771     
   1174818609.1528447        160699649.09205601        1509376759.2901852     
   2248552720.6266484       -106864810.88911641        1128441257.3737369     
   2010240204.6540825       -166250759.11485004        1029834705.6351115     
   1771737814.3979151       -226269621.61925077        941125240.69719160     
   1533045549.8581390       -286921398.40234929        862312862.55997574     
   1294163411.0347567       -348206089.46413517        793397571.22347152     
   1976506658.0473857       -41057456.307066917        1219713425.6037638     
   1769034576.5937181       -87073988.751368284        1121092705.6706302     
   1559559649.1162329       -139766674.60839182        1033213060.3094559     
   1348081875.6149340       -199135513.87813205        956074489.52024055     
   1134601256.0898151       -265180506.56060028        889676993.30299187     
   1706868951.9420009        25472405.217146039        1313626731.9998527     
   1532648698.6393864       -6451293.3560851216        1212876710.1752920     
   1354612627.5727453       -51094384.476074815        1123711750.6939504     
   1172760738.7420797       -108456868.14281315        1046131853.5558237     
   987093032.14738750       -178538744.35630935        980137018.76091611     
   1439639602.3104866        92724773.683523476        1410181176.5619903     
   1301082570.7910872        75617327.071010292        1305186719.1490984     
   1156896749.7674499        39747248.777703404        1212621311.8506706     
   1007082139.2395785       -14885461.196386516        1132484954.6667218     
   851638739.20746934       -88280802.851263225        1064777647.5972487     
   1174818609.1528447        160699649.09205601        1509376759.2901852     
   1074336193.0488229        159131872.52991784        1398022732.5920401     
   966412015.70034814        132758225.15293965        1299941743.7796264     
   851046077.10743082        81578706.961151063        1215133792.8529403     
   728238377.27006137        5593317.9545226991        1143598879.8119817     
   1294163411.0347567       -348206089.46413517        793397571.22347152     
   1635267633.7301407       -313864515.19446778        1064113227.1976503     
   1924889438.5393286       -451131000.54545760        1304103691.4486854     
   2163028825.4623194       -760005545.51708817        1513368963.9765704     
   2349685794.4991302       -1240488150.1093426        1691909044.7813110     
   1134601256.0898151       -265180506.56060028        889676993.30299187     
   1404979319.7519152       -220274788.79991323        1124895826.8826494     
   1654806233.0556159       -243872905.56723356        1333997235.2003911     
   1884081996.0009069       -335974856.86256325        1516981218.2562041     
   2092806608.5878098       -496580642.68587959        1673847776.0501020     
   987093032.14738750       -178538744.35630935        980137018.76091611     
   1199909983.8082743       -119119368.99498492        1215945508.7284808     
   1423107052.6385508       -25099603.069025099        1430244339.8953509     
   1656684238.6382267        103520553.42158812        1623033512.2615194     
   1900641541.8072915        266741100.47683740        1794313025.8269930     
   851638739.20746934       -88280802.851263225        1064777647.5972487     
   1020059625.8992146       -10398255.779681444        1337262272.7351406     
   1229791897.2881441        205188906.94918242        1592845005.5335634     
   1480835553.3742604        558480685.33533692        1831525845.9925089     
   1773190594.1575661        1049477079.3787855        2053304794.1119981     
   728238377.27006137        5593317.9545226991        1143598879.8119817     
   865428246.02473962        105888550.84599742        1488846118.9026327     
   1074860767.0043933        446992624.48738521        1821799232.1150327     
   1356535940.2090297        1028905538.8787227        2142458219.4491851     
   1710453765.6386416        1851627294.0199740        2450823080.9050956     
   1755019679.9444151        526505903.98332453        679908349.72159278     
   1783006270.7321310        500071252.15867519        806949137.84411490     
   1808097447.7440083        463985221.08123022        926884737.54197967     
   1830293210.9800472        418247810.75098962        1039715148.8151878     
   1849593560.4402468        362859021.16795331        1145440371.6637390     
   1325601895.2760656        397680568.58281964        669664370.82710588     
   1338766912.5331423        375507101.85011965        792483667.27813876     
   1349760369.4653180        346095100.70108330        910023591.33980989     
   1358582266.0725923        309444565.13571048        1022284143.0121195     
   1365232602.3549666        265555495.15400159        1129265322.2950678     
   889959354.04474854        266987806.21342456        662347242.99052346     
   893519415.01488686        250640509.74578401        781789543.46282792     
   895631769.11106181        229467523.69826654        897778287.58106625     
   896296416.33327377        203468848.07087219        1010313475.3452382     
   895513356.68152285        172644482.86360097        1119395106.7553446     
   448092056.25046331        134427616.87513900        657956966.21184576     
   447263778.17736435        125471475.84566823        774866766.39818275     
   445711646.68124008        114102490.07278007        890148826.26574862     
   443435661.76209062        100320659.55647448        1003803145.8145442     
   440435823.41991603        84125984.296751678        1115829725.0445685     
   1.8932103481071285       0.56796310443213849        656493540.49107265     
   2.0205752307128928       0.14977259931354481        771715336.08420289     
   2.1758527243003760      -0.17537591256740470        887135207.39385760     
   2.3590428131426902      -0.40748259205388937        1002753154.4200370     
   2.5701454586374721      -0.54654724255980114        1118569177.1627407     
   1849593560.4402468        362859021.16795331        1145440371.6637390     
   1833375644.0862336        297316712.60402554        1191746492.6205444     
   1820384104.6487441        242528993.76184136        1240493349.0636463     
   1810618942.1277785        198495864.64140302        1291680940.9930453     
   1804080156.5233362        165217325.24271011        1345309268.4087415     
   1365232602.3549666        265555495.15400159        1129265322.2950678     
   1359009087.8810716        218180740.53606248        1183296644.7134881     
   1355205356.0995398        178871928.22600076        1238382720.6427805     
   1353821407.0103700        147629058.22381318        1294523550.0829477     
   1354857240.6135638        124452130.52950352        1351719133.0339878     
   895513356.68152285        172644482.86360097        1119395106.7553446     
   895324295.58653593        142249297.64128864        1180210604.0405247     
   896748422.95975089        117231407.31298319        1240694872.8611555     
   899785738.80116820        97590811.878684849        1300847913.2172348     
   904436243.11078763        83327511.338394374        1360669725.1087658     
   440435823.41991603        84125984.296751678        1115829725.0445685     
   442321267.20262653        69522383.919702083        1182488370.6016560     
   445013305.22937876        57607431.022791043        1247429805.7187693     
   448511937.50017273        48381125.606019288        1310654030.3959091     
   452817164.01500797        41843467.669385239        1372161044.6330750     
   2.5701454586374721      -0.54654724255980114        1118569177.1627407     
   2.7293439200565079      -0.62869628802426081        1190129944.3968804     
   2.9084232832881827      -0.64457587762035695        1258587519.2156229     
   3.1073835658465323      -0.59418554097114695        1323941901.6189682     
   3.3262246894545422      -0.47752573415640187        1386193091.6069160     
   1804080156.5233362        165217325.24271011        1345309268.4087415     
   1776308257.6201205        132873187.81257427        1368824716.3827817     
   1750126027.4871032        105827946.28309733        1393240118.8045328     
   1725533466.1242802        84081600.654270232        1418555475.6739943     
   1702530573.5316548        67634150.926100314        1444770786.9911659     
   1354857240.6135638        124452130.52950352        1351719133.0339878     
   1332233852.5678558        99655688.334059894        1376647393.4509790     
   1310802716.1112385        78833418.102253795        1402894316.5641825     
   1290563831.2437122        61985319.834081888        1430459902.3735981     
   1271517197.9652765        49111393.529547334        1459344150.8792272     
   904436243.11078763        83327511.338394374        1360669725.1087658     
   888157675.20402110        66437657.162071884        1386547144.5907516     
   872673941.70523977        52197251.012368351        1414161935.0174515     
   857985042.61444449        40606292.889284283        1443514096.3888664     
   844090977.93163407        31664782.792816430        1474603628.7049968     
   452817164.01500797        41843467.669385239        1372161044.6330750     
   444079725.52861691        33219094.296613574        1398523969.8020990     
   435739704.26910663        25919445.013443887        1427042974.1643398     
   427797100.23647642        19944519.819873676        1457718057.7197976     
   420251913.43072653        15294318.715907052        1490549220.4684708     
   3.3262246894545422      -0.47752573415640187        1386193091.6069160     
   3.5416447819330412      -0.26231432891206263        1412577869.0850215     
   3.8028386987029195       0.10547649063687348        1441537434.0048463     
   4.1098096766438053       0.62585768756151761        1473071786.3663907     
   4.4625540442420579        1.2988165030660181        1507180926.1696517     
   1702530573.5316548        67634150.926100314        1444770786.9911659     
   1640488779.1576498        44357673.556803823        1421586511.0135109     
   1580076640.9980407        26513383.568825603        1405445869.3136959     
   1521294159.0528200        14101280.962142825        1396348861.8917191     
   1464141333.3219938        7121365.7367745638        1394295488.7475836     
   1271517197.9652765        49111393.529547334        1459344150.8792272     
   1228734810.7365797        32778723.261516035        1438641608.2338641     
   1187174665.6912653        20520193.604756713        1424107942.8606057     
   1146836762.8293304        12335804.559265018        1415743154.7594533     
   1107721102.1507776        8225556.1250467896        1413547243.9304068     
   844090977.93163407        31664782.792816430        1474603628.7049968     
   818068692.11757553        21526127.906847000        1455907503.0224109     
   792861234.45588696        14103566.862110347        1442505497.6061962     
   768468604.94656873        9397099.6586080194        1434397612.4563539     
   744890803.58961964        7406726.2963364422        1431583847.5728829     
   420251913.43072653        15294318.715907052        1490549220.4684708     
   408490423.30063689        10599887.492795646        1473384195.3791509     
   397136347.29190713        7263503.3408851326        1460638533.5504680     
   386189685.40453541        5285166.2601674199        1452312234.9824219     
   375650437.63852239        4664876.2506460398        1448405299.6750135     
   4.4625540442420579        1.2988165030660181        1507180926.1696517     
   4.2857656526238070        2.0193699276851782        1491071685.3040838     
   4.1993234896723806        3.0410767539710308        1478507050.6934187     
   4.2032293968634686        4.3639445079546562        1469487022.3376579     
   4.2974826993705761        5.9879695524356222        1464011600.2367985     
   1464141333.3219938        7121365.7367745638        1394295488.7475836     
   1451115868.2787170        18502003.823422194        1432568212.6647153     
   1439838117.4204440        35708355.860081196        1472362360.7423675     
   1430308080.7471738        58740421.846750855        1513677932.9805341     
   1422525758.2589064        87598201.783428252        1556514929.3792174     
   1107721102.1507776        8225556.1250467896        1413547243.9304068     
   1097824906.2183037        16722905.937965155        1451375397.1333749     
   1089239495.8980405        29589541.124920070        1490754630.4780705     
   1081964871.1899896        46825461.685914040        1531684943.9644983     
   1076001032.0941477        68430667.620940983        1574166337.5926554     
   744890803.58961964        7406726.2963364422        1431583847.5728829     
   738208608.14284098        13046207.247994602        1468457680.0600953     
   732400269.73548102        21598544.997717172        1506912248.6702476     
   727465788.36753893        33063739.545498937        1546947553.4033439     
   723405164.03901541        47441790.891341746        1588563594.2593791     
   375650437.63852239        4664876.2506460398        1448405299.6750135     
   372266974.05232877        7471907.7535085082        1483815061.4448769     
   369320438.93276346        11735367.478464380        1520835215.3188944     
   366810832.27982163        17455255.425499663        1559465761.2970679     
   364738154.09350872        24631571.594630152        1599706699.3793912     
   4.2974826993705761        5.9879695524356222        1464011600.2367985     
   3.9467690105110411        7.4545115044158914        1497447541.2877235     
   3.4898889638951576        8.5671669849871162        1532523530.4240153     
   2.9268403863528576        9.3259259746915060        1569239567.6456721     
   2.2576266863298287        9.7308026105722440        1607595652.9526954     
   1422525758.2589064        87598201.783428252        1556514929.3792174     
   1359854685.4516966        103392611.84160173        1536957149.9187932     
   1297679802.9982858        120840989.74577790        1522581528.4171450     
   1236001110.8986661        139943335.49591947        1513388064.8742771     
   1174818609.1528447        160699649.09205601        1509376759.2901852     
   1076001032.0941477        68430667.620940983        1574166337.5926554     
   1026213053.1594409        79441073.042631507        1553315064.8297043     
   976797217.03339505        91691954.493194044        1538295707.3875532     
   927753523.71601093        105183311.97262785        1529108265.2661951     
   879081973.20728993        119915145.48094028        1525752738.4656365     
   723405164.03901541        47441790.891341746        1588563594.2593791     
   688356728.58257413        54225126.558274686        1566274106.0579181     
   653556388.38966119        61835446.436970681        1550466290.5392699     
   619004143.46027291        70272750.527414635        1541140147.7034338     
   584699993.79441428        79537038.829624951        1538295677.5504122     
   364738154.09350872        24631571.594630152        1599706699.3793912     
   346285711.72109759        27744772.388539881        1575834273.6034272     
   327957317.06707495        31271465.577078223        1559093277.8722951     
   309752970.13145077        35211651.160277866        1549483712.1859930     
   291672670.91421616        39565329.138109587        1547005576.5445216     
   2.2576266863298287        9.7308026105722440        1607595652.9526954     
   2.5750089331872998        10.533416423895360        1581995567.4662373     
   3.0656457683763993        11.913546225546625        1564176669.3866282     
   3.7295429107657290        13.871210384531993        1554138958.7138660     
   4.5666994910872614        16.406405309401983        1551882435.4479525     
   1174818609.1528447        160699649.09205601        1509376759.2901852     
   1074336193.0488229        159131872.52991784        1398022732.5920401     
   966412015.70034814        132758225.15293965        1299941743.7796264     
   851046077.10743082        81578706.961151063        1215133792.8529403     
   728238377.27006137        5593317.9545226991        1143598879.8119817     
   879081973.20728993        119915145.48094028        1525752738.4656365     
   811555500.14674020        121089915.42002529        1406361920.7741818     
   738447706.16522384        103660282.28922130        1298415895.2686186     
   659758591.26273382        67626246.088504940        1201914661.9489431     
   575488155.43927443        12987806.817891300        1116858220.8151608     
   584699993.79441428        79537038.829624951        1538295677.5504122     
   544905904.63494325        81887287.527229220        1413038582.5763736     
   501390934.87797850        71834600.899856627        1297398034.0883842     
   454155084.52352238        49378978.947511151        1191374032.0864451     
   403198353.57157117        14520421.670181662        1094966576.5705602     
   291672670.91421616        39565329.138109587        1547005576.5445216     
   274387406.51342499        41523988.851513073        1418052717.9986160     
   255241701.83861858        37281180.984867588        1296888160.2389250     
   234235556.88979363        26836905.538158819        1183511903.2654467     
   211368971.66695252        10191162.511395775        1077923947.0781751     
   4.5666994910872614        16.406405309401983        1551882435.4479525     
   5.7821863597517700        19.392877459567405        1421404327.0409110     
   7.0471386510167493        22.544235045623790        1296886273.7202404     
   8.3615498453719947        25.860454254202278        1178328275.4859428     
   9.7254190049230544        29.341535428434987        1065730332.3380141     
   728238377.27006137        5593317.9545226991        1143598879.8119817     
   865428246.02473962        105888550.84599742        1488846118.9026327     
   1074860767.0043933        446992624.48738521        1821799232.1150327     
   1356535940.2090297        1028905538.8787227        2142458219.4491851     
   1710453765.6386416        1851627294.0199740        2450823080.9050956     
   575488155.43927443        12987806.817891300        1116858220.8151608     
   674103577.62850380        86926140.985937178        1529513296.2420745     
   826900990.65179038        341471111.26750767        1930872207.5869191     
   1033880394.5091401        776622717.66262484        2320934954.8496766     
   1295041789.2005467        1392380960.1712558        2699701538.0303688     
   403198353.57157117        14520421.670181662        1094966576.5705602     
   466090648.61297816        62957252.940086663        1553958716.7110083     
   565104273.09753001        231798515.68713707        2002652654.5655460     
   700239227.02521682        521044209.91130722        2441048390.1341848     
   871495510.39604366        930694335.61260843        2869145923.4169054     
   211368971.66695252        10191162.511395775        1077923947.0781751     
   241389458.97817045        33981886.708463185        1562182380.3094144     
   289470614.34160727        117974837.74625570        2037140573.0509150     
   355612437.75726068        262170015.62477797        2502798525.3026743     
   439814929.22513950        466567420.34404081        2959156237.0647020     
   9.7254190049230544        29.341535428434987        1065730332.3380141     
   8.7240671646489378        42.291024391252307        1554184287.0373037     
   14.384028583609602        77.444890884852228        2034335963.0430264     
   26.705278007281308        134.80305072748894        2506185360.3551779     
   45.687831906005613        214.36555882030100        2969732478.9737668     
   1.8932103481071285       0.56796310443213849        656493540.49107265     
   2.0205752307128928       0.14977259931354481        771715336.08420289     
   2.1758527243003760      -0.17537591256740470        887135207.39385760     
   2.3590428131426902      -0.40748259205388937        1002753154.4200370     
   2.5701454586374721      -0.54654724255980114        1118569177.1627407     
  -448092052.52849382       -134427615.75854814        657956965.83962631     
  -447263774.19076508       -125471475.50940724        774866766.04088867     
  -445711642.37834918       -114102490.34464204        890148825.91806054     
  -443435657.09124589       -100320660.26425265        1003803145.4711418     
  -440435818.32945538       -84125985.268238559        1115829724.7001326     
  -889959350.51613212       -266987805.15483966        662347242.26892912     
  -893519411.22693980       -250640509.41603735        781789542.76622713     
  -895631765.01628542       -229467523.93902847        897778286.89881992     
  -896296411.88416922       -203468848.72381303        1010313474.6667069     
  -895513351.83059096       -172644483.77039069        1119395106.0698888     
  -1325601892.0697052       -397680567.62091154        669664369.77898049     
  -1338766909.0879493       -375507101.57011795        792483666.26021826     
  -1349760365.7379565       -346095100.95853531        910023590.33613586     
  -1358582262.0197272       -309444565.78616369        1022284142.0067329     
  -1365232597.9332609       -265555496.05300316        1129265321.2720094     
  -1755019677.1892123       -526505903.15676373        679908348.36978126     
  -1783006267.7737927       -500071251.97164869        806949136.52286255     
  -1808097444.5433617       -463985221.40316236        926884736.23000836     
  -1830293207.4979191       -418247811.45130467        1039715147.4912188     
  -1849593556.6374655       -362859022.11607563        1145440370.3064938     
   2.5701454586374721      -0.54654724255980114        1118569177.1627407     
   2.7293439200565079      -0.62869628802426081        1190129944.3968804     
   2.9084232832881827      -0.64457587762035695        1258587519.2156229     
   3.1073835658465323      -0.59418554097114695        1323941901.6189682     
   3.3262246894545422      -0.47752573415640187        1386193091.6069160     
  -440435818.32945538       -84125985.268238559        1115829724.7001326     
  -442321261.79477298       -69522385.049429625        1182488370.2351584     
  -445013299.46603501       -57607432.183768004        1247429805.3280401     
  -448511931.34324098       -48381126.671253040        1310654029.9787772     
  -452817157.42639095       -41843468.511884809        1372161044.1873717     
  -895513351.83059096       -172644483.77039069        1119395106.0698888     
  -895324290.42541564       -142249298.70212153        1180210603.3090048     
  -896748417.45200944       -117231408.40641579        1240694872.0792298     
  -899785732.91037238       -97590812.883273005        1300847912.3805647     
  -904436236.80050373       -83327512.132692188        1360669724.2130084     
  -1365232597.9332609       -265555496.05300316        1129265321.2720094     
  -1359009083.1625834       -218180741.58677065        1183296643.6184196     
  -1355205351.0494995       -178871929.31251740        1238382719.4691932     
  -1353821401.5940096       -147629059.23024392        1294523548.8243284     
  -1354857234.7961137       -124452131.33994997        1351719131.6838272     
  -1849593556.6374655       -362859022.11607563        1145440370.3064938     
  -1833375640.0062759       -297316713.70337695        1191746491.1634030     
  -1820384100.2585058       -242528994.90207452        1240493347.4979284     
  -1810618937.3941541       -198495865.71216810        1291680939.3100693     
  -1804080151.4132206       -165217326.13365519        1345309266.5998271     
   3.3262246894545422      -0.47752573415640187        1386193091.6069160     
   3.5416447819330412      -0.26231432891206263        1412577869.0850215     
   3.8028386987029195       0.10547649063687348        1441537434.0048463     
   4.1098096766438053       0.62585768756151761        1473071786.3663907     
   4.4625540442420579        1.2988165030660181        1507180926.1696517     
  -452817157.42639095       -41843468.511884809        1372161044.1873717     
  -444079718.51817220       -33219094.719708532        1398523969.3870854     
  -435739696.74331009       -25919444.705387622        1427042973.7756248     
  -427797092.10180497       -19944518.468922928        1457718057.3529921     
  -420251904.59365374       -15294316.010306075        1490549220.1191862     
  -904436236.80050373       -83327512.132692188        1360669724.2130084     
  -888157668.49346530       -66437657.551748902        1386547143.7586770     
  -872673934.49891353       -52197250.679094732        1414161934.2402806     
  -857985034.81684780       -40606291.514727861        1443514095.6578174     
  -844090969.44726920       -31664780.058650136        1474603628.0112915     
  -1354857234.7961137       -124452131.33994997        1351719131.6838272     
  -1332233846.3842323       -99655688.758430600        1376647392.1997983     
  -1310802709.4639676       -78833417.815633714        1402894315.3988118     
  -1290563824.0353203       -61985318.511562884        1430459901.2808685     
  -1271517190.0982914       -49111390.846217394        1459344149.8459659     
  -1804080151.4132206       -165217326.13365519        1345309266.5998271     
  -1776308252.1904738       -132873188.33975345        1368824714.7104483     
  -1750126021.6384745       -105827946.11501074        1393240117.2512200     
  -1725533459.7572234       -84081599.459426820        1418555474.2221417     
  -1702530566.5467200       -67634148.373005092        1444770785.6232142     
   4.4625540442420579        1.2988165030660181        1507180926.1696517     
   4.2857656526238070        2.0193699276851782        1491071685.3040838     
   4.1993234896723806        3.0410767539710308        1478507050.6934187     
   4.2032293968634686        4.3639445079546562        1469487022.3376579     
   4.2974826993705761        5.9879695524356222        1464011600.2367985     
  -420251904.59365374       -15294316.010306075        1490549220.1191862     
  -408490414.83442318       -10599883.387010410        1473384195.1275067     
  -397136339.04775661       -7263497.3389280438        1460638533.3926144     
  -386189677.23365521       -5285157.8660630733        1452312234.9145095     
  -375650429.39211774       -4664864.9684105515        1448405299.6931884     
  -844090969.44726920       -31664780.058650136        1474603628.0112915     
  -818068684.03235304       -21526123.816712439        1455907502.4867721     
  -792861226.65291262       -14103561.026362032        1442505497.2209229     
  -768468597.30894721       -9397091.6875953376        1434397612.2137434     
  -744890796.00045705       -7406715.8004106581        1431583847.4652340     
  -1271517190.0982914       -49111390.846217394        1459344149.8459659     
  -1228734803.3080227       -32778719.269738376        1438641607.3818781     
  -1187174658.6161404       -20520188.021212697        1424107942.1783414     
  -1146836756.0226457       -12335797.100644886        1415743154.2353578     
  -1107721095.5275373       -8225546.5080339313        1413547243.5529301     
  -1702530566.5467200       -67634148.373005092        1444770785.6232142     
  -1640488772.6614325       -44357669.746083796        1421586509.8128250     
  -1580076634.9374428       -26513378.323489130        1405445868.2648721     
  -1521294153.3747520       -14101274.105224371        1396348860.9793563     
  -1464141327.9733574       -7121357.0912790298        1394295487.9562764     
   4.2974826993705761        5.9879695524356222        1464011600.2367985     
   3.9467690105110411        7.4545115044158914        1497447541.2877235     
   3.4898889638951576        8.5671669849871162        1532523530.4240153     
   2.9268403863528576        9.3259259746915060        1569239567.6456721     
   2.2576266863298287        9.7308026105722440        1607595652.9526954     
  -375650429.39211774       -4664864.9684105515        1448405299.6931884     
  -372266966.61090112       -7471893.8311634809        1483815061.1445396     
  -369320432.43446833       -11735351.376527444        1520835214.6880004     
  -366810826.86282229       -17455237.604514807        1559465760.3235714     
  -364738149.89595962       -24631552.515111804        1599706698.0512505     
  -744890796.00045705       -7406715.8004106581        1431583847.4652340     
  -738208601.49661326       -13046194.415249437        1468457679.4019554     
  -732400264.09617198       -21598530.041430384        1506912247.4375293     
  -727465783.79913294       -33063722.678951502        1546947551.5719583     
  -723405160.60549533       -47441772.327812731        1588563591.8052423     
  -1107721095.5275373       -8225546.5080339313        1413547243.5529301     
  -1097824900.7103698       -16722894.297753632        1451375396.0599670     
  -1089239491.4952209       -29589527.427536249        1490754628.6726036     
  -1081964867.8820930       -46825445.897387266        1531684941.3908410     
  -1076001029.8709834       -68430649.707301855        1574166334.2146730     
  -1464141327.9733574       -7121357.0912790298        1394295487.9562764     
  -1451115864.2521656       -18501993.478662193        1432568211.1185777     
  -1439838114.6316140       -35708343.534842789        1472362358.3932228     
  -1430308079.1116962       -58740407.259805381        1513677929.7802081     
  -1422525757.6924193       -87598184.653568625        1556514925.2795379     
   2.2576266863298287        9.7308026105722440        1607595652.9526954     
   2.5750089331872998        10.533416423895360        1581995567.4662373     
   3.0656457683763993        11.913546225546625        1564176669.3866282     
   3.7295429107657290        13.871210384531993        1554138958.7138660     
   4.5666994910872614        16.406405309401983        1551882435.4479525     
  -364738149.89595962       -24631552.515111804        1599706698.0512505     
  -346285706.87850267       -27744751.402378991        1575834272.4051156     
  -327957311.38275748       -31271442.028686911        1559093276.7421615     
  -309752963.40871763       -35211624.394012421        1549483711.0623906     
  -291672662.95639020       -39565298.498378038        1547005575.3658004     
  -723405160.60549533       -47441772.327812731        1588563591.8052423     
  -688356724.66986406       -54225105.839526832        1566274103.6886320     
  -653556383.95091176       -61835423.406838685        1550466288.1315396     
  -619004138.44863522       -70272725.029735669        1541140145.1339622     
  -584699988.16303730       -79537010.708226934        1538295674.6959016     
  -1076001029.8709834       -68430649.707301855        1574166334.2146730     
  -1026213050.7990788       -79441052.778031886        1553315061.3167915     
  -976797214.63881958       -91691932.220914900        1538295703.5547624     
  -927753521.39020658       -105183288.03595173        1529108260.9285824     
  -879081971.05324030       -119915120.22314179        1525752733.4382558     
  -1422525757.6924193       -87598184.653568625        1556514925.2795379     
  -1359854685.2661445       -103392592.21789068        1536957145.2895906     
  -1297679803.4464829       -120840968.47092521        1522581523.0118299     
  -1236001112.2334347       -139943313.41267079        1513388058.4462552     
  -1174818611.6269991       -160699627.04312333        1509376751.5928631     
   4.5666994910872614        16.406405309401983        1551882435.4479525     
   5.7821863597517700        19.392877459567405        1421404327.0409110     
   7.0471386510167493        22.544235045623790        1296886273.7202404     
   8.3615498453719947        25.860454254202278        1178328275.4859428     
   9.7254190049230544        29.341535428434987        1065730332.3380141     
  -291672662.95639020       -39565298.498378038        1547005575.3658004     
  -274387396.43610567       -41523953.444776848        1418052716.6210296     
  -255241689.42428488       -37281140.086055674        1296888158.7011635     
  -234235541.92092368       -26836858.422199942        1183511901.6062038     
  -211368953.92602199       -10191108.453209639        1077923945.3361459     
  -584699988.16303730       -79537010.708226934        1538295674.6959016     
  -544905897.08500814       -81887255.811630934        1413038579.4624953     
  -501390925.07335925       -71834564.469634563        1297398030.7925265     
  -454155072.12809545       -49378936.682253510        1191374028.6859934     
  -403198338.24920958       -14520372.449468702        1094966573.1428983     
  -879081971.05324030       -119915120.22314179        1525752733.4382558     
  -811555496.16451359       -121089887.70765761        1406361915.5653043     
  -738447699.90009201       -103660250.60652283        1298415889.9943223     
  -659758582.25996912       -67626208.919716060        1201914656.7253132     
  -575488143.24415159       -12987762.647262424        1116858215.7582731     
  -1174818611.6269991       -160699627.04312333        1509376751.5928631     
  -1074336193.6746244       -159131849.13286757        1398022724.9294593     
  -966412013.90447319       -132758198.49669150        1299941736.3065579     
  -851046072.31654716       -81578675.134600490        1215133785.7241616     
  -728238368.91084146       -5593279.0465738475        1143598873.1822696     
   9.7254190049230544        29.341535428434987        1065730332.3380141     
   8.7240671646489378        42.291024391252307        1554184287.0373037     
   14.384028583609602        77.444890884852228        2034335963.0430264     
   26.705278007281308        134.80305072748894        2506185360.3551779     
   45.687831906005613        214.36555882030100        2969732478.9737668     
  -211368953.92602199       -10191108.453209639        1077923945.3361459     
  -241389444.93288365       -33981813.531360574        1562182391.5247765     
  -289470594.90157950       -117974715.14895868        2037140597.4860384     
  -355612403.83210844       -262169813.30600029        2502798563.2199373     
  -439814871.72447228       -466567108.00248933        2959156288.7264609     
  -403198338.24920958       -14520372.449468702        1094966573.1428983     
  -466090637.92959398       -62957191.155686736        1553958734.2605491     
  -565104262.19494343       -231798425.14512500        2002652693.6170290     
  -700239211.04525971       -521044074.41778910        2441048451.2123380     
  -871495484.48054338       -930694138.97367406        2869146007.0464778     
  -575488143.24415159       -12987762.647262424        1116858215.7582731     
  -674103570.26605475       -86926090.581931338        1529513315.2446234     
  -826900987.49606192       -341471052.54361272        1930872251.4359996     
  -1033880394.9341724       -776622648.53230214        2320935024.3324051     
  -1295041792.5803776       -1392380878.5479813        2699701633.9338369     
  -728238368.91084146       -5593279.0465738475        1143598873.1822696     
  -865428241.94227421       -105888511.81011021        1488846134.4769897     
  -1074860770.8049471       -446992597.34445047        1821799270.9429352     
  -1356535955.4988449       -1028905535.6495399        2142458282.5801120     
  -1710453796.0239825       -1851627326.7254262        2450823169.3885164     
  -1755019677.1892123       -526505903.15676373        679908348.36978126     
  -1783006267.7737927       -500071251.97164869        806949136.52286255     
  -1808097444.5433617       -463985221.40316236        926884736.23000836     
  -1830293207.4979191       -418247811.45130467        1039715147.4912188     
  -1849593556.6374655       -362859022.11607563        1145440370.3064938     
  -2200468180.7517090       -660140454.22551262        696176534.41118610     
  -2237100271.9668574       -613899663.02668810        814183549.83813810     
  -2271704823.4748950       -560900406.13749301        928074720.91511726     
  -2304281835.2758212       -501142683.55792665        1037850047.6421232     
  -2334831307.3696361       -434626495.28798985        1143509530.0191560     
  -2684202877.6342497       -805260863.29027498        721566284.27305067     
  -2720939486.3486462       -736651637.13834476        829527007.18132317     
  -2756516429.4638295       -664176858.98904359        936361229.83558524     
  -2790933706.9798026       -587836528.84237230        1042068952.2358366     
  -2824191318.8965645       -507630646.69833058        1146650174.3820775     
  -3206223767.8368344       -961867130.35105038        756077597.95537508     
  -3234523910.9191551       -868327174.30661762        852979508.55241764     
  -3262532262.5101652       -773814579.95781493        951744262.99141264     
  -3290248822.6098638       -678329347.30464208        1052371861.2723590     
  -3317673591.2182512       -581871476.34709930        1154862303.3952582     
  -3766530851.3594646       -1129959255.4078393        799710475.45815885     
  -3777853545.6783891       -1008926274.5315078        884541053.95142186     
  -3789752322.6139030       -889813569.04380691        974223820.38259923     
  -3802227182.1660056       -772621138.94473600        1068758774.7516912     
  -3815278124.3346977       -657348984.23429585        1168145917.0586979     
  -1849593556.6374655       -362859022.11607563        1145440370.3064938     
  -1833375640.0062759       -297316713.70337695        1191746491.1634030     
  -1820384100.2585058       -242528994.90207452        1240493347.4979284     
  -1810618937.3941541       -198495865.71216810        1291680939.3100693     
  -1804080151.4132206       -165217326.13365519        1345309266.5998271     
  -2334831307.3696361       -434626495.28798985        1143509530.0191560     
  -2309970679.5508022       -353573167.39827812        1183599460.5926752     
  -2288512903.7604122       -283862679.60338044        1224317429.0305331     
  -2270457979.9984655       -225495031.90329552        1265663435.3327296     
  -2255805908.2649632       -178470224.29802096        1307637479.4992650     
  -2824191318.8965645       -507630646.69833058        1146650174.3820775     
  -2795867115.9280205       -412620040.14298779        1180318027.0030100     
  -2771122240.1329451       -329540524.16587412        1212801219.8750048     
  -2749956691.5113397       -258392098.76699054        1244099752.9980607     
  -2732370470.0632029       -199174763.94633591        1274213626.3721776     
  -3317673591.2182512       -581871476.34709930        1154862303.3952582     
  -3291064949.1379333       -474457331.93750560        1181902190.3944092     
  -3268212109.3761077       -379562528.58955717        1205944720.0313439     
  -3249115071.9327760       -297187066.30325460        1226989892.3060627     
  -3233773836.8079391       -227330945.07859981        1245037707.2185674     
  -3815278124.3346977       -657348984.23429585        1168145917.0586979     
  -3795564179.1805372       -539085042.78183031        1188351950.7668705     
  -3779782511.4898973       -433928692.87442684        1203747929.4995506     
  -3767933121.2627754       -341879934.51208889        1214333853.2567368     
  -3760016008.4991736       -262938767.69481277        1220109722.0384316     
  -1804080151.4132206       -165217326.13365519        1345309266.5998271     
  -1776308252.1904738       -132873188.33975345        1368824714.7104483     
  -1750126021.6384745       -105827946.11501074        1393240117.2512200     
  -1725533459.7572234       -84081599.459426820        1418555474.2221417     
  -1702530566.5467200       -67634148.373005092        1444770785.6232142     
  -2255805908.2649632       -178470224.29802096        1307637479.4992650     
  -2219285389.9709864       -134693939.92144561        1320890127.0864463     
  -2185829529.8882384       -101133182.91563535        1337334339.5484226     
  -2155438328.0167222       -77787953.280595541        1356970116.8851931     
  -2128111784.3564363       -64658251.016324520        1379797459.0967574     
  -2732370470.0632029       -199174763.94633591        1274213626.3721776     
  -2680553874.2847266       -142002095.46310484        1275482652.3053577     
  -2633276926.2579641       -99961586.152250051        1282234853.5579755     
  -2590539625.9829135       -73053236.013770819        1294470230.1300313     
  -2552341973.4595757       -61277045.047667861        1312188782.0215256     
  -3233773836.8079391       -227330945.07859981        1245037707.2185674     
  -3160113705.1316962       -154797654.96473444        1232602290.3671823     
  -3092468210.7476482       -102313155.82484996        1227941659.2798779     
  -3030837353.6557965       -69877447.658953547        1231055813.9566569     
  -2975221133.8561387       -57490530.467041373        1241944754.3975174     
  -3760016008.4991736       -262938767.69481277        1220109722.0384316     
  -3657964882.5118947       -173080618.42633140        1192249041.2719188     
  -3563403383.3572941       -108187891.93344128        1174454756.7141309     
  -3476331511.0353723       -68260588.216147304        1166726868.3650699     
  -3396749265.5461264       -53298707.274438858        1169065376.2247348     
  -1702530566.5467200       -67634148.373005092        1444770785.6232142     
  -1640488772.6614325       -44357669.746083796        1421586509.8128250     
  -1580076634.9374428       -26513378.323489130        1405445868.2648721     
  -1521294153.3747520       -14101274.105224371        1396348860.9793563     
  -1464141327.9733574       -7121357.0912790298        1394295487.9562764     
  -2128111784.3564363       -64658251.016324520        1379797459.0967574     
  -2048898598.5856357       -41830455.351467252        1355278761.8855777     
  -1970489699.1525528       -21683614.145670533        1337028735.6228313     
  -1892885086.0571856       -4217727.3989260197        1325047380.3085213     
  -1816084759.2995369        10567204.888757467        1319334695.9426463     
  -2552341973.4595757       -61277045.047667861        1312188782.0215256     
  -2458171576.7004099       -39562186.614021778        1287298594.8703976     
  -2363980096.4553781       -17777049.894161701        1267902115.3537040     
  -2269767532.7244859        4078365.1119091511        1253999343.4714432     
  -2175533885.5077267        26004058.404194117        1245590279.2236154     
  -2975221133.8561387       -57490530.467041373        1241944754.3975174     
  -2868307707.0057545       -37552863.533746481        1217646008.7672877     
  -2760547826.8459244       -14793685.568969846        1198066007.4574895     
  -2651941493.3766508        10787003.427286386        1183204750.4681227     
  -2542488706.5979323        39189203.455026984        1173062237.7991865     
  -3396749265.5461264       -53298707.274438858        1169065376.2247348     
  -3279306989.5016713       -35802486.110644817        1146321003.5762467     
  -3160192890.3241897       -12733521.170096636        1127520411.9341879     
  -3039406968.0136843        15908187.547202468        1112663601.2985587     
  -2916949222.5701542        50122640.041248322        1101750571.6693604     
  -1464141327.9733574       -7121357.0912790298        1394295487.9562764     
  -1451115864.2521656       -18501993.478662193        1432568211.1185777     
  -1439838114.6316140       -35708343.534842789        1472362358.3932228     
  -1430308079.1116962       -58740407.259805381        1513677929.7802081     
  -1422525757.6924193       -87598184.653568625        1556514925.2795379     
  -1816084759.2995369        10567204.888757467        1319334695.9426463     
  -1797492572.4982171        3751667.7326321602        1352931425.0198250     
  -1780824469.1109984       -9477480.8038196564        1388235340.2237005     
  -1766080449.1378706       -29120240.720580459        1425246441.5542710     
  -1753260512.5788417       -55176612.017669439        1463964729.0115385     
  -2175533885.5077267        26004058.404194117        1245590279.2236154     
  -2150844227.0138454        23912845.063052058        1274305250.0166378     
  -2128255021.2475185        14820122.630064726        1304913168.9507101     
  -2107766268.2087440       -1274108.8947651386        1337414036.0258315     
  -2089377967.8975246       -24369849.511445284        1371807851.2420006     
  -2542488706.5979323        39189203.455026984        1173062237.7991865     
  -2511170827.7990494        41981538.512600780        1196689686.1090181     
  -2482129771.0411763        37184466.766810060        1222395844.5742521     
  -2455365536.3243170        24797988.217643619        1250180713.1948888     
  -2430878123.6484661        4822102.8651031256        1280044291.9709280     
  -2916949222.5701542        50122640.041248322        1101750571.6693604     
  -2878472374.8538294        57957748.081275940        1120084733.2969656     
  -2842448718.4919729        57615551.606409431        1140683367.0943255     
  -2808878253.4845886        49096050.616639018        1163546473.0614433     
  -2777760979.8316741        32399245.111965060        1188674051.1983168     
  -1422525757.6924193       -87598184.653568625        1556514925.2795379     
  -1359854685.2661445       -103392592.21789068        1536957145.2895906     
  -1297679803.4464829       -120840968.47092521        1522581523.0118299     
  -1236001112.2334347       -139943313.41267079        1513388058.4462552     
  -1174818611.6269991       -160699627.04312333        1509376751.5928631     
  -1753260512.5788417       -55176612.017669439        1463964729.0115385     
  -1674833514.3080199       -64491072.270438433        1442355219.8529360     
  -1596421030.9544592       -73853915.580743909        1426188123.4829798     
  -1518023062.5181599       -83265141.948588192        1415463439.9016685     
  -1439639608.9991212       -92724751.373968124        1410181169.1090035     
  -2089377967.8975246       -24369849.511445284        1371807851.2420006     
  -1994451457.8494132       -26981286.672838926        1348708567.8856556     
  -1899057787.0292118       -28035521.260598302        1331311952.3944154     
  -1803196955.4369195       -27532553.274722338        1319618004.7682831     
  -1706868963.0725358       -25472382.715208948        1313626725.0072532     
  -2430878123.6484661        4822102.8651031256        1280044291.9709280     
  -2318708515.8903232        9136764.5749040842        1256017189.3877504     
  -2205590071.6707354        16614214.489523888        1237953009.7461345     
  -2091522790.9897125        27254452.608926654        1225851753.0460877     
  -1976506673.8472381        41057478.933166385        1219713419.2876060     
  -2777760979.8316741        32399245.111965060        1188674051.1983168     
  -2647604688.4307542        43863081.472790956        1164281084.3592162     
  -2516017884.8790402        60095291.669595957        1146111295.5381389     
  -2383000569.1765304        81095875.702385902        1134164684.7350917     
  -2248552741.3232269        106864833.57115912        1128441251.9500666     
  -1174818611.6269991       -160699627.04312333        1509376751.5928631     
  -1074336193.6746244       -159131849.13286757        1398022724.9294593     
  -966412013.90447319       -132758198.49669150        1299941736.3065579     
  -851046072.31654716       -81578675.134600490        1215133785.7241616     
  -728238368.91084146       -5593279.0465738475        1143598873.1822696     
  -1439639608.9991212       -92724751.373968124        1410181169.1090035     
  -1301082575.6169195       -75617303.829561770        1305186711.8411455     
  -1156896752.8048074       -39747224.852118671        1212621304.6401546     
  -1007082140.5627941        14885485.558324158        1132484947.5060301     
  -851638738.89086878        88280827.401813507        1064777640.4387701     
  -1706868963.0725358       -25472382.715208948        1313626725.0072532     
  -1532648708.4708970        6451316.2002399564        1212876702.6824267     
  -1354612636.8272181        51094405.255817533        1123711742.4508271     
  -1172760748.1415033        108456884.45152009        1046131844.3124580     
  -987093042.41374767        178538753.78735191        980137008.26731622     
  -1976506673.8472381        41057478.933166385        1219713419.2876060     
  -1769034592.2365530        87074010.956536293        1121092697.4532962     
  -1559559665.9716990        139766691.82714283        1033213049.7385796     
  -1348081895.0526729        199135521.54497951        956074476.14345443     
  -1134601279.4794855        265180500.11003935        889676976.66792226     
  -2248552741.3232269        106864833.57115912        1128441251.9500666     
  -2010240226.9138892        166250780.43933487        1029834696.1537598     
  -1771737840.2382538        226269634.86183679        941125226.50341022     
  -1533045581.2963142        286921396.83868510        862312842.99901271     
  -1294163450.0880787        348206066.36985368        793397545.64057410     
  -728238368.91084146       -5593279.0465738475        1143598873.1822696     
  -865428241.94227421       -105888511.81011021        1488846134.4769897     
  -1074860770.8049471       -446992597.34445047        1821799270.9429352     
  -1356535955.4988449       -1028905535.6495399        2142458282.5801120     
  -1710453796.0239825       -1851627326.7254262        2450823169.3885164     
  -851638738.89086878        88280827.401813507        1064777640.4387701     
  -1020059628.4043843        10398278.083657265        1337262284.1936324     
  -1229791903.2638605       -205188889.05436686        1592845036.2267380     
  -1480835563.4692945       -558480674.01225460        1831525896.5380702     
  -1773190609.0206835       -1049477076.7899916        2053304865.1276467     
  -987093042.41374767        178538753.78735191        980137008.26731622     
  -1199909996.6750350        119119373.43485922        1215945516.7151473     
  -1423107065.7970066        25099610.213426948        1430244366.5482287     
  -1656684249.7796540       -103520535.87693721        1623033557.7665508     
  -1900641548.6229894       -266741064.83624524        1794313090.3701241     
  -1134601279.4794855        265180500.11003935        889676976.66792226     
  -1404979346.7542307        220274774.24349934        1124895832.0415411     
  -1654806258.4043791        243872900.45895612        1333997261.9074132     
  -1884082014.4299312        335974878.75640225        1516981266.2655478     
  -2092806614.8308907        496580709.13581932        1673847845.1159346     
  -1294163450.0880787        348206066.36985368        793397545.64057410     
  -1635267678.6419694        313864480.50957322        1064113230.1727999     
  -1924889481.0859754        451130981.68222749        1304103722.3042970     
  -2163028857.4201202        760005569.88776410        1513369022.0350573     
  -2349685807.6443906        1240488245.1262176        1691909129.3650920     
  -3766530851.3594646       -1129959255.4078393        799710475.45815885     
  -3777853545.6783891       -1008926274.5315078        884541053.95142186     
  -3789752322.6139030       -889813569.04380691        974223820.38259923     
  -3802227182.1660056       -772621138.94473600        1068758774.7516912     
  -3815278124.3346977       -657348984.23429585        1168145917.0586979     
  -4338118163.1666975       -1301435448.9500093        857668108.79254723     
  -4334148141.1238108       -1125875543.6498642        941748058.57804906     
  -4331303798.3189707       -954067902.47654307        1020156311.9907644     
  -4329585134.7521782       -786012525.43004608        1092892869.0306938     
  -4328992150.4234343       -621709412.51037252        1159957729.6978371     
  -4893979738.2230911       -1468193921.4669273        935153689.96968508     
  -4904785240.7061090       -1247127564.0092835        1017841814.9890577     
  -4917266019.0486326       -1031645459.4166572        1084334359.3249431     
  -4931422073.2506618       -821747607.68904841        1134631322.9773424     
  -4947253403.3121967       -617434008.82645750        1168732705.9462547     
  -5434115576.5286455       -1630234672.9585938        1032167218.9895719     
  -5489764844.4252863       -1372682335.6097665        1112822323.1844480     
  -5547638984.8028908       -1122546239.8641500        1166757962.3851361     
  -5607737997.6614571       -879826385.72174454        1193974136.5916369     
  -5670061883.0009861       -644522773.18254948        1194470845.8039508     
  -5958525678.0833626       -1787557703.4250088        1148708695.8522086     
  -6089086952.2813396       -1502539858.4513121        1226689583.1642196     
  -6222422695.5817394       -1226770243.8190205        1267427121.1713428     
  -6358532907.9845591       -960248859.52813327        1270921309.8735778     
  -6497417589.4898005       -702975705.57865024        1237172149.2709250     
  -3815278124.3346977       -657348984.23429585        1168145917.0586979     
  -3795564179.1805372       -539085042.78183031        1188351950.7668705     
  -3779782511.4898973       -433928692.87442684        1203747929.4995506     
  -3767933121.2627754       -341879934.51208889        1214333853.2567368     
  -3760016008.4991736       -262938767.69481277        1220109722.0384316     
  -4328992150.4234343       -621709412.51037252        1159957729.6978371     
  -4296274570.5692129       -465591225.87669492        1140523974.4733236     
  -4274182281.7694540       -344890676.09122372        1127167475.1056099     
  -4262715284.0241566       -259607763.15396047        1119888231.5946946     
  -4261873577.3333216       -209742487.06490350        1118686243.9405773     
  -4947253403.3121967       -617434008.82645750        1168732705.9462547     
  -4870425586.3799381       -414129596.29817581        1101850645.9329555     
  -4810916074.0930853       -268552865.92124486        1051933152.6087472     
  -4768724866.4516373       -180703817.69566345        1018980225.9736288     
  -4743851963.4555950       -150582451.62143373        1002991866.0276011     
  -5670061883.0009861       -644522773.18254948        1194470845.8039508     
  -5518017226.6127148       -384700154.04627109        1072331965.1457652     
  -5389983888.4607906       -204915262.36448693        978044962.00896215     
  -5285961868.5452166       -105168098.13719535        911609836.39354086     
  -5205951166.8659897       -85458661.364400864        873026588.29950190     
  -6497417589.4898005       -702975705.57865024        1237172149.2709250     
  -6239049491.2675419       -377302899.12098193        1051967932.1117529     
  -6011385724.8725719       -153977865.42095137        905502903.30625498     
  -5814426290.3048925       -33000604.478555441        797777062.85443044     
  -5648171187.5645065       -14371116.293802261        728790410.75627923     
  -3760016008.4991736       -262938767.69481277        1220109722.0384316     
  -3657964882.5118947       -173080618.42633140        1192249041.2719188     
  -3563403383.3572941       -108187891.93344128        1174454756.7141309     
  -3476331511.0353723       -68260588.216147304        1166726868.3650699     
  -3396749265.5461264       -53298707.274438858        1169065376.2247348     
  -4261873577.3333216       -209742487.06490350        1118686243.9405773     
  -4144803385.3419633       -147897646.94378209        1089751432.6811244     
  -4032199538.4882936       -100940623.94828582        1068767962.7116278     
  -3924062036.7723079       -68871418.078407764        1055735834.0320902     
  -3820390880.1940098       -51690029.334153175        1050655046.6425073     
  -4743851963.4555950       -150582451.62143373        1002991866.0276011     
  -4617805719.5137815       -118563824.86375976        976510086.25269771     
  -4493202539.0146646       -91355409.581739664        955864592.84898114     
  -4370042421.9582434       -68957205.775373220        941055385.81645381     
  -4248325368.3445182       -51369213.444660187        932082465.15511441     
  -5205951166.8659897       -85458661.364400864        873026588.29950190     
  -5076971885.0273457       -85079152.186259508        852525001.98663545     
  -4946412384.9364100       -79432248.833805084        835744647.12618923     
  -4814272666.5931778       -68517951.307037354        822685523.71816325     
  -4680552729.9976540       -52336259.605954409        813347631.76255488     
  -5648171187.5645065       -14371116.293802261        728790410.75627923     
  -5522301881.8826609       -47443628.911285639        717796179.88294137     
  -5391829076.2535295       -65171141.704486609        708408125.54325318     
  -5256752770.6771126       -67553654.673400164        700626247.73721480     
  -5117072965.1534100       -54591167.818032265        694450546.46482790     
  -3396749265.5461264       -53298707.274438858        1169065376.2247348     
  -3279306989.5016713       -35802486.110644817        1146321003.5762467     
  -3160192890.3241897       -12733521.170096636        1127520411.9341879     
  -3039406968.0136843        15908187.547202468        1112663601.2985587     
  -2916949222.5701542        50122640.041248322        1101750571.6693604     
  -3820390880.1940098       -51690029.334153175        1050655046.6425073     
  -3690274561.9175782       -31675844.319678545        1028667254.9724917     
  -3559055031.8479996       -7984286.6613783836        1011903876.9704859     
  -3426732289.9852734        19384643.640746117        1000364912.6364903     
  -3293306336.3293982        50430946.586702347        994050361.97050488     
  -4248325368.3445182       -51369213.444660187        932082465.15511441     
  -4101876057.3744526       -27739379.441007614        910187874.56704795     
  -3954892145.9511204       -2327543.9264571667        894798330.30857122     
  -3807373634.0745130        24866293.098997116        885913832.37968373     
  -3659320521.7446384        53842131.635351419        883534380.78038847     
  -4680552729.9976540       -52336259.605954409        813347631.76255488     
  -4514111475.8722954       -23993091.474624872        790882862.35991204     
  -4347704232.6335468        4236707.0346713066        776203771.94844174     
  -4181331000.2814021        32353135.921954155        769310360.52814007     
  -4014991778.8158674        60356195.187205553        770202628.09901035     
  -5117072965.1534100       -54591167.818032265        694450546.46482790     
  -4926980817.4111023       -20436980.420530319        670752218.35108650     
  -4737491291.8952818        11708466.222012997        656120201.89009714     
  -4548604388.6059446        41845172.109611273        650554497.08185756     
  -4360320107.5430899        69973137.242262840        654055103.92637134     
  -2916949222.5701542        50122640.041248322        1101750571.6693604     
  -2878472374.8538294        57957748.081275940        1120084733.2969656     
  -2842448718.4919729        57615551.606409431        1140683367.0943255     
  -2808878253.4845886        49096050.616639018        1163546473.0614433     
  -2777760979.8316741        32399245.111965060        1188674051.1983168     
  -3293306336.3293982        50430946.586702347        994050361.97050488     
  -3251502479.3523779        51257012.495159626        1012702474.7176446     
  -3212604213.0919151        42397776.015095115        1033266824.4490035     
  -3176611537.5480127        23853237.146502972        1055743411.1645790     
  -3143524452.7206593       -4376604.1106034517        1080132234.8643727     
  -3659320521.7446384        53842131.635351419        883534380.78038847     
  -3615196041.7513189        47357239.538922071        901976645.39129519     
  -3574429551.8366446        29679047.180342913        921978911.80088079     
  -3537021052.0006084        807554.55962181091        943541180.00914621     
  -3502970542.2432246       -39257238.323248863        966663450.01609230     
  -4014991778.8158674        60356195.187205553        770202628.09901035     
  -3969553062.0506449        46258429.212565899        787907245.31791472     
  -3927924734.7261467        19459365.102164268        806819629.14996135     
  -3890106796.8423805       -20040997.144011736        826939779.59514928     
  -3856099248.3993473       -72242657.525961637        848267696.65348041     
  -4360320107.5430899        69973137.242262840        654055103.92637134     
  -4314573540.2503519        47960581.516102791        670494274.49750543     
  -4273089761.7604351        11738729.780541182        687788976.49624360     
  -4235868772.0733314       -38692417.964402676        705939209.92258334     
  -4202910571.1890483       -103332861.71874428        724944974.77653086     
  -2777760979.8316741        32399245.111965060        1188674051.1983168     
  -2647604688.4307542        43863081.472790956        1164281084.3592162     
  -2516017884.8790402        60095291.669595957        1146111295.5381389     
  -2383000569.1765304        81095875.702385902        1134164684.7350917     
  -2248552741.3232269        106864833.57115912        1128441251.9500666     
  -3143524452.7206593       -4376604.1106034517        1080132234.8643727     
  -3000162951.5960941       -1498010.3001699448        1059566910.8583047     
  -2855197325.5714159        6727666.5106387138        1044917472.2871052     
  -2708627574.6466289        20300426.321812153        1036183919.1507775     
  -2560453698.8217335        39220269.133330822        1033366251.4493183     
  -3502970542.2432246       -39257238.323248863        966663450.01609230     
  -3347281810.2040200       -45227280.705895066        950128317.05059052     
  -3189815340.5153937       -45271530.923799753        939201776.93680441     
  -3030571133.1773424       -39389988.976956487        933883829.67472768     
  -2869549188.1898732       -27582654.865377188        934174475.26436925     
  -3856099248.3993473       -72242657.525961637        848267696.65348041     
  -3688961264.2545319       -87324729.744403362        835965302.93607724     
  -3519871929.7109780       -95902300.633723259        828964209.48723209     
  -3348831244.7686892       -97975370.193919659        827264416.30694234     
  -3175839209.4276586       -93543938.424983978        830865923.39521503     
  -4202910571.1890483       -103332861.71874428        724944974.77653086     
  -4025201313.7476296       -127790357.41568089        717077868.51475894     
  -3845367093.1581635       -145164642.61911798        714204769.93839204     
  -3663407909.4206443       -155455717.32904649        716325679.04742253     
  -3479323762.5350747       -158663581.54547691        723440595.84185874     
  -2248552741.3232269        106864833.57115912        1128441251.9500666     
  -2010240226.9138892        166250780.43933487        1029834696.1537598     
  -1771737840.2382538        226269634.86183679        941125226.50341022     
  -1533045581.2963142        286921396.83868510        862312842.99901271     
  -1294163450.0880787        348206066.36985368        793397545.64057410     
  -2560453698.8217335        39220269.133330822        1033366251.4493183     
  -2295887771.2583046        99878019.221790314        937593451.85861933     
  -2028429072.9321053        170178338.51948929        851825006.26658416     
  -1758077603.8431318        250121227.02643263        776060914.67321551     
  -1484833363.9913900        339706684.74260640        710301177.07850730     
  -2869549188.1898732       -27582654.865377188        934174475.26436925     
  -2578423367.8931842        34438842.317118287        844388813.45849264     
  -2281701878.3372531        115112570.36375237        764714773.50399268     
  -1979384719.5220759        214438529.27454531        695152355.40086496     
  -1671471891.4476557        332416719.04947114        635701559.14911437     
  -3175839209.4276586       -93543938.424983978        830865923.39521503     
  -2857847016.8185349       -30066750.274702549        750220780.95338190     
  -2531556256.4536967        61072330.394631863        679794528.21563125     
  -2196966928.3331461        179873303.58301210        619587165.18196690     
  -1854079032.4568710        326336169.29046202        569598691.85238159     
  -3479323762.5350747       -158663581.54547691        723440595.84185874     
  -3134158718.0343504       -93638758.553661346        655089354.34328437     
  -2777992207.2814422        8057618.6121101379        597064270.40150285     
  -2410824230.2763443        146425549.95184672        549365344.01651835     
  -2032654787.0190525        321465035.46554291        511992575.18832475     
  -1294163450.0880787        348206066.36985368        793397545.64057410     
  -1635267678.6419694        313864480.50957322        1064113230.1727999     
  -1924889481.0859754        451130981.68222749        1304103722.3042970     
  -2163028857.4201202        760005569.88776410        1513369022.0350573     
  -2349685807.6443906        1240488245.1262176        1691909129.3650920     
  -1484833363.9913900        339706684.74260640        710301177.07850730     
  -1908705034.4154894        250124958.08192503        1027563231.4546911     
  -2315710625.9061794        216763494.53261125        1324630940.0546150     
  -2705850138.4634566        239622294.09469175        1601504302.8782732     
  -3079123572.0873065        318701356.76815379        1858183319.9256804     
  -1671471891.4476557        332416719.04947114        635701559.14911437     
  -2148022870.5291996        196621291.55219471        959124244.99671447     
  -2642324117.8537827        1658303.2447826862        1272883431.6925292     
  -3154375633.4214053       -252472245.87276220        1576979119.2365627     
  -3684177417.2320671       -565770355.80044341        1871411307.6287923     
  -1854079032.4568710        326336169.29046202        569598691.85238159     
  -2353221186.9830742        153353480.92042792        858796270.79887855     
  -2904729956.9287748       -194184592.18126667        1148861197.2180569     
  -3508605342.2939725       -716278050.01460600        1439793471.1099160     
  -4164847343.0786567       -1412926892.5795994        1731593092.4744704     
  -2032654787.0190525        321465035.46554291        511992575.18832475     
  -2524299983.7771368        120321526.18659782        726579308.86117232     
  -3102928143.1311684       -370765191.74553108        952564236.63118231     
  -3768539265.0811553       -1151795118.3308299        1189947358.4983432     
  -4521133349.6270933       -2222768253.5693092        1438728674.4626689     
  -5958525678.0833626       -1787557703.4250088        1148708695.8522086     
  -6089086952.2813396       -1502539858.4513121        1226689583.1642196     
  -6222422695.5817394       -1226770243.8190205        1267427121.1713428     
  -6358532907.9845591       -960248859.52813327        1270921309.8735778     
  -6497417589.4898005       -702975705.57865024        1237172149.2709250     
  -6811901853.1863642       -2043570555.9559093        1352569130.9750965     
  -6829659278.8981352       -1395370793.0215185        1201816272.9915526     
  -6898946221.0622177       -918936084.92815566        1091267743.6190486     
  -7019762679.6786060       -614266431.67581987        1020923542.8575845     
  -7192108654.7473040       -481361833.26451278        990783670.70716023     
  -8338935912.1367769       -2501680773.6410332        1711539534.7757392     
  -8022610409.6025486       -1423915368.8180094        1275172042.9217715     
  -7806569470.8705168       -680431843.33563757        956456557.59477246     
  -7690813095.9406805       -271230197.19391489        755393078.79474103     
  -7675341284.8130360       -196310430.39284420        671981606.52167737     
  -10539627854.934599       -3161888356.4803796        2225619907.2541356     
  -9667940344.3945789       -1588173585.8407860        1446756892.9548774     
  -8945292445.0066395       -511257519.04146528        862993563.09851468     
  -8371684156.7707825        68859843.917580605        474329917.68504763     
  -7947115479.6870050        152178503.03635359        280765956.71447664     
  -13413977681.579832       -4024193304.4739499        2894810248.4102869     
  -11765649083.274223       -1888145444.0898464        1716570823.0908685     
  -10315115143.470581       -411413112.04564047        810878760.13027453     
  -9062375862.1689091        406003691.65867138        177734059.52850467     
  -8007431239.3692055        564104967.02308226       -182863278.71444178     
  -6497417589.4898005       -702975705.57865024        1237172149.2709250     
  -6239049491.2675419       -377302899.12098193        1051967932.1117529     
  -6011385724.8725719       -153977865.42095137        905502903.30625498     
  -5814426290.3048925       -33000604.478555441        797777062.85443044     
  -5648171187.5645065       -14371116.293802261        728790410.75627923     
  -7192108654.7473040       -481361833.26451278        990783670.70716023     
  -6901236305.4141970       -306507013.12800908        845588884.72673774     
  -6622800555.4059362       -173107524.07431412        721462331.16740620     
  -6356801404.7225189       -81163366.103428125        618404010.02916539     
  -6103238853.3639374       -30674539.215345383        536413921.31201631     
  -7675341284.8130360       -196310430.39284420        671981606.52167737     
  -7402453129.8907537       -187420130.23400640        588108606.30619574     
  -7123733841.7908621       -159092719.48314619        507632882.57921994     
  -6839183420.5133657       -111328198.14026308        430554435.34075433     
  -6548801866.0582600       -44126566.205356598        356873264.59079731     
  -7947115479.6870050        152178503.03635359        280765956.71447664     
  -7742699964.6972065       -20042250.438972473        279527096.85012436     
  -7514185584.0273514       -111933451.64744520        264014557.54169747     
  -7261572337.6774387       -123495100.58906507        234228338.78919670     
  -6984860225.6474724       -54727197.263835430        190168440.59262213     
  -8007431239.3692055        564104967.02308226       -182863278.71444178     
  -7921976809.8335543        195626626.25709200       -80155643.641471446     
  -7794155782.1153994       -31629720.567214489       -9392643.9451619647     
  -7623968156.2147417       -117664073.44984293        29425720.374494400     
  -7411413932.1315727       -62476432.390779018        36299449.317493789     
  -5648171187.5645065       -14371116.293802261        728790410.75627923     
  -5522301881.8826609       -47443628.911285639        717796179.88294137     
  -5391829076.2535295       -65171141.704486609        708408125.54325318     
  -5256752770.6771126       -67553654.673400164        700626247.73721480     
  -5117072965.1534100       -54591167.818032265        694450546.46482790     
  -6103238853.3639374       -30674539.215345383        536413921.31201631     
  -5963645218.1527004       -33222096.122561693        531588328.81025541     
  -5824040725.7821779       -35733462.498826265        528669515.78739059     
  -5684425376.2523708       -38208638.344135523        527657482.24342310     
  -5544799169.5632753       -40647623.658490419        528552228.17834979     
  -6548801866.0582600       -44126566.205356598        356873264.59079731     
  -6394625035.7597847       -15891507.734952211        352858227.20794940     
  -6245029991.0900297       -2929068.0269291401        351050572.24924129     
  -6100016732.0489817       -5239247.0812795162        351450299.71467739     
  -5959585258.6366444       -22822044.898001432        354057409.60425311     
  -6984860225.6474724       -54727197.263835430        190168440.59262213     
  -6815241334.7039156        4548136.2515497208        181605875.07602054     
  -6654796872.1770782        33242041.711212635        175551294.92880428     
  -6503526838.0669460        31354519.115182877        172004700.15097842     
  -6361431232.3735332       -1114431.5365741253        170966090.74253577     
  -7411413932.1315727       -62476432.390779018        36299449.317493789     
  -7225494114.9850950        28096835.836926937        17831272.414472699     
  -7053341369.0433311        72779866.715583801        2171683.8260803334     
  -6894955694.3062763        71572660.245215893       -10679316.447673064     
  -6750337090.7739296        24475216.425813675       -20721728.406795178     
  -5117072965.1534100       -54591167.818032265        694450546.46482790     
  -4926980817.4111023       -20436980.420530319        670752218.35108650     
  -4737491291.8952818        11708466.222012997        656120201.89009714     
  -4548604388.6059446        41845172.109611273        650554497.08185756     
  -4360320107.5430899        69973137.242262840        654055103.92637134     
  -5544799169.5632753       -40647623.658490419        528552228.17834979     
  -5338175012.8385887       -20920558.832488537        508776769.99056160     
  -5130199076.9239464        3312436.6267151833        495981266.11450315     
  -4920871361.8193445        32051362.719111204        490165716.55017495     
  -4710191867.5247869        65296219.444699526        491330121.29757667     
  -5959585258.6366444       -22822044.898001432        354057409.60425311     
  -5742390113.9039335       -19310408.935789347        340484956.32827067     
  -5521888788.5648174       -4778170.9522407055        331806100.02299130     
  -5298081282.6193027        20774669.052644014        328020840.68842185     
  -5070967596.0673866        57348111.078859806        329129178.32455850     
  -6361431232.3735332       -1114431.5365741253        170966090.74253577     
  -6139626120.6071367       -15606530.730457067        165876777.36420283     
  -5912560426.8178959       -12563356.514865160        163594703.61556071     
  -5680234151.0058126        8015091.1102094650        164119869.49659920     
  -5442647293.1708870        46128812.144752264        167452275.00732467     
  -6750337090.7739296        24475216.425813675       -20721728.406795178     
  -6529883032.9481993       -9808924.2164826393       -15047766.901623486     
  -6302213991.6831818       -20043120.061148167       -8652923.1077931076     
  -6067329966.9788742       -6227371.1081879139       -1537197.0252881111     
  -5825230958.8352871        31638322.642381430        6299411.3458712483     
  -4360320107.5430899        69973137.242262840        654055103.92637134     
  -4314573540.2503519        47960581.516102791        670494274.49750543     
  -4273089761.7604351        11738729.780541182        687788976.49624360     
  -4235868772.0733314       -38692417.964402676        705939209.92258334     
  -4202910571.1890483       -103332861.71874428        724944974.77653086     
  -4710191867.5247869        65296219.444699526        491330121.29757667     
  -4660525661.0950060        47489697.927956581        499787759.47130418     
  -4614022701.0307264        19139021.859560013        509434349.96682680     
  -4570682987.3319349       -19755808.760476828        520269892.78414065     
  -4530506519.9986439       -69194793.932173014        532294387.92324656     
  -5070967596.0673866        57348111.078859806        329129178.32455850     
  -5016429119.3743134        44033413.109412432        330888083.61109656     
  -4963954346.6094160        23839702.046062708        334169362.11361390     
  -4913543277.7726879       -3233022.1112003326        338973013.83211160     
  -4865195912.8641291       -37184759.362358570        345299038.76658893     
  -5442647293.1708870        46128812.144752264        167452275.00732467     
  -5382283915.0882702        37591727.060481071        163795246.91687793     
  -5322884698.4965029        25840770.340037107        161994012.93660116     
  -5264449643.3955822        10875941.983439445        162048573.06649667     
  -5206978749.7855120       -7302758.0093219280        163958927.30655536     
  -5825230958.8352871        31638322.642381430        6299411.3458712483     
  -5758090048.2368727        28164639.781147718       -1490750.6113452332     
  -5690813756.6919880        25142226.741494417       -7091697.5642027566     
  -5623402084.2006226        22571083.523430824       -10503429.512707967     
  -5555855030.7627821        20451210.126961946       -11725946.456856942     
  -4202910571.1890483       -103332861.71874428        724944974.77653086     
  -4025201313.7476296       -127790357.41568089        717077868.51475894     
  -3845367093.1581635       -145164642.61911798        714204769.93839204     
  -3663407909.4206443       -155455717.32904649        716325679.04742253     
  -3479323762.5350747       -158663581.54547691        723440595.84185874     
  -4530506519.9986439       -69194793.932173014        532294387.92324656     
  -4333871083.3847961       -76190890.335267782        523571110.27353263     
  -4137036006.1300049       -82521517.935215950        520382870.61863178     
  -3940001288.2342658       -88186676.732012749        522729668.95853728     
  -3742766929.6975865       -93186366.725669622        530611505.29326093     
  -4865195912.8641291       -37184759.362358570        345299038.76658893     
  -4648088496.1938257       -26255716.206412315        333473380.13730866     
  -4432706761.3896790       -21078945.937652588        327723789.81224203     
  -4219050708.4516993       -21654448.556126118        328050267.79140174     
  -4007120337.3798800       -27982224.061784983        334452814.07478434     
  -5206978749.7855120       -7302758.0093219280        163958927.30655536     
  -4967853552.1747160        22015164.970894337        146784678.10607851     
  -4732379358.9371958        39163073.373538733        136227527.51923147     
  -4500556170.0729418        44140967.198623419        132287475.54601921     
  -4272383985.5819550        36948846.446149588        134964522.18643686     
  -5555855030.7627821        20451210.126961946       -11725946.456856942     
  -5293166251.3274803        68621753.196618557       -36494995.820145734     
  -5036053798.7725410        98204539.998403549       -54105916.260398023     
  -4784517673.0979872        109199570.53223348       -64558707.777609549     
  -4538557874.3038054        101606844.79816461       -67853370.371783435     
  -3479323762.5350747       -158663581.54547691        723440595.84185874     
  -3134158718.0343504       -93638758.553661346        655089354.34328437     
  -2777992207.2814422        8057618.6121101379        597064270.40150285     
  -2410824230.2763443        146425549.95184672        549365344.01651835     
  -2032654787.0190525        321465035.46554291        511992575.18832475     
  -3742766929.6975865       -93186366.725669622        530611505.29326093     
  -3373750314.3141112       -35150768.876413107        472320029.00139403     
  -2997350519.2712321        47495427.837516427        423662655.48005897     
  -2613567544.5689392        154752223.41614902        384639384.72925371     
  -2222401390.2072530        286619617.85944557        355250216.74897873     
  -4007120337.3798800       -27982224.061784983        334452814.07478434     
  -3616229450.5029769        22470958.828098059        281999768.63138008     
  -3221573670.5594449        85473785.273389578        238488771.17224610     
  -2823152997.5492945        161026255.27409375        203919821.69737837     
  -2420967431.4725122        249128368.83022380        178292920.20677978     
  -4272383985.5819550        36948846.446149588        134964522.18643686     
  -3861596126.6009393        79226424.559889793        84128573.233251065     
  -3450661661.1460910        121992690.91972589        41542617.478067726     
  -3039580589.2173882        165247645.52574146        7206654.9208985614     
  -2628352910.8148613        208991288.37785220       -18879314.438276548     
  -4538557874.3038054        101606844.79816461       -67853370.371783435     
  -4109850342.6080117        135115628.31892490       -121293557.19300507     
  -3684614491.0311480        157052144.77656579       -167175805.60247657     
  -3262850319.5732346        167416394.17105341       -205500115.60021794     
  -2844557828.2342582        166208376.50240576       -236266487.18620369     
  -2032654787.0190525        321465035.46554291        511992575.18832475     
  -2524299983.7771368        120321526.18659782        726579308.86117232     
  -3102928143.1311684       -370765191.74553108        952564236.63118231     
  -3768539265.0811553       -1151795118.3308299        1189947358.4983432     
  -4521133349.6270933       -2222768253.5693092        1438728674.4626689     
  -2222401390.2072530        286619617.85944557        355250216.74897873     
  -2719726840.8220949        126091621.01076281        483492414.61097109     
  -3241478048.9858069       -115855567.66750157        586594181.77131176     
  -3787655014.6983967       -439221948.17534447        664555518.23000181     
  -4358257737.9598589       -844007520.51275921        717376423.98704326     
  -2420967431.4725122        249128368.83022380        178292920.20677978     
  -3028369206.7978544        97897063.155690670        293173988.14616817     
  -3597639534.6249957        73770582.475157499        346376000.58509636     
  -4128778414.9539242        176748926.78864861        337898957.52356696     
  -4621785847.7846518        406832096.09616899        267742858.96157309     
  -2628352910.8148613        208991288.37785220       -18879314.438276548     
  -3450227081.7044301        35737852.621361971        155624029.46675903     
  -4171412600.0487161        198113258.68246293        231909693.07253915     
  -4791909465.8477192        696117506.56118131        209977676.37904587     
  -5311717679.1014490        1529750596.2574892        89827979.386282131     
  -2844557828.2342582        166208376.50240576       -236266487.18620369     
  -3985300465.5418029       -60386010.592179060        70842538.572749242     
  -4962797245.2569923        257172460.95439792        243195259.23363274     
  -5777048167.3798246        1118883791.1421950        280791674.79643494     
  -6428053231.9102755        2524747979.9712276        183631785.26116839     
 </DataArray>
 <DataArray  type="Float64" Name="VM" NumberOfComponents="1" format="ascii">
   12933996632.881353     
   11341083764.655165     
   10212720526.344149     
   9277155889.7177181     
   8309904814.4311457     
   10129971301.694843     
   9322891977.1431007     
   8828395479.8252316     
   8446376541.8644361     
   8039009351.3962526     
   7982669095.9745045     
   7735921772.5004606     
   7670599932.3498440     
   7671248085.2669659     
   7667941694.8072081     
   6491988536.0379791     
   6587449085.9504757     
   6758165999.9531269     
   6961985445.9610090     
   7172244160.8848944     
   5657453252.9246531     
   5890654638.7260628     
   6116301245.6315327     
   6331900784.4673195     
   6537191156.2735271     
   8309904814.4311457     
   8022780727.9801464     
   7778406158.1536961     
   7565994026.7539740     
   7380641833.8627272     
   8039009351.3962526     
   7747840305.1606627     
   7472853291.1822577     
   7212038815.7087631     
   6965450279.9872608     
   7667941694.8072081     
   7381170979.8389740     
   7100185455.1766844     
   6825068581.1108007     
   6556054635.5506115     
   7172244160.8848944     
   6910194888.3367224     
   6656314327.8074322     
   6406780992.5612469     
   6158447126.2947683     
   6537191156.2735271     
   6327242221.5332785     
   6139597190.5349331     
   5960378111.3277617     
   5780508638.0573740     
   7380641833.8627272     
   7239649291.7461090     
   7090012454.6908188     
   6931043858.3856430     
   6762703145.2235765     
   6965450279.9872608     
   6824769134.1181440     
   6678405506.6034031     
   6526064365.1709614     
   6367763127.1148176     
   6556054635.5506115     
   6415870037.4724064     
   6273103335.0687094     
   6127709515.4535370     
   5979735545.9378881     
   6158447126.2947683     
   6017956595.0843000     
   5878017387.2209959     
   5738660538.2993889     
   5599925841.7562189     
   5780508638.0573740     
   5637531813.8889275     
   5498199939.6498451     
   5362418455.6624660     
   5230186762.6094446     
   6762703145.2235765     
   6525036140.1610336     
   6292234206.9710102     
   6064219247.2076960     
   5841124556.2099943     
   6367763127.1148176     
   6138564927.0790424     
   5913081816.3427134     
   5691349374.0420523     
   5473547381.3056431     
   5979735545.9378881     
   5763013023.7144032     
   5549340488.3444424     
   5338815943.0072823     
   5131645890.7563591     
   5599925841.7562189     
   5400132763.2898855     
   5203262359.9619236     
   5009442096.9682932     
   4818915290.5308952     
   5230186762.6094446     
   5052186715.9004955     
   4877592717.5492926     
   4706543687.6652136     
   4539356473.5057383     
   5841124556.2099943     
   5772224468.4213219     
   5703439654.4079180     
   5634750900.9730263     
   5566145876.8705320     
   5473547381.3056431     
   5408623595.2222042     
   5343224012.9325104     
   5277365197.4996853     
   5211075070.5972223     
   5131645890.7563591     
   5071079892.3945169     
   5009466813.5192089     
   4946892007.2137690     
   4883471834.6250944     
   4818915290.5308952     
   4763763749.5824957     
   4707063812.4907608     
   4649008282.2912178     
   4589858574.1356134     
   4539356473.5057383     
   4491487751.7738514     
   4441706381.3542252     
   4390357142.2428675     
   4337910992.7582188     
   5566145876.8705320     
   5328183567.7249813     
   5086730582.8262453     
   4841332986.8897314     
   4591709139.2769899     
   5211075070.5972223     
   4985384546.3543558     
   4757936180.3638411     
   4528588451.8213158     
   4297340617.1237116     
   4883471834.6250944     
   4670866161.9121799     
   4458486909.5193863     
   4246451182.2972035     
   4035002412.0921559     
   4589858574.1356134     
   4390947762.2223234     
   4194386394.7078018     
   4000458766.9246879     
   3809574627.8290205     
   4337910992.7582188     
   4152926199.9761295     
   3972401640.0948167     
   3796655582.9010768     
   3626144614.4183707     
   4591709139.2769899     
   4184324106.3752646     
   3776714201.3133221     
   3368555645.0036292     
   2959626774.0040278     
   4297340617.1237116     
   3904532648.5671058     
   3513983708.3284340     
   3125507458.6256194     
   2739030698.9187036     
   4035002412.0921559     
   3660253038.5814047     
   3291175117.1429429     
   2928391050.5666618     
   2573255765.1540656     
   3809574627.8290205     
   3454576017.2186575     
   3109211558.0388613     
   2775424525.6029911     
   2456992210.3128319     
   3626144614.4183707     
   3290238046.8480749     
   2968020674.7828679     
   2663067198.0420580     
   2382196844.0277929     
   2959626774.0040278     
   3957356141.0571818     
   5113631110.4702644     
   6428574242.8609276     
   8001537337.9173937     
   2739030698.9187036     
   3478693064.3331246     
   4292748793.9416823     
   5187965163.1638460     
   6221277659.6241636     
   2573255765.1540656     
   3120084292.3866744     
   3684261483.7135201     
   4260321348.5740051     
   4860223234.3086720     
   2456992210.3128319     
   2908099573.3436708     
   3343252672.9680777     
   3768358936.4500213     
   4191926290.5075421     
   2382196844.0277929     
   2876464499.0959444     
   3367092008.7864637     
   3928849662.5372953     
   4641307302.3194847     
   5657453252.9246531     
   5890654638.7260628     
   6116301245.6315327     
   6331900784.4673195     
   6537191156.2735271     
   5150194273.4578476     
   5310479467.4028931     
   5467439940.5073290     
   5618158663.7529402     
   5761146513.1619873     
   4641643786.1284561     
   4754298942.0716248     
   4868086410.8878736     
   4980358744.3335371     
   5089179394.1082373     
   4132070476.9804797     
   4222960179.6706200     
   4319749638.2460928     
   4420775889.2151747     
   4524580232.5492611     
   3623002445.6500568     
   3718302378.3906422     
   3824807705.6617417     
   3942452262.9307184     
   4071139929.2169409     
   6537191156.2735271     
   6327242221.5332785     
   6139597190.5349331     
   5960378111.3277617     
   5780508638.0573740     
   5761146513.1619873     
   5650080863.2067566     
   5555100579.3368397     
   5467141493.5890598     
   5380600651.2485437     
   5089179394.1082373     
   5051513225.8804998     
   5024414282.9496098     
   5002661894.9117823     
   4983015524.3851309     
   4524580232.5492611     
   4536168807.7517548     
   4552469407.1714773     
   4570990349.1053629     
   4589993364.8480139     
   4071139929.2169409     
   4109419586.9638519     
   4145108094.7551007     
   4177300721.1766243     
   4205259377.8191180     
   5780508638.0573740     
   5637531813.8889275     
   5498199939.6498451     
   5362418455.6624660     
   5230186762.6094446     
   5380600651.2485437     
   5247030982.8614550     
   5116229825.5663452     
   4988234788.8919086     
   4863121776.1986418     
   4983015524.3851309     
   4863270317.3639507     
   4746342578.0469799     
   4632217144.0358114     
   4520952031.0127201     
   4589993364.8480139     
   4488979474.2613430     
   4391879356.3822403     
   4298428188.7868423     
   4208587686.9445086     
   4205259377.8191180     
   4128185378.1598148     
   4057346811.3696446     
   3991991812.7389784     
   3931901012.1630445     
   5230186762.6094446     
   5052186715.9004955     
   4877592717.5492926     
   4706543687.6652136     
   4539356473.5057383     
   4863121776.1986418     
   4705949180.3470230     
   4552850411.8369713     
   4404017497.6922674     
   4259784941.7172265     
   4520952031.0127201     
   4381517895.7968674     
   4246641529.2013240     
   4116541940.5758104     
   3991547354.1185184     
   4208587686.9445086     
   4083712296.0831342     
   3963630700.5760779     
   3848569320.4039831     
   3738837094.9834332     
   3931901012.1630445     
   3818361475.3095732     
   3709534702.9640088     
   3605642815.5181842     
   3506974935.2871871     
   4539356473.5057383     
   4491487751.7738514     
   4441706381.3542252     
   4390357142.2428675     
   4337910992.7582188     
   4259784941.7172265     
   4219657582.9799314     
   4178310666.6860323     
   4136043890.4745030     
   4093265168.5539012     
   3991547354.1185184     
   3960274791.3702869     
   3928568242.2584872     
   3896688943.9058690     
   3864989183.6469846     
   3738837094.9834332     
   3717291600.0956626     
   3696180680.2917271     
   3675729137.0734329     
   3656236319.2159033     
   3506974935.2871871     
   3495648936.6975570     
   3485696358.3923578     
   3477302605.9078383     
   3470711893.7457175     
   4337910992.7582188     
   4152926199.9761295     
   3972401640.0948167     
   3796655582.9010768     
   3626144614.4183707     
   4093265168.5539012     
   3923064762.5174193     
   3758014992.6373501     
   3598508855.0471082     
   3445089114.1123877     
   3864989183.6469846     
   3709876535.1036367     
   3560739161.6897140     
   3418033886.0554209     
   3282372497.3415580     
   3656236319.2159033     
   3516323606.2899251     
   3383336116.4690223     
   3257774228.5984263     
   3140289845.2399740     
   3470711893.7457175     
   3345820958.8994017     
   3228911808.4645109     
   3120498077.8954759     
   3021231470.8637443     
   3626144614.4183707     
   3290238046.8480749     
   2968020674.7828679     
   2663067198.0420580     
   2382196844.0277929     
   3445089114.1123877     
   3125821634.4024448     
   2820190878.5499430     
   2530979736.2638440     
   2263290818.2439003     
   3282372497.3415580     
   2979467777.9067526     
   2690061865.2429581     
   2416219025.8218474     
   2161548916.7433891     
   3140289845.2399740     
   2854405244.1287408     
   2581762435.8218031     
   2323777438.0968089     
   2082815845.3235490     
   3021231470.8637443     
   2754012984.3798037     
   2499658661.8055663     
   2259018932.7648273     
   2033514473.4559700     
   2382196844.0277929     
   2876464499.0959444     
   3367092008.7864637     
   3928849662.5372953     
   4641307302.3194847     
   2263290818.2439003     
   2852128152.2587266     
   3445396370.4607635     
   4065617321.8449597     
   4738452682.6595287     
   2161548916.7433891     
   2799065381.0021410     
   3441940963.7221537     
   4083873685.3530588     
   4723917918.7028599     
   2082815845.3235490     
   2711234140.2076097     
   3342963435.3532233     
   3965081717.0587015     
   4574104036.3035994     
   2033514473.4559700     
   2585125631.7224784     
   3143112333.7786217     
   3710939624.2521729     
   4308394157.3894510     
   3623002445.6500568     
   3718302378.3906422     
   3824807705.6617417     
   3942452262.9307184     
   4071139929.2169409     
   3136249031.3941894     
   3254263994.4707799     
   3381680378.1616578     
   3518018661.9032755     
   3662812264.5287595     
   2693302868.6302905     
   2829510201.3478293     
   2973048331.2116289     
   3122814929.6403055     
   3277883357.6302319     
   2297653778.3285623     
   2448840520.5745401     
   2604807093.5477648     
   2763599639.8434949     
   2923764702.7418189     
   1954507716.2516537     
   2119210507.1219189     
   2285369581.0430918     
   2449981859.7002320     
   2611057684.9768353     
   4071139929.2169409     
   4109419586.9638519     
   4145108094.7551007     
   4177300721.1766243     
   4205259377.8191180     
   3662812264.5287595     
   3699381942.0660729     
   3734661334.7007680     
   3767756168.5962200     
   3797919487.8107200     
   3277883357.6302319     
   3318576409.9282289     
   3359639679.9380121     
   3400266727.9270916     
   3439790816.7390475     
   2923764702.7418189     
   2974383625.6396489     
   3027392517.9979005     
   3082135993.3959322     
   3138098962.7706294     
   2611057684.9768353     
   2676817021.8515830     
   2747288467.4394598     
   2821995774.1626644     
   2900604723.2838836     
   4205259377.8191180     
   4128185378.1598148     
   4057346811.3696446     
   3991991812.7389784     
   3931901012.1630445     
   3797919487.8107200     
   3752203086.8833103     
   3712270144.1859522     
   3677712064.1398196     
   3648489997.8934159     
   3439790816.7390475     
   3421323928.8507085     
   3407828024.5436611     
   3399109381.9078040     
   3395191111.3732705     
   3138098962.7706294     
   3143039615.6907983     
   3151572337.5307226     
   3163605845.1590276     
   3179145103.1350865     
   2900604723.2838836     
   2925396705.0542612     
   2951657586.6817846     
   2979320183.3913774     
   3008342301.5415316     
   3931901012.1630445     
   3818361475.3095732     
   3709534702.9640088     
   3605642815.5181842     
   3506974935.2871871     
   3648489997.8934159     
   3545260439.2457061     
   3447621059.3186674     
   3355806459.4267535     
   3270114333.9006643     
   3395191111.3732705     
   3304290402.7306147     
   3220158484.5544553     
   3143033772.1757684     
   3073220141.1623015     
   3179145103.1350865     
   3102316954.3494596     
   3033728734.2038832     
   2973600470.0723715     
   2922224936.8094425     
   3008342301.5415316     
   2946714678.5687876     
   2895045120.1315994     
   2853498379.2616787     
   2822324148.9404683     
   3506974935.2871871     
   3495648936.6975570     
   3485696358.3923578     
   3477302605.9078383     
   3470711893.7457175     
   3270114333.9006643     
   3272516276.9753375     
   3276797571.4519343     
   3283165908.5280304     
   3291876935.7188005     
   3073220141.1623015     
   3090258422.2659073     
   3109602094.7172546     
   3131457109.0035763     
   3156065060.4060874     
   2922224936.8094425     
   2954489387.2715278     
   2989337712.2932711     
   3026952544.1932392     
   3067540722.6142564     
   2822324148.9404683     
   2869840777.4273448     
   2920025240.1597204     
   2973024957.4048581     
   3029002881.4104567     
   3470711893.7457175     
   3345820958.8994017     
   3228911808.4645109     
   3120498077.8954759     
   3021231470.8637443     
   3291876935.7188005     
   3182831385.7914810     
   3082065968.8703127     
   2990042005.0261374     
   2907321300.0237288     
   3156065060.4060874     
   3062971777.3800330     
   2978445887.3070312     
   2902896086.9937406     
   2836797133.7423015     
   3067540722.6142564     
   2990381300.7948546     
   2922011336.9472065     
   2862785173.7123032     
   2813094855.1505613     
   3029002881.4104567     
   2967491821.7467709     
   2914880106.6555476     
   2871470541.3547893     
   2837584326.1211605     
   3021231470.8637443     
   2754012984.3798037     
   2499658661.8055663     
   2259018932.7648273     
   2033514473.4559700     
   2907321300.0237288     
   2657376276.2634830     
   2423287678.4391770     
   2206278758.8683186     
   2008255537.6376953     
   2836797133.7423015     
   2602335674.2070446     
   2386416435.0039291     
   2190319648.9232945     
   2016052780.6853957     
   2813094855.1505613     
   2590499288.8239460     
   2388589083.1928554     
   2208391589.3416820     
   2051711410.1100125     
   2837584326.1211605     
   2621442877.6830778     
   2427513830.6768436     
   2256359385.3493586     
   2109441713.8820341     
   2033514473.4559700     
   2585125631.7224784     
   3143112333.7786217     
   3710939624.2521729     
   4308394157.3894510     
   2008255537.6376953     
   2475508282.8485947     
   2922339120.9444580     
   3346542140.8744507     
   3751130258.8036766     
   2016052780.6853957     
   2456110004.4634509     
   2863281283.9289522     
   3238291470.5252013     
   3582636957.9697552     
   2051711410.1100125     
   2532991860.0847874     
   2985568049.4590492     
   3426545976.7713923     
   3877223990.1741319     
   2109441713.8820341     
   2705277765.5352263     
   3291129071.6096725     
   3908128796.3296580     
   4605068312.6771116     
   1954507716.2516537     
   2119210507.1219189     
   2285369581.0430918     
   2449981859.7002320     
   2611057684.9768353     
   1653346670.4311571     
   1820625451.5860941     
   1989703051.4880931     
   2157843928.8361702     
   2323263924.7909808     
   1393489668.3701398     
   1571887438.4925077     
   1751373965.4984560     
   1929916680.6104078     
   2106248101.2881525     
   1207204802.8197844     
   1400330192.9135447     
   1593083877.3254259     
   1784678102.4708405     
   1974648506.5701787     
   1137080166.9713140     
   1336650171.0779312     
   1536563252.3893144     
   1736819410.9054642     
   1937418646.6263797     
   2611057684.9768353     
   2676817021.8515830     
   2747288467.4394598     
   2821995774.1626644     
   2900604723.2838836     
   2323263924.7909808     
   2408022378.5226064     
   2495384502.8532743     
   2584982983.8413796     
   2676554772.2602496     
   2106248101.2881525     
   2207526311.1473217     
   2308840652.7831211     
   2409967510.4680438     
   2510746955.2263188     
   1974648506.5701787     
   2089154488.3411047     
   2200900439.6477585     
   2309815174.6817732     
   2415848632.8154302     
   1937418646.6263797     
   2061365531.3045199     
   2179937529.0535297     
   2293134639.8734093     
   2400956863.7641578     
   2900604723.2838836     
   2925396705.0542612     
   2951657586.6817846     
   2979320183.3913774     
   3008342301.5415316     
   2676554772.2602496     
   2708779752.9942636     
   2743250043.3153687     
   2779936648.0982070     
   2818825639.2198615     
   2510746955.2263188     
   2549856830.4319024     
   2591967421.8852320     
   2637071567.4507942     
   2685168870.9262123     
   2415848632.8154302     
   2459911841.2876053     
   2507708461.2324395     
   2559238508.3270707     
   2614503596.5054035     
   2400956863.7641578     
   2446656638.9026351     
   2496816076.7088614     
   2551435177.1828361     
   2610513940.3245540     
   3008342301.5415316     
   2946714678.5687876     
   2895045120.1315994     
   2853498379.2616787     
   2822324148.9404683     
   2818825639.2198615     
   2771219289.8283501     
   2733074095.2228308     
   2704482504.8848233     
   2685581782.4629369     
   2685168870.9262123     
   2647846271.9677224     
   2619181553.1079402     
   2599211506.9895315     
   2587990901.1545444     
   2614503596.5054035     
   2583646607.5284996     
   2560328145.5143957     
   2544555327.1718888     
   2536339170.1315026     
   2610513940.3245540     
   2582611916.6740251     
   2560849331.1498151     
   2545226183.7519250     
   2535742474.4803510     
   2822324148.9404683     
   2869840777.4273448     
   2920025240.1597204     
   2973024957.4048581     
   3029002881.4104567     
   2685581782.4629369     
   2739819699.8827090     
   2796808221.5956216     
   2856633228.8959398     
   2919388374.9137106     
   2587990901.1545444     
   2646619580.6250839     
   2708027224.3184094     
   2772253080.7458520     
   2839339535.4163032     
   2536339170.1315026     
   2596339422.0705714     
   2659139043.1599026     
   2724748149.4301510     
   2793177605.0822172     
   2535742474.4803510     
   2593655223.1794314     
   2654408618.4892225     
   2718002660.4097219     
   2784437348.9409323     
   3029002881.4104567     
   2967491821.7467709     
   2914880106.6555476     
   2871470541.3547893     
   2837584326.1211605     
   2919388374.9137106     
   2866402574.7142305     
   2823479559.3116274     
   2790828228.7311158     
   2768666424.8032990     
   2839339535.4163032     
   2792685597.2939606     
   2757242060.1914878     
   2733119852.8291688     
   2720432997.1329398     
   2793177605.0822172     
   2749697605.5329604     
   2718564648.4395938     
   2699810951.2226248     
   2693469323.8613782     
   2784437348.9409323     
   2740096700.2002807     
   2709233463.3915062     
   2691847638.5146055     
   2687939225.5695825     
   2837584326.1211605     
   2621442877.6830778     
   2427513830.6768436     
   2256359385.3493586     
   2109441713.8820341     
   2768666424.8032990     
   2551190989.9445724     
   2353115866.7704129     
   2174634285.3171420     
   2016431954.5660911     
   2720432997.1329398     
   2499808235.4102297     
   2295704867.4278016     
   2108171165.4874270     
   1937467562.6388383     
   2693469323.8613782     
   2469461391.4706244     
   2258933199.8170466     
   2061892730.8687537     
   1878400040.8567209     
   2687939225.5695825     
   2461944512.5331063     
   2246272917.7221346     
   2040924441.1366701     
   1845899082.7767055     
   2109441713.8820341     
   2705277765.5352263     
   3291129071.6096725     
   3908128796.3296580     
   4605068312.6771116     
   2016431954.5660911     
   2724262713.9969602     
   3420936628.1882296     
   4126661327.0230293     
   4865987220.2303247     
   1937467562.6388383     
   2726943967.3911276     
   3503417763.2921066     
   4274706794.3758202     
   5050801463.6811829     
   1878400040.8567209     
   2715227824.3878522     
   3537426492.9832726     
   4346718737.0922556     
   5145457794.8726015     
   1845899082.7767055     
   2691926149.4738221     
   3523573247.6550846     
   4340840377.3204861     
   5143727538.4700403     
   1137080166.9713140     
   1336650171.0779312     
   1536563252.3893144     
   1736819410.9054642     
   1937418646.6263797     
   1207204801.1197720     
   1400330191.2492816     
   1593083875.6742814     
   1784678100.8139729     
   1974648504.8923571     
   1393489665.5608652     
   1571887435.6430581     
   1751373962.5934851     
   1929916677.6302590     
   2106248098.2131646     
   1653346667.1266723     
   1820625448.1239686     
   1989703047.8640442     
   2157843925.0346804     
   2323263920.7921219     
   1954507712.8864496     
   2119210503.5071824     
   2285369577.1774745     
   2449981855.5684638     
   2611057680.5570254     
   1937418646.6263797     
   2061365531.3045199     
   2179937529.0535297     
   2293134639.8734093     
   2400956863.7641578     
   1974648504.8923571     
   2089154486.5817940     
   2200900437.8065004     
   2309815172.7595363     
   2415848630.8137240     
   2106248098.2131646     
   2207526307.9003258     
   2308840649.3663874     
   2409967506.8862233     
   2510746951.4848671     
   2323263920.7921219     
   2408022374.2577729     
   2495384498.3272719     
   2584982979.0623927     
   2676554767.2377148     
   2611057680.5570254     
   2676817017.0831914     
   2747288462.3261924     
   2821995768.7128253     
   2900604717.5078349     
   2400956863.7641578     
   2446656638.9026351     
   2496816076.7088614     
   2551435177.1828361     
   2610513940.3245540     
   2415848630.8137240     
   2459911839.3290539     
   2507708459.3236198     
   2559238506.4745889     
   2614503594.7150216     
   2510746951.4848671     
   2549856826.7668324     
   2591967418.3088713     
   2637071563.9757710     
   2685168867.5637784     
   2676554767.2377148     
   2708779748.0704198     
   2743250038.5069599     
   2779936643.4227843     
   2818825634.6933980     
   2900604717.5078349     
   2925396699.3970585     
   2951657581.1630287     
   2979320178.0320725     
   3008342296.3611703     
   2610513940.3245540     
   2582611916.6740251     
   2560849331.1498151     
   2545226183.7519250     
   2535742474.4803510     
   2614503594.7150216     
   2583646606.0845189     
   2560328144.4256253     
   2544555326.4435444     
   2536339169.7636104     
   2685168867.5637784     
   2647846269.2176361     
   2619181550.9821758     
   2599211505.4930949     
   2587990900.2828646     
   2818825634.6933980     
   2771219286.0893779     
   2733074092.2803836     
   2704482502.7383032     
   2685581781.0990515     
   3008342296.3611703     
   2946714674.2667618     
   2895045116.7074332     
   2853498376.7030983     
   2822324147.2204256     
   2535742474.4803510     
   2593655223.1794314     
   2654408618.4892225     
   2718002660.4097219     
   2784437348.9409323     
   2536339169.7636104     
   2596339421.4574223     
   2659139042.2363501     
   2724748148.1321430     
   2793177603.3481131     
   2587990900.2828646     
   2646619579.4186020     
   2708027222.6610532     
   2772253078.5203118     
   2839339532.5056801     
   2685581781.0990515     
   2739819698.2476940     
   2796808219.5395122     
   2856633226.2614865     
   2919388371.5373616     
   2822324147.2204256     
   2869840775.6376071     
   2920025238.1361117     
   2973024954.9666276     
   3029002878.3594928     
   2784437348.9409323     
   2740096700.2002807     
   2709233463.3915062     
   2691847638.5146055     
   2687939225.5695825     
   2793177603.3481131     
   2749697603.9970040     
   2718564646.9916806     
   2699810949.7469449     
   2693469322.2359643     
   2839339532.5056801     
   2792685594.5322309     
   2757242057.3403106     
   2733119849.6437659     
   2720432993.3624520     
   2919388371.5373616     
   2866402571.2567949     
   2823479555.3868361     
   2790828223.9484625     
   2768666418.7704268     
   3029002878.3594928     
   2967491818.2847095     
   2914880102.2291346     
   2871470535.4098082     
   2837584318.1079712     
   2687939225.5695825     
   2461944512.5331063     
   2246272917.7221346     
   2040924441.1366701     
   1845899082.7767055     
   2693469322.2359643     
   2469461389.4341555     
   2258933197.5038424     
   2061892728.4714839     
   1878400038.6577168     
   2720432993.3624520     
   2499808231.0254664     
   2295704862.6902728     
   2108171160.7598400     
   1937467558.4487901     
   2768666418.7704268     
   2551190983.2504358     
   2353115859.7870469     
   2174634278.5469542     
   2016431948.7408133     
   2837584318.1079712     
   2621442869.0351977     
   2427513821.8536663     
   2256359376.9630418     
   2109441706.8376045     
   1845899082.7767055     
   2691926149.4738221     
   3523573247.6550846     
   4340840377.3204861     
   5143727538.4700403     
   1878400038.6577168     
   2715227844.9220328     
   3537426534.8593402     
   4346718796.9103241     
   5145457866.7239065     
   1937467558.4487901     
   2726943999.5441351     
   3503417830.1746554     
   4274706891.9493790     
   5050801584.8471127     
   2016431948.7408133     
   2724262748.9268627     
   3420936703.0674729     
   4126661439.9756317     
   4865987367.7766075     
   2109441706.8376045     
   2705277794.7390490     
   3291129137.8180552     
   3908128903.1606159     
   4605068466.2038059     
   1954507712.8864496     
   2119210503.5071824     
   2285369577.1774745     
   2449981855.5684638     
   2611057680.5570254     
   2297653775.1910949     
   2448840517.1554551     
   2604807089.8432684     
   2763599635.8434610     
   2923764698.4329772     
   2693302865.9168358     
   2829510198.3605485     
   2973048327.9397292     
   3122814926.0721440     
   3277883353.7540889     
   3136249029.2463946     
   3254263992.0852170     
   3381680375.5194054     
   3518018658.9873381     
   3662812261.3237524     
   3623002444.1786180     
   3718302376.7365041     
   3824807703.7986388     
   3942452260.8347182     
   4071139926.8657823     
   2611057680.5570254     
   2676817017.0831914     
   2747288462.3261924     
   2821995768.7128253     
   2900604717.5078349     
   2923764698.4329772     
   2974383620.9655824     
   3027392512.9498792     
   3082135987.9686804     
   3138098956.9605393     
   3277883353.7540889     
   3318576405.6973925     
   3359639675.3337593     
   3400266722.9328890     
   3439790811.3394508     
   3662812261.3237524     
   3699381938.5472765     
   3734661330.8430724     
   3767756164.3759542     
   3797919483.2052550     
   4071139926.8657823     
   4109419584.3682194     
   4145108091.8870521     
   4177300718.0096388     
   4205259374.3284702     
   2900604717.5078349     
   2925396699.3970585     
   2951657581.1630287     
   2979320178.0320725     
   3008342296.3611703     
   3138098956.9605393     
   3143039610.0126209     
   3151572332.0202804     
   3163605839.8540077     
   3179145098.0707240     
   3439790811.3394508     
   3421323923.5571260     
   3407828019.3956861     
   3399109376.9483957     
   3395191106.6445088     
   3797919483.2052550     
   3752203082.3267980     
   3712270139.7116885     
   3677712059.7857003     
   3648489993.6990342     
   4205259374.3284702     
   4128185374.6361208     
   4057346807.8332467     
   3991991809.2148404     
   3931901008.6799884     
   3008342296.3611703     
   2946714674.2667618     
   2895045116.7074332     
   2853498376.7030983     
   2822324147.2204256     
   3179145098.0707240     
   3102316950.3111038     
   3033728731.2674899     
   2973600468.3109455     
   2922224936.2908926     
   3395191106.6445088     
   3304290399.0912566     
   3220158482.1514325     
   3143033771.1628594     
   3073220141.7005544     
   3648489993.6990342     
   3545260436.0942135     
   3447621057.4196515     
   3355806459.0057535     
   3270114335.2032428     
   3931901008.6799884     
   3818361472.6977072     
   3709534701.4863114     
   3605642815.4608774     
   3506974936.9677711     
   2822324147.2204256     
   2869840775.6376071     
   2920025238.1361117     
   2973024954.9666276     
   3029002878.3594928     
   2922224936.2908926     
   2954489387.4406528     
   2989337712.9799042     
   3026952545.2053552     
   3067540723.7366858     
   3073220141.7005544     
   3090258424.2184396     
   3109602097.9228091     
   3131457113.2746482     
   3156065065.5267220     
   3270114335.2032428     
   3272516280.3724775     
   3276797576.8022413     
   3283165915.6615987     
   3291876944.4339128     
   3506974936.9677711     
   3495648941.1001773     
   3485696365.4009452     
   3477302615.3780479     
   3470711905.5006456     
   3029002878.3594928     
   2967491818.2847095     
   2914880102.2291346     
   2871470535.4098082     
   2837584318.1079712     
   3067540723.7366858     
   2990381301.8661661     
   2922011337.3429236     
   2862785172.7843151     
   2813094852.2282100     
   3156065065.5267220     
   3062971783.1337271     
   2978445893.0338097     
   2902896091.9868093     
   2836797137.2428541     
   3291876944.4339128     
   3182831396.1108952     
   3082065980.1374898     
   2990042016.5178995     
   2907321310.9377084     
   3470711905.5006456     
   3345820973.4627461     
   3228911825.2176094     
   3120498096.1393023     
   3021231489.7987823     
   2837584318.1079712     
   2621442869.0351977     
   2427513821.8536663     
   2256359376.9630418     
   2109441706.8376045     
   2813094852.2282100     
   2590499285.2893705     
   2388589079.0529261     
   2208391584.6523795     
   2051711404.9783330     
   2836797137.2428541     
   2602335676.3165364     
   2386416435.0541916     
   2190319646.1180191     
   2016052774.0056560     
   2907321310.9377084     
   2657376284.6518044     
   2423287682.7855701     
   2206278757.2664971     
   2008255527.6139240     
   3021231489.7987823     
   2754012999.7334418     
   2499658671.1504264     
   2259018932.9667091     
   2033514460.4061499     
   2109441706.8376045     
   2705277794.7390490     
   3291129137.8180552     
   3908128903.1606159     
   4605068466.2038059     
   2051711404.9783330     
   2532991883.8294706     
   2985568103.2966609     
   3426546061.9641032     
   3877224107.6768966     
   2016052774.0056560     
   2456110024.2231312     
   2863281332.3050432     
   3238291548.3954182     
   3582637065.1087475     
   2008255527.6139240     
   2475508300.9819074     
   2922339171.0574427     
   3346542225.8236656     
   3751130382.4901099     
   2033514460.4061499     
   2585125651.3512197     
   3143112392.8114443     
   3710939729.2769265     
   4308394319.3667164     
   3623002444.1786180     
   3718302376.7365041     
   3824807703.7986388     
   3942452260.8347182     
   4071139926.8657823     
   4132070476.2407947     
   4222960178.8148103     
   4319749637.2708063     
   4420775888.1109810     
   4524580231.3018179     
   4641643786.1301785     
   4754298942.0260878     
   4868086410.8156452     
   4980358744.2403955     
   5089179393.9885435     
   5150194274.2129927     
   5310479468.1762657     
   5467439941.3428478     
   5618158664.6712437     
   5761146514.1662531     
   5657453254.4528103     
   5890654640.3290386     
   6116301247.3756323     
   6331900786.3875828     
   6537191158.3821259     
   4071139926.8657823     
   4109419584.3682194     
   4145108091.8870521     
   4177300718.0096388     
   4205259374.3284702     
   4524580231.3018179     
   4536168806.4228964     
   4552469405.7355146     
   4570990347.5382786     
   4589993363.1250095     
   5089179393.9885435     
   5051513225.8497782     
   5024414282.9816084     
   5002661894.9826822     
   4983015524.4675007     
   5761146514.1662531     
   5650080864.4682369     
   5555100580.8271236     
   5467141495.2850428     
   5380600653.1223211     
   6537191158.3821259     
   6327242224.0602398     
   6139597193.4477625     
   5960378114.6046867     
   5780508641.6737156     
   4205259374.3284702     
   4128185374.6361208     
   4057346807.8332467     
   3991991809.2148404     
   3931901008.6799884     
   4589993363.1250095     
   4488979472.4935751     
   4391879354.5366850     
   4298428186.8310776     
   4208587684.8466721     
   4983015524.4675007     
   4863270317.4733124     
   4746342578.1088877     
   4632217143.9740820     
   4520952030.7485638     
   5380600653.1223211     
   5247030984.9361658     
   5116229827.7356977     
   4988234791.0473661     
   4863121778.2266970     
   5780508641.6737156     
   5637531817.9955797     
   5498199944.1159172     
   5362418460.3555937     
   5230186767.3904085     
   3931901008.6799884     
   3818361472.6977072     
   3709534701.4863114     
   3605642815.4608774     
   3506974936.9677711     
   4208587684.8466721     
   4083712294.3820477     
   3963630699.4499202     
   3848569320.0503788     
   3738837095.6252084     
   4520952030.7485638     
   4381517895.4198856     
   4246641528.8014956     
   4116541940.2582932     
   3991547354.0083623     
   4863121778.2266970     
   4705949181.7694998     
   4552850412.6551523     
   4404017497.9162893     
   4259784941.3703480     
   5230186767.3904085     
   5052186719.6370163     
   4877592720.1559210     
   4706543689.0561399     
   4539356473.5986338     
   3506974936.9677711     
   3495648941.1001773     
   3485696365.4009452     
   3477302615.3780479     
   3470711905.5006456     
   3738837095.6252084     
   3717291603.3954778     
   3696180686.4328966     
   3675729146.2219071     
   3656236331.5100427     
   3991547354.0083623     
   3960274793.4776616     
   3928568247.0351753     
   3896688951.7944632     
   3864989195.0637379     
   4259784941.3703480     
   4219657583.9407463     
   4178310669.6385741     
   4136043896.0957627     
   4093265177.4886994     
   4539356473.5986338     
   4491487751.7359457     
   4441706382.0618830     
   4390357144.5590734     
   4337910997.4982138     
   3470711905.5006456     
   3345820973.4627461     
   3228911825.2176094     
   3120498096.1393023     
   3021231489.7987823     
   3656236331.5100427     
   3516323622.8934331     
   3383336137.0913138     
   3257774252.9029331     
   3140289872.8294582     
   3864989195.0637379     
   3709876551.3686676     
   3560739182.7644324     
   3418033911.9051285     
   3282372527.9315720     
   4093265177.4886994     
   3923064775.8220549     
   3758015010.4371796     
   3598508877.5273938     
   3445089141.5285540     
   4337910997.4982138     
   4152926207.5831785     
   3972401650.7650676     
   3796655596.9453411     
   3626144632.2873058     
   3021231489.7987823     
   2754012999.7334418     
   2499658671.1504264     
   2259018932.9667091     
   2033514460.4061499     
   3140289872.8294582     
   2854405269.5422192     
   2581762456.9578176     
   2323777452.0541410     
   2082815847.9411631     
   3282372527.9315720     
   2979467807.9537868     
   2690061892.9549727     
   2416219048.5334415     
   2161548930.2940860     
   3445089141.5285540     
   3125821663.0120792     
   2820190906.8380747     
   2530979761.7855482     
   2263290836.8738108     
   3626144632.2873058     
   3290238067.6767187     
   2968020697.3028412     
   2663067220.0192099     
   2382196861.4202595     
   2033514460.4061499     
   2585125651.3512197     
   3143112392.8114443     
   3710939729.2769265     
   4308394319.3667164     
   2082815847.9411631     
   2711234175.3701901     
   3342963509.3946843     
   3965081831.4024534     
   4574104189.7207212     
   2161548930.2940860     
   2799065409.6888862     
   3441941016.4109254     
   4083873773.5986509     
   4723918057.7068310     
   2263290836.8738108     
   2852128154.4822245     
   3445396367.3076925     
   4065617347.7603121     
   4738452795.3874741     
   2382196861.4202595     
   2876464458.4207067     
   3367091922.6553869     
   3928849603.4211044     
   4641307401.0072432     
   5657453254.4528103     
   5890654640.3290386     
   6116301247.3756323     
   6331900786.3875828     
   6537191158.3821259     
   6491988538.1584587     
   6587449088.5225029     
   6758166002.9603567     
   6961985449.3325167     
   7172244164.5239582     
   7982669098.3162613     
   7735921775.6318312     
   7670599936.2148132     
   7671248089.7466736     
   7667941699.7596693     
   10129971303.903246     
   9322891980.4436302     
   8828395484.1626377     
   8446376547.1133900     
   8039009357.4253531     
   12933996634.606873     
   11341083767.766874     
   10212720530.809902     
   9277155895.4159336     
   8309904821.2585764     
   6537191158.3821259     
   6327242224.0602398     
   6139597193.4477625     
   5960378114.6046867     
   5780508641.6737156     
   7172244164.5239582     
   6910194892.4267540     
   6656314332.3368168     
   6406780997.5276670     
   6158447131.7005796     
   7667941699.7596693     
   7381170985.2993755     
   7100185461.1503897     
   6825068587.6073313     
   6556054642.5852728     
   8039009357.4253531     
   7747840311.7887554     
   7472853298.4292107     
   7212038823.5915136     
   6965450288.5251694     
   8309904821.2585764     
   8022780735.5466690     
   7778406166.4933167     
   7565994035.8887262     
   7380641843.8107147     
   5780508641.6737156     
   5637531817.9955797     
   5498199944.1159172     
   5362418460.3555937     
   5230186767.3904085     
   6158447131.7005796     
   6017956601.2866745     
   5878017394.1401196     
   5738660545.8532724     
   5599925849.8599110     
   6556054642.5852728     
   6415870045.4646864     
   6273103343.9764795     
   6127709525.2334690     
   5979735556.5470848     
   6965450288.5251694     
   6824769143.6094732     
   6678405517.0327177     
   6526064376.5219135     
   6367763139.3718901     
   7380641843.8107147     
   7239649302.4652414     
   7090012466.1828060     
   6931043870.6485548     
   6762703158.2515669     
   5230186767.3904085     
   5052186719.6370163     
   4877592720.1559210     
   4706543689.0561399     
   4539356473.5986338     
   5599925849.8599110     
   5400132770.4148169     
   5203262366.0009775     
   5009442101.8094540     
   4818915294.0534058     
   5979735556.5470848     
   5763013033.7562284     
   5549340497.7187920     
   5338815951.6088848     
   5131645898.4676771     
   6367763139.3718901     
   6138564939.5216398     
   5913081828.9023647     
   5691349386.6460705     
   5473547393.8701286     
   6762703158.2515669     
   6525036154.4617167     
   6292234222.5299931     
   6064219264.0054379     
   5841124574.2172489     
   4539356473.5986338     
   4491487751.7359457     
   4441706382.0618830     
   4390357144.5590734     
   4337910997.4982138     
   4818915294.0534058     
   4763763751.3333149     
   4707063813.0259638     
   4649008282.1689758     
   4589858573.9041700     
   5131645898.4676771     
   5071079896.6838980     
   5009466814.6356497     
   4946892005.4146156     
   4883471830.1765060     
   5473547393.8701286     
   5408623602.8399134     
   5343224015.5754499     
   5277365195.1477528     
   5211075063.2430553     
   5841124574.2172489     
   5772224480.1797752     
   5703439659.6490517     
   5634750899.4299154     
   5566145868.2806511     
   4337910997.4982138     
   4152926207.5831785     
   3972401650.7650676     
   3796655596.9453411     
   3626144632.2873058     
   4589858573.9041700     
   4390947761.6189880     
   4194386393.9865870     
   4000458766.4091711     
   3809574627.9539742     
   4883471830.1765060     
   4670866153.5528021     
   4458486897.5334578     
   4246451166.9983010     
   4035002393.8668756     
   5211075063.2430553     
   4985384531.2098169     
   4757936157.7304049     
   4528588421.9925108     
   4297340580.4171667     
   5566145868.2806511     
   5328183547.0909777     
   5086730550.4662266     
   4841332943.0795536     
   4591709084.2592831     
   3626144632.2873058     
   3290238067.6767187     
   2968020697.3028412     
   2663067220.0192099     
   2382196861.4202595     
   3809574627.9539742     
   3454576019.0983810     
   3109211561.3573208     
   2775424529.3470659     
   2456992212.2849960     
   4035002393.8668756     
   3660253015.0654039     
   3291175088.1556520     
   2928391015.3467607     
   2573255722.1908689     
   4297340580.4171667     
   3904532593.7985997     
   3513983634.7141495     
   3125507364.5855150     
   2739030581.9925861     
   4591709084.2592831     
   4184324015.1832218     
   3776714072.0636253     
   3368555474.4926386     
   2959626557.5217957     
   2382196861.4202595     
   2876464458.4207067     
   3367091922.6553869     
   3928849603.4211044     
   4641307401.0072432     
   2456992212.2849960     
   2908099499.0890589     
   3343252514.7576365     
   3768358704.5273108     
   4191926013.0726719     
   2573255722.1908689     
   3120084181.7376022     
   3684261294.3824167     
   4260321073.9553609     
   4860222867.0024061     
   2739030581.9925861     
   3478692905.6809902     
   4292748583.8141870     
   5187964904.9109221     
   6221277366.7172070     
   2959626557.5217957     
   3957355919.1222644     
   5113630877.8914938     
   6428574018.8117371     
   8001537166.3655062     
 </DataArray>
 <DataArray  type="Float64" Name="strain" NumberOfComponents="3" format="ascii">
  0.20344532813231886        0.0000000000000000       0.12544177745330976     
  0.18665342411056479       -2.7359154666313126E-002   7.4384735680374930E-002
  0.16986152008881067       -4.4718690490181026E-002   3.5138079616267526E-002
  0.15306961606705660       -5.2078607471603700E-002   7.7018092609875827E-003
  0.13627771204530251       -4.9438905610581119E-002  -7.9240753854649681E-003
  0.15985102241490487        0.0000000000000000        9.6443529353016810E-002
  0.15319147107979264       -2.1870141944191165E-002   6.2692798726904281E-002
  0.14653191974468044       -3.6205503550664438E-002   3.7396387765248083E-002
  0.13987236840956824       -4.3006084819419775E-002   2.0554296468048214E-002
  0.13321281707445601       -4.2271885750457205E-002   1.2166524835304726E-002
  0.12647386127641713        0.0000000000000000        7.4166713227209496E-002
  0.12659059658357569       -1.6381129222069211E-002   5.5257455243191908E-002
  0.12670733189073430       -2.7692316611147835E-002   4.1446450879259585E-002
  0.12682406719789288       -3.3933562167235864E-002   3.2733700135412533E-002
  0.12694080250505146       -3.5104865890333292E-002   2.9119203011650718E-002
  0.10331384471685562        0.0000000000000000        5.8611329075887793E-002
  0.10685080062191391       -1.0892116499947254E-002   5.2078705229237847E-002
  0.11038775652697222       -1.9179129671631236E-002   4.7288268958302078E-002
  0.11392471243203052       -2.4861039515051944E-002   4.4240020263080528E-002
  0.11746166833708882       -2.7937846030209372E-002   4.2933959143573064E-002
   9.0370972736220342E-002   0.0000000000000000        4.9777376899051706E-002
   9.3972083194807293E-002  -5.4031037778252983E-003   5.3156548685042090E-002
   9.7573193653394216E-002  -1.0665942732114641E-002   5.4921842002375550E-002
  0.10117430411198114       -1.5788516862868023E-002   5.5073256851052105E-002
  0.10477541457056808       -2.0770826170085452E-002   5.3610793231071777E-002
  0.13627771204530251       -4.9438905610581119E-002  -7.9240753854649681E-003
  0.13301107983598826       -4.2870327781769538E-002  -3.4734112108441434E-003
  0.12974444762667400       -3.8443616859825266E-002  -4.0701456585891249E-004
  0.12647781541735970       -3.6158772844748235E-002   1.2751145494909362E-003
  0.12321118320804550       -3.6015795736538514E-002   1.5729761352052674E-003
  0.13321281707445601       -4.2271885750457205E-002   1.2166524835304726E-002
  0.12894478804709666       -3.8379462283236153E-002   1.2112840898923623E-002
  0.12467675901973735       -3.5705370357216104E-002   1.1440630856087920E-002
  0.12040872999237801       -3.4249609972397010E-002   1.0149894706797266E-002
  0.11614070096501866       -3.4012181128778907E-002   8.2406324510521378E-003
  0.12694080250505146       -3.5104865890333292E-002   2.9119203011650718E-002
  0.12243711808282780       -3.3888596784702747E-002   2.5484706329934121E-002
  0.11793343366060408       -3.2967123854606921E-002   2.1997424964943557E-002
  0.11342974923838040       -3.2340447100045723E-002   1.8657358916678923E-002
  0.10892606481615669       -3.2008566521019272E-002   1.5464508185140405E-002
  0.11746166833708882       -2.7937846030209372E-002   4.2933959143573064E-002
  0.11348806994318152       -2.9397731286169352E-002   3.6642185082187223E-002
  0.10951447154927424       -3.0228877351997741E-002   3.1263367760708073E-002
  0.10554087315536696       -3.0431284227694502E-002   2.6797507179135795E-002
  0.10156727476145963       -3.0004951913259650E-002   2.3244603337470318E-002
  0.10477541457056808       -2.0770826170085452E-002   5.3610793231071777E-002
  0.10209764362815796       -2.4906865787635957E-002   4.5585277155682939E-002
   9.9419872685747812E-002  -2.7490630849388548E-002   3.9238459243381672E-002
   9.6742101743337694E-002  -2.8522121355343238E-002   3.4570339494167886E-002
   9.4064330800927534E-002  -2.8001337305500029E-002   3.1580917908041670E-002
  0.12321118320804550       -3.6015795736538514E-002   1.5729761352052674E-003
  0.12056538591773838       -3.6595751115233888E-002   7.7268847677317010E-004
  0.11791958862743128       -3.6479704560872378E-002   9.4106306882835167E-005
  0.11527379133712418       -3.5667656073453784E-002  -4.6277037446568192E-004
  0.11262799404681706       -3.4159605652978375E-002  -8.9794156727229790E-004
  0.11614070096501866       -3.4012181128778907E-002   8.2406324510521378E-003
  0.11361009610096028       -3.4152008893685831E-002   7.8695879530956553E-003
  0.11107949123690197       -3.3828018334442024E-002   7.6072228190951288E-003
  0.10854888637284360       -3.3040209451047360E-002   7.4535370490500866E-003
  0.10601828150878526       -3.1788582243502034E-002   7.4085306429610420E-003
  0.10892606481615669       -3.2008566521019272E-002   1.5464508185140405E-002
  0.10649762625376100       -3.1708266672137803E-002   1.5290523238753635E-002
  0.10406918769136528       -3.1176332108011726E-002   1.5212191531736544E-002
  0.10164074912896963       -3.0412762828640912E-002   1.5229513064088936E-002
   9.9212310566573897E-002  -2.9417558834025581E-002   1.5342487835811019E-002
  0.10156727476145963       -3.0004951913259650E-002   2.3244603337470318E-002
   9.9227976376140517E-002  -2.9264524450589788E-002   2.3035494333746957E-002
   9.6888677990821404E-002  -2.8524645881581358E-002   2.2909012444807062E-002
   9.4549379605502248E-002  -2.7785316206234534E-002   2.2865157670650768E-002
   9.2210081220183149E-002  -2.7046535424549212E-002   2.2903930011277863E-002
   9.4064330800927534E-002  -2.8001337305500029E-002   3.1580917908041670E-002
   9.1801146468098865E-002  -2.6820782229041704E-002   3.1104501238075608E-002
   8.9537962135270155E-002  -2.5872959655151032E-002   3.0697685558306889E-002
   8.7274777802441458E-002  -2.5157869583828086E-002   3.0360470868735626E-002
   8.5011593469612762E-002  -2.4675512015072842E-002   3.0092857169361636E-002
  0.11262799404681706       -3.4159605652978375E-002  -8.9794156727229790E-004
  0.10878233902485468       -3.2485933014857082E-002  -6.5206992775213024E-004
  0.10493668400289219       -3.1177017874501195E-002  -3.7496003375839249E-004
  0.10109102898092975       -3.0232860231910623E-002  -6.6611885291112394E-005
   9.7245373958967318E-002  -2.9653460087085470E-002   2.7297451765012637E-004
  0.10601828150878526       -3.1788582243502034E-002   7.4085306429610420E-003
  0.10224906914723478       -3.0438021698681358E-002   7.1879937105568253E-003
   9.8479856785684314E-002  -2.9353412803461244E-002   7.0891038445030363E-003
   9.4710644424133794E-002  -2.8534755557841483E-002   7.1118610447993003E-003
   9.0941432062583372E-002  -2.7982049961822297E-002   7.2562653114459641E-003
   9.9212310566573897E-002  -2.9417558834025581E-002   1.5342487835811019E-002
   9.5609949677311956E-002  -2.8390110382505690E-002   1.4754348179647749E-002
   9.2007588788050002E-002  -2.7529807732421294E-002   1.4378264401711000E-002
   8.8405227898788075E-002  -2.6836650883772458E-002   1.4214236502001480E-002
   8.4802867009526148E-002  -2.6310639836559069E-002   1.4262264480518400E-002
   9.2210081220183149E-002  -2.7046535424549212E-002   2.2903930011277863E-002
   8.8864980615086200E-002  -2.6342199066329938E-002   2.2046993479520230E-002
   8.5519880009989294E-002  -2.5706202661381371E-002   2.1492521637865952E-002
   8.2174779404892373E-002  -2.5138546209703322E-002   2.1240514486315053E-002
   7.8829678799795438E-002  -2.4639229711295868E-002   2.1290972024867419E-002
   8.5011593469612762E-002  -2.4675512015072842E-002   3.0092857169361636E-002
   8.2014161960557441E-002  -2.4294287750154298E-002   2.9065929610174637E-002
   7.9016730451502148E-002  -2.3882597590341330E-002   2.8431875552967570E-002
   7.6019298942446828E-002  -2.3440441535634141E-002   2.8190694997740219E-002
   7.3021867433391507E-002  -2.2967819586032695E-002   2.8342387944492869E-002
   9.7245373958967318E-002  -2.9653460087085470E-002   2.7297451765012637E-004
   9.6108990477160261E-002  -2.9259860830324835E-002  -6.4599203419057893E-005
   9.4972606995353176E-002  -2.8873105851927927E-002  -3.0730696107034161E-004
   9.3836223513546077E-002  -2.8493195151894302E-002  -4.5514875530390519E-004
   9.2699840031739034E-002  -2.8120128730224958E-002  -5.0812458611959599E-004
   9.0941432062583372E-002  -2.7982049961822297E-002   7.2562653114459641E-003
   8.9892690423535232E-002  -2.7537948333383383E-002   7.0977940310826826E-003
   8.8843948784486981E-002  -2.7045102990504888E-002   7.0197404728191137E-003
   8.7795207145438758E-002  -2.6503513933186701E-002   7.0221046366558126E-003
   8.6746465506390591E-002  -2.5913181161428933E-002   7.1048865225920577E-003
   8.4802867009526148E-002  -2.6310639836559069E-002   1.4262264480518400E-002
   8.3827318971918946E-002  -2.5816035836442042E-002   1.4338483633664079E-002
   8.2851770934311758E-002  -2.5217100129082015E-002   1.4480672267591782E-002
   8.1876222896704612E-002  -2.4513832714478823E-002   1.4688830382301697E-002
   8.0900674859097382E-002  -2.3706233592632742E-002   1.4962957977793456E-002
   7.8829678799795438E-002  -2.4639229711295868E-002   2.1290972024867419E-002
   7.7912876122311459E-002  -2.4094123339500617E-002   2.1657469604325422E-002
   7.6996073444827492E-002  -2.3389097267659004E-002   2.2075488423247594E-002
   7.6079270767343513E-002  -2.2524151495771028E-002   2.2545028481634335E-002
   7.5162468089859560E-002  -2.1499286023836744E-002   2.3066089779485016E-002
   7.3021867433391507E-002  -2.2967819586032695E-002   2.8342387944492869E-002
   7.2149361874712825E-002  -2.2372210842559276E-002   2.9054751943066615E-002
   7.1276856316034171E-002  -2.1561094406236193E-002   2.9804188939786799E-002
   7.0404350757355516E-002  -2.0534470277063295E-002   3.0590698934653208E-002
   6.9531845198676862E-002  -1.9292338455040692E-002   3.1414281927666265E-002
   9.2699840031739034E-002  -2.8120128730224958E-002  -5.0812458611959599E-004
   8.8562546621110239E-002  -2.7609527285003987E-002  -1.5814499833207152E-003
   8.4425253210481499E-002  -2.6817011514316147E-002  -2.3445898664166687E-003
   8.0287959799852704E-002  -2.5742581418161464E-002  -2.7975442354082336E-003
   7.6150666389223964E-002  -2.4386236996540300E-002  -2.9403130902949659E-003
   8.6746465506390591E-002  -2.5913181161428933E-002   7.1048865225920577E-003
   8.2907635290435655E-002  -2.5206187250352063E-002   6.3606691288476402E-003
   7.9068805074480691E-002  -2.4314614775077431E-002   5.9031926103464971E-003
   7.5229974858525714E-002  -2.3238463735604835E-002   5.7324569670877401E-003
   7.1391144642570792E-002  -2.1977734131934379E-002   5.8484621990724239E-003
   8.0900674859097382E-002  -2.3706233592632742E-002   1.4962957977793456E-002
   7.7336863198954428E-002  -2.2802847215700639E-002   1.4450512826237272E-002
   7.3773051538811391E-002  -2.1812218035839159E-002   1.4201363911062054E-002
   7.0209239878668395E-002  -2.0734346053048539E-002   1.4215511232267462E-002
   6.6645428218525427E-002  -1.9569231267328513E-002   1.4492954789854212E-002
   7.5162468089859560E-002  -2.1499286023836744E-002   2.3066089779485016E-002
   7.1850230346666585E-002  -2.0399507181049020E-002   2.2688081108847812E-002
   6.8537992603473652E-002  -1.9309821296600777E-002   2.2549924035729862E-002
   6.5225754860280746E-002  -1.8230228370491965E-002   2.2651618560131197E-002
   6.1913517117087764E-002  -1.7160728402722619E-002   2.2993164682051377E-002
   6.9531845198676862E-002  -1.9292338455040692E-002   3.1414281927666265E-002
   6.6447736733572127E-002  -1.7996167146397429E-002   3.1073373976679752E-002
   6.3363628268467406E-002  -1.6807424557362310E-002   3.0948872984350367E-002
   6.0279519803362692E-002  -1.5726110687935370E-002   3.1040778950678277E-002
   5.7195411338257951E-002  -1.4752225538116781E-002   3.1349091875663315E-002
   7.6150666389223964E-002  -2.4386236996540300E-002  -2.9403130902949659E-003
   6.9173085425818237E-002  -2.2801179108009051E-002  -5.2560541898345470E-003
   6.2195504462412454E-002  -2.1040608611124861E-002  -7.2442850233226941E-003
   5.5217923499006755E-002  -1.9104525505887891E-002  -8.9050055907593240E-003
   4.8240342535600944E-002  -1.6992929792297495E-002  -1.0238215892144242E-002
   7.1391144642570792E-002  -2.1977734131934379E-002   5.8484621990724239E-003
   6.4756068517694387E-002  -2.0628421182485701E-002   3.6455713624737873E-003
   5.8120992392818011E-002  -1.9286520105679217E-002   1.8001799368818350E-003
   5.1485916267941620E-002  -1.7952030901514454E-002   3.1228792229731628E-004
   4.4850840143065229E-002  -1.6624953569991829E-002  -8.1810468128007408E-004
   6.6645428218525427E-002  -1.9569231267328513E-002   1.4492954789854212E-002
   6.0382846077133873E-002  -1.8455663256962407E-002   1.2219989735201581E-002
   5.4120263935742305E-002  -1.7532431600233475E-002   1.0334513236511328E-002
   4.7857681794350730E-002  -1.6799536297141242E-002   8.8365252937837938E-003
   4.1595099652959183E-002  -1.6256977347686385E-002   7.7260259070188186E-003
   6.1913517117087764E-002  -1.7160728402722619E-002   2.2993164682051377E-002
   5.6053418104136478E-002  -1.6282905331439029E-002   2.0467200928349485E-002
   5.0193319091185185E-002  -1.5778343094787560E-002   1.8358714875565642E-002
   4.4333220078233926E-002  -1.5647041692768142E-002   1.6667706523699997E-002
   3.8473121065282632E-002  -1.5889001125380831E-002   1.5394175872752158E-002
   5.7195411338257951E-002  -1.4752225538116781E-002   3.1349091875663315E-002
   5.1767784598702349E-002  -1.4110147405915624E-002   2.8387204941917654E-002
   4.6340157859146830E-002  -1.4024254589341964E-002   2.5872784854045011E-002
   4.0912531119591256E-002  -1.4494547088395145E-002   2.3805831612046094E-002
   3.5484904380035709E-002  -1.5521024903075387E-002   2.2186345215920777E-002
   4.8240342535600944E-002  -1.6992929792297495E-002  -1.0238215892144242E-002
   6.6119748046733817E-002  -1.8920070009901813E-002   3.0698437446293747E-003
   8.3999153557866635E-002  -2.9100194698248649E-002   1.0538464050855456E-002
  0.10187855906899948       -4.7533303857337922E-002   1.2167645026532725E-002
  0.11975796458013233       -7.4219397487170102E-002   7.9573866716629027E-003
   4.4850840143065229E-002  -1.6624953569991829E-002  -8.1810468128007408E-004
   5.7682476415162720E-002  -1.7846767565149024E-002   6.7437093237057155E-003
   7.0514112687260266E-002  -2.4158952341023471E-002   1.0049424181169109E-002
   8.3345748959357646E-002  -3.5561507897615412E-002   9.0990398911096615E-003
   9.6177385231455248E-002  -5.2054434234924507E-002   3.8925564535268187E-003
   4.1595099652959183E-002  -1.6256977347686385E-002   7.7260259070188186E-003
   5.0962306869046375E-002  -1.6773465120396069E-002   1.2704207970241882E-002
   6.0329514085133637E-002  -1.9217709983797959E-002   1.5009631068967244E-002
   6.9696721301221010E-002  -2.3589711937892457E-002   1.4642295203195155E-002
   7.9063928517308091E-002  -2.9889470982678912E-002   1.1602200372925364E-002
   3.8473121065282632E-002  -1.5889001125380831E-002   1.5394175872752158E-002
   4.5959239408384776E-002  -1.5700162675643198E-002   2.0951339684237881E-002
   5.3445357751486983E-002  -1.4276467626572836E-002   2.5419084714250591E-002
   6.0931476094589099E-002  -1.1617915978169392E-002   2.8797410962791294E-002
   6.8417594437691326E-002  -7.7245077304333165E-003   3.1086318429859372E-002
   3.5484904380035709E-002  -1.5521024903075387E-002   2.2186345215920777E-002
   4.2673274033177944E-002  -1.4626860230890382E-002   3.1485104465693581E-002
   4.9861643686320123E-002  -9.3352252693474080E-003   4.1277785117019183E-002
   5.7050013339462302E-002   3.5387998155330530E-004   5.1564387169897780E-002
   6.4238382992604537E-002   1.4440455521812057E-002   6.2344910624328342E-002
   9.0370972736220342E-002   0.0000000000000000        4.9777376899051706E-002
   9.3972083194807293E-002  -5.4031037778252983E-003   5.3156548685042090E-002
   9.7573193653394216E-002  -1.0665942732114641E-002   5.4921842002375550E-002
  0.10117430411198114       -1.5788516862868023E-002   5.5073256851052105E-002
  0.10477541457056808       -2.0770826170085452E-002   5.3610793231071777E-002
   8.2417419541413961E-002   0.0000000000000000        4.4727246244139943E-002
   8.4632669024752638E-002  -4.5707852892120952E-003   4.8222300759056640E-002
   8.6847918508091301E-002  -9.0290909163878788E-003   5.0559511792133686E-002
   8.9063167991429978E-002  -1.3374916881527345E-002   5.1738879343371118E-002
   9.1278417474768628E-002  -1.7608263184630490E-002   5.1760403412768961E-002
   7.4225359339339103E-002   0.0000000000000000        4.0523326658591208E-002
   7.5510782834246809E-002  -3.7384668005988929E-003   4.4106478740934547E-002
   7.6796206329154501E-002  -7.3922391006611132E-003   4.6987822328255560E-002
   7.8081629824062193E-002  -1.0961316900186653E-002   4.9167357420554267E-002
   7.9367053318969899E-002  -1.4445700199175529E-002   5.0645084017830619E-002
   6.5794792129995769E-002   0.0000000000000000        3.7165618142405488E-002
   6.6606424623289778E-002  -2.9061483119856898E-003   4.0809082630675848E-002
   6.7418057116583816E-002  -5.7553872849343485E-003   4.4206773610741192E-002
   6.8229689609877811E-002  -8.5477169188459719E-003   4.7358691082601462E-002
   6.9041322103171821E-002  -1.1283137213720564E-002   5.0264835046256721E-002
   5.7125717913383972E-002   0.0000000000000000        3.4654120695582789E-002
   5.7919594391881594E-002  -2.0738298233724875E-003   3.8330112428280542E-002
   5.8713470870379203E-002  -4.1185354692075855E-003   4.2216365639590532E-002
   5.9507347348876832E-002  -6.1341169375052820E-003   4.6312880329512793E-002
   6.0301223827374441E-002  -8.1205742282656011E-003   5.0619656498047290E-002
  0.10477541457056808       -2.0770826170085452E-002   5.3610793231071777E-002
  0.10209764362815796       -2.4906865787635957E-002   4.5585277155682939E-002
   9.9419872685747812E-002  -2.7490630849388548E-002   3.9238459243381672E-002
   9.6742101743337694E-002  -2.8522121355343238E-002   3.4570339494167886E-002
   9.4064330800927534E-002  -2.8001337305500029E-002   3.1580917908041670E-002
   9.1278417474768628E-002  -1.7608263184630490E-002   5.1760403412768961E-002
   9.0043452960820780E-002  -2.1178416889300319E-002   4.6467718588069681E-002
   8.8808488446872946E-002  -2.3534665059139794E-002   4.2381948457207455E-002
   8.7573523932925099E-002  -2.4677007694148954E-002   3.9503093020182241E-002
   8.6338559418977251E-002  -2.4605444794327760E-002   3.7831152276994115E-002
   7.9367053318969899E-002  -1.4445700199175529E-002   5.0645084017830619E-002
   7.9103111764233819E-002  -1.7449967990964682E-002   4.7746861422853365E-002
   7.8839170209497753E-002  -1.9578699268891053E-002   4.5583770052462599E-002
   7.8575228654761659E-002  -2.0831894032954670E-002   4.4155809906658385E-002
   7.8311287100025592E-002  -2.1209552283155519E-002   4.3462980985440734E-002
   6.9041322103171821E-002  -1.1283137213720564E-002   5.0264835046256721E-002
   6.9276620038397019E-002  -1.3721519092629041E-002   4.9422705660033851E-002
   6.9511917973622217E-002  -1.5622733478642318E-002   4.8843924029147050E-002
   6.9747215908847429E-002  -1.6986780371760400E-002   4.8528490153596233E-002
   6.9982513844072655E-002  -1.7813659771983258E-002   4.8476404033381465E-002
   6.0301223827374441E-002  -8.1205742282656011E-003   5.0619656498047290E-002
   6.0563977783310415E-002  -9.9930701942934075E-003   5.1495251299611286E-002
   6.0826731739246395E-002  -1.1666767688393573E-002   5.2162410387260799E-002
   6.1089485695182383E-002  -1.3141666710566102E-002   5.2621133760995878E-002
   6.1352239651118370E-002  -1.4417767260811017E-002   5.2871421420816418E-002
   9.4064330800927534E-002  -2.8001337305500029E-002   3.1580917908041670E-002
   9.1801146468098865E-002  -2.6820782229041704E-002   3.1104501238075608E-002
   8.9537962135270155E-002  -2.5872959655151032E-002   3.0697685558306889E-002
   8.7274777802441458E-002  -2.5157869583828086E-002   3.0360470868735626E-002
   8.5011593469612762E-002  -2.4675512015072842E-002   3.0092857169361636E-002
   8.6338559418977251E-002  -2.4605444794327760E-002   3.7831152276994115E-002
   8.4190802265250289E-002  -2.3966873534727547E-002   3.6942750200010983E-002
   8.2043045111523369E-002  -2.3408191090399679E-002   3.6215601491034158E-002
   7.9895287957796435E-002  -2.2929397461344092E-002   3.5649706150063340E-002
   7.7747530804069473E-002  -2.2530492647560824E-002   3.5245064177098634E-002
   7.8311287100025592E-002  -2.1209552283155519E-002   4.3462980985440734E-002
   7.6370609503209175E-002  -2.1112964840413438E-002   4.2315437188736066E-002
   7.4429931906392743E-002  -2.0943422525648299E-002   4.1420799137846367E-002
   7.2489254309576326E-002  -2.0700925338860109E-002   4.0779066832771479E-002
   7.0548576712759895E-002  -2.0385473280048805E-002   4.0390240273511520E-002
   6.9982513844072655E-002  -1.7813659771983258E-002   4.8476404033381465E-002
   6.8340568181975453E-002  -1.8259056146099305E-002   4.7222562204250647E-002
   6.6698622519878265E-002  -1.8478653960896940E-002   4.6313278498743483E-002
   6.5056676857781118E-002  -1.8472453216376108E-002   4.5748552916859919E-002
   6.3414731195683902E-002  -1.8240453912536814E-002   4.5528385458599954E-002
   6.1352239651118370E-002  -1.4417767260811017E-002   5.2871421420816418E-002
   6.0100678301549179E-002  -1.5405147451785176E-002   5.1664125246554830E-002
   5.8849116951979995E-002  -1.6013885396145566E-002   5.0893039573725596E-002
   5.7597555602410810E-002  -1.6243981093892107E-002   5.0558164402328729E-002
   5.6345994252841619E-002  -1.6095434545024767E-002   5.0659499732364111E-002
   8.5011593469612762E-002  -2.4675512015072842E-002   3.0092857169361636E-002
   8.2014161960557441E-002  -2.4294287750154298E-002   2.9065929610174637E-002
   7.9016730451502148E-002  -2.3882597590341330E-002   2.8431875552967570E-002
   7.6019298942446828E-002  -2.3440441535634141E-002   2.8190694997740219E-002
   7.3021867433391507E-002  -2.2967819586032695E-002   2.8342387944492869E-002
   7.7747530804069473E-002  -2.2530492647560824E-002   3.5245064177098634E-002
   7.5115225755547479E-002  -2.2170672522994261E-002   3.4271590816565431E-002
   7.2482920707025444E-002  -2.1809132961588852E-002   3.3635496875118812E-002
   6.9850615658503423E-002  -2.1445873963344499E-002   3.3336782352758970E-002
   6.7218310609981430E-002  -2.1080895528261340E-002   3.3375447249485851E-002
   7.0548576712759895E-002  -2.0385473280048805E-002   4.0390240273511520E-002
   6.8225904041878019E-002  -2.0047057295834281E-002   3.9441474653576440E-002
   6.5903231370996171E-002  -1.9735668332836267E-002   3.8774594369834936E-002
   6.3580558700114267E-002  -1.9451306391054794E-002   3.8389599422287056E-002
   6.1257886029232447E-002  -1.9193971470489915E-002   3.8286489810932682E-002
   6.3414731195683902E-002  -1.8240453912536814E-002   4.5528385458599954E-002
   6.1346196819549073E-002  -1.7923442068674258E-002   4.4575581121207790E-002
   5.9277662443414210E-002  -1.7662203704083765E-002   4.3849168037115950E-002
   5.7209128067279361E-002  -1.7456738818765066E-002   4.3349146206324657E-002
   5.5140593691144518E-002  -1.7307047412718483E-002   4.3075515628833695E-002
   5.6345994252841619E-002  -1.6095434545024767E-002   5.0659499732364111E-002
   5.4476104088560628E-002  -1.5799826841514264E-002   4.9673910219459272E-002
   5.2606213924279666E-002  -1.5588739075331183E-002   4.8859217876961750E-002
   5.0736323759998696E-002  -1.5462171246475346E-002   4.8215422704871523E-002
   4.8866433595717712E-002  -1.5420123354947107E-002   4.7742524703188599E-002
   7.3021867433391507E-002  -2.2967819586032695E-002   2.8342387944492869E-002
   7.2149361874712825E-002  -2.2372210842559276E-002   2.9054751943066615E-002
   7.1276856316034171E-002  -2.1561094406236193E-002   2.9804188939786799E-002
   7.0404350757355516E-002  -2.0534470277063295E-002   3.0590698934653208E-002
   6.9531845198676862E-002  -1.9292338455040692E-002   3.1414281927666265E-002
   6.7218310609981430E-002  -2.1080895528261340E-002   3.3375447249485851E-002
   6.6390509816159612E-002  -2.0618739183056886E-002   3.4142647295557715E-002
   6.5562709022337795E-002  -1.9963946454448850E-002   3.4962183873196939E-002
   6.4734908228515964E-002  -1.9116517342437127E-002   3.5834056982403585E-002
   6.3907107434694160E-002  -1.8076451847021918E-002   3.6758266623177410E-002
   6.1257886029232447E-002  -1.9193971470489915E-002   3.8286489810932682E-002
   6.0490053533688332E-002  -1.8865267523554510E-002   3.9085654595056751E-002
   5.9722221038144278E-002  -1.8366798502661586E-002   3.9952419444169038E-002
   5.8954388542600183E-002  -1.7698564407811122E-002   4.0886784358269417E-002
   5.8186556047056116E-002  -1.6860565239003117E-002   4.1888749337358019E-002
   5.5140593691144518E-002  -1.7307047412718483E-002   4.3075515628833695E-002
   5.4447993027299080E-002  -1.7111795864052169E-002   4.3883773841563826E-002
   5.3755392363453627E-002  -1.6769650550874281E-002   4.4774895652702866E-002
   5.3062791699608168E-002  -1.6280611473185064E-002   4.5748881062251064E-002
   5.2370191035762702E-002  -1.5644678630984385E-002   4.6805730070208378E-002
   4.8866433595717712E-002  -1.5420123354947107E-002   4.7742524703188599E-002
   4.8264328296991760E-002  -1.5358324204549773E-002   4.8537005035078601E-002
   4.7662222998265821E-002  -1.5172502599087069E-002   4.9429612498798695E-002
   4.7060117699539869E-002  -1.4862658538558957E-002   5.0420347094348582E-002
   4.6458012400813931E-002  -1.4428792022965542E-002   5.1509208821728547E-002
   6.9531845198676862E-002  -1.9292338455040692E-002   3.1414281927666265E-002
   6.6447736733572127E-002  -1.7996167146397429E-002   3.1073373976679752E-002
   6.3363628268467406E-002  -1.6807424557362310E-002   3.0948872984350367E-002
   6.0279519803362692E-002  -1.5726110687935370E-002   3.1040778950678277E-002
   5.7195411338257951E-002  -1.4752225538116781E-002   3.1349091875663315E-002
   6.3907107434694160E-002  -1.8076451847021918E-002   3.6758266623177410E-002
   6.1046063941569265E-002  -1.6989393972479117E-002   3.6225162889479579E-002
   5.8185020448444411E-002  -1.6000987723084940E-002   3.5921782141084102E-002
   5.5323976955319536E-002  -1.5111233098839339E-002   3.5848124377991196E-002
   5.2462933462194661E-002  -1.4320130099742256E-002   3.6004189600200714E-002
   5.8186556047056116E-002  -1.6860565239003117E-002   4.1888749337358019E-002
   5.5561893552556252E-002  -1.5982620798560734E-002   4.1172226915408776E-002
   5.2937231058056353E-002  -1.5194550888807459E-002   4.0698743505406948E-002
   5.0312568563556447E-002  -1.4496355509743031E-002   4.0468299107352869E-002
   4.7687906069056596E-002  -1.3888034661367649E-002   4.0480893721246206E-002
   5.2370191035762702E-002  -1.5644678630984385E-002   4.6805730070208378E-002
   4.9995225566532991E-002  -1.4975847624642553E-002   4.5914566054467233E-002
   4.7620260097303295E-002  -1.4388114054530061E-002   4.5279757077318655E-002
   4.5245294628073564E-002  -1.3881477920646959E-002   4.4901303138763046E-002
   4.2870329158843881E-002  -1.3455939222993027E-002   4.4779204238799913E-002
   4.6458012400813931E-002  -1.4428792022965542E-002   5.1509208821728547E-002
   4.4346059983499525E-002  -1.3969074450724067E-002   5.0452180306654992E-002
   4.2234107566185161E-002  -1.3581677220252650E-002   4.9664822856819363E-002
   4.0122155148870776E-002  -1.3266600331550759E-002   4.9147136472221659E-002
   3.8010202731556392E-002  -1.3023843784618516E-002   4.8899121152861935E-002
   5.7195411338257951E-002  -1.4752225538116781E-002   3.1349091875663315E-002
   5.1767784598702349E-002  -1.4110147405915624E-002   2.8387204941917654E-002
   4.6340157859146830E-002  -1.4024254589341964E-002   2.5872784854045011E-002
   4.0912531119591256E-002  -1.4494547088395145E-002   2.3805831612046094E-002
   3.5484904380035709E-002  -1.5521024903075387E-002   2.2186345215920777E-002
   5.2462933462194661E-002  -1.4320130099742256E-002   3.6004189600200714E-002
   4.7480449432948865E-002  -1.3788122306566342E-002   3.2509566962656056E-002
   4.2497965403703070E-002  -1.3675653300083898E-002   2.9457762899857479E-002
   3.7515481374457246E-002  -1.3982723080295491E-002   2.6848777411804907E-002
   3.2532997345211478E-002  -1.4709331647200563E-002   2.4682610498498514E-002
   4.7687906069056596E-002  -1.3888034661367649E-002   4.0480893721246206E-002
   4.3145916478993185E-002  -1.3466097207216851E-002   3.6590181908836214E-002
   3.8603926888929760E-002  -1.3327052010826172E-002   3.3137640400044917E-002
   3.4061937298866335E-002  -1.3470899072195728E-002   3.0123269194872255E-002
   2.9519947708802979E-002  -1.3897638391325684E-002   2.7547068293318350E-002
   4.2870329158843881E-002  -1.3455939222993027E-002   4.4779204238799913E-002
   3.8764185736835467E-002  -1.3144072107867354E-002   4.0629049780458032E-002
   3.4658042314827053E-002  -1.2978450721568360E-002   3.6912417354607430E-002
   3.0551898892818632E-002  -1.2959075064096132E-002   3.3629306961247885E-002
   2.6445755470810219E-002  -1.3085945135450722E-002   3.0779718600380250E-002
   3.8010202731556392E-002  -1.3023843784618516E-002   4.8899121152861935E-002
   3.4335257206475622E-002  -1.2822047008517912E-002   4.4626170577521496E-002
   3.0660311681394839E-002  -1.2629849432310422E-002   4.0782093763544969E-002
   2.6985366156314063E-002  -1.2447251055996516E-002   3.7366890710932285E-002
   2.3310420631233286E-002  -1.2274251879576037E-002   3.4380561419683764E-002
   3.5484904380035709E-002  -1.5521024903075387E-002   2.2186345215920777E-002
   4.2673274033177944E-002  -1.4626860230890382E-002   3.1485104465693581E-002
   4.9861643686320123E-002  -9.3352252693474080E-003   4.1277785117019183E-002
   5.7050013339462302E-002   3.5387998155330530E-004   5.1564387169897780E-002
   6.4238382992604537E-002   1.4440455521812057E-002   6.2344910624328342E-002
   3.2532997345211478E-002  -1.4709331647200563E-002   2.4682610498498514E-002
   3.9987120102878498E-002  -1.4321998528640550E-002   3.7214505073150078E-002
   4.7441242860545518E-002  -1.1287243252457502E-002   4.9783984455298885E-002
   5.4895365618212580E-002  -5.6050658186507646E-003   6.2391048644944672E-002
   6.2349488375879558E-002   2.7245337727794805E-003   7.5035697642087396E-002
   2.9519947708802979E-002  -1.3897638391325684E-002   2.7547068293318350E-002
   3.6783486976939297E-002  -1.4017136826391080E-002   4.1562050061114270E-002
   4.4047026245075602E-002  -1.3239261235567470E-002   5.5158280042351418E-002
   5.1310565513211961E-002  -1.1564011618854859E-002   6.8335758237030197E-002
   5.8574104781348224E-002  -8.9913879762529847E-003   8.1094484645150511E-002
   2.6445755470810219E-002  -1.3085945135450722E-002   3.0779718600380250E-002
   3.3062374655360244E-002  -1.3712275124141429E-002   4.4527739429585836E-002
   3.9678993839910158E-002  -1.5191279218677335E-002   5.7400671878177406E-002
   4.6295613024460197E-002  -1.7522957419058828E-002   6.9398515946154815E-002
   5.2912232209010049E-002  -2.0707309725285505E-002   8.0521271633517799E-002
   2.3310420631233286E-002  -1.2274251879576037E-002   3.4380561419683764E-002
   2.8823783138141351E-002  -1.3407413421891834E-002   4.6111573178564846E-002
   3.4337145645049430E-002  -1.7143297201787602E-002   5.6511159962776364E-002
   3.9850508151957433E-002  -2.3481903219263068E-002   6.5579321772318053E-002
   4.5363870658865546E-002  -3.2423231474318026E-002   7.3316058607190149E-002
   5.7125717913383972E-002   0.0000000000000000        3.4654120695582789E-002
   5.7919594391881594E-002  -2.0738298233724875E-003   3.8330112428280542E-002
   5.8713470870379203E-002  -4.1185354692075855E-003   4.2216365639590532E-002
   5.9507347348876832E-002  -6.1341169375052820E-003   4.6312880329512793E-002
   6.0301223827374441E-002  -8.1205742282656011E-003   5.0619656498047290E-002
   4.8627727158560244E-002   0.0000000000000000        3.2763362665165621E-002
   4.9567095993543357E-002  -1.7004999886167165E-003   3.6962445455426388E-002
   5.0506464828526471E-002  -3.4157516570805756E-003   4.1242251480045886E-002
   5.1445833663509584E-002  -5.1457550053915658E-003   4.5602780739024136E-002
   5.2385202498492683E-002  -6.8905100335497019E-003   5.0044033232361111E-002
   4.0710410334581171E-002   0.0000000000000000        3.1267872398196499E-002
   4.1665733281796263E-002  -1.3271701538609447E-003   3.5946170388635741E-002
   4.2621056229011356E-002  -2.7129678449535604E-003   4.0575653369180217E-002
   4.3576379176226449E-002  -4.1573930732778470E-003   4.5156321339829920E-002
   4.4531702123441541E-002  -5.6604458388338054E-003   4.9688174300584836E-002
   3.3373767441446746E-002   0.0000000000000000        3.0167649894675408E-002
   3.4215506256640306E-002  -9.5384031910517334E-004   3.5281287227908610E-002
   3.5057245071833859E-002  -2.0101840328265478E-003   4.0216571306993520E-002
   3.5898983887027419E-002  -3.1690311411641278E-003   4.4973502131930125E-002
   3.6740722702220979E-002  -4.4303816441179106E-003   4.9552079702718480E-002
   2.6617798479156962E-002   0.0000000000000000        2.9462695154602356E-002
   2.7216414918075475E-002  -5.8051048434940196E-004   3.4967795973244981E-002
   2.7815031356993987E-002  -1.3074002206995370E-003   4.0165005293485788E-002
   2.8413647795912503E-002  -2.1806692090504086E-003   4.5054323115324806E-002
   2.9012264234831012E-002  -3.2003174494020115E-003   4.9635749438762020E-002
   6.0301223827374441E-002  -8.1205742282656011E-003   5.0619656498047290E-002
   6.0563977783310415E-002  -9.9930701942934075E-003   5.1495251299611286E-002
   6.0826731739246395E-002  -1.1666767688393573E-002   5.2162410387260799E-002
   6.1089485695182383E-002  -1.3141666710566102E-002   5.2621133760995878E-002
   6.1352239651118370E-002  -1.4417767260811017E-002   5.2871421420816418E-002
   5.2385202498492683E-002  -6.8905100335497019E-003   5.0044033232361111E-002
   5.2478795855304280E-002  -8.5477025649777320E-003   5.1215761675163250E-002
   5.2572389212115878E-002  -1.0015018423098439E-002   5.2257604633631112E-002
   5.2665982568927475E-002  -1.1292457607911786E-002   5.3169562107764648E-002
   5.2759575925739065E-002  -1.2380020119417808E-002   5.3951634097563941E-002
   4.4531702123441541E-002  -5.6604458388338054E-003   4.9688174300584836E-002
   4.4534685110708912E-002  -7.1023349356620774E-003   5.1147114586004856E-002
   4.4537668097976282E-002  -8.3632691578032978E-003   5.2554719616670742E-002
   4.4540651085243653E-002  -9.4432485052574761E-003   5.3910989392582521E-002
   4.4543634072511024E-002  -1.0342272978024595E-002   5.5215923913740111E-002
   3.6740722702220979E-002  -4.4303816441179106E-003   4.9552079702718480E-002
   3.6731645549524294E-002  -5.6569673063464141E-003   5.1289310032136083E-002
   3.6722568396827610E-002  -6.7115198925081655E-003   5.3053755336379696E-002
   3.6713491244130925E-002  -7.5940394026031664E-003   5.4845415615449380E-002
   3.6704414091434233E-002  -8.3045258366313771E-003   5.6664290869345060E-002
   2.9012264234831012E-002  -3.2003174494020115E-003   4.9635749438762020E-002
   2.9069677171750435E-002  -4.2115996770307439E-003   5.1642348013556924E-002
   2.9127090108669863E-002  -5.0597706272130314E-003   5.3754711792758009E-002
   2.9184503045589293E-002  -5.7448302999488421E-003   5.5972840776365294E-002
   2.9241915982508720E-002  -6.2667786952381802E-003   5.8296734964378795E-002
   6.1352239651118370E-002  -1.4417767260811017E-002   5.2871421420816418E-002
   6.0100678301549179E-002  -1.5405147451785176E-002   5.1664125246554830E-002
   5.8849116951979995E-002  -1.6013885396145566E-002   5.0893039573725596E-002
   5.7597555602410810E-002  -1.6243981093892107E-002   5.0558164402328729E-002
   5.6345994252841619E-002  -1.6095434545024767E-002   5.0659499732364111E-002
   5.2759575925739065E-002  -1.2380020119417808E-002   5.3951634097563941E-002
   5.1894573518181636E-002  -1.3220607628311645E-002   5.3412766025298375E-002
   5.1029571110624186E-002  -1.3757121805288488E-002   5.3210805335623945E-002
   5.0164568703066729E-002  -1.3989562650348293E-002   5.3345752028540694E-002
   4.9299566295509321E-002  -1.3917930163491077E-002   5.3817606104048482E-002
   4.4543634072511024E-002  -1.0342272978024595E-002   5.5215923913740111E-002
   4.3965887488124092E-002  -1.1036067804838097E-002   5.5270915028773807E-002
   4.3388140903737174E-002  -1.1500358214431392E-002   5.5563510407557415E-002
   4.2810394319350242E-002  -1.1735144206804479E-002   5.6093710050090936E-002
   4.2232647734963331E-002  -1.1740425781957359E-002   5.6861513956374350E-002
   3.6704414091434233E-002  -8.3045258366313771E-003   5.6664290869345060E-002
   3.6314620211376616E-002  -8.8515279813645639E-003   5.7238572256981229E-002
   3.5924826331318979E-002  -9.2435946235743249E-003   5.7951154789526019E-002
   3.5535032451261328E-002  -9.4807257632607000E-003   5.8802038466979546E-002
   3.5145238571203705E-002  -9.5629214004236546E-003   5.9791223289341659E-002
   2.9241915982508720E-002  -6.2667786952381802E-003   5.8296734964378795E-002
   2.8940771687939140E-002  -6.6669881578910323E-003   5.9315737709920539E-002
   2.8639627393369570E-002  -6.9868310327172289E-003   6.0373738481529757E-002
   2.8338483098799987E-002  -7.2263073197168966E-003   6.1470737279206419E-002
   2.8037338804230413E-002  -7.3854170188899365E-003   6.2606734102950520E-002
   5.6345994252841619E-002  -1.6095434545024767E-002   5.0659499732364111E-002
   5.4476104088560628E-002  -1.5799826841514264E-002   4.9673910219459272E-002
   5.2606213924279666E-002  -1.5588739075331183E-002   4.8859217876961750E-002
   5.0736323759998696E-002  -1.5462171246475346E-002   4.8215422704871523E-002
   4.8866433595717712E-002  -1.5420123354947107E-002   4.7742524703188599E-002
   4.9299566295509321E-002  -1.3917930163491077E-002   5.3817606104048482E-002
   4.7617364174339698E-002  -1.3715657465262744E-002   5.2764660437383003E-002
   4.5935162053170053E-002  -1.3556177676209175E-002   5.1916193686532802E-002
   4.4252959932000457E-002  -1.3439490796330347E-002   5.1272205851498151E-002
   4.2570757810830806E-002  -1.3365596825626269E-002   5.0832696932278820E-002
   4.2232647734963331E-002  -1.1740425781957359E-002   5.6861513956374350E-002
   4.0771715402313169E-002  -1.1631488089011210E-002   5.5782939164100806E-002
   3.9310783069663013E-002  -1.1523616277087163E-002   5.4942425033050746E-002
   3.7849850737012879E-002  -1.1416810346185222E-002   5.4339971563224218E-002
   3.6388918404362702E-002  -1.1311070296305417E-002   5.3975578754621160E-002
   3.5145238571203705E-002  -9.5629214004236546E-003   5.9791223289341659E-002
   3.3939157772481104E-002  -9.5473187127596837E-003   5.8728746399612730E-002
   3.2733076973758511E-002  -9.4910548779652080E-003   5.7937911916515386E-002
   3.1526996175035925E-002  -9.3941298960401060E-003   5.7418719840049710E-002
   3.0320915376313311E-002  -9.2565437669845582E-003   5.7171170170215564E-002
   2.8037338804230413E-002  -7.3854170188899365E-003   6.2606734102950520E-002
   2.7119691284843477E-002  -7.4631493365081847E-003   6.1602082143918810E-002
   2.6202043765456554E-002  -7.4584934788431111E-003   6.0902654336926827E-002
   2.5284396246069617E-002  -7.3714494458950513E-003   6.0508450681974496E-002
   2.4366748726682694E-002  -7.2020172376637270E-003   6.0419471179061962E-002
   4.8866433595717712E-002  -1.5420123354947107E-002   4.7742524703188599E-002
   4.8264328296991760E-002  -1.5358324204549773E-002   4.8537005035078601E-002
   4.7662222998265821E-002  -1.5172502599087069E-002   4.9429612498798695E-002
   4.7060117699539869E-002  -1.4862658538558957E-002   5.0420347094348582E-002
   4.6458012400813931E-002  -1.4428792022965542E-002   5.1509208821728547E-002
   4.2570757810830806E-002  -1.3365596825626269E-002   5.0832696932278820E-002
   4.2062754799992233E-002  -1.3255546306163171E-002   5.1856553029524174E-002
   4.1554751789153618E-002  -1.3030389780007118E-002   5.2970486570714168E-002
   4.1046748778315024E-002  -1.2690127247158477E-002   5.4174497555848918E-002
   4.0538745767476431E-002  -1.2234758707616811E-002   5.5468585984928487E-002
   3.6388918404362702E-002  -1.1311070296305417E-002   5.3975578754621160E-002
   3.5966967993526229E-002  -1.1152768407776528E-002   5.5219894168849162E-002
   3.5545017582689756E-002  -1.0888276960927302E-002   5.6546237339136662E-002
   3.5123067171853310E-002  -1.0517595955757856E-002   5.7954608265483661E-002
   3.4701116761016802E-002  -1.0040725392268135E-002   5.9445006947890192E-002
   3.0320915376313311E-002  -9.2565437669845582E-003   5.7171170170215564E-002
   2.9976967877593776E-002  -9.0499905093898506E-003   5.8627028453053683E-002
   2.9633020378874223E-002  -8.7461641418474182E-003   6.0156864804066200E-002
   2.9289072880154671E-002  -8.3450646643572230E-003   6.1760679223252901E-002
   2.8945125381435101E-002  -7.8466920769193760E-003   6.3438471710614050E-002
   2.4366748726682694E-002  -7.2020172376637270E-003   6.0419471179061962E-002
   2.4092754452194838E-002  -6.9472126110032145E-003   6.2077955882137659E-002
   2.3818760177706996E-002  -6.6040513227675346E-003   6.3802368965502593E-002
   2.3544765903219141E-002  -6.1725333729566872E-003   6.5592710429156473E-002
   2.3270771628731299E-002  -5.6526587615707280E-003   6.7448980273099424E-002
   4.6458012400813931E-002  -1.4428792022965542E-002   5.1509208821728547E-002
   4.4346059983499525E-002  -1.3969074450724067E-002   5.0452180306654992E-002
   4.2234107566185161E-002  -1.3581677220252650E-002   4.9664822856819363E-002
   4.0122155148870776E-002  -1.3266600331550759E-002   4.9147136472221659E-002
   3.8010202731556392E-002  -1.3023843784618516E-002   4.8899121152861935E-002
   4.0538745767476431E-002  -1.2234758707616811E-002   5.5468585984928487E-002
   3.8690825554521927E-002  -1.1745821645517768E-002   5.4427411584181018E-002
   3.6842905341567436E-002  -1.1304853544996524E-002   5.3644630526915330E-002
   3.4994985128612946E-002  -1.0911854406053433E-002   5.3120242813131775E-002
   3.3147064915658428E-002  -1.0566824228688043E-002   5.2854248442829765E-002
   3.4701116761016802E-002  -1.0040725392268135E-002   5.9445006947890192E-002
   3.3105951030666166E-002  -9.5225688403112879E-003   5.8444038041660665E-002
   3.1510785300315550E-002  -9.0280298697405711E-003   5.7690184757156988E-002
   2.9915619569964913E-002  -8.5571084805560523E-003   5.7183447094378892E-002
   2.8320453839614283E-002  -8.1098046727575701E-003   5.6923825053326951E-002
   2.8945125381435101E-002  -7.8466920769193760E-003   6.3438471710614050E-002
   2.7591436411932284E-002  -7.2993160351049260E-003   6.2502059679094002E-002
   2.6237747442429460E-002  -6.7512061944845596E-003   6.1801485547543868E-002
   2.4884058472926650E-002  -6.2023625550586990E-003   6.1336749315963474E-002
   2.3530369503423826E-002  -5.6527851168270415E-003   6.1107850984352910E-002
   2.3270771628731299E-002  -5.6526587615707280E-003   6.7448980273099424E-002
   2.2147281698320267E-002  -5.0760632298984532E-003   6.6601476496481044E-002
   2.1023791767909208E-002  -4.4743825192284647E-003   6.5978532898076286E-002
   1.9900301837498170E-002  -3.8476166295613387E-003   6.5580149477885347E-002
   1.8776811907087132E-002  -3.1957655608966240E-003   6.5406326235908030E-002
   3.8010202731556392E-002  -1.3023843784618516E-002   4.8899121152861935E-002
   3.4335257206475622E-002  -1.2822047008517912E-002   4.4626170577521496E-002
   3.0660311681394839E-002  -1.2629849432310422E-002   4.0782093763544969E-002
   2.6985366156314063E-002  -1.2447251055996516E-002   3.7366890710932285E-002
   2.3310420631233286E-002  -1.2274251879576037E-002   3.4380561419683764E-002
   3.3147064915658428E-002  -1.0566824228688043E-002   5.2854248442829765E-002
   2.9919279553652145E-002  -1.0296406028824728E-002   4.8580683912393979E-002
   2.6691494191645841E-002  -1.0127242822387694E-002   4.4772565946743087E-002
   2.3463708829639562E-002  -1.0059334609376872E-002   4.1429894545877088E-002
   2.0235923467633254E-002  -1.0092681389792413E-002   3.8552669709796317E-002
   2.8320453839614283E-002  -8.1098046727575701E-003   5.6923825053326951E-002
   2.5576401444103530E-002  -7.7707650491316838E-003   5.2557990774262653E-002
   2.2832349048592795E-002  -7.6246362124649733E-003   4.8694175863404514E-002
   2.0088296653082059E-002  -7.6714181627572844E-003   4.5332380320752361E-002
   1.7344244257571341E-002  -7.9111109000087609E-003   4.2472604146306367E-002
   2.3530369503423826E-002  -5.6527851168270415E-003   6.1107850984352910E-002
   2.1306622877829733E-002  -5.2451240694385975E-003   5.6558091163127600E-002
   1.9082876252235648E-002  -5.1220296025421934E-003   5.2546923513529055E-002
   1.6859129626641576E-002  -5.2835017161376686E-003   4.9074348035557949E-002
   1.4635383001047471E-002  -5.7295404102250674E-003   4.6140364729214109E-002
   1.8776811907087132E-002  -3.1957655608966240E-003   6.5406326235908030E-002
   1.7109943854830792E-002  -2.7194830897454836E-003   6.0580985078988403E-002
   1.5443075802574438E-002  -2.6194229926194135E-003   5.6330808897117141E-002
   1.3776207750318091E-002  -2.8955852695179696E-003   5.2655797690294076E-002
   1.2109339698061744E-002  -3.5479699204415960E-003   4.9555951458519210E-002
   2.3310420631233286E-002  -1.2274251879576037E-002   3.4380561419683764E-002
   2.8823783138141351E-002  -1.3407413421891834E-002   4.6111573178564846E-002
   3.4337145645049430E-002  -1.7143297201787602E-002   5.6511159962776364E-002
   3.9850508151957433E-002  -2.3481903219263068E-002   6.5579321772318053E-002
   4.5363870658865546E-002  -3.2423231474318026E-002   7.3316058607190149E-002
   2.0235923467633254E-002  -1.0092681389792413E-002   3.8552669709796317E-002
   2.4517695939864817E-002  -1.0696143078758130E-002   4.8745485831581475E-002
   2.8799468412096435E-002  -1.2338579591398641E-002   5.7806546858683611E-002
   3.3081240884327935E-002  -1.5019990927713923E-002   6.5735852791102181E-002
   3.7363013356559560E-002  -1.8740377087703708E-002   7.2533403628837756E-002
   1.7344244257571341E-002  -7.9111109000087609E-003   4.2472604146306367E-002
   2.0594096575112832E-002  -7.9848727356244542E-003   5.2690972044900836E-002
   2.3843948892654305E-002  -7.5338619810098387E-003   6.1977254728798538E-002
   2.7093801210195841E-002  -6.5580786361646663E-003   7.0331452197999175E-002
   3.0343653527737338E-002  -5.0575227010891677E-003   7.7753564452503032E-002
   1.4635383001047471E-002  -5.7295404102250674E-003   4.6140364729214109E-002
   1.7052985043885319E-002  -5.2736023924907643E-003   5.7948031818522754E-002
   1.9470587086723154E-002  -2.7291443706210124E-003   6.9023283573121083E-002
   2.1888189129560989E-002   1.9038336553843125E-003   7.9366119993008716E-002
   2.4305791172398842E-002   8.6253316855252615E-003   8.8976541078186588E-002
   1.2109339698061744E-002  -3.5479699204415960E-003   4.9555951458519210E-002
   1.3894361346182341E-002  -2.5623320493570745E-003   6.4516665152447417E-002
   1.5679382994302965E-002   2.0755732397677862E-003   7.8944633391651420E-002
   1.7464404642423548E-002   1.0365745946933562E-002   9.2839856176131358E-002
   1.9249426290544158E-002   2.2308186072139691E-002  0.10620233350588748     
   2.6617798479156962E-002   0.0000000000000000        2.9462695154602356E-002
   2.7216414918075475E-002  -5.8051048434940196E-004   3.4967795973244981E-002
   2.7815031356993987E-002  -1.3074002206995370E-003   4.0165005293485788E-002
   2.8413647795912503E-002  -2.1806692090504086E-003   4.5054323115324806E-002
   2.9012264234831012E-002  -3.2003174494020115E-003   4.9635749438762020E-002
   2.0104962078353661E-002   0.0000000000000000        2.9018789402507923E-002
   2.0435246366301774E-002  -4.3538286516371736E-004   3.4340958915386015E-002
   2.0765530654249881E-002  -9.8055016897520119E-004   3.9434355624725095E-002
   2.1095814942197987E-002  -1.6355019114344532E-003   4.4298979530525182E-002
   2.1426099230146104E-002  -2.4002380925414735E-003   4.8934830632786266E-002
   1.3497716869678687E-002   0.0000000000000000        2.8701713862922685E-002
   1.3638787701519193E-002  -2.9025524597803363E-004   3.3877546883389210E-002
   1.3779858533359697E-002  -6.5370011725086625E-004   3.8903725795179540E-002
   1.3920929365200202E-002  -1.0903346138184996E-003   4.3780250598293657E-002
   1.4062000197040710E-002  -1.6001587356809311E-003   4.8507121292731603E-002
   6.7960628531320271E-003   0.0000000000000000        2.8511468535846650E-002
   6.8270389237277320E-003  -1.4512762679235163E-004   3.3577559877254588E-002
   6.8580149943234343E-003  -3.2685006552653261E-004   3.8573115804849109E-002
   6.8889910649191375E-003  -5.4516731620254510E-004   4.3498136318630247E-002
   6.9199671355148424E-003  -8.0007937882038563E-004   4.8352621418597974E-002
   2.8713690279624782E-011   0.0000000000000000        2.8448053421279818E-002
   3.2927390848647153E-011  -7.6066661650053824E-012   3.3440997896982128E-002
   3.7141091634509960E-011  -1.3802195497625291E-011   3.8442525653733829E-002
   4.1354793179314286E-011  -1.8586590599944941E-011   4.3452636691534936E-002
   4.5568493856756875E-011  -2.1959848002517379E-011   4.8471331010385435E-002
   2.9012264234831012E-002  -3.2003174494020115E-003   4.9635749438762020E-002
   2.9069677171750435E-002  -4.2115996770307439E-003   5.1642348013556924E-002
   2.9127090108669863E-002  -5.0597706272130314E-003   5.3754711792758009E-002
   2.9184503045589293E-002  -5.7448302999488421E-003   5.5972840776365294E-002
   2.9241915982508720E-002  -6.2667786952381802E-003   5.8296734964378795E-002
   2.1426099230146104E-002  -2.4002380925414735E-003   4.8934830632786266E-002
   2.1559247762004213E-002  -3.1586997638043163E-003   5.1276187937584483E-002
   2.1692396293862326E-002  -3.7948279767310196E-003   5.3663251227853828E-002
   2.1825544825720435E-002  -4.3086227313216307E-003   5.6096020503594399E-002
   2.1958693357578548E-002  -4.7000840275760944E-003   5.8574495764806139E-002
   1.4062000197040710E-002  -1.6001587356809311E-003   4.8507121292731603E-002
   1.4210825104902489E-002  -2.1057998505778688E-003   5.1142459508422736E-002
   1.4359650012764267E-002  -2.5298853262490347E-003   5.3763444490650070E-002
   1.4508474920626046E-002  -2.8724151626944266E-003   5.6370076239413508E-002
   1.4657299828487824E-002  -3.1333893599140329E-003   5.8962354754713189E-002
   6.9199671355148424E-003  -8.0007937882038563E-004   4.8352621418597974E-002
   7.0244092004452651E-003  -1.0528999373514312E-003   5.1241162726071758E-002
   7.1288512653756913E-003  -1.2649426757670433E-003   5.4055291581146671E-002
   7.2332933303061149E-003  -1.4362075940672085E-003   5.6795007983822726E-002
   7.3377353952365394E-003  -1.5666946922519524E-003   5.9460311934099917E-002
   4.5568493856756875E-011  -2.1959848002517379E-011   4.8471331010385435E-002
   4.8632546774396435E-011  -2.4124991067353552E-011   5.1572297590531481E-002
   5.1696600776238166E-011  -2.5285047710113528E-011   5.4538792499343659E-002
   5.4760653802297943E-011  -2.5440010178751776E-011   5.7370815736821963E-002
   5.7824706828357719E-011  -2.4589885683212742E-011   6.0068367302966358E-002
   2.9241915982508720E-002  -6.2667786952381802E-003   5.8296734964378795E-002
   2.8940771687939140E-002  -6.6669881578910323E-003   5.9315737709920539E-002
   2.8639627393369570E-002  -6.9868310327172289E-003   6.0373738481529757E-002
   2.8338483098799987E-002  -7.2263073197168966E-003   6.1470737279206419E-002
   2.8037338804230413E-002  -7.3854170188899365E-003   6.2606734102950520E-002
   2.1958693357578548E-002  -4.7000840275760944E-003   5.8574495764806139E-002
   2.1705619101127300E-002  -5.0002411239382823E-003   5.9654720382875753E-002
   2.1452544844676041E-002  -5.2401232788519634E-003   6.0792087051114573E-002
   2.1199470588224793E-002  -5.4197304923171968E-003   6.1986595769522590E-002
   2.0946396331773538E-002  -5.5390627643339269E-003   6.3238246538099840E-002
   1.4657299828487824E-002  -3.1333893599140329E-003   5.8962354754713189E-002
   1.4470439634256659E-002  -3.3334940899855739E-003   6.0083709598932576E-002
   1.4283579440025489E-002  -3.4934155249867265E-003   6.1280350517422900E-002
   1.4096719245794321E-002  -3.6131536649174848E-003   6.2552277510184218E-002
   1.3909859051563153E-002  -3.6927085097778964E-003   6.3899490577216528E-002
   7.3377353952365394E-003  -1.5666946922519524E-003   5.9460311934099917E-002
   7.2352332873272139E-003  -1.6667470560328586E-003   6.0602705358090952E-002
   7.1327311794178909E-003  -1.7467077711214684E-003   6.1838528880454720E-002
   7.0302290715085715E-003  -1.8065768375178206E-003   6.3167782501191233E-002
   6.9277269635992407E-003  -1.8463542552218486E-003   6.4590466220300402E-002
   5.7824706828357719E-011  -2.4589885683212742E-011   6.0068367302966358E-002
   6.0338984676777674E-011  -2.2080129391532921E-011   6.1211707660350931E-002
   6.2853262525197628E-011  -1.7256251982900039E-011   6.2466622140210010E-002
   6.5367539506255845E-011  -1.0118086923860403E-011   6.3833110742543595E-002
   6.7881818222037538E-011  -6.6582850344332201E-013   6.5311173467351574E-002
   2.8037338804230413E-002  -7.3854170188899365E-003   6.2606734102950520E-002
   2.7119691284843477E-002  -7.4631493365081847E-003   6.1602082143918810E-002
   2.6202043765456554E-002  -7.4584934788431111E-003   6.0902654336926827E-002
   2.5284396246069617E-002  -7.3714494458950513E-003   6.0508450681974496E-002
   2.4366748726682694E-002  -7.2020172376637270E-003   6.0419471179061962E-002
   2.0946396331773538E-002  -5.5390627643339269E-003   6.3238246538099840E-002
   2.0315019895968751E-002  -5.5973619993242990E-003   6.2341136356800775E-002
   1.9683643460163970E-002  -5.5938701017103805E-003   6.1711344190626252E-002
   1.9052267024359179E-002  -5.5285870714922346E-003   6.1348870039576314E-002
   1.8420890588554395E-002  -5.4015129086697755E-003   6.1253713903650961E-002
   1.3909859051563153E-002  -3.6927085097778964E-003   6.3899490577216528E-002
   1.3526847562425356E-002  -3.7315746621404272E-003   6.3089325130971138E-002
   1.3143836073287566E-002  -3.7292467245775961E-003   6.2508571562935170E-002
   1.2760824584149772E-002  -3.6857246970893767E-003   6.2157229873108670E-002
   1.2377813095011979E-002  -3.6010085796758240E-003   6.2035300061491591E-002
   6.9277269635992407E-003  -1.8463542552218486E-003   6.4590466220300402E-002
   6.7551742842133031E-003  -1.8657873249565901E-003   6.3846648466429873E-002
   6.5826216048273595E-003  -1.8646233474447832E-003   6.3294336453853614E-002
   6.4100689254414193E-003  -1.8428623226865533E-003   6.2933530182571612E-002
   6.2375162460554766E-003  -1.8005042506818447E-003   6.2764229652583922E-002
   6.7881818222037538E-011  -6.6582850344332201E-013   6.5311173467351574E-002
   6.1332577905304220E-011   1.2227337198300603E-011   6.4613106363176964E-002
   5.4783341058017854E-011   2.9687995117821941E-011   6.4068638863381475E-002
   4.8234100741284536E-011   5.1716261481593584E-011   6.3677770967965175E-002
   4.1684863893998170E-011   7.8312079043740823E-011   6.3440502676927940E-002
   2.4366748726682694E-002  -7.2020172376637270E-003   6.0419471179061962E-002
   2.4092754452194838E-002  -6.9472126110032145E-003   6.2077955882137659E-002
   2.3818760177706996E-002  -6.6040513227675346E-003   6.3802368965502593E-002
   2.3544765903219141E-002  -6.1725333729566872E-003   6.5592710429156473E-002
   2.3270771628731299E-002  -5.6526587615707280E-003   6.7448980273099424E-002
   1.8420890588554395E-002  -5.4015129086697755E-003   6.1253713903650961E-002
   1.8213467240615233E-002  -5.2104094321254318E-003   6.2892933875779586E-002
   1.8006043892676075E-002  -4.9530384607415351E-003   6.4599367320716389E-002
   1.7798620544736923E-002  -4.6293999945180471E-003   6.6373014238461592E-002
   1.7591197196797755E-002  -4.2394940334550546E-003   6.8213874629015070E-002
   1.2377813095011979E-002  -3.6010085796758240E-003   6.2035300061491591E-002
   1.2238245766140710E-002  -3.4736062532476283E-003   6.3633166135937461E-002
   1.2098678437269431E-002  -3.3020255987154523E-003   6.5299530775710726E-002
   1.1959111108398155E-002  -3.0862666160793792E-003   6.7034393980811569E-002
   1.1819543779526882E-002  -2.8263293053393812E-003   6.8837755751239765E-002
   6.2375162460554766E-003  -1.8005042506818447E-003   6.2764229652583922E-002
   6.1670900287712702E-003  -1.7368030743698352E-003   6.4298652662611339E-002
   6.0966638114870698E-003  -1.6510127366894112E-003   6.5902859330485425E-002
   6.0262375942028625E-003  -1.5431332376407807E-003   6.7576849656206278E-002
   5.9558113769186613E-003  -1.4131645772237078E-003   6.9320623639773621E-002
   4.1684863893998170E-011   7.8312079043740823E-011   6.3440502676927940E-002
   2.8506925986437892E-011   1.0450801335437632E-010   6.4889393455801359E-002
   1.5328981139983711E-011   1.2533667159697615E-010   6.6409352985040665E-002
   2.1510432324234330E-012   1.4079789764642747E-010   6.8000381264645790E-002
  -1.1026901614030749E-011   1.5089191007788827E-010   6.9662478294616803E-002
   2.3270771628731299E-002  -5.6526587615707280E-003   6.7448980273099424E-002
   2.2147281698320267E-002  -5.0760632298984532E-003   6.6601476496481044E-002
   2.1023791767909208E-002  -4.4743825192284647E-003   6.5978532898076286E-002
   1.9900301837498170E-002  -3.8476166295613387E-003   6.5580149477885347E-002
   1.8776811907087132E-002  -3.1957655608966240E-003   6.5406326235908030E-002
   1.7591197196797755E-002  -4.2394940334550546E-003   6.8213874629015070E-002
   1.6706345520777523E-002  -3.8070473817533451E-003   6.7310319475953853E-002
   1.5821493844757280E-002  -3.3557868436137409E-003   6.6659480653460640E-002
   1.4936642168737043E-002  -2.8857124190362574E-003   6.6261358161535125E-002
   1.4051790492716799E-002  -2.3968241080207786E-003   6.6115952000177586E-002
   1.1819543779526882E-002  -2.8263293053393812E-003   6.8837755751239765E-002
   1.1201486510251529E-002  -2.5380315336082926E-003   6.7871877929176455E-002
   1.0583429240976168E-002  -2.2371911679987949E-003   6.7186872590035029E-002
   9.9653719717008090E-003  -1.9238082085111206E-003   6.6782739733815460E-002
   9.3473147024254466E-003  -1.5978826551449887E-003   6.6659479360517859E-002
   5.9558113769186613E-003  -1.4131645772237078E-003   6.9320623639773621E-002
   5.6327046667422609E-003  -1.2690156854631568E-003   6.8286151856148516E-002
   5.3095979565658579E-003  -1.1185954923840710E-003   6.7560708707799455E-002
   4.9864912463894566E-003  -9.6190399798595609E-004   6.7144294194726367E-002
   4.6633845362130544E-003  -7.9894120226925436E-004   6.7036908316929267E-002
  -1.1026901614030749E-011   1.5089191007788827E-010   6.9662478294616803E-002
  -9.7502665663551369E-012   1.6268189573231950E-010   6.8553141256870287E-002
  -8.4736349881264772E-012   1.8323087491722845E-010   6.7780989006753889E-002
  -7.1970034098978175E-012   2.1253912518837126E-010   6.7346021544267526E-002
  -5.9203683622222059E-012   2.5060659103459670E-010   6.7248238869411281E-002
   1.8776811907087132E-002  -3.1957655608966240E-003   6.5406326235908030E-002
   1.7109943854830792E-002  -2.7194830897454836E-003   6.0580985078988403E-002
   1.5443075802574438E-002  -2.6194229926194135E-003   5.6330808897117141E-002
   1.3776207750318091E-002  -2.8955852695179696E-003   5.2655797690294076E-002
   1.2109339698061744E-002  -3.5479699204415960E-003   4.9555951458519210E-002
   1.4051790492716799E-002  -2.3968241080207786E-003   6.6115952000177586E-002
   1.2920475425345544E-002  -2.0396122437332798E-003   6.0942349900214549E-002
   1.1789160357974292E-002  -1.9645671593390979E-003   5.6264688794973469E-002
   1.0657845290603039E-002  -2.1716888548385868E-003   5.2082968684454202E-002
   9.5265302232317856E-003  -2.6609773302315176E-003   4.8397189568656962E-002
   9.3473147024254466E-003  -1.5978826551449887E-003   6.6659479360517859E-002
   8.6723286396129078E-003  -1.3597413977208955E-003   6.1231671911642860E-002
   7.9973425768003585E-003  -1.3097113260589488E-003   5.6220581477163314E-002
   7.3223565139878179E-003  -1.4477924401590930E-003   5.1626208057079293E-002
   6.6473704511752774E-003  -1.7739847400214948E-003   4.7448551651390947E-002
   4.6633845362130544E-003  -7.9894120226925436E-004   6.7036908316929267E-002
   4.3655034976328513E-003  -6.7987055170857374E-004   6.1448951113273358E-002
   4.0676224590526387E-003  -6.5485549277863320E-004   5.6198486943686746E-002
   3.7697414204724334E-003  -7.2389602547965476E-004   5.1285515808169355E-002
   3.4718603818922299E-003  -8.8699214981149965E-004   4.6710037706720921E-002
  -5.9203683622222059E-012   2.5060659103459670E-010   6.7248238869411281E-002
  -5.9461463530752212E-013   2.9430369252736455E-010   6.1594187505106146E-002
   4.7311356221602097E-012   3.4050155750531275E-010   5.6198405194543749E-002
   1.0056892818521845E-011   3.8919982167651135E-010   5.1060891937724187E-002
   1.5382639606542625E-011   4.4039849544930121E-010   4.6181647734647280E-002
   1.2109339698061744E-002  -3.5479699204415960E-003   4.9555951458519210E-002
   1.3894361346182341E-002  -2.5623320493570745E-003   6.4516665152447417E-002
   1.5679382994302965E-002   2.0755732397677862E-003   7.8944633391651420E-002
   1.7464404642423548E-002   1.0365745946933562E-002   9.2839856176131358E-002
   1.9249426290544158E-002   2.2308186072139691E-002  0.10620233350588748     
   9.5265302232317856E-003  -2.6609773302315176E-003   4.8397189568656962E-002
   1.0800428922212044E-002  -1.9217488717102327E-003   6.6278909503823230E-002
   1.2074327621192302E-002   1.5566802345328423E-003   8.3671128995433164E-002
   1.3348226320172546E-002   7.7743099884980474E-003  0.10057384804348599     
   1.4622125019152832E-002   1.6731140390184862E-002  0.11698706664798264     
   6.6473704511752774E-003  -1.7739847400214948E-003   4.7448551651390947E-002
   7.4533912121825356E-003  -1.2811656940634464E-003   6.7338211057477032E-002
   8.2594119731898147E-003   1.0377872292979679E-003   8.6781615031173667E-002
   9.0654327341970764E-003   5.1828740300623698E-003  0.10577876357248134     
   9.8714534952043520E-003   1.1154094708229922E-002  0.12432965668139923     
   3.4718603818922299E-003  -8.8699214981149965E-004   4.6710037706720921E-002
   3.8532482160938582E-003  -6.4058251641646580E-004   6.7694569813407962E-002
   4.2346360502955090E-003   5.1889422406289215E-004   8.8276091498872986E-002
   4.6160238844971217E-003   2.5914380716266627E-003  0.10845460276311589     
   4.9974117186987882E-003   5.5770490262749828E-003  0.12823010360613710     
   1.5382639606542625E-011   4.4039849544930121E-010   4.6181647734647280E-002
  -6.6054002545445911E-011   6.6123007069762707E-010   6.7347985771616492E-002
  -1.4749064469743445E-010   1.2188280384961558E-009   8.8154558398531147E-002
  -2.2892728684942298E-010   2.1131911220884092E-009  0.10860136561539105     
  -3.1036392900141152E-010   3.3443201541416556E-009  0.12868840742219656     
   2.8713690279624782E-011   0.0000000000000000        2.8448053421279818E-002
   3.2927390848647153E-011  -7.6066661650053824E-012   3.3440997896982128E-002
   3.7141091634509960E-011  -1.3802195497625291E-011   3.8442525653733829E-002
   4.1354793179314286E-011  -1.8586590599944941E-011   4.3452636691534936E-002
   4.5568493856756875E-011  -2.1959848002517379E-011   4.8471331010385435E-002
  -6.7960627966821563E-003   0.0000000000000000        2.8511468519717142E-002
  -6.8270388589657151E-003   1.4512761246370486E-004   3.3577559861771841E-002
  -6.8580149212492765E-003   3.2685003948104523E-004   3.8573115789782626E-002
  -6.8889909835328344E-003   5.4516728105201851E-004   4.3498136303749477E-002
  -6.9199670458163966E-003   8.0007933717663425E-004   4.8352621403672413E-002
  -1.3497716816161338E-002   0.0000000000000000        2.8701713831653593E-002
  -1.3638787640035477E-002   2.9025523253407631E-004   3.3877546853203176E-002
  -1.3779858463909616E-002   6.5370009276428595E-004   3.8903725765615529E-002
  -1.3920929287783755E-002   1.0903345806906294E-003   4.3780250568890636E-002
  -1.4062000111657896E-002   1.6001586963131100E-003   4.8507121263028516E-002
  -2.0104962029723863E-002   0.0000000000000000        2.9018789357089157E-002
  -2.0435246310281898E-002   4.3538285260444711E-004   3.4340958871276125E-002
  -2.0765530590839933E-002   9.8055014604752754E-004   3.9434355581232552E-002
  -2.1095814871397969E-002   1.6355018803292411E-003   4.4298979486958427E-002
  -2.1426099151956000E-002   2.4002380554495857E-003   4.8934830588453736E-002
  -2.6617798437369722E-002   0.0000000000000000        2.9462695096023853E-002
  -2.7216414869704969E-002   5.8051047267481965E-004   3.4967795915990710E-002
  -2.7815031302040216E-002   1.3074001993307691E-003   4.0165005236633695E-002
  -2.8413647734375463E-002   2.1806691799678510E-003   4.5054323057952816E-002
  -2.9012264166710711E-002   3.2003174145860663E-003   4.9635749379948059E-002
   4.5568493856756875E-011  -2.1959848002517379E-011   4.8471331010385435E-002
   4.8632546774396435E-011  -2.4124991067353552E-011   5.1572297590531481E-002
   5.1696600776238166E-011  -2.5285047710113528E-011   5.4538792499343659E-002
   5.4760653802297943E-011  -2.5440010178751776E-011   5.7370815736821963E-002
   5.7824706828357719E-011  -2.4589885683212742E-011   6.0068367302966358E-002
  -6.9199670458163966E-003   8.0007933717663425E-004   4.8352621403672413E-002
  -7.0244091046657350E-003   1.0528998914833710E-003   5.1241162710190198E-002
  -7.1288511635150776E-003   1.2649426276007086E-003   5.4055291564215076E-002
  -7.2332932223644186E-003   1.4362075455286545E-003   5.6795007965747012E-002
  -7.3377352812137586E-003   1.5666946452672081E-003   5.9460311914786110E-002
  -1.4062000111657896E-002   1.6001586963131100E-003   4.8507121263028516E-002
  -1.4210825013579653E-002   2.1057998070917196E-003   5.1142459476723537E-002
  -1.4359649915501413E-002   2.5298852804864513E-003   5.3763444456766625E-002
  -1.4508474817423175E-002   2.8724151164973119E-003   5.6370076203157801E-002
  -1.4657299719344935E-002   3.1333893151243158E-003   5.8962354715897031E-002
  -2.1426099151956000E-002   2.4002380554495857E-003   4.8934830588453736E-002
  -2.1559247678109201E-002   3.1586997227000717E-003   5.1276187890131518E-002
  -2.1692396204262405E-002   3.7948279333722074E-003   5.3663251176998369E-002
  -2.1825544730415609E-002   4.3086226874659832E-003   5.6096020449054235E-002
  -2.1958693256568813E-002   4.7000839849814027E-003   5.8574495706299176E-002
  -2.9012264166710711E-002   3.2003174145860663E-003   4.9635749379948059E-002
  -2.9069677098254382E-002   4.2115996383084303E-003   5.1642347950414134E-002
  -2.9127090029798058E-002   5.0597705862579535E-003   5.3754711724910233E-002
  -2.9184502961341726E-002   5.7448302584346351E-003   5.5972840703436340E-002
  -2.9241915892885401E-002   6.2667786548385174E-003   5.8296734885992504E-002
   5.7824706828357719E-011  -2.4589885683212742E-011   6.0068367302966358E-002
   6.0338984676777674E-011  -2.2080129391532921E-011   6.1211707660350931E-002
   6.2853262525197628E-011  -1.7256251982900039E-011   6.2466622140210010E-002
   6.5367539506255845E-011  -1.0118086923860403E-011   6.3833110742543595E-002
   6.7881818222037538E-011  -6.6582850344332201E-013   6.5311173467351574E-002
  -7.3377352812137586E-003   1.5666946452672081E-003   5.9460311914786110E-002
  -7.2352331683709940E-003   1.6667470139290520E-003   6.0602705340107033E-002
  -7.1327310555282302E-003   1.7467077386267571E-003   6.1838528863610402E-002
  -7.0302289426854682E-003   1.8065768193603095E-003   6.3167782485296323E-002
  -6.9277268298426984E-003   1.8463542561298341E-003   6.4590466205164732E-002
  -1.4657299719344935E-002   3.1333893151243158E-003   5.8962354715897031E-002
  -1.4470439520465677E-002   3.3334940499381779E-003   6.0083709562876009E-002
  -1.4283579321586418E-002   3.4934154945096552E-003   6.1280350483745499E-002
  -1.4096719122707158E-002   3.6131536488387753E-003   6.2552277478505419E-002
  -1.3909858923827904E-002   3.6927085129255105E-003   6.3899490547155963E-002
  -2.1958693256568813E-002   4.7000839849814027E-003   5.8574495706299176E-002
  -2.1705618995945052E-002   5.0002410859473177E-003   5.9654720328657929E-002
  -2.1452544735321290E-002   5.2401232503926087E-003   6.0792087000615176E-002
  -2.1199470474697522E-002   5.4197304783172202E-003   6.1986595722170967E-002
  -2.0946396214073768E-002   5.5390627697211661E-003   6.3238246493325184E-002
  -2.9241915892885401E-002   6.2667786548385174E-003   5.8296734885992504E-002
  -2.8940771594809130E-002   6.6669881219564783E-003   5.9315737637452758E-002
  -2.8639627296732854E-002   6.9868310062755276E-003   6.0373738414219530E-002
  -2.8338482998656590E-002   7.2263073077956704E-003   6.1470737216292808E-002
  -2.8037338700580311E-002   7.3854170265168495E-003   6.2606734043672618E-002
   6.7881818222037538E-011  -6.6582850344332201E-013   6.5311173467351574E-002
   6.1332577905304220E-011   1.2227337198300603E-011   6.4613106363176964E-002
   5.4783341058017854E-011   2.9687995117821941E-011   6.4068638863381475E-002
   4.8234100741284536E-011   5.1716261481593584E-011   6.3677770967965175E-002
   4.1684863893998170E-011   7.8312079043740823E-011   6.3440502676927940E-002
  -6.9277268298426984E-003   1.8463542561298341E-003   6.4590466205164732E-002
  -6.7551741636386678E-003   1.8657873510552758E-003   6.3846648455525290E-002
  -6.5826214974346372E-003   1.8646234062566491E-003   6.3294336447013294E-002
  -6.4100688312306048E-003   1.8428624217338915E-003   6.2933530179628744E-002
  -6.2375161650265760E-003   1.8005043974870794E-003   6.2764229653371501E-002
  -1.3909858923827904E-002   3.6927085129255105E-003   6.3899490547155963E-002
  -1.3526847448122322E-002   3.7315746898832249E-003   6.3089325107760122E-002
  -1.3143835972416733E-002   3.7292467828251956E-003   6.2508571546239997E-002
  -1.2760824496711145E-002   3.6857247917514808E-003   6.2157229862595552E-002
  -1.2377813021005563E-002   3.6010087166621074E-003   6.2035300056826809E-002
  -2.0946396214073768E-002   5.5390627697211661E-003   6.3238246493325184E-002
  -2.0315019792118354E-002   5.5973620287111409E-003   6.2341136319881384E-002
  -1.9683643370162943E-002   5.5938701593938236E-003   6.1711344161061464E-002
  -1.9052266948207535E-002   5.5285871617691464E-003   6.1348870016865509E-002
  -1.8420890526252121E-002   5.4015130358371216E-003   6.1253713887293643E-002
  -2.8037338700580311E-002   7.3854170265168495E-003   6.2606734043672618E-002
  -2.7119691195626787E-002   7.4631493675390986E-003   6.1602082091889082E-002
  -2.6202043690673270E-002   7.4584935359623961E-003   6.0902654291477787E-002
  -2.5284396185719742E-002   7.3714495317866863E-003   6.0508450642438774E-002
  -2.4366748680766229E-002   7.2020173550121358E-003   6.0419471144771975E-002
   4.1684863893998170E-011   7.8312079043740823E-011   6.3440502676927940E-002
   2.8506925986437892E-011   1.0450801335437632E-010   6.4889393455801359E-002
   1.5328981139983711E-011   1.2533667159697615E-010   6.6409352985040665E-002
   2.1510432324234330E-012   1.4079789764642747E-010   6.8000381264645790E-002
  -1.1026901614030749E-011   1.5089191007788827E-010   6.9662478294616803E-002
  -6.2375161650265760E-003   1.8005043974870794E-003   6.2764229653371501E-002
  -6.1670899743592016E-003   1.7368032692017810E-003   6.4298652649596721E-002
  -6.0966637836918349E-003   1.6510129725635508E-003   6.5902859303146683E-002
  -6.0262375930244649E-003   1.5431335075721982E-003   6.7576849614021425E-002
  -5.9558114023571009E-003   1.4131648742279346E-003   6.9320623582220853E-002
  -1.2377813021005563E-002   3.6010087166621074E-003   6.2035300056826809E-002
  -1.2238245719533976E-002   3.4736064338955763E-003   6.3633166107418065E-002
  -1.2098678418062381E-002   3.3020258197903538E-003   6.5299530722292942E-002
  -1.1959111116590791E-002   3.0862668743464727E-003   6.7034393901451522E-002
  -1.1819543815119193E-002   2.8263295975639313E-003   6.8837755644893833E-002
  -1.8420890526252121E-002   5.4015130358371216E-003   6.1253713887293643E-002
  -1.8213467207017397E-002   5.2104095985892884E-003   6.2892933829265238E-002
  -1.8006043887782666E-002   4.9530386670171671E-003   6.4599367242479486E-002
  -1.7798620568547946E-002   4.6294002411206769E-003   6.6373014126936442E-002
  -1.7591197249313215E-002   4.2394943208998864E-003   6.8213874482635828E-002
  -2.4366748680766229E-002   7.2020173550121358E-003   6.0419471144771975E-002
  -2.4092754436809451E-002   6.9472127632831254E-003   6.2077955815138364E-002
  -2.3818760192852683E-002   6.6040515142440220E-003   6.3802368863706327E-002
  -2.3544765948895909E-002   6.1725336078950581E-003   6.5592710290475684E-002
  -2.3270771704939144E-002   5.6526590442359526E-003   6.7448980095446642E-002
  -1.1026901614030749E-011   1.5089191007788827E-010   6.9662478294616803E-002
  -9.7502665663551369E-012   1.6268189573231950E-010   6.8553141256870287E-002
  -8.4736349881264772E-012   1.8323087491722845E-010   6.7780989006753889E-002
  -7.1970034098978175E-012   2.1253912518837126E-010   6.7346021544267526E-002
  -5.9203683622222059E-012   2.5060659103459670E-010   6.7248238869411281E-002
  -5.9558114023571009E-003   1.4131648742279346E-003   6.9320623582220853E-002
  -5.6327046909631501E-003   1.2690160110195303E-003   6.8286151804221679E-002
  -5.3095979795691906E-003   1.1185958564356724E-003   6.7560708658827004E-002
  -4.9864912681752320E-003   9.6190441047671466E-004   6.7144294146036926E-002
  -4.6633845567812804E-003   7.9894167314231712E-004   6.7036908265851347E-002
  -1.1819543815119193E-002   2.8263295975639313E-003   6.8837755644893833E-002
  -1.1201486548633434E-002   2.5380318593572065E-003   6.7871877826507387E-002
  -1.0583429282147670E-002   2.2371915296405809E-003   6.7186872485700044E-002
  -9.9653720156619094E-003   1.9238086084142486E-003   6.6782739622471693E-002
  -9.3473147491761541E-003   1.5978830956780710E-003   6.6659479236822403E-002
  -1.7591197249313215E-002   4.2394943208998864E-003   6.8213874482635828E-002
  -1.6706345582761153E-002   3.8070477076948619E-003   6.7310319323727635E-002
  -1.5821493916209087E-002   3.3557872028455171E-003   6.6659480487373038E-002
  -1.4936642249657019E-002   2.8857128063518381E-003   6.6261357973571910E-002
  -1.4051790583104963E-002   2.3968245182138387E-003   6.6115951782324420E-002
  -2.3270771704939144E-002   5.6526590442359526E-003   6.7448980095446642E-002
  -2.2147281793346289E-002   5.0760635560325451E-003   6.6601476295882256E-002
  -2.1023791881753424E-002   4.4743828760503285E-003   6.5978532663845957E-002
  -1.9900301970160558E-002   3.8476170042893269E-003   6.5580149199337731E-002
  -1.8776812058567703E-002   3.1957659407496064E-003   6.5406325902357398E-002
  -5.9203683622222059E-012   2.5060659103459670E-010   6.7248238869411281E-002
  -5.9461463530752212E-013   2.9430369252736455E-010   6.1594187505106146E-002
   4.7311356221602097E-012   3.4050155750531275E-010   5.6198405194543749E-002
   1.0056892818521845E-011   3.8919982167651135E-010   5.1060891937724187E-002
   1.5382639606542625E-011   4.4039849544930121E-010   4.6181647734647280E-002
  -4.6633845567812804E-003   7.9894167314231712E-004   6.7036908265851347E-002
  -4.3655035067112109E-003   6.7987109143424762E-004   6.1448951053577949E-002
  -4.0676224566411363E-003   6.5485611235382990E-004   5.6198486877050424E-002
  -3.7697414065710616E-003   7.2389673590128600E-004   5.1285515736268827E-002
  -3.4718603565009852E-003   8.8699296207661593E-004   4.6710037631232992E-002
  -9.3473147491761541E-003   1.5978830956780710E-003   6.6659479236822403E-002
  -8.6723286723586479E-003   1.3597418885645252E-003   6.1231671776708130E-002
  -7.9973425955411487E-003   1.3097118842062203E-003   5.6220581334342816E-002
  -7.3223565187236564E-003   1.4477930826029186E-003   5.1626207909726385E-002
  -6.6473704419061502E-003   1.7739854837549029E-003   4.7448551502858927E-002
  -1.4051790583104963E-002   2.3968245182138387E-003   6.6115951782324420E-002
  -1.2920475497536939E-002   2.0396126856949415E-003   6.0942349674496521E-002
  -1.1789160411968919E-002   1.9645676560584129E-003   5.6264688566420633E-002
  -1.0657845326400905E-002   2.1716894293045781E-003   5.2082968458096901E-002
  -9.5265302408328815E-003   2.6609780054330512E-003   4.8397189349525166E-002
  -1.8776812058567703E-002   3.1957659407496064E-003   6.5406325902357398E-002
  -1.7109943982246072E-002   2.7194834828253300E-003   6.0580984746943234E-002
  -1.5443075905924430E-002   2.6194234279108414E-003   5.6330808573284180E-002
  -1.3776207829602783E-002   2.8955857760060606E-003   5.2655797381380334E-002
  -1.2109339753281156E-002   3.5479705271113104E-003   4.9555951171231682E-002
   1.5382639606542625E-011   4.4039849544930121E-010   4.6181647734647280E-002
  -6.6054002545445911E-011   6.6123007069762707E-010   6.7347985771616492E-002
  -1.4749064469743445E-010   1.2188280384961558E-009   8.8154558398531147E-002
  -2.2892728684942298E-010   2.1131911220884092E-009  0.10860136561539105     
  -3.1036392900141152E-010   3.3443201541416556E-009  0.12868840742219656     
  -3.4718603565009852E-003   8.8699296207661593E-004   4.6710037631232992E-002
  -3.8532483478912576E-003   6.4058366580840853E-004   6.7694570299406981E-002
  -4.2346363392815316E-003  -5.1889227797474735E-004   8.8276092557728336E-002
  -4.6160243306718057E-003  -2.5914348692727962E-003  0.10845460440619728     
  -4.9974123220620920E-003  -5.5770441080857935E-003  0.12823010584481331     
  -6.6473704419061502E-003   1.7739854837549029E-003   4.7448551502858927E-002
  -7.4533913430481326E-003   1.2811666703865243E-003   6.7338211817957128E-002
  -8.2594122441900977E-003  -1.0377857747773667E-003   8.6781616723404592E-002
  -9.0654331453320497E-003  -5.1828718517368533E-003  0.10577876621920132     
  -9.8714540464740173E-003  -1.1154091560491852E-002  0.12432966030534737     
  -9.5265302408328815E-003   2.6609780054330512E-003   4.8397189349525166E-002
  -1.0800429051524589E-002   1.9217496749647511E-003   6.6278910327267015E-002
  -1.2074327862216301E-002  -1.5566792715799027E-003   8.3671130895559984E-002
  -1.3348226672908029E-002  -7.7743088342008410E-003  0.10057385105440422     
  -1.4622125483599722E-002  -1.6731139012897800E-002  0.11698707080379959     
  -1.2109339753281156E-002   3.5479705271113104E-003   4.9555951171231682E-002
  -1.3894361473320686E-002   2.5623326795428669E-003   6.4516665827336228E-002
  -1.5679383193360201E-002  -2.0755727683827718E-003   7.8944635074193859E-002
  -1.7464404913399716E-002  -1.0365745816664773E-002   9.2839858911804851E-002
  -1.9249426633439246E-002  -2.2308186465303859E-002  0.10620233734016904     
  -2.6617798437369722E-002   0.0000000000000000        2.9462695096023853E-002
  -2.7216414869704969E-002   5.8051047267481965E-004   3.4967795915990710E-002
  -2.7815031302040216E-002   1.3074001993307691E-003   4.0165005236633695E-002
  -2.8413647734375463E-002   2.1806691799678510E-003   4.5054323057952816E-002
  -2.9012264166710711E-002   3.2003174145860663E-003   4.9635749379948059E-002
  -3.3373767408067585E-002   0.0000000000000000        3.0167649824484732E-002
  -3.4215506217647518E-002   9.5384030938948632E-004   3.5281287159652654E-002
  -3.5057245027227450E-002   2.0101840150829253E-003   4.0216571239655080E-002
  -3.5898983836807383E-002   3.1690311170803273E-003   4.4973502064492007E-002
  -3.6740722646387315E-002   4.4303816153816820E-003   4.9552079634163422E-002
  -4.0710410310786121E-002   0.0000000000000000        3.1267872318498861E-002
  -4.1665733253452374E-002   1.3271701461041508E-003   3.5946170311190670E-002
  -4.2621056196118605E-002   2.7129678308350858E-003   4.0575653292875359E-002
  -4.3576379138784843E-002   4.1573930541928062E-003   4.5156321263552922E-002
  -4.4531702081451088E-002   5.6604458161773124E-003   4.9688174223223358E-002
  -4.8627727145525323E-002   0.0000000000000000        3.2763362578066252E-002
  -4.9567095977119502E-002   1.7004999828188155E-003   3.6962445370604766E-002
  -5.0506464808713680E-002   3.4157516465872441E-003   4.1242251396294546E-002
  -5.1445833640307852E-002   5.1457549913052833E-003   4.5602780655135559E-002
  -5.2385202471902030E-002   6.8905100169729359E-003   5.0044033147127853E-002
  -5.7125717912285212E-002   0.0000000000000000        3.4654120603186886E-002
  -5.7919594388648951E-002   2.0738298195334820E-003   3.8330112337894948E-002
  -5.8713470865012683E-002   4.1185354623394007E-003   4.2216365549912635E-002
  -5.9507347341376415E-002   6.1341169284177613E-003   4.6312880239239955E-002
  -6.0301223817740154E-002   8.1205742177685603E-003   5.0619656405876907E-002
  -2.9012264166710711E-002   3.2003174145860663E-003   4.9635749379948059E-002
  -2.9069677098254382E-002   4.2115996383084303E-003   5.1642347950414134E-002
  -2.9127090029798058E-002   5.0597705862579535E-003   5.3754711724910233E-002
  -2.9184502961341726E-002   5.7448302584346351E-003   5.5972840703436340E-002
  -2.9241915892885401E-002   6.2667786548385174E-003   5.8296734885992504E-002
  -3.6740722646387315E-002   4.4303816153816820E-003   4.9552079634163422E-002
  -3.6731645488855311E-002   5.6569672744493753E-003   5.1289309959015927E-002
  -3.6722568331323306E-002   6.7115198587457212E-003   5.3053755257989769E-002
  -3.6713491173791281E-002   7.5940393682707363E-003   5.4845415531084948E-002
  -3.6704414016259283E-002   8.3045258030244665E-003   5.6664290778301478E-002
  -4.4531702081451088E-002   5.6604458161773124E-003   4.9688174223223358E-002
  -4.4534685064752069E-002   7.1023349105903064E-003   5.1147114503463771E-002
  -4.4537668048053050E-002   8.3632691312334907E-003   5.2554719527916870E-002
  -4.4540651031354045E-002   9.4432484781068575E-003   5.3910989296582633E-002
  -4.4543634014655033E-002   1.0342272951210416E-002   5.5215923809461033E-002
  -5.2385202471902030E-002   6.8905100169729359E-003   5.0044033147127853E-002
  -5.2478795825944696E-002   8.5477025467312409E-003   5.1215761583757728E-002
  -5.2572389179987349E-002   1.0015018403721255E-002   5.2257604534691568E-002
  -5.2665982534029994E-002   1.1292457587942969E-002   5.3169561999929379E-002
  -5.2759575888072653E-002   1.2380020099396365E-002   5.3951633979471253E-002
  -6.0301223817740154E-002   8.1205742177685603E-003   5.0619656405876907E-002
  -6.0563977772433136E-002   9.9930701828721824E-003   5.1495251199897722E-002
  -6.0826731727126153E-002   1.1666767676209036E-002   5.2162410278313857E-002
  -6.1089485681819142E-002   1.3141666697779062E-002   5.2621133641125258E-002
  -6.1352239636512158E-002   1.4417767247582321E-002   5.2871421288332034E-002
  -2.9241915892885401E-002   6.2667786548385174E-003   5.8296734885992504E-002
  -2.8940771594809130E-002   6.6669881219564783E-003   5.9315737637452758E-002
  -2.8639627296732854E-002   6.9868310062755276E-003   6.0373738414219530E-002
  -2.8338482998656590E-002   7.2263073077956704E-003   6.1470737216292808E-002
  -2.8037338700580311E-002   7.3854170265168495E-003   6.2606734043672618E-002
  -3.6704414016259283E-002   8.3045258030244665E-003   5.6664290778301478E-002
  -3.6314620133242548E-002   8.8515279511641731E-003   5.7238572173746005E-002
  -3.5924826250225798E-002   9.2435946008472703E-003   5.7951154713764982E-002
  -3.5535032367209063E-002   9.4807257520736869E-003   5.8802038398358368E-002
  -3.5145238484192313E-002   9.5629214048434386E-003   5.9791223227526155E-002
  -4.4543634014655033E-002   1.0342272951210416E-002   5.5215923809461033E-002
  -4.3965887427429920E-002   1.1036067780371885E-002   5.5270914933232163E-002
  -4.3388140840204814E-002   1.1500358195418985E-002   5.5563510320845610E-002
  -4.2810394252979701E-002   1.1735144196351719E-002   5.6093709972301363E-002
  -4.2232647665754595E-002   1.1740425783170083E-002   5.6861513887599441E-002
  -5.2759575888072653E-002   1.2380020099396365E-002   5.3951633979471253E-002
  -5.1894573477371267E-002   1.3220607609579575E-002   5.3412765915911237E-002
  -5.1029571066669888E-002   1.3757121789990742E-002   5.3210805235461379E-002
  -5.0164568655968508E-002   1.3989562640629756E-002   5.3345751938121806E-002
  -4.9299566245267108E-002   1.3917930161496672E-002   5.3817606023892427E-002
  -6.1352239636512158E-002   1.4417767247582321E-002   5.2871421288332034E-002
  -6.0100678283066589E-002   1.5405147438787285E-002   5.1664125121783144E-002
  -5.8849116929621026E-002   1.6013885384562450E-002   5.0893039457612338E-002
  -5.7597555576175470E-002   1.6243981084907742E-002   5.0558164295819698E-002
  -5.6345994222729907E-002   1.6095434539823317E-002   5.0659499636405175E-002
  -2.8037338700580311E-002   7.3854170265168495E-003   6.2606734043672618E-002
  -2.7119691195626787E-002   7.4631493675390986E-003   6.1602082091889082E-002
  -2.6202043690673270E-002   7.4584935359623961E-003   6.0902654291477787E-002
  -2.5284396185719742E-002   7.3714495317866863E-003   6.0508450642438774E-002
  -2.4366748680766229E-002   7.2020173550121358E-003   6.0419471144771975E-002
  -3.5145238484192313E-002   9.5629214048434386E-003   5.9791223227526155E-002
  -3.3939157699669924E-002   9.5473187370703899E-003   5.8728746348375035E-002
  -3.2733076915147527E-002   9.4910549266682548E-003   5.7937911876989358E-002
  -3.1526996130625130E-002   9.3941299736371615E-003   5.7418719813369254E-002
  -3.0320915346102734E-002   9.2565438779769749E-003   5.7171170157514675E-002
  -4.2232647665754595E-002   1.1740425783170083E-002   5.6861513887599441E-002
  -4.0771715345270056E-002   1.1631488106601688E-002   5.5782939111050561E-002
  -3.9310783024785495E-002   1.1523616317374197E-002   5.4942424998660505E-002
  -3.7849850704300976E-002   1.1416810415487581E-002   5.4339971550429203E-002
  -3.6388918383816415E-002   1.1311070400941869E-002   5.3975578766356669E-002
  -4.9299566245267108E-002   1.3917930161496672E-002   5.3817606023892427E-002
  -4.7617364132427176E-002   1.3715657476132997E-002   5.2764660379915798E-002
  -4.5935162019587222E-002   1.3556177708080125E-002   5.1916193656491215E-002
  -4.4252959906747283E-002   1.3439490857338029E-002   5.1272205853618649E-002
  -4.2570757793907343E-002   1.3365596923906778E-002   5.0832696971298080E-002
  -5.6345994222729907E-002   1.6095434539823317E-002   5.0659499636405175E-002
  -5.4476104061141298E-002   1.5799826845664278E-002   4.9673910154970691E-002
  -5.2606213899552681E-002   1.5588739098786004E-002   4.8859217850481473E-002
  -5.0736323737964086E-002   1.5462171299188464E-002   4.8215422722937544E-002
  -4.8866433576375476E-002   1.5420123446871575E-002   4.7742524772338951E-002
  -2.4366748680766229E-002   7.2020173550121358E-003   6.0419471144771975E-002
  -2.4092754436809451E-002   6.9472127632831254E-003   6.2077955815138364E-002
  -2.3818760192852683E-002   6.6040515142440220E-003   6.3802368863706327E-002
  -2.3544765948895909E-002   6.1725336078950581E-003   6.5592710290475684E-002
  -2.3270771704939144E-002   5.6526590442359526E-003   6.7448980095446642E-002
  -3.0320915346102734E-002   9.2565438779769749E-003   5.7171170157514675E-002
  -2.9976967880300111E-002   9.0499906580349537E-003   5.8627028417525748E-002
  -2.9633020414497540E-002   8.7461643321579963E-003   6.0156864743027026E-002
  -2.9289072948694941E-002   8.3450649003463453E-003   6.1760679134018406E-002
  -2.8945125482892346E-002   7.8466923625997165E-003   6.3438471590500006E-002
  -3.6388918383816415E-002   1.1311070400941869E-002   5.3975578766356669E-002
  -3.5966968008879351E-002   1.1152768552786761E-002   5.5219894167387637E-002
  -3.5545017633942300E-002   1.0888277150072005E-002   5.6546237321197436E-002
  -3.5123067259005242E-002   1.0517596192797634E-002   5.7954608227786031E-002
  -3.4701116884068184E-002   1.0040725680963536E-002   5.9445006887153359E-002
  -4.2570757793907343E-002   1.3365596923906778E-002   5.0832696971298080E-002
  -4.2062754822547163E-002   1.3255546447538593E-002   5.1856553064724115E-002
  -4.1554751851186997E-002   1.3030389967986052E-002   5.2970486598217598E-002
  -4.1046748879826837E-002   1.2690127485248979E-002   5.4174497571778515E-002
  -4.0538745908466615E-002   1.2234758999327383E-002   5.5468585985406882E-002
  -4.8866433576375476E-002   1.5420123446871575E-002   4.7742524772338951E-002
  -4.8264328321303535E-002   1.5358324342290411E-002   4.8537005109535181E-002
  -4.7662223066231600E-002   1.5172502785900023E-002   4.9429612574087442E-002
  -4.7060117811159680E-002   1.4862658777700261E-002   5.0420347165995881E-002
  -4.6458012556087724E-002   1.4428792317691119E-002   5.1509208885260394E-002
  -2.3270771704939144E-002   5.6526590442359526E-003   6.7448980095446642E-002
  -2.2147281793346289E-002   5.0760635560325451E-003   6.6601476295882256E-002
  -2.1023791881753424E-002   4.4743828760503285E-003   6.5978532663845957E-002
  -1.9900301970160558E-002   3.8476170042893269E-003   6.5580149199337731E-002
  -1.8776812058567703E-002   3.1957659407496064E-003   6.5406325902357398E-002
  -2.8945125482892346E-002   7.8466923625997165E-003   6.3438471590500006E-002
  -2.7591436543781475E-002   7.2993163670327932E-003   6.2502059526960557E-002
  -2.6237747604670601E-002   6.7512065617598982E-003   6.1801485350929122E-002
  -2.4884058665559726E-002   6.2023629467809968E-003   6.1336749062405639E-002
  -2.3530369726448848E-002   5.6527855220961376E-003   6.1107850661390156E-002
  -3.4701116884068184E-002   1.0040725680963536E-002   5.9445006887153359E-002
  -3.3105951197459356E-002   9.5225691780330829E-003   5.8444037941711741E-002
  -3.1510785510850535E-002   9.0280302474694193E-003   5.7690184603758000E-002
  -2.9915619824241711E-002   8.5571088892725574E-003   5.7183446873292271E-002
  -2.8320454137632886E-002   8.1098051034425300E-003   5.6923824750314309E-002
  -4.0538745908466615E-002   1.2234758999327383E-002   5.5468585985406882E-002
  -3.8690825754379911E-002   1.1745821989033352E-002   5.4427411540135855E-002
  -3.6842905600293213E-002   1.1304853933179076E-002   5.3644630422332501E-002
  -3.4994985446206509E-002   1.0911854831764007E-002   5.3120242631997133E-002
  -3.3147065292119804E-002   1.0566824684788964E-002   5.2854248169129592E-002
  -4.6458012556087724E-002   1.4428792317691119E-002   5.1509208885260394E-002
  -4.4346060214543195E-002   1.3969074800033621E-002   5.0452180322232698E-002
  -4.2234107872998652E-002   1.3581677618888469E-002   4.9664822806652686E-002
  -4.0122155531454103E-002   1.3266600774255750E-002   4.9147136338520636E-002
  -3.8010203189909580E-002   1.3023844266135454E-002   4.8899120917836214E-002
  -1.8776812058567703E-002   3.1957659407496064E-003   6.5406325902357398E-002
  -1.7109943982246072E-002   2.7194834828253300E-003   6.0580984746943234E-002
  -1.5443075905924430E-002   2.6194234279108414E-003   5.6330808573284180E-002
  -1.3776207829602783E-002   2.8955857760060606E-003   5.2655797381380334E-002
  -1.2109339753281156E-002   3.5479705271113104E-003   4.9555951171231682E-002
  -2.3530369726448848E-002   5.6527855220961376E-003   6.1107850661390156E-002
  -2.1306623074467516E-002   5.2451244809252340E-003   5.6558090846449638E-002
  -1.9082876422486197E-002   5.1220300164887267E-003   5.2546923201073362E-002
  -1.6859129770504855E-002   5.2835021287860398E-003   4.9074347725261307E-002
  -1.4635383118523547E-002   5.7295408178179019E-003   4.6140364419013369E-002
  -2.8320454137632886E-002   8.1098051034425300E-003   5.6923824750314309E-002
  -2.5576401722182819E-002   7.7707654790251518E-003   5.2557990449571823E-002
  -2.2832349306732724E-002   7.6246366050663830E-003   4.8694175506202510E-002
  -2.0088296891282654E-002   7.6714184815661838E-003   4.5332379920206514E-002
  -1.7344244475832556E-002   7.9111111085246044E-003   4.2472603691583705E-002
  -3.3147065292119804E-002   1.0566824684788964E-002   5.2854248169129592E-002
  -2.9919279925391895E-002   1.0296406477125035E-002   4.8580683556309505E-002
  -2.6691494558664031E-002   1.0127243193644209E-002   4.4772565488671784E-002
  -2.3463709191936112E-002   1.0059334834346356E-002   4.1429893966216359E-002
  -2.0235923825208290E-002   1.0092681399231418E-002   3.8552668988943301E-002
  -3.8010203189909580E-002   1.3023844266135454E-002   4.8899120917836214E-002
  -3.4335257684094830E-002   1.2822047475225029E-002   4.4626170166662926E-002
  -3.0660312178280080E-002   1.2629849782221883E-002   4.0782093148481108E-002
  -2.6985366672465330E-002   1.2447251187126324E-002   3.7366889863290551E-002
  -2.3310421166650580E-002   1.2274251689937954E-002   3.4380560311091546E-002
  -1.2109339753281156E-002   3.5479705271113104E-003   4.9555951171231682E-002
  -1.3894361473320686E-002   2.5623326795428669E-003   6.4516665827336228E-002
  -1.5679383193360201E-002  -2.0755727683827718E-003   7.8944635074193859E-002
  -1.7464404913399716E-002  -1.0365745816664773E-002   9.2839858911804851E-002
  -1.9249426633439246E-002  -2.2308186465303859E-002  0.10620233734016904     
  -1.4635383118523547E-002   5.7295408178179019E-003   4.6140364419013369E-002
  -1.7052985197158022E-002   5.2736027767495419E-003   5.7948032315057407E-002
  -1.9470587275792508E-002   2.7291446987465218E-003   6.9023284903158649E-002
  -2.1888189354426969E-002  -1.9038334161911030E-003   7.9366122183316373E-002
  -2.4305791433061434E-002  -8.6253315680631104E-003   8.8976544155531356E-002
  -1.7344244475832556E-002   7.9111111085246044E-003   4.2472603691583705E-002
  -2.0594096811758212E-002   7.9848728739561614E-003   5.2690972390989715E-002
  -2.3843949147683910E-002   7.5338621658754823E-003   6.1977255883756577E-002
  -2.7093801483609549E-002   6.5580789842826503E-003   7.0331454169883872E-002
  -3.0343653819535264E-002   5.0575233291775268E-003   7.7753567249372046E-002
  -2.0235923825208290E-002   1.0092681399231418E-002   3.8552668988943301E-002
  -2.4517696317121342E-002   1.0696142971162809E-002   4.8745486055133444E-002
  -2.8799468809034435E-002   1.2338579633004498E-002   5.7806548015987905E-002
  -3.3081241300947535E-002   1.5019991384756362E-002   6.5735854871507071E-002
  -3.7363013792860604E-002   1.8740378226418108E-002   7.2533406621690499E-002
  -2.3310421166650580E-002   1.2274251689937954E-002   3.4380560311091546E-002
  -2.8823783713247356E-002   1.3407413068369400E-002   4.6111573307487996E-002
  -3.4337146259844062E-002   1.7143297100133667E-002   5.6511161299852869E-002
  -3.9850508806440824E-002   2.3481903785230001E-002   6.5579324288185817E-002
  -4.5363871353037599E-002   3.2423233123658912E-002   7.3316062272487326E-002
  -5.7125717912285212E-002   0.0000000000000000        3.4654120603186886E-002
  -5.7919594388648951E-002   2.0738298195334820E-003   3.8330112337894948E-002
  -5.8713470865012683E-002   4.1185354623394007E-003   4.2216365549912635E-002
  -5.9507347341376415E-002   6.1341169284177613E-003   4.6312880239239955E-002
  -6.0301223817740154E-002   8.1205742177685603E-003   5.0619656405876907E-002
  -6.5794792141361580E-002   0.0000000000000000        3.7165618047677047E-002
  -6.6606424633814193E-002   2.9061483114546528E-003   4.0809082538382127E-002
  -6.7418057126266806E-002   5.7553872836524729E-003   4.4206773519599792E-002
  -6.8229689618719419E-002   8.5477169165934612E-003   4.7358690991330069E-002
  -6.9041322111172032E-002   1.1283137210277627E-002   5.0264834953572937E-002
  -7.4225359363050220E-002   0.0000000000000000        4.0523326565353020E-002
  -7.5510782858388734E-002   3.7384668033758218E-003   4.4106478649525833E-002
  -7.6796206353727262E-002   7.3922391049655433E-003   4.6987822237414205E-002
  -7.8081629849065790E-002   1.0961316904769168E-002   4.9167357329018169E-002
  -7.9367053344404331E-002   1.4445700202786696E-002   5.0645083924337704E-002
  -8.2417419577351131E-002   0.0000000000000000        4.4727246156214782E-002
  -8.4632669062372601E-002   4.5707852952969908E-003   4.8222300671326081E-002
  -8.6847918547394085E-002   9.0290909262786163E-003   5.0559511703355903E-002
  -8.9063168032415554E-002   1.3374916892944875E-002   5.1738879252304269E-002
  -9.1278417517437010E-002   1.7608263195295768E-002   5.1760403318171201E-002
  -9.0370972784264328E-002   0.0000000000000000        4.9777376820262370E-002
  -9.3972083245765767E-002   5.4031037872181616E-003   5.3156548603782855E-002
  -9.7573193707267220E-002   1.0665942747591686E-002   5.4921841917424857E-002
 -0.10117430416876866        1.5788516881120575E-002   5.5073256761188377E-002
 -0.10477541463027010        2.0770826187804833E-002   5.3610793135073415E-002
  -6.0301223817740154E-002   8.1205742177685603E-003   5.0619656405876907E-002
  -6.0563977772433136E-002   9.9930701828721824E-003   5.1495251199897722E-002
  -6.0826731727126153E-002   1.1666767676209036E-002   5.2162410278313857E-002
  -6.1089485681819142E-002   1.3141666697779062E-002   5.2621133641125258E-002
  -6.1352239636512158E-002   1.4417767247582321E-002   5.2871421288332034E-002
  -6.9041322111172032E-002   1.1283137210277627E-002   5.0264834953572937E-002
  -6.9276620046770071E-002   1.3721519088234480E-002   4.9422705560510691E-002
  -6.9511917982368110E-002   1.5622733473993539E-002   4.8843923921243093E-002
  -6.9747215917966135E-002   1.6986780367554775E-002   4.8528490035770103E-002
  -6.9982513853564174E-002   1.7813659768918216E-002   4.8476403904091685E-002
  -7.9367053344404331E-002   1.4445700202786696E-002   5.0645083924337704E-002
  -7.9103111791508099E-002   1.7449967993596764E-002   4.7746861323761408E-002
  -7.8839170238611866E-002   1.9578699271778011E-002   4.5583769946379048E-002
  -7.8575228685715648E-002   2.0831894037330465E-002   4.4155809792190581E-002
  -7.8311287132819415E-002   2.1209552290254081E-002   4.3462980861196050E-002
  -9.1278417517437010E-002   1.7608263195295768E-002   5.1760403318171201E-002
  -9.0043453006647234E-002   2.1178416898959058E-002   4.6467718489649826E-002
  -8.8808488495857416E-002   2.3534665069562508E-002   4.2381948353721693E-002
  -8.7573523985067625E-002   2.4677007707106156E-002   3.9503092910386770E-002
  -8.6338559474277835E-002   2.4605444811589938E-002   3.7831152159645082E-002
 -0.10477541463027010        2.0770826187804833E-002   5.3610793135073415E-002
 -0.10209764369218746        2.4906865804321346E-002   4.5585277058175958E-002
  -9.9419872754104771E-002   2.7490630867347002E-002   3.9238459143271051E-002
  -9.6742101816022094E-002   2.8522121376881870E-002   3.4570339390358654E-002
  -9.4064330877939431E-002   2.8001337332925827E-002   3.1580917799438765E-002
  -6.1352239636512158E-002   1.4417767247582321E-002   5.2871421288332034E-002
  -6.0100678283066589E-002   1.5405147438787285E-002   5.1664125121783144E-002
  -5.8849116929621026E-002   1.6013885384562450E-002   5.0893039457612338E-002
  -5.7597555576175470E-002   1.6243981084907742E-002   5.0558164295819698E-002
  -5.6345994222729907E-002   1.6095434539823317E-002   5.0659499636405175E-002
  -6.9982513853564174E-002   1.7813659768918216E-002   4.8476403904091685E-002
  -6.8340568187647152E-002   1.8259056144313453E-002   4.7222562082848731E-002
  -6.6698622521730130E-002   1.8478653959970039E-002   4.6313278384170542E-002
  -6.5056676855813095E-002   1.8472453215888078E-002   4.5748552808057244E-002
  -6.3414731189896059E-002   1.8240453912067495E-002   4.5528385354508649E-002
  -7.8311287132819415E-002   2.1209552290254081E-002   4.3462980861196050E-002
  -7.6370609534244238E-002   2.1112964849839582E-002   4.2315437070950236E-002
  -7.4429931935669047E-002   2.0943422535377666E-002   4.1420799023455850E-002
  -7.2489254337093870E-002   2.0700925346868335E-002   4.0779066718713002E-002
  -7.0548576738518678E-002   2.0385473284311589E-002   4.0390240156721623E-002
  -8.6338559474277835E-002   2.4605444811589938E-002   3.7831152159645082E-002
  -8.4190802322857805E-002   2.3966873555365739E-002   3.6942750086087536E-002
  -8.2043045171437803E-002   2.3408191110785296E-002   3.6215601375468198E-002
  -7.9895288020017788E-002   2.2929397477848605E-002   3.5649706027787074E-002
  -7.7747530868597800E-002   2.2530492656555698E-002   3.5245064043044047E-002
  -9.4064330877939431E-002   2.8001337332925827E-002   3.1580917799438765E-002
  -9.1801146553487922E-002   2.6820782260891879E-002   3.1104501128260791E-002
  -8.9537962229036400E-002   2.5872959686192874E-002   3.0697685440207637E-002
  -8.7274777904584863E-002   2.5157869608828889E-002   3.0360470735279310E-002
  -8.5011593580133341E-002   2.4675512028799848E-002   3.0092857013475874E-002
  -5.6345994222729907E-002   1.6095434539823317E-002   5.0659499636405175E-002
  -5.4476104061141298E-002   1.5799826845664278E-002   4.9673910154970691E-002
  -5.2606213899552681E-002   1.5588739098786004E-002   4.8859217850481473E-002
  -5.0736323737964086E-002   1.5462171299188464E-002   4.8215422722937544E-002
  -4.8866433576375476E-002   1.5420123446871575E-002   4.7742524772338951E-002
  -6.3414731189896059E-002   1.8240453912067495E-002   4.5528385354508649E-002
  -6.1346196810361242E-002   1.7923442070926582E-002   4.4575581048807975E-002
  -5.9277662430826432E-002   1.7662203714883688E-002   4.3849168002054392E-002
  -5.7209128051291622E-002   1.7456738843938800E-002   4.3349146214247916E-002
  -5.5140593671756812E-002   1.7307047458092029E-002   4.3075515685388546E-002
  -7.0548576738518678E-002   2.0385473284311589E-002   4.0390240156721623E-002
  -6.8225904059035836E-002   2.0047057296188803E-002   3.9441474564572081E-002
  -6.5903231379553048E-002   1.9735668330981313E-002   3.8774594313371422E-002
  -6.3580558700070205E-002   1.9451306388689187E-002   3.8389599403119631E-002
  -6.1257886020587404E-002   1.9193971469312385E-002   3.8286489833816835E-002
  -7.7747530868597800E-002   2.2530492656555698E-002   3.5245064043044047E-002
  -7.5115225807165134E-002   2.2170672521451065E-002   3.4271590702262857E-002
  -7.2482920745732468E-002   2.1809132947078924E-002   3.3635496784432478E-002
  -6.9850615684299802E-002   2.1445873933439576E-002   3.3336782289552738E-002
  -6.7218310622867150E-002   2.1080895480532762E-002   3.3375447217623783E-002
  -8.5011593580133341E-002   2.4675512028799848E-002   3.0092857013475874E-002
  -8.2014162054749054E-002   2.4294287746713342E-002   2.9065929461880413E-002
  -7.9016730529364754E-002   2.3882597563176625E-002   2.8431875415237541E-002
  -7.6019299003980467E-002   2.3440441478189911E-002   2.8190694873547164E-002
  -7.3021867478596153E-002   2.2967819491753166E-002   2.8342387836809424E-002
  -4.8866433576375476E-002   1.5420123446871575E-002   4.7742524772338951E-002
  -4.8264328321303535E-002   1.5358324342290411E-002   4.8537005109535181E-002
  -4.7662223066231600E-002   1.5172502785900023E-002   4.9429612574087442E-002
  -4.7060117811159680E-002   1.4862658777700261E-002   5.0420347165995881E-002
  -4.6458012556087724E-002   1.4428792317691119E-002   5.1509208885260394E-002
  -5.5140593671756812E-002   1.7307047458092029E-002   4.3075515685388546E-002
  -5.4447993051682096E-002   1.7111795938347885E-002   4.3883773904431267E-002
  -5.3755392431607402E-002   1.6769650665711164E-002   4.4774895726123483E-002
  -5.3062791811532728E-002   1.6280611640181780E-002   4.5748881150465090E-002
  -5.2370191191457978E-002   1.5644678861759909E-002   4.6805730177456151E-002
  -6.1257886020587404E-002   1.9193971469312385E-002   3.8286489833816835E-002
  -6.0490053560216597E-002   1.8865267534405296E-002   3.9085654633622791E-002
  -5.9722221099845790E-002   1.8366798545522273E-002   3.9952419511371504E-002
  -5.8954388639474914E-002   1.7698564502663407E-002   4.0886784467063002E-002
  -5.8186556179104169E-002   1.6860565405828642E-002   4.1888749500697334E-002
  -6.7218310622867150E-002   2.1080895480532762E-002   3.3375447217623783E-002
  -6.6390509846906906E-002   2.0618739130462655E-002   3.4142647297109641E-002
  -6.5562709070946593E-002   1.9963946425333466E-002   3.4962183929831657E-002
  -6.4734908294986279E-002   1.9116517365145039E-002   3.5834057115789804E-002
  -6.3907107519025980E-002   1.8076451949897376E-002   3.6758266854984151E-002
  -7.3021867478596153E-002   2.2967819491753166E-002   2.8342387836809424E-002
  -7.2149361911753043E-002   2.2372210726520139E-002   2.9054751894891900E-002
  -7.1276856344909961E-002   2.1561094305144531E-002   2.9804188981503887E-002
  -7.0404350778066838E-002   2.0534470227626611E-002   3.0590699096645281E-002
  -6.9531845211223742E-002   1.9292338493966166E-002   3.1414282240316338E-002
  -4.6458012556087724E-002   1.4428792317691119E-002   5.1509208885260394E-002
  -4.4346060214543195E-002   1.3969074800033621E-002   5.0452180322232698E-002
  -4.2234107872998652E-002   1.3581677618888469E-002   4.9664822806652686E-002
  -4.0122155531454103E-002   1.3266600774255750E-002   4.9147136338520636E-002
  -3.8010203189909580E-002   1.3023844266135454E-002   4.8899120917836214E-002
  -5.2370191191457978E-002   1.5644678861759909E-002   4.6805730177456151E-002
  -4.9995225808434053E-002   1.4975847919644306E-002   4.5914566137193205E-002
  -4.7620260425410121E-002   1.4388114403034391E-002   4.5279757132441228E-002
  -4.5245295042386204E-002   1.3881478311930012E-002   4.4901303163200360E-002
  -4.2870329659362216E-002   1.3455939646330850E-002   4.4779204229470460E-002
  -5.8186556179104169E-002   1.6860565405828642E-002   4.1888749500697334E-002
  -5.5561893766537529E-002   1.5982621039255185E-002   4.1172227072192258E-002
  -5.2937231353970896E-002   1.5194551187180307E-002   4.0698743667261526E-002
  -5.0312568941404262E-002   1.4496355849604107E-002   4.0468299285904868E-002
  -4.7687906528837670E-002   1.3888035026526413E-002   4.0480893928122666E-002
  -6.3907107519025980E-002   1.8076451949897376E-002   3.6758266854984151E-002
  -6.1046064088853519E-002   1.6989394158865939E-002   3.6225163127230016E-002
  -5.8185020658681016E-002   1.6000987971326170E-002   3.5921782411113393E-002
  -5.5323977228508556E-002   1.5111233387278118E-002   3.5848124706634170E-002
  -5.2462933798336053E-002   1.4320130406721893E-002   3.6004190013792653E-002
  -6.9531845211223742E-002   1.9292338493966166E-002   3.1414282240316338E-002
  -6.6447736775382099E-002   1.7996167278476805E-002   3.1073374302306223E-002
  -6.3363628339540470E-002   1.6807424755472186E-002   3.0948873363996987E-002
  -6.0279519903698835E-002   1.5726110924952446E-002   3.1040779425388312E-002
  -5.7195411467857199E-002   1.4752225786917428E-002   3.1349092486480545E-002
  -3.8010203189909580E-002   1.3023844266135454E-002   4.8899120917836214E-002
  -3.4335257684094830E-002   1.2822047475225029E-002   4.4626170166662926E-002
  -3.0660312178280080E-002   1.2629849782221883E-002   4.0782093148481108E-002
  -2.6985366672465330E-002   1.2447251187126324E-002   3.7366889863290551E-002
  -2.3310421166650580E-002   1.2274251689937954E-002   3.4380560311091546E-002
  -4.2870329659362216E-002   1.3455939646330850E-002   4.4779204229470460E-002
  -3.8764186283747365E-002   1.3144072509988031E-002   4.0629049580540172E-002
  -3.4658042908132534E-002   1.2978451006652014E-002   3.6912416938218645E-002
  -3.0551899532517694E-002   1.2959075136322870E-002   3.3629306302506004E-002
  -2.6445756156902867E-002   1.3085944899000390E-002   3.0779717673401985E-002
  -4.7687906528837670E-002   1.3888035026526413E-002   4.0480893928122666E-002
  -4.3145917009805329E-002   1.3466097544751227E-002   3.6590181916534681E-002
  -3.8603927490772981E-002   1.3327052231082138E-002   3.3137640185173019E-002
  -3.4061937971740661E-002   1.3470899085519470E-002   3.0123268734037482E-002
  -2.9519948452708285E-002   1.3897638108062799E-002   2.7547067563128289E-002
  -5.2462933798336053E-002   1.4320130406721893E-002   3.6004190013792653E-002
  -4.7480449862268730E-002   1.3788122579514298E-002   3.2509567174646550E-002
  -4.2497965926201441E-002   1.3675653455512349E-002   2.9457762889344020E-002
  -3.7515481990134159E-002   1.3982723034715931E-002   2.6848777157885233E-002
  -3.2532998054066828E-002   1.4709331317125388E-002   2.4682609980269870E-002
  -5.7195411467857199E-002   1.4752225786917428E-002   3.1349092486480545E-002
  -5.1767784841137532E-002   1.4110147614277396E-002   2.8387205354875655E-002
  -4.6340158214417920E-002   1.4024254679942380E-002   2.5872785050731789E-002
  -4.0912531587698309E-002   1.4494546983912501E-002   2.3805831574049127E-002
  -3.5484904960978586E-002   1.5521024526187643E-002   2.2186344924827406E-002
  -2.3310421166650580E-002   1.2274251689937954E-002   3.4380560311091546E-002
  -2.8823783713247356E-002   1.3407413068369400E-002   4.6111573307487996E-002
  -3.4337146259844062E-002   1.7143297100133667E-002   5.6511161299852869E-002
  -3.9850508806440824E-002   2.3481903785230001E-002   6.5579324288185817E-002
  -4.5363871353037599E-002   3.2423233123658912E-002   7.3316062272487326E-002
  -2.6445756156902867E-002   1.3085944899000390E-002   3.0779717673401985E-002
  -3.3062375364001119E-002   1.3712274473442865E-002   4.4527740029703278E-002
  -3.9678994571099378E-002   1.5191278038407752E-002   5.7400674069033319E-002
  -4.6295613778197742E-002   1.7522955593895481E-002   6.9398519791391847E-002
  -5.2912232985295876E-002   2.0707307139905762E-002   8.0521277196779484E-002
  -2.9519948452708285E-002   1.3897638108062799E-002   2.7547067563128289E-002
  -3.6783487633247638E-002   1.4017135878515913E-002   4.1562050616524293E-002
  -4.4047026813786951E-002   1.3239258976681954E-002   5.5158282040009603E-002
  -5.1310565994326277E-002   1.1564007402560991E-002   6.8335761833584391E-002
  -5.8574105174865568E-002   8.9913811561529444E-003   8.1094489997247665E-002
  -3.2532998054066828E-002   1.4709331317125388E-002   2.4682609980269870E-002
  -3.9987120520986706E-002   1.4321997283589169E-002   3.7214505067951403E-002
  -4.7441242987906584E-002   1.1287239914956098E-002   4.9783985212782468E-002
  -5.4895365454826511E-002   5.6050592112264304E-003   6.2391050414763026E-002
  -6.2349487921746286E-002  -2.7245448276000395E-003   7.5035700673893715E-002
  -3.5484904960978586E-002   1.5521024526187643E-002   2.2186344924827406E-002
  -4.2673274027218600E-002   1.4626858688662314E-002   3.1485103383984137E-002
  -4.9861643093458488E-002   9.3352208532303249E-003   4.1277783587351236E-002
  -5.7050012159698439E-002  -3.5388898010805386E-004   5.1564385534928203E-002
  -6.4238381225938335E-002  -1.4440470811353023E-002   6.2344909226715650E-002
  -9.0370972784264328E-002   0.0000000000000000        4.9777376820262370E-002
  -9.3972083245765767E-002   5.4031037872181616E-003   5.3156548603782855E-002
  -9.7573193707267220E-002   1.0665942747591686E-002   5.4921841917424857E-002
 -0.10117430416876866        1.5788516881120575E-002   5.5073256761188377E-002
 -0.10477541463027010        2.0770826187804833E-002   5.3610793135073415E-002
 -0.10331384477332653        0.0000000000000000        5.8611329008920847E-002
 -0.10685080068319468        1.0892116510798706E-002   5.2078705162967281E-002
 -0.11038775659306284        1.9179129689841826E-002   4.7288268890158774E-002
 -0.11392471250293100        2.4861039537129363E-002   4.4240020190495326E-002
 -0.11746166841279916        2.7937846052661301E-002   4.2933959063976943E-002
 -0.12647386133407446        0.0000000000000000        7.4166713173615367E-002
 -0.12659059664928576        1.6381129234379253E-002   5.5257455193276767E-002
 -0.12670733196449710        2.7692316632091957E-002   4.1446450829106807E-002
 -0.12682406727970844        3.3933562193138159E-002   3.2733700081105446E-002
 -0.12694080259491972        3.5104865917517783E-002   2.9119202949272685E-002
 -0.15985102246650809        0.0000000000000000        9.6443529314345883E-002
 -0.15319147114403905        2.1870141957959794E-002   6.2692798694711352E-002
 -0.14653191982156999        3.6205503574342102E-002   3.7396387734268968E-002
 -0.13987236849910092        4.3006084849146919E-002   2.0554296433018732E-002
 -0.13321281717663186        4.2271885782374258E-002   1.2166524790960654E-002
 -0.20344532817062747        0.0000000000000000       0.12544177743111243     
 -0.18665342416745448        2.7359154681540342E-002   7.4384735667270968E-002
 -0.16986152016428149        4.4718690516592233E-002   3.5138079605645231E-002
 -0.15306961616110851        5.2078607505155736E-002   7.7018092462352028E-003
 -0.13627771215793549        4.9438905647230726E-002  -7.9240754109591444E-003
 -0.10477541463027010        2.0770826187804833E-002   5.3610793135073415E-002
 -0.10209764369218746        2.4906865804321346E-002   4.5585277058175958E-002
  -9.9419872754104771E-002   2.7490630867347002E-002   3.9238459143271051E-002
  -9.6742101816022094E-002   2.8522121376881870E-002   3.4570339390358654E-002
  -9.4064330877939431E-002   2.8001337332925827E-002   3.1580917799438765E-002
 -0.11746166841279916        2.7937846052661301E-002   4.2933959063976943E-002
 -0.11348807002459657        2.9397731308270836E-002   3.6642185004825301E-002
 -0.10951447163639402        3.0228877375791108E-002   3.1263367683920934E-002
 -0.10554087324819150        3.0431284255222124E-002   2.6797507101263836E-002
 -0.10156727485998890        3.0004951946563933E-002   2.3244603256854041E-002
 -0.12694080259491972        3.5104865917517783E-002   2.9119202949272685E-002
 -0.12243711818034253        3.3888596812220333E-002   2.5484706273268480E-002
 -0.11793343376576530        3.2967123884235207E-002   2.1997424911766199E-002
 -0.11342974935118810        3.2340447133562440E-002   1.8657358864766022E-002
 -0.10892606493661088        3.2008566560202019E-002   1.5464508132267882E-002
 -0.13321281717663186        4.2271885782374258E-002   1.2166524790960654E-002
 -0.12894478815942526        3.8379462316169823E-002   1.2112840863505388E-002
 -0.12467675914221862        3.5705370392679334E-002   1.1440630826806891E-002
 -0.12040873012501199        3.4249610011902777E-002   1.0149894680865190E-002
 -0.11614070110780536        3.4012181173840104E-002   8.2406324256802926E-003
 -0.13627771215793549        4.9438905647230726E-002  -7.9240754109591444E-003
 -0.13301107996184469        4.2870327820119306E-002  -3.4734112244637627E-003
 -0.12974444776575392        3.8443616901123419E-002  -4.0701457095701846E-004
 -0.12647781556966314        3.6158772890242989E-002   1.2751145495614241E-003
 -0.12321118337357231        3.6015795787478211E-002   1.5729761370913975E-003
  -9.4064330877939431E-002   2.8001337332925827E-002   3.1580917799438765E-002
  -9.1801146553487922E-002   2.6820782260891879E-002   3.1104501128260791E-002
  -8.9537962229036400E-002   2.5872959686192874E-002   3.0697685440207637E-002
  -8.7274777904584863E-002   2.5157869608828889E-002   3.0360470735279310E-002
  -8.5011593580133341E-002   2.4675512028799848E-002   3.0092857013475874E-002
 -0.10156727485998890        3.0004951946563933E-002   2.3244603256854041E-002
  -9.9227976488598865E-002   2.9264524488720807E-002   2.3035494248444401E-002
  -9.6888678117208832E-002   2.8524645920597121E-002   2.2909012350786927E-002
  -9.4549379745818826E-002   2.7785316242192926E-002   2.2865157563881668E-002
  -9.2210081374428793E-002   2.7046535453508200E-002   2.2903929887728491E-002
 -0.10892606493661088        3.2008566560202019E-002   1.5464508132267882E-002
 -0.10649762639065499        3.1708266716549721E-002   1.5290523179011141E-002
 -0.10406918784469918        3.1176332155001329E-002   1.5212191464133790E-002
 -0.10164074929874331        3.0412762875556922E-002   1.5229512987636020E-002
  -9.9212310752787400E-002   2.9417558878216531E-002   1.5342487749517634E-002
 -0.11614070110780536        3.4012181173840104E-002   8.2406324256802926E-003
 -0.11361009625965635        3.4152008944378739E-002   7.8695879199608895E-003
 -0.11107949141150736        3.3828018389405599E-002   7.6072227802481849E-003
 -0.10854888656335836        3.3040209508921115E-002   7.4535370065423982E-003
 -0.10601828171520936        3.1788582302924764E-002   7.4085305988432172E-003
 -0.12321118337357231        3.6015795787478211E-002   1.5729761370913975E-003
 -0.12056538609560288        3.6595751172207591E-002   7.7268847129381701E-004
 -0.11791958881763344        3.6479704623809714E-002   9.4106299130147786E-005
 -0.11527379153966402        3.5667656142284981E-002  -4.6277037939916610E-004
 -0.11262799426169456        3.4159605727633213E-002  -8.9794156429445771E-004
  -8.5011593580133341E-002   2.4675512028799848E-002   3.0092857013475874E-002
  -8.2014162054749054E-002   2.4294287746713342E-002   2.9065929461880413E-002
  -7.9016730529364754E-002   2.3882597563176625E-002   2.8431875415237541E-002
  -7.6019299003980467E-002   2.3440441478189911E-002   2.8190694873547164E-002
  -7.3021867478596153E-002   2.2967819491753166E-002   2.8342387836809424E-002
  -9.2210081374428793E-002   2.7046535453508200E-002   2.2903929887728491E-002
  -8.8864980753147360E-002   2.6342199083651464E-002   2.2046993366257671E-002
  -8.5519880131866025E-002   2.5706202661731656E-002   2.1492521531628471E-002
  -8.2174779510584633E-002   2.5138546187748578E-002   2.1240514383840916E-002
  -7.8829678889303284E-002   2.4639229661702261E-002   2.1290971922894988E-002
  -9.9212310752787400E-002   2.9417558878216531E-002   1.5342487749517634E-002
  -9.5609949853719942E-002   2.8390110420589844E-002   1.4754348107558397E-002
  -9.2007588954652414E-002   2.7529807760286740E-002   1.4378264334329623E-002
  -8.8405228055584928E-002   2.6836650897307246E-002   1.4214236429831613E-002
  -8.4802867156517400E-002   2.6310639831651259E-002   1.4262264394064202E-002
 -0.10601828171520936        3.1788582302924764E-002   7.4085305988432172E-003
 -0.10224906935646666        3.0438021757528067E-002   7.1879936857821231E-003
  -9.8479856997723950E-002   2.9353412858841729E-002   7.0891038233409642E-003
  -9.4710644638981253E-002   2.8534755606865886E-002   7.1118610115192982E-003
  -9.0941432280238543E-002   2.7982050001600305E-002   7.2562652503174018E-003
 -0.11262799426169456        3.4159605727633213E-002  -8.9794156429445771E-004
 -0.10878233926138758        3.2485933094466291E-002  -6.5206989907035107E-004
 -0.10493668426108063        3.1177017957396774E-002  -3.7496000133770135E-004
 -0.10109102926077364        3.0232860316424574E-002  -6.6611871095818148E-005
  -9.7245374260466699E-002   2.9653460171549462E-002   2.7297449165442078E-004
  -7.3021867478596153E-002   2.2967819491753166E-002   2.8342387836809424E-002
  -7.2149361911753043E-002   2.2372210726520139E-002   2.9054751894891900E-002
  -7.1276856344909961E-002   2.1561094305144531E-002   2.9804188981503887E-002
  -7.0404350778066838E-002   2.0534470227626611E-002   3.0590699096645281E-002
  -6.9531845211223742E-002   1.9292338493966166E-002   3.1414282240316338E-002
  -7.8829678889303284E-002   2.4639229661702261E-002   2.1290971922894988E-002
  -7.7912876174556556E-002   2.4094123270940973E-002   2.1657469577089847E-002
  -7.6996073459809911E-002   2.3389097202812965E-002   2.2075488498562494E-002
  -7.6079270745063210E-002   2.2524151457318398E-002   2.2545028687312760E-002
  -7.5162468030316523E-002   2.1499286034456999E-002   2.3066090143340684E-002
  -8.4802867156517400E-002   2.6310639831651259E-002   1.4262264394064202E-002
  -8.3827319055118948E-002   2.5816035815361772E-002   1.4338483623147519E-002
  -8.2851770953720566E-002   2.5217100100481452E-002   1.4480672358256601E-002
  -8.1876222852322128E-002   2.4513832687010101E-002   1.4688830599391503E-002
  -8.0900674750923690E-002   2.3706233574947999E-002   1.4962958346552188E-002
  -9.0941432280238543E-002   2.7982050001600305E-002   7.2562652503174018E-003
  -8.9892690553440235E-002   2.7537948359782700E-002   7.0977940330647100E-003
  -8.8843948826641900E-002   2.7045102998149800E-002   7.0197405605860507E-003
  -8.7795207099843564E-002   2.6503513916701901E-002   7.0221048328815219E-003
  -8.6746465373045256E-002   2.5913181115438860E-002   7.1048868499507326E-003
  -9.7245374260466699E-002   2.9653460171549462E-002   2.7297449165442078E-004
  -9.6108990669520278E-002   2.9259860904203489E-002  -6.4599193158293433E-005
  -9.4972607078573940E-002   2.8873105895818180E-002  -3.0730689444878612E-004
  -9.3836223487627532E-002   2.8493195146393625E-002  -4.5514861221734523E-004
  -9.2699839896681180E-002   2.8120128655929943E-002  -5.0812434646380078E-004
  -6.9531845211223742E-002   1.9292338493966166E-002   3.1414282240316338E-002
  -6.6447736775382099E-002   1.7996167278476805E-002   3.1073374302306223E-002
  -6.3363628339540470E-002   1.6807424755472186E-002   3.0948873363996987E-002
  -6.0279519903698835E-002   1.5726110924952446E-002   3.1040779425388312E-002
  -5.7195411467857199E-002   1.4752225786917428E-002   3.1349092486480545E-002
  -7.5162468030316523E-002   2.1499286034456999E-002   2.3066090143340684E-002
  -7.1850230271403595E-002   2.0399507244669518E-002   2.2688081445186414E-002
  -6.8537992512490681E-002   1.9309821398396432E-002   2.2549924393474044E-002
  -6.5225754753577697E-002   1.8230228495637782E-002   2.2651618988203281E-002
  -6.1913516994664769E-002   1.7160728536393444E-002   2.2993165229374640E-002
  -8.0900674750923690E-002   2.3706233574947999E-002   1.4962958346552188E-002
  -7.7336863022198374E-002   2.2802847210862259E-002   1.4450513139283375E-002
  -7.3773051293473058E-002   2.1812218041320851E-002   1.4201364225197154E-002
  -7.0209239564747700E-002   2.0734346066323066E-002   1.4215511604294077E-002
  -6.6645427836022411E-002   1.9569231285869654E-002   1.4492955276573988E-002
  -8.6746465373045256E-002   2.5913181115438860E-002   7.1048868499507326E-003
  -8.2907635027766408E-002   2.5206187177055153E-002   6.3606693845967358E-003
  -7.9068804682487628E-002   2.4314614684244961E-002   5.9031928591666977E-003
  -7.5229974337208808E-002   2.3238463637008430E-002   5.7324572736608325E-003
  -7.1391143991930001E-002   2.1977734035345600E-002   5.8484626280789313E-003
  -9.2699839896681180E-002   2.8120128655929943E-002  -5.0812434646380078E-004
  -8.8562546288107780E-002   2.7609527143247714E-002  -1.5814498188729820E-003
  -8.4425252679534379E-002   2.6817011327169432E-002  -2.3445897046172476E-003
  -8.0287959070960951E-002   2.5742581207693828E-002  -2.7975440036964137E-003
  -7.6150665462387579E-002   2.4386236784821769E-002  -2.9403127161106157E-003
  -5.7195411467857199E-002   1.4752225786917428E-002   3.1349092486480545E-002
  -5.1767784841137532E-002   1.4110147614277396E-002   2.8387205354875655E-002
  -4.6340158214417920E-002   1.4024254679942380E-002   2.5872785050731789E-002
  -4.0912531587698309E-002   1.4494546983912501E-002   2.3805831574049127E-002
  -3.5484904960978586E-002   1.5521024526187643E-002   2.2186344924827406E-002
  -6.1913516994664769E-002   1.7160728536393444E-002   2.2993165229374640E-002
  -5.6053418060853122E-002   1.6282905423630339E-002   2.0467201256727074E-002
  -5.0193319127041447E-002   1.5778343060314767E-002   1.8358715070802556E-002
  -4.4333220193229737E-002   1.5647041446447182E-002   1.6667706671600994E-002
  -3.8473121259418111E-002   1.5889000582027024E-002   1.5394176059122411E-002
  -6.6645427836022411E-002   1.9569231285869654E-002   1.4492955276573988E-002
  -6.0382845635856774E-002   1.8455663232983185E-002   1.2219989974026471E-002
  -5.4120263435691034E-002   1.7532431440687050E-002   1.0334513417463997E-002
  -4.7857681235525376E-002   1.6799535908981367E-002   8.8365256068863966E-003
  -4.1595099035359663E-002   1.6256976637866294E-002   7.7260265422937902E-003
  -7.1391143991930001E-002   2.1977734035345600E-002   5.8484626280789313E-003
  -6.4756067566148434E-002   2.0628421042336191E-002   3.6455715067742131E-003
  -5.8120991140366812E-002   1.9286519821059219E-002   1.8001800907162680E-003
  -5.1485914714585176E-002   1.7952030371515965E-002   3.1228837990560435E-004
  -4.4850838288803617E-002   1.6624952693705175E-002  -8.1810362565865047E-004
  -7.6150665462387579E-002   2.4386236784821769E-002  -2.9403127161106157E-003
  -6.9173083851728157E-002   2.2801178851688808E-002  -5.2560541450302201E-003
  -6.2195502241068623E-002   2.1040608201431832E-002  -7.2442849094406514E-003
  -5.5217920630409173E-002   1.9104524834050396E-002  -8.9050050093427771E-003
  -4.8240339019749667E-002   1.6992928749544722E-002  -1.0238214444735494E-002
  -3.5484904960978586E-002   1.5521024526187643E-002   2.2186344924827406E-002
  -4.2673274027218600E-002   1.4626858688662314E-002   3.1485103383984137E-002
  -4.9861643093458488E-002   9.3352208532303249E-003   4.1277783587351236E-002
  -5.7050012159698439E-002  -3.5388898010805386E-004   5.1564385534928203E-002
  -6.4238381225938335E-002  -1.4440470811353023E-002   6.2344909226715650E-002
  -3.8473121259418111E-002   1.5889000582027024E-002   1.5394176059122411E-002
  -4.5959238785422060E-002   1.5700161220956521E-002   2.0951337966475414E-002
  -5.3445356311425947E-002   1.4276464117137344E-002   2.5419081210090178E-002
  -6.0931473837429889E-002   1.1617909270569576E-002   2.8797405789966743E-002
  -6.8417591363433838E-002   7.7244966812533011E-003   3.1086311706105207E-002
  -4.1595099035359663E-002   1.6256976637866294E-002   7.7260265422937902E-003
  -5.0962305429076024E-002   1.6773463753250784E-002   1.2704206153000622E-002
  -6.0329511822792378E-002   1.9217707381044266E-002   1.5009626692020842E-002
  -6.9696718216508649E-002   2.3589707521247099E-002   1.4642288159354568E-002
  -7.9063924610225031E-002   2.9889464173859404E-002   1.1602190555001501E-002
  -4.4850838288803617E-002   1.6624952693705175E-002  -8.1810362565865047E-004
  -5.7682473958180644E-002   1.7846766285544852E-002   6.7437079435595584E-003
  -7.0514109627557581E-002   2.4158950644951292E-002   1.0049420033143363E-002
  -8.3345745296934559E-002   3.5561505771924955E-002   9.0990326430919876E-003
  -9.6177380966311593E-002   5.2054431666465395E-002   3.8925457734055591E-003
  -4.8240339019749667E-002   1.6992928749544722E-002  -1.0238214444735494E-002
  -6.6119744372735823E-002   1.8920068817839364E-002   3.0698433381524670E-003
  -8.3999149725721867E-002   2.9100193908858263E-002   1.0538461233457419E-002
 -0.10187855507870805        4.7533304022602377E-002   1.2167639241178849E-002
 -0.11975796043169407        7.4219399159071830E-002   7.9573773613172971E-003
 </DataArray>
 </PointData>
 </Piece>
 <Piece  NumberOfPoints="          1600 "  NumberOfCells="         1024 ">
 <Points>
 <DataArray  type="Float64" NumberOfComponents="3"  format="ascii" >
  0.50000000000000000        0.0000000000000000        0.0000000000000000     
  0.53125000000000000        0.0000000000000000        0.0000000000000000     
  0.56250000000000000        0.0000000000000000        0.0000000000000000     
  0.59375000000000000        0.0000000000000000        0.0000000000000000     
  0.62500000000000000        0.0000000000000000        0.0000000000000000     
  0.50000000000000000        3.1250000000000000E-002   0.0000000000000000     
  0.53125000000000000        3.1250000000000000E-002   0.0000000000000000     
  0.56250000000000000        3.1250000000000000E-002   0.0000000000000000     
  0.59375000000000000        3.1250000000000000E-002   0.0000000000000000     
  0.62500000000000000        3.1250000000000000E-002   0.0000000000000000     
  0.50000000000000000        6.2500000000000000E-002   0.0000000000000000     
  0.53125000000000000        6.2500000000000000E-002   0.0000000000000000     
  0.56250000000000000        6.2500000000000000E-002   0.0000000000000000     
  0.59375000000000000        6.2500000000000000E-002   0.0000000000000000     
  0.62500000000000000        6.2500000000000000E-002   0.0000000000000000     
  0.50000000000000000        9.3750000000000000E-002   0.0000000000000000     
  0.53125000000000000        9.3750000000000000E-002   0.0000000000000000     
  0.56250000000000000        9.3750000000000000E-002   0.0000000000000000     
  0.59375000000000000        9.3750000000000000E-002   0.0000000000000000     
  0.62500000000000000        9.3750000000000000E-002   0.0000000000000000     
  0.50000000000000000       0.12500000000000000        0.0000000000000000     
  0.53125000000000000       0.12500000000000000        0.0000000000000000     
  0.56250000000000000       0.12500000000000000        0.0000000000000000     
  0.59375000000000000       0.12500000000000000        0.0000000000000000     
  0.62500000000000000       0.12500000000000000        0.0000000000000000     
  0.62500000000000000        0.0000000000000000        0.0000000000000000     
  0.65625000000000000        0.0000000000000000        0.0000000000000000     
  0.68750000000000000        0.0000000000000000        0.0000000000000000     
  0.71875000000000000        0.0000000000000000        0.0000000000000000     
  0.75000000000000000        0.0000000000000000        0.0000000000000000     
  0.62500000000000000        3.1250000000000000E-002   0.0000000000000000     
  0.65625000000000000        3.1250000000000000E-002   0.0000000000000000     
  0.68750000000000000        3.1250000000000000E-002   0.0000000000000000     
  0.71875000000000000        3.1250000000000000E-002   0.0000000000000000     
  0.75000000000000000        3.1250000000000000E-002   0.0000000000000000     
  0.62500000000000000        6.2500000000000000E-002   0.0000000000000000     
  0.65625000000000000        6.2500000000000000E-002   0.0000000000000000     
  0.68750000000000000        6.2500000000000000E-002   0.0000000000000000     
  0.71875000000000000        6.2500000000000000E-002   0.0000000000000000     
  0.75000000000000000        6.2500000000000000E-002   0.0000000000000000     
  0.62500000000000000        9.3750000000000000E-002   0.0000000000000000     
  0.65625000000000000        9.3750000000000000E-002   0.0000000000000000     
  0.68750000000000000        9.3750000000000000E-002   0.0000000000000000     
  0.71875000000000000        9.3750000000000000E-002   0.0000000000000000     
  0.75000000000000000        9.3750000000000000E-002   0.0000000000000000     
  0.62500000000000000       0.12500000000000000        0.0000000000000000     
  0.65625000000000000       0.12500000000000000        0.0000000000000000     
  0.68750000000000000       0.12500000000000000        0.0000000000000000     
  0.71875000000000000       0.12500000000000000        0.0000000000000000     
  0.75000000000000000       0.12500000000000000        0.0000000000000000     
  0.75000000000000000        0.0000000000000000        0.0000000000000000     
  0.78125000000000000        0.0000000000000000        0.0000000000000000     
  0.81250000000000000        0.0000000000000000        0.0000000000000000     
  0.84375000000000000        0.0000000000000000        0.0000000000000000     
  0.87500000000000000        0.0000000000000000        0.0000000000000000     
  0.75000000000000000        3.1250000000000000E-002   0.0000000000000000     
  0.78125000000000000        3.1250000000000000E-002   0.0000000000000000     
  0.81250000000000000        3.1250000000000000E-002   0.0000000000000000     
  0.84375000000000000        3.1250000000000000E-002   0.0000000000000000     
  0.87500000000000000        3.1250000000000000E-002   0.0000000000000000     
  0.75000000000000000        6.2500000000000000E-002   0.0000000000000000     
  0.78125000000000000        6.2500000000000000E-002   0.0000000000000000     
  0.81250000000000000        6.2500000000000000E-002   0.0000000000000000     
  0.84375000000000000        6.2500000000000000E-002   0.0000000000000000     
  0.87500000000000000        6.2500000000000000E-002   0.0000000000000000     
  0.75000000000000000        9.3750000000000000E-002   0.0000000000000000     
  0.78125000000000000        9.3750000000000000E-002   0.0000000000000000     
  0.81250000000000000        9.3750000000000000E-002   0.0000000000000000     
  0.84375000000000000        9.3750000000000000E-002   0.0000000000000000     
  0.87500000000000000        9.3750000000000000E-002   0.0000000000000000     
  0.75000000000000000       0.12500000000000000        0.0000000000000000     
  0.78125000000000000       0.12500000000000000        0.0000000000000000     
  0.81250000000000000       0.12500000000000000        0.0000000000000000     
  0.84375000000000000       0.12500000000000000        0.0000000000000000     
  0.87500000000000000       0.12500000000000000        0.0000000000000000     
  0.87500000000000000        0.0000000000000000        0.0000000000000000     
  0.90625000000000000        0.0000000000000000        0.0000000000000000     
  0.93750000000000000        0.0000000000000000        0.0000000000000000     
  0.96875000000000000        0.0000000000000000        0.0000000000000000     
   1.0000000000000000        0.0000000000000000        0.0000000000000000     
  0.87500000000000000        3.1250000000000000E-002   0.0000000000000000     
  0.90625000000000000        3.1250000000000000E-002   0.0000000000000000     
  0.93750000000000000        3.1250000000000000E-002   0.0000000000000000     
  0.96875000000000000        3.1250000000000000E-002   0.0000000000000000     
   1.0000000000000000        3.1250000000000000E-002   0.0000000000000000     
  0.87500000000000000        6.2500000000000000E-002   0.0000000000000000     
  0.90625000000000000        6.2500000000000000E-002   0.0000000000000000     
  0.93750000000000000        6.2500000000000000E-002   0.0000000000000000     
  0.96875000000000000        6.2500000000000000E-002   0.0000000000000000     
   1.0000000000000000        6.2500000000000000E-002   0.0000000000000000     
  0.87500000000000000        9.3750000000000000E-002   0.0000000000000000     
  0.90625000000000000        9.3750000000000000E-002   0.0000000000000000     
  0.93750000000000000        9.3750000000000000E-002   0.0000000000000000     
  0.96875000000000000        9.3750000000000000E-002   0.0000000000000000     
   1.0000000000000000        9.3750000000000000E-002   0.0000000000000000     
  0.87500000000000000       0.12500000000000000        0.0000000000000000     
  0.90625000000000000       0.12500000000000000        0.0000000000000000     
  0.93750000000000000       0.12500000000000000        0.0000000000000000     
  0.96875000000000000       0.12500000000000000        0.0000000000000000     
   1.0000000000000000       0.12500000000000000        0.0000000000000000     
   1.0000000000000000        0.0000000000000000        0.0000000000000000     
   1.0312500000000000        0.0000000000000000        0.0000000000000000     
   1.0625000000000000        0.0000000000000000        0.0000000000000000     
   1.0937500000000000        0.0000000000000000        0.0000000000000000     
   1.1250000000000000        0.0000000000000000        0.0000000000000000     
   1.0000000000000000        3.1250000000000000E-002   0.0000000000000000     
   1.0312500000000000        3.1250000000000000E-002   0.0000000000000000     
   1.0625000000000000        3.1250000000000000E-002   0.0000000000000000     
   1.0937500000000000        3.1250000000000000E-002   0.0000000000000000     
   1.1250000000000000        3.1250000000000000E-002   0.0000000000000000     
   1.0000000000000000        6.2500000000000000E-002   0.0000000000000000     
   1.0312500000000000        6.2500000000000000E-002   0.0000000000000000     
   1.0625000000000000        6.2500000000000000E-002   0.0000000000000000     
   1.0937500000000000        6.2500000000000000E-002   0.0000000000000000     
   1.1250000000000000        6.2500000000000000E-002   0.0000000000000000     
   1.0000000000000000        9.3750000000000000E-002   0.0000000000000000     
   1.0312500000000000        9.3750000000000000E-002   0.0000000000000000     
   1.0625000000000000        9.3750000000000000E-002   0.0000000000000000     
   1.0937500000000000        9.3750000000000000E-002   0.0000000000000000     
   1.1250000000000000        9.3750000000000000E-002   0.0000000000000000     
   1.0000000000000000       0.12500000000000000        0.0000000000000000     
   1.0312500000000000       0.12500000000000000        0.0000000000000000     
   1.0625000000000000       0.12500000000000000        0.0000000000000000     
   1.0937500000000000       0.12500000000000000        0.0000000000000000     
   1.1250000000000000       0.12500000000000000        0.0000000000000000     
   1.1250000000000000        0.0000000000000000        0.0000000000000000     
   1.1562500000000000        0.0000000000000000        0.0000000000000000     
   1.1875000000000000        0.0000000000000000        0.0000000000000000     
   1.2187500000000000        0.0000000000000000        0.0000000000000000     
   1.2500000000000000        0.0000000000000000        0.0000000000000000     
   1.1250000000000000        3.1250000000000000E-002   0.0000000000000000     
   1.1562500000000000        3.1250000000000000E-002   0.0000000000000000     
   1.1875000000000000        3.1250000000000000E-002   0.0000000000000000     
   1.2187500000000000        3.1250000000000000E-002   0.0000000000000000     
   1.2500000000000000        3.1250000000000000E-002   0.0000000000000000     
   1.1250000000000000        6.2500000000000000E-002   0.0000000000000000     
   1.1562500000000000        6.2500000000000000E-002   0.0000000000000000     
   1.1875000000000000        6.2500000000000000E-002   0.0000000000000000     
   1.2187500000000000        6.2500000000000000E-002   0.0000000000000000     
   1.2500000000000000        6.2500000000000000E-002   0.0000000000000000     
   1.1250000000000000        9.3750000000000000E-002   0.0000000000000000     
   1.1562500000000000        9.3750000000000000E-002   0.0000000000000000     
   1.1875000000000000        9.3750000000000000E-002   0.0000000000000000     
   1.2187500000000000        9.3750000000000000E-002   0.0000000000000000     
   1.2500000000000000        9.3750000000000000E-002   0.0000000000000000     
   1.1250000000000000       0.12500000000000000        0.0000000000000000     
   1.1562500000000000       0.12500000000000000        0.0000000000000000     
   1.1875000000000000       0.12500000000000000        0.0000000000000000     
   1.2187500000000000       0.12500000000000000        0.0000000000000000     
   1.2500000000000000       0.12500000000000000        0.0000000000000000     
   1.2500000000000000        0.0000000000000000        0.0000000000000000     
   1.2812500000000000        0.0000000000000000        0.0000000000000000     
   1.3125000000000000        0.0000000000000000        0.0000000000000000     
   1.3437500000000000        0.0000000000000000        0.0000000000000000     
   1.3750000000000000        0.0000000000000000        0.0000000000000000     
   1.2500000000000000        3.1250000000000000E-002   0.0000000000000000     
   1.2812500000000000        3.1250000000000000E-002   0.0000000000000000     
   1.3125000000000000        3.1250000000000000E-002   0.0000000000000000     
   1.3437500000000000        3.1250000000000000E-002   0.0000000000000000     
   1.3750000000000000        3.1250000000000000E-002   0.0000000000000000     
   1.2500000000000000        6.2500000000000000E-002   0.0000000000000000     
   1.2812500000000000        6.2500000000000000E-002   0.0000000000000000     
   1.3125000000000000        6.2500000000000000E-002   0.0000000000000000     
   1.3437500000000000        6.2500000000000000E-002   0.0000000000000000     
   1.3750000000000000        6.2500000000000000E-002   0.0000000000000000     
   1.2500000000000000        9.3750000000000000E-002   0.0000000000000000     
   1.2812500000000000        9.3750000000000000E-002   0.0000000000000000     
   1.3125000000000000        9.3750000000000000E-002   0.0000000000000000     
   1.3437500000000000        9.3750000000000000E-002   0.0000000000000000     
   1.3750000000000000        9.3750000000000000E-002   0.0000000000000000     
   1.2500000000000000       0.12500000000000000        0.0000000000000000     
   1.2812500000000000       0.12500000000000000        0.0000000000000000     
   1.3125000000000000       0.12500000000000000        0.0000000000000000     
   1.3437500000000000       0.12500000000000000        0.0000000000000000     
   1.3750000000000000       0.12500000000000000        0.0000000000000000     
   1.3750000000000000        0.0000000000000000        0.0000000000000000     
   1.4062500000000000        0.0000000000000000        0.0000000000000000     
   1.4375000000000000        0.0000000000000000        0.0000000000000000     
   1.4687500000000000        0.0000000000000000        0.0000000000000000     
   1.5000000000000000        0.0000000000000000        0.0000000000000000     
   1.3750000000000000        3.1250000000000000E-002   0.0000000000000000     
   1.4062500000000000        3.1250000000000000E-002   0.0000000000000000     
   1.4375000000000000        3.1250000000000000E-002   0.0000000000000000     
   1.4687500000000000        3.1250000000000000E-002   0.0000000000000000     
   1.5000000000000000        3.1250000000000000E-002   0.0000000000000000     
   1.3750000000000000        6.2500000000000000E-002   0.0000000000000000     
   1.4062500000000000        6.2500000000000000E-002   0.0000000000000000     
   1.4375000000000000        6.2500000000000000E-002   0.0000000000000000     
   1.4687500000000000        6.2500000000000000E-002   0.0000000000000000     
   1.5000000000000000        6.2500000000000000E-002   0.0000000000000000     
   1.3750000000000000        9.3750000000000000E-002   0.0000000000000000     
   1.4062500000000000        9.3750000000000000E-002   0.0000000000000000     
   1.4375000000000000        9.3750000000000000E-002   0.0000000000000000     
   1.4687500000000000        9.3750000000000000E-002   0.0000000000000000     
   1.5000000000000000        9.3750000000000000E-002   0.0000000000000000     
   1.3750000000000000       0.12500000000000000        0.0000000000000000     
   1.4062500000000000       0.12500000000000000        0.0000000000000000     
   1.4375000000000000       0.12500000000000000        0.0000000000000000     
   1.4687500000000000       0.12500000000000000        0.0000000000000000     
   1.5000000000000000       0.12500000000000000        0.0000000000000000     
  0.50000000000000000       0.12500000000000000        0.0000000000000000     
  0.53125000000000000       0.12500000000000000        0.0000000000000000     
  0.56250000000000000       0.12500000000000000        0.0000000000000000     
  0.59375000000000000       0.12500000000000000        0.0000000000000000     
  0.62500000000000000       0.12500000000000000        0.0000000000000000     
  0.50000000000000000       0.15625000000000000        0.0000000000000000     
  0.53125000000000000       0.15625000000000000        0.0000000000000000     
  0.56250000000000000       0.15625000000000000        0.0000000000000000     
  0.59375000000000000       0.15625000000000000        0.0000000000000000     
  0.62500000000000000       0.15625000000000000        0.0000000000000000     
  0.50000000000000000       0.18750000000000000        0.0000000000000000     
  0.53125000000000000       0.18750000000000000        0.0000000000000000     
  0.56250000000000000       0.18750000000000000        0.0000000000000000     
  0.59375000000000000       0.18750000000000000        0.0000000000000000     
  0.62500000000000000       0.18750000000000000        0.0000000000000000     
  0.50000000000000000       0.21875000000000000        0.0000000000000000     
  0.53125000000000000       0.21875000000000000        0.0000000000000000     
  0.56250000000000000       0.21875000000000000        0.0000000000000000     
  0.59375000000000000       0.21875000000000000        0.0000000000000000     
  0.62500000000000000       0.21875000000000000        0.0000000000000000     
  0.50000000000000000       0.25000000000000000        0.0000000000000000     
  0.53125000000000000       0.25000000000000000        0.0000000000000000     
  0.56250000000000000       0.25000000000000000        0.0000000000000000     
  0.59375000000000000       0.25000000000000000        0.0000000000000000     
  0.62500000000000000       0.25000000000000000        0.0000000000000000     
  0.62500000000000000       0.12500000000000000        0.0000000000000000     
  0.65625000000000000       0.12500000000000000        0.0000000000000000     
  0.68750000000000000       0.12500000000000000        0.0000000000000000     
  0.71875000000000000       0.12500000000000000        0.0000000000000000     
  0.75000000000000000       0.12500000000000000        0.0000000000000000     
  0.62500000000000000       0.15625000000000000        0.0000000000000000     
  0.65625000000000000       0.15625000000000000        0.0000000000000000     
  0.68750000000000000       0.15625000000000000        0.0000000000000000     
  0.71875000000000000       0.15625000000000000        0.0000000000000000     
  0.75000000000000000       0.15625000000000000        0.0000000000000000     
  0.62500000000000000       0.18750000000000000        0.0000000000000000     
  0.65625000000000000       0.18750000000000000        0.0000000000000000     
  0.68750000000000000       0.18750000000000000        0.0000000000000000     
  0.71875000000000000       0.18750000000000000        0.0000000000000000     
  0.75000000000000000       0.18750000000000000        0.0000000000000000     
  0.62500000000000000       0.21875000000000000        0.0000000000000000     
  0.65625000000000000       0.21875000000000000        0.0000000000000000     
  0.68750000000000000       0.21875000000000000        0.0000000000000000     
  0.71875000000000000       0.21875000000000000        0.0000000000000000     
  0.75000000000000000       0.21875000000000000        0.0000000000000000     
  0.62500000000000000       0.25000000000000000        0.0000000000000000     
  0.65625000000000000       0.25000000000000000        0.0000000000000000     
  0.68750000000000000       0.25000000000000000        0.0000000000000000     
  0.71875000000000000       0.25000000000000000        0.0000000000000000     
  0.75000000000000000       0.25000000000000000        0.0000000000000000     
  0.75000000000000000       0.12500000000000000        0.0000000000000000     
  0.78125000000000000       0.12500000000000000        0.0000000000000000     
  0.81250000000000000       0.12500000000000000        0.0000000000000000     
  0.84375000000000000       0.12500000000000000        0.0000000000000000     
  0.87500000000000000       0.12500000000000000        0.0000000000000000     
  0.75000000000000000       0.15625000000000000        0.0000000000000000     
  0.78125000000000000       0.15625000000000000        0.0000000000000000     
  0.81250000000000000       0.15625000000000000        0.0000000000000000     
  0.84375000000000000       0.15625000000000000        0.0000000000000000     
  0.87500000000000000       0.15625000000000000        0.0000000000000000     
  0.75000000000000000       0.18750000000000000        0.0000000000000000     
  0.78125000000000000       0.18750000000000000        0.0000000000000000     
  0.81250000000000000       0.18750000000000000        0.0000000000000000     
  0.84375000000000000       0.18750000000000000        0.0000000000000000     
  0.87500000000000000       0.18750000000000000        0.0000000000000000     
  0.75000000000000000       0.21875000000000000        0.0000000000000000     
  0.78125000000000000       0.21875000000000000        0.0000000000000000     
  0.81250000000000000       0.21875000000000000        0.0000000000000000     
  0.84375000000000000       0.21875000000000000        0.0000000000000000     
  0.87500000000000000       0.21875000000000000        0.0000000000000000     
  0.75000000000000000       0.25000000000000000        0.0000000000000000     
  0.78125000000000000       0.25000000000000000        0.0000000000000000     
  0.81250000000000000       0.25000000000000000        0.0000000000000000     
  0.84375000000000000       0.25000000000000000        0.0000000000000000     
  0.87500000000000000       0.25000000000000000        0.0000000000000000     
  0.87500000000000000       0.12500000000000000        0.0000000000000000     
  0.90625000000000000       0.12500000000000000        0.0000000000000000     
  0.93750000000000000       0.12500000000000000        0.0000000000000000     
  0.96875000000000000       0.12500000000000000        0.0000000000000000     
   1.0000000000000000       0.12500000000000000        0.0000000000000000     
  0.87500000000000000       0.15625000000000000        0.0000000000000000     
  0.90625000000000000       0.15625000000000000        0.0000000000000000     
  0.93750000000000000       0.15625000000000000        0.0000000000000000     
  0.96875000000000000       0.15625000000000000        0.0000000000000000     
   1.0000000000000000       0.15625000000000000        0.0000000000000000     
  0.87500000000000000       0.18750000000000000        0.0000000000000000     
  0.90625000000000000       0.18750000000000000        0.0000000000000000     
  0.93750000000000000       0.18750000000000000        0.0000000000000000     
  0.96875000000000000       0.18750000000000000        0.0000000000000000     
   1.0000000000000000       0.18750000000000000        0.0000000000000000     
  0.87500000000000000       0.21875000000000000        0.0000000000000000     
  0.90625000000000000       0.21875000000000000        0.0000000000000000     
  0.93750000000000000       0.21875000000000000        0.0000000000000000     
  0.96875000000000000       0.21875000000000000        0.0000000000000000     
   1.0000000000000000       0.21875000000000000        0.0000000000000000     
  0.87500000000000000       0.25000000000000000        0.0000000000000000     
  0.90625000000000000       0.25000000000000000        0.0000000000000000     
  0.93750000000000000       0.25000000000000000        0.0000000000000000     
  0.96875000000000000       0.25000000000000000        0.0000000000000000     
   1.0000000000000000       0.25000000000000000        0.0000000000000000     
   1.0000000000000000       0.12500000000000000        0.0000000000000000     
   1.0312500000000000       0.12500000000000000        0.0000000000000000     
   1.0625000000000000       0.12500000000000000        0.0000000000000000     
   1.0937500000000000       0.12500000000000000        0.0000000000000000     
   1.1250000000000000       0.12500000000000000        0.0000000000000000     
   1.0000000000000000       0.15625000000000000        0.0000000000000000     
   1.0312500000000000       0.15625000000000000        0.0000000000000000     
   1.0625000000000000       0.15625000000000000        0.0000000000000000     
   1.0937500000000000       0.15625000000000000        0.0000000000000000     
   1.1250000000000000       0.15625000000000000        0.0000000000000000     
   1.0000000000000000       0.18750000000000000        0.0000000000000000     
   1.0312500000000000       0.18750000000000000        0.0000000000000000     
   1.0625000000000000       0.18750000000000000        0.0000000000000000     
   1.0937500000000000       0.18750000000000000        0.0000000000000000     
   1.1250000000000000       0.18750000000000000        0.0000000000000000     
   1.0000000000000000       0.21875000000000000        0.0000000000000000     
   1.0312500000000000       0.21875000000000000        0.0000000000000000     
   1.0625000000000000       0.21875000000000000        0.0000000000000000     
   1.0937500000000000       0.21875000000000000        0.0000000000000000     
   1.1250000000000000       0.21875000000000000        0.0000000000000000     
   1.0000000000000000       0.25000000000000000        0.0000000000000000     
   1.0312500000000000       0.25000000000000000        0.0000000000000000     
   1.0625000000000000       0.25000000000000000        0.0000000000000000     
   1.0937500000000000       0.25000000000000000        0.0000000000000000     
   1.1250000000000000       0.25000000000000000        0.0000000000000000     
   1.1250000000000000       0.12500000000000000        0.0000000000000000     
   1.1562500000000000       0.12500000000000000        0.0000000000000000     
   1.1875000000000000       0.12500000000000000        0.0000000000000000     
   1.2187500000000000       0.12500000000000000        0.0000000000000000     
   1.2500000000000000       0.12500000000000000        0.0000000000000000     
   1.1250000000000000       0.15625000000000000        0.0000000000000000     
   1.1562500000000000       0.15625000000000000        0.0000000000000000     
   1.1875000000000000       0.15625000000000000        0.0000000000000000     
   1.2187500000000000       0.15625000000000000        0.0000000000000000     
   1.2500000000000000       0.15625000000000000        0.0000000000000000     
   1.1250000000000000       0.18750000000000000        0.0000000000000000     
   1.1562500000000000       0.18750000000000000        0.0000000000000000     
   1.1875000000000000       0.18750000000000000        0.0000000000000000     
   1.2187500000000000       0.18750000000000000        0.0000000000000000     
   1.2500000000000000       0.18750000000000000        0.0000000000000000     
   1.1250000000000000       0.21875000000000000        0.0000000000000000     
   1.1562500000000000       0.21875000000000000        0.0000000000000000     
   1.1875000000000000       0.21875000000000000        0.0000000000000000     
   1.2187500000000000       0.21875000000000000        0.0000000000000000     
   1.2500000000000000       0.21875000000000000        0.0000000000000000     
   1.1250000000000000       0.25000000000000000        0.0000000000000000     
   1.1562500000000000       0.25000000000000000        0.0000000000000000     
   1.1875000000000000       0.25000000000000000        0.0000000000000000     
   1.2187500000000000       0.25000000000000000        0.0000000000000000     
   1.2500000000000000       0.25000000000000000        0.0000000000000000     
   1.2500000000000000       0.12500000000000000        0.0000000000000000     
   1.2812500000000000       0.12500000000000000        0.0000000000000000     
   1.3125000000000000       0.12500000000000000        0.0000000000000000     
   1.3437500000000000       0.12500000000000000        0.0000000000000000     
   1.3750000000000000       0.12500000000000000        0.0000000000000000     
   1.2500000000000000       0.15625000000000000        0.0000000000000000     
   1.2812500000000000       0.15625000000000000        0.0000000000000000     
   1.3125000000000000       0.15625000000000000        0.0000000000000000     
   1.3437500000000000       0.15625000000000000        0.0000000000000000     
   1.3750000000000000       0.15625000000000000        0.0000000000000000     
   1.2500000000000000       0.18750000000000000        0.0000000000000000     
   1.2812500000000000       0.18750000000000000        0.0000000000000000     
   1.3125000000000000       0.18750000000000000        0.0000000000000000     
   1.3437500000000000       0.18750000000000000        0.0000000000000000     
   1.3750000000000000       0.18750000000000000        0.0000000000000000     
   1.2500000000000000       0.21875000000000000        0.0000000000000000     
   1.2812500000000000       0.21875000000000000        0.0000000000000000     
   1.3125000000000000       0.21875000000000000        0.0000000000000000     
   1.3437500000000000       0.21875000000000000        0.0000000000000000     
   1.3750000000000000       0.21875000000000000        0.0000000000000000     
   1.2500000000000000       0.25000000000000000        0.0000000000000000     
   1.2812500000000000       0.25000000000000000        0.0000000000000000     
   1.3125000000000000       0.25000000000000000        0.0000000000000000     
   1.3437500000000000       0.25000000000000000        0.0000000000000000     
   1.3750000000000000       0.25000000000000000        0.0000000000000000     
   1.3750000000000000       0.12500000000000000        0.0000000000000000     
   1.4062500000000000       0.12500000000000000        0.0000000000000000     
   1.4375000000000000       0.12500000000000000        0.0000000000000000     
   1.4687500000000000       0.12500000000000000        0.0000000000000000     
   1.5000000000000000       0.12500000000000000        0.0000000000000000     
   1.3750000000000000       0.15625000000000000        0.0000000000000000     
   1.4062500000000000       0.15625000000000000        0.0000000000000000     
   1.4375000000000000       0.15625000000000000        0.0000000000000000     
   1.4687500000000000       0.15625000000000000        0.0000000000000000     
   1.5000000000000000       0.15625000000000000        0.0000000000000000     
   1.3750000000000000       0.18750000000000000        0.0000000000000000     
   1.4062500000000000       0.18750000000000000        0.0000000000000000     
   1.4375000000000000       0.18750000000000000        0.0000000000000000     
   1.4687500000000000       0.18750000000000000        0.0000000000000000     
   1.5000000000000000       0.18750000000000000        0.0000000000000000     
   1.3750000000000000       0.21875000000000000        0.0000000000000000     
   1.4062500000000000       0.21875000000000000        0.0000000000000000     
   1.4375000000000000       0.21875000000000000        0.0000000000000000     
   1.4687500000000000       0.21875000000000000        0.0000000000000000     
   1.5000000000000000       0.21875000000000000        0.0000000000000000     
   1.3750000000000000       0.25000000000000000        0.0000000000000000     
   1.4062500000000000       0.25000000000000000        0.0000000000000000     
   1.4375000000000000       0.25000000000000000        0.0000000000000000     
   1.4687500000000000       0.25000000000000000        0.0000000000000000     
   1.5000000000000000       0.25000000000000000        0.0000000000000000     
  0.50000000000000000       0.25000000000000000        0.0000000000000000     
  0.53125000000000000       0.25000000000000000        0.0000000000000000     
  0.56250000000000000       0.25000000000000000        0.0000000000000000     
  0.59375000000000000       0.25000000000000000        0.0000000000000000     
  0.62500000000000000       0.25000000000000000        0.0000000000000000     
  0.50000000000000000       0.28125000000000000        0.0000000000000000     
  0.53125000000000000       0.28125000000000000        0.0000000000000000     
  0.56250000000000000       0.28125000000000000        0.0000000000000000     
  0.59375000000000000       0.28125000000000000        0.0000000000000000     
  0.62500000000000000       0.28125000000000000        0.0000000000000000     
  0.50000000000000000       0.31250000000000000        0.0000000000000000     
  0.53125000000000000       0.31250000000000000        0.0000000000000000     
  0.56250000000000000       0.31250000000000000        0.0000000000000000     
  0.59375000000000000       0.31250000000000000        0.0000000000000000     
  0.62500000000000000       0.31250000000000000        0.0000000000000000     
  0.50000000000000000       0.34375000000000000        0.0000000000000000     
  0.53125000000000000       0.34375000000000000        0.0000000000000000     
  0.56250000000000000       0.34375000000000000        0.0000000000000000     
  0.59375000000000000       0.34375000000000000        0.0000000000000000     
  0.62500000000000000       0.34375000000000000        0.0000000000000000     
  0.50000000000000000       0.37500000000000000        0.0000000000000000     
  0.53125000000000000       0.37500000000000000        0.0000000000000000     
  0.56250000000000000       0.37500000000000000        0.0000000000000000     
  0.59375000000000000       0.37500000000000000        0.0000000000000000     
  0.62500000000000000       0.37500000000000000        0.0000000000000000     
  0.62500000000000000       0.25000000000000000        0.0000000000000000     
  0.65625000000000000       0.25000000000000000        0.0000000000000000     
  0.68750000000000000       0.25000000000000000        0.0000000000000000     
  0.71875000000000000       0.25000000000000000        0.0000000000000000     
  0.75000000000000000       0.25000000000000000        0.0000000000000000     
  0.62500000000000000       0.28125000000000000        0.0000000000000000     
  0.65625000000000000       0.28125000000000000        0.0000000000000000     
  0.68750000000000000       0.28125000000000000        0.0000000000000000     
  0.71875000000000000       0.28125000000000000        0.0000000000000000     
  0.75000000000000000       0.28125000000000000        0.0000000000000000     
  0.62500000000000000       0.31250000000000000        0.0000000000000000     
  0.65625000000000000       0.31250000000000000        0.0000000000000000     
  0.68750000000000000       0.31250000000000000        0.0000000000000000     
  0.71875000000000000       0.31250000000000000        0.0000000000000000     
  0.75000000000000000       0.31250000000000000        0.0000000000000000     
  0.62500000000000000       0.34375000000000000        0.0000000000000000     
  0.65625000000000000       0.34375000000000000        0.0000000000000000     
  0.68750000000000000       0.34375000000000000        0.0000000000000000     
  0.71875000000000000       0.34375000000000000        0.0000000000000000     
  0.75000000000000000       0.34375000000000000        0.0000000000000000     
  0.62500000000000000       0.37500000000000000        0.0000000000000000     
  0.65625000000000000       0.37500000000000000        0.0000000000000000     
  0.68750000000000000       0.37500000000000000        0.0000000000000000     
  0.71875000000000000       0.37500000000000000        0.0000000000000000     
  0.75000000000000000       0.37500000000000000        0.0000000000000000     
  0.75000000000000000       0.25000000000000000        0.0000000000000000     
  0.78125000000000000       0.25000000000000000        0.0000000000000000     
  0.81250000000000000       0.25000000000000000        0.0000000000000000     
  0.84375000000000000       0.25000000000000000        0.0000000000000000     
  0.87500000000000000       0.25000000000000000        0.0000000000000000     
  0.75000000000000000       0.28125000000000000        0.0000000000000000     
  0.78125000000000000       0.28125000000000000        0.0000000000000000     
  0.81250000000000000       0.28125000000000000        0.0000000000000000     
  0.84375000000000000       0.28125000000000000        0.0000000000000000     
  0.87500000000000000       0.28125000000000000        0.0000000000000000     
  0.75000000000000000       0.31250000000000000        0.0000000000000000     
  0.78125000000000000       0.31250000000000000        0.0000000000000000     
  0.81250000000000000       0.31250000000000000        0.0000000000000000     
  0.84375000000000000       0.31250000000000000        0.0000000000000000     
  0.87500000000000000       0.31250000000000000        0.0000000000000000     
  0.75000000000000000       0.34375000000000000        0.0000000000000000     
  0.78125000000000000       0.34375000000000000        0.0000000000000000     
  0.81250000000000000       0.34375000000000000        0.0000000000000000     
  0.84375000000000000       0.34375000000000000        0.0000000000000000     
  0.87500000000000000       0.34375000000000000        0.0000000000000000     
  0.75000000000000000       0.37500000000000000        0.0000000000000000     
  0.78125000000000000       0.37500000000000000        0.0000000000000000     
  0.81250000000000000       0.37500000000000000        0.0000000000000000     
  0.84375000000000000       0.37500000000000000        0.0000000000000000     
  0.87500000000000000       0.37500000000000000        0.0000000000000000     
  0.87500000000000000       0.25000000000000000        0.0000000000000000     
  0.90625000000000000       0.25000000000000000        0.0000000000000000     
  0.93750000000000000       0.25000000000000000        0.0000000000000000     
  0.96875000000000000       0.25000000000000000        0.0000000000000000     
   1.0000000000000000       0.25000000000000000        0.0000000000000000     
  0.87500000000000000       0.28125000000000000        0.0000000000000000     
  0.90625000000000000       0.28125000000000000        0.0000000000000000     
  0.93750000000000000       0.28125000000000000        0.0000000000000000     
  0.96875000000000000       0.28125000000000000        0.0000000000000000     
   1.0000000000000000       0.28125000000000000        0.0000000000000000     
  0.87500000000000000       0.31250000000000000        0.0000000000000000     
  0.90625000000000000       0.31250000000000000        0.0000000000000000     
  0.93750000000000000       0.31250000000000000        0.0000000000000000     
  0.96875000000000000       0.31250000000000000        0.0000000000000000     
   1.0000000000000000       0.31250000000000000        0.0000000000000000     
  0.87500000000000000       0.34375000000000000        0.0000000000000000     
  0.90625000000000000       0.34375000000000000        0.0000000000000000     
  0.93750000000000000       0.34375000000000000        0.0000000000000000     
  0.96875000000000000       0.34375000000000000        0.0000000000000000     
   1.0000000000000000       0.34375000000000000        0.0000000000000000     
  0.87500000000000000       0.37500000000000000        0.0000000000000000     
  0.90625000000000000       0.37500000000000000        0.0000000000000000     
  0.93750000000000000       0.37500000000000000        0.0000000000000000     
  0.96875000000000000       0.37500000000000000        0.0000000000000000     
   1.0000000000000000       0.37500000000000000        0.0000000000000000     
   1.0000000000000000       0.25000000000000000        0.0000000000000000     
   1.0312500000000000       0.25000000000000000        0.0000000000000000     
   1.0625000000000000       0.25000000000000000        0.0000000000000000     
   1.0937500000000000       0.25000000000000000        0.0000000000000000     
   1.1250000000000000       0.25000000000000000        0.0000000000000000     
   1.0000000000000000       0.28125000000000000        0.0000000000000000     
   1.0312500000000000       0.28125000000000000        0.0000000000000000     
   1.0625000000000000       0.28125000000000000        0.0000000000000000     
   1.0937500000000000       0.28125000000000000        0.0000000000000000     
   1.1250000000000000       0.28125000000000000        0.0000000000000000     
   1.0000000000000000       0.31250000000000000        0.0000000000000000     
   1.0312500000000000       0.31250000000000000        0.0000000000000000     
   1.0625000000000000       0.31250000000000000        0.0000000000000000     
   1.0937500000000000       0.31250000000000000        0.0000000000000000     
   1.1250000000000000       0.31250000000000000        0.0000000000000000     
   1.0000000000000000       0.34375000000000000        0.0000000000000000     
   1.0312500000000000       0.34375000000000000        0.0000000000000000     
   1.0625000000000000       0.34375000000000000        0.0000000000000000     
   1.0937500000000000       0.34375000000000000        0.0000000000000000     
   1.1250000000000000       0.34375000000000000        0.0000000000000000     
   1.0000000000000000       0.37500000000000000        0.0000000000000000     
   1.0312500000000000       0.37500000000000000        0.0000000000000000     
   1.0625000000000000       0.37500000000000000        0.0000000000000000     
   1.0937500000000000       0.37500000000000000        0.0000000000000000     
   1.1250000000000000       0.37500000000000000        0.0000000000000000     
   1.1250000000000000       0.25000000000000000        0.0000000000000000     
   1.1562500000000000       0.25000000000000000        0.0000000000000000     
   1.1875000000000000       0.25000000000000000        0.0000000000000000     
   1.2187500000000000       0.25000000000000000        0.0000000000000000     
   1.2500000000000000       0.25000000000000000        0.0000000000000000     
   1.1250000000000000       0.28125000000000000        0.0000000000000000     
   1.1562500000000000       0.28125000000000000        0.0000000000000000     
   1.1875000000000000       0.28125000000000000        0.0000000000000000     
   1.2187500000000000       0.28125000000000000        0.0000000000000000     
   1.2500000000000000       0.28125000000000000        0.0000000000000000     
   1.1250000000000000       0.31250000000000000        0.0000000000000000     
   1.1562500000000000       0.31250000000000000        0.0000000000000000     
   1.1875000000000000       0.31250000000000000        0.0000000000000000     
   1.2187500000000000       0.31250000000000000        0.0000000000000000     
   1.2500000000000000       0.31250000000000000        0.0000000000000000     
   1.1250000000000000       0.34375000000000000        0.0000000000000000     
   1.1562500000000000       0.34375000000000000        0.0000000000000000     
   1.1875000000000000       0.34375000000000000        0.0000000000000000     
   1.2187500000000000       0.34375000000000000        0.0000000000000000     
   1.2500000000000000       0.34375000000000000        0.0000000000000000     
   1.1250000000000000       0.37500000000000000        0.0000000000000000     
   1.1562500000000000       0.37500000000000000        0.0000000000000000     
   1.1875000000000000       0.37500000000000000        0.0000000000000000     
   1.2187500000000000       0.37500000000000000        0.0000000000000000     
   1.2500000000000000       0.37500000000000000        0.0000000000000000     
   1.2500000000000000       0.25000000000000000        0.0000000000000000     
   1.2812500000000000       0.25000000000000000        0.0000000000000000     
   1.3125000000000000       0.25000000000000000        0.0000000000000000     
   1.3437500000000000       0.25000000000000000        0.0000000000000000     
   1.3750000000000000       0.25000000000000000        0.0000000000000000     
   1.2500000000000000       0.28125000000000000        0.0000000000000000     
   1.2812500000000000       0.28125000000000000        0.0000000000000000     
   1.3125000000000000       0.28125000000000000        0.0000000000000000     
   1.3437500000000000       0.28125000000000000        0.0000000000000000     
   1.3750000000000000       0.28125000000000000        0.0000000000000000     
   1.2500000000000000       0.31250000000000000        0.0000000000000000     
   1.2812500000000000       0.31250000000000000        0.0000000000000000     
   1.3125000000000000       0.31250000000000000        0.0000000000000000     
   1.3437500000000000       0.31250000000000000        0.0000000000000000     
   1.3750000000000000       0.31250000000000000        0.0000000000000000     
   1.2500000000000000       0.34375000000000000        0.0000000000000000     
   1.2812500000000000       0.34375000000000000        0.0000000000000000     
   1.3125000000000000       0.34375000000000000        0.0000000000000000     
   1.3437500000000000       0.34375000000000000        0.0000000000000000     
   1.3750000000000000       0.34375000000000000        0.0000000000000000     
   1.2500000000000000       0.37500000000000000        0.0000000000000000     
   1.2812500000000000       0.37500000000000000        0.0000000000000000     
   1.3125000000000000       0.37500000000000000        0.0000000000000000     
   1.3437500000000000       0.37500000000000000        0.0000000000000000     
   1.3750000000000000       0.37500000000000000        0.0000000000000000     
   1.3750000000000000       0.25000000000000000        0.0000000000000000     
   1.4062500000000000       0.25000000000000000        0.0000000000000000     
   1.4375000000000000       0.25000000000000000        0.0000000000000000     
   1.4687500000000000       0.25000000000000000        0.0000000000000000     
   1.5000000000000000       0.25000000000000000        0.0000000000000000     
   1.3750000000000000       0.28125000000000000        0.0000000000000000     
   1.4062500000000000       0.28125000000000000        0.0000000000000000     
   1.4375000000000000       0.28125000000000000        0.0000000000000000     
   1.4687500000000000       0.28125000000000000        0.0000000000000000     
   1.5000000000000000       0.28125000000000000        0.0000000000000000     
   1.3750000000000000       0.31250000000000000        0.0000000000000000     
   1.4062500000000000       0.31250000000000000        0.0000000000000000     
   1.4375000000000000       0.31250000000000000        0.0000000000000000     
   1.4687500000000000       0.31250000000000000        0.0000000000000000     
   1.5000000000000000       0.31250000000000000        0.0000000000000000     
   1.3750000000000000       0.34375000000000000        0.0000000000000000     
   1.4062500000000000       0.34375000000000000        0.0000000000000000     
   1.4375000000000000       0.34375000000000000        0.0000000000000000     
   1.4687500000000000       0.34375000000000000        0.0000000000000000     
   1.5000000000000000       0.34375000000000000        0.0000000000000000     
   1.3750000000000000       0.37500000000000000        0.0000000000000000     
   1.4062500000000000       0.37500000000000000        0.0000000000000000     
   1.4375000000000000       0.37500000000000000        0.0000000000000000     
   1.4687500000000000       0.37500000000000000        0.0000000000000000     
   1.5000000000000000       0.37500000000000000        0.0000000000000000     
  0.50000000000000000       0.37500000000000000        0.0000000000000000     
  0.53125000000000000       0.37500000000000000        0.0000000000000000     
  0.56250000000000000       0.37500000000000000        0.0000000000000000     
  0.59375000000000000       0.37500000000000000        0.0000000000000000     
  0.62500000000000000       0.37500000000000000        0.0000000000000000     
  0.50000000000000000       0.40625000000000000        0.0000000000000000     
  0.53125000000000000       0.40625000000000000        0.0000000000000000     
  0.56250000000000000       0.40625000000000000        0.0000000000000000     
  0.59375000000000000       0.40625000000000000        0.0000000000000000     
  0.62500000000000000       0.40625000000000000        0.0000000000000000     
  0.50000000000000000       0.43750000000000000        0.0000000000000000     
  0.53125000000000000       0.43750000000000000        0.0000000000000000     
  0.56250000000000000       0.43750000000000000        0.0000000000000000     
  0.59375000000000000       0.43750000000000000        0.0000000000000000     
  0.62500000000000000       0.43750000000000000        0.0000000000000000     
  0.50000000000000000       0.46875000000000000        0.0000000000000000     
  0.53125000000000000       0.46875000000000000        0.0000000000000000     
  0.56250000000000000       0.46875000000000000        0.0000000000000000     
  0.59375000000000000       0.46875000000000000        0.0000000000000000     
  0.62500000000000000       0.46875000000000000        0.0000000000000000     
  0.50000000000000000       0.50000000000000000        0.0000000000000000     
  0.53125000000000000       0.50000000000000000        0.0000000000000000     
  0.56250000000000000       0.50000000000000000        0.0000000000000000     
  0.59375000000000000       0.50000000000000000        0.0000000000000000     
  0.62500000000000000       0.50000000000000000        0.0000000000000000     
  0.62500000000000000       0.37500000000000000        0.0000000000000000     
  0.65625000000000000       0.37500000000000000        0.0000000000000000     
  0.68750000000000000       0.37500000000000000        0.0000000000000000     
  0.71875000000000000       0.37500000000000000        0.0000000000000000     
  0.75000000000000000       0.37500000000000000        0.0000000000000000     
  0.62500000000000000       0.40625000000000000        0.0000000000000000     
  0.65625000000000000       0.40625000000000000        0.0000000000000000     
  0.68750000000000000       0.40625000000000000        0.0000000000000000     
  0.71875000000000000       0.40625000000000000        0.0000000000000000     
  0.75000000000000000       0.40625000000000000        0.0000000000000000     
  0.62500000000000000       0.43750000000000000        0.0000000000000000     
  0.65625000000000000       0.43750000000000000        0.0000000000000000     
  0.68750000000000000       0.43750000000000000        0.0000000000000000     
  0.71875000000000000       0.43750000000000000        0.0000000000000000     
  0.75000000000000000       0.43750000000000000        0.0000000000000000     
  0.62500000000000000       0.46875000000000000        0.0000000000000000     
  0.65625000000000000       0.46875000000000000        0.0000000000000000     
  0.68750000000000000       0.46875000000000000        0.0000000000000000     
  0.71875000000000000       0.46875000000000000        0.0000000000000000     
  0.75000000000000000       0.46875000000000000        0.0000000000000000     
  0.62500000000000000       0.50000000000000000        0.0000000000000000     
  0.65625000000000000       0.50000000000000000        0.0000000000000000     
  0.68750000000000000       0.50000000000000000        0.0000000000000000     
  0.71875000000000000       0.50000000000000000        0.0000000000000000     
  0.75000000000000000       0.50000000000000000        0.0000000000000000     
  0.75000000000000000       0.37500000000000000        0.0000000000000000     
  0.78125000000000000       0.37500000000000000        0.0000000000000000     
  0.81250000000000000       0.37500000000000000        0.0000000000000000     
  0.84375000000000000       0.37500000000000000        0.0000000000000000     
  0.87500000000000000       0.37500000000000000        0.0000000000000000     
  0.75000000000000000       0.40625000000000000        0.0000000000000000     
  0.78125000000000000       0.40625000000000000        0.0000000000000000     
  0.81250000000000000       0.40625000000000000        0.0000000000000000     
  0.84375000000000000       0.40625000000000000        0.0000000000000000     
  0.87500000000000000       0.40625000000000000        0.0000000000000000     
  0.75000000000000000       0.43750000000000000        0.0000000000000000     
  0.78125000000000000       0.43750000000000000        0.0000000000000000     
  0.81250000000000000       0.43750000000000000        0.0000000000000000     
  0.84375000000000000       0.43750000000000000        0.0000000000000000     
  0.87500000000000000       0.43750000000000000        0.0000000000000000     
  0.75000000000000000       0.46875000000000000        0.0000000000000000     
  0.78125000000000000       0.46875000000000000        0.0000000000000000     
  0.81250000000000000       0.46875000000000000        0.0000000000000000     
  0.84375000000000000       0.46875000000000000        0.0000000000000000     
  0.87500000000000000       0.46875000000000000        0.0000000000000000     
  0.75000000000000000       0.50000000000000000        0.0000000000000000     
  0.78125000000000000       0.50000000000000000        0.0000000000000000     
  0.81250000000000000       0.50000000000000000        0.0000000000000000     
  0.84375000000000000       0.50000000000000000        0.0000000000000000     
  0.87500000000000000       0.50000000000000000        0.0000000000000000     
  0.87500000000000000       0.37500000000000000        0.0000000000000000     
  0.90625000000000000       0.37500000000000000        0.0000000000000000     
  0.93750000000000000       0.37500000000000000        0.0000000000000000     
  0.96875000000000000       0.37500000000000000        0.0000000000000000     
   1.0000000000000000       0.37500000000000000        0.0000000000000000     
  0.87500000000000000       0.40625000000000000        0.0000000000000000     
  0.90625000000000000       0.40625000000000000        0.0000000000000000     
  0.93750000000000000       0.40625000000000000        0.0000000000000000     
  0.96875000000000000       0.40625000000000000        0.0000000000000000     
   1.0000000000000000       0.40625000000000000        0.0000000000000000     
  0.87500000000000000       0.43750000000000000        0.0000000000000000     
  0.90625000000000000       0.43750000000000000        0.0000000000000000     
  0.93750000000000000       0.43750000000000000        0.0000000000000000     
  0.96875000000000000       0.43750000000000000        0.0000000000000000     
   1.0000000000000000       0.43750000000000000        0.0000000000000000     
  0.87500000000000000       0.46875000000000000        0.0000000000000000     
  0.90625000000000000       0.46875000000000000        0.0000000000000000     
  0.93750000000000000       0.46875000000000000        0.0000000000000000     
  0.96875000000000000       0.46875000000000000        0.0000000000000000     
   1.0000000000000000       0.46875000000000000        0.0000000000000000     
  0.87500000000000000       0.50000000000000000        0.0000000000000000     
  0.90625000000000000       0.50000000000000000        0.0000000000000000     
  0.93750000000000000       0.50000000000000000        0.0000000000000000     
  0.96875000000000000       0.50000000000000000        0.0000000000000000     
   1.0000000000000000       0.50000000000000000        0.0000000000000000     
   1.0000000000000000       0.37500000000000000        0.0000000000000000     
   1.0312500000000000       0.37500000000000000        0.0000000000000000     
   1.0625000000000000       0.37500000000000000        0.0000000000000000     
   1.0937500000000000       0.37500000000000000        0.0000000000000000     
   1.1250000000000000       0.37500000000000000        0.0000000000000000     
   1.0000000000000000       0.40625000000000000        0.0000000000000000     
   1.0312500000000000       0.40625000000000000        0.0000000000000000     
   1.0625000000000000       0.40625000000000000        0.0000000000000000     
   1.0937500000000000       0.40625000000000000        0.0000000000000000     
   1.1250000000000000       0.40625000000000000        0.0000000000000000     
   1.0000000000000000       0.43750000000000000        0.0000000000000000     
   1.0312500000000000       0.43750000000000000        0.0000000000000000     
   1.0625000000000000       0.43750000000000000        0.0000000000000000     
   1.0937500000000000       0.43750000000000000        0.0000000000000000     
   1.1250000000000000       0.43750000000000000        0.0000000000000000     
   1.0000000000000000       0.46875000000000000        0.0000000000000000     
   1.0312500000000000       0.46875000000000000        0.0000000000000000     
   1.0625000000000000       0.46875000000000000        0.0000000000000000     
   1.0937500000000000       0.46875000000000000        0.0000000000000000     
   1.1250000000000000       0.46875000000000000        0.0000000000000000     
   1.0000000000000000       0.50000000000000000        0.0000000000000000     
   1.0312500000000000       0.50000000000000000        0.0000000000000000     
   1.0625000000000000       0.50000000000000000        0.0000000000000000     
   1.0937500000000000       0.50000000000000000        0.0000000000000000     
   1.1250000000000000       0.50000000000000000        0.0000000000000000     
   1.1250000000000000       0.37500000000000000        0.0000000000000000     
   1.1562500000000000       0.37500000000000000        0.0000000000000000     
   1.1875000000000000       0.37500000000000000        0.0000000000000000     
   1.2187500000000000       0.37500000000000000        0.0000000000000000     
   1.2500000000000000       0.37500000000000000        0.0000000000000000     
   1.1250000000000000       0.40625000000000000        0.0000000000000000     
   1.1562500000000000       0.40625000000000000        0.0000000000000000     
   1.1875000000000000       0.40625000000000000        0.0000000000000000     
   1.2187500000000000       0.40625000000000000        0.0000000000000000     
   1.2500000000000000       0.40625000000000000        0.0000000000000000     
   1.1250000000000000       0.43750000000000000        0.0000000000000000     
   1.1562500000000000       0.43750000000000000        0.0000000000000000     
   1.1875000000000000       0.43750000000000000        0.0000000000000000     
   1.2187500000000000       0.43750000000000000        0.0000000000000000     
   1.2500000000000000       0.43750000000000000        0.0000000000000000     
   1.1250000000000000       0.46875000000000000        0.0000000000000000     
   1.1562500000000000       0.46875000000000000        0.0000000000000000     
   1.1875000000000000       0.46875000000000000        0.0000000000000000     
   1.2187500000000000       0.46875000000000000        0.0000000000000000     
   1.2500000000000000       0.46875000000000000        0.0000000000000000     
   1.1250000000000000       0.50000000000000000        0.0000000000000000     
   1.1562500000000000       0.50000000000000000        0.0000000000000000     
   1.1875000000000000       0.50000000000000000        0.0000000000000000     
   1.2187500000000000       0.50000000000000000        0.0000000000000000     
   1.2500000000000000       0.50000000000000000        0.0000000000000000     
   1.2500000000000000       0.37500000000000000        0.0000000000000000     
   1.2812500000000000       0.37500000000000000        0.0000000000000000     
   1.3125000000000000       0.37500000000000000        0.0000000000000000     
   1.3437500000000000       0.37500000000000000        0.0000000000000000     
   1.3750000000000000       0.37500000000000000        0.0000000000000000     
   1.2500000000000000       0.40625000000000000        0.0000000000000000     
   1.2812500000000000       0.40625000000000000        0.0000000000000000     
   1.3125000000000000       0.40625000000000000        0.0000000000000000     
   1.3437500000000000       0.40625000000000000        0.0000000000000000     
   1.3750000000000000       0.40625000000000000        0.0000000000000000     
   1.2500000000000000       0.43750000000000000        0.0000000000000000     
   1.2812500000000000       0.43750000000000000        0.0000000000000000     
   1.3125000000000000       0.43750000000000000        0.0000000000000000     
   1.3437500000000000       0.43750000000000000        0.0000000000000000     
   1.3750000000000000       0.43750000000000000        0.0000000000000000     
   1.2500000000000000       0.46875000000000000        0.0000000000000000     
   1.2812500000000000       0.46875000000000000        0.0000000000000000     
   1.3125000000000000       0.46875000000000000        0.0000000000000000     
   1.3437500000000000       0.46875000000000000        0.0000000000000000     
   1.3750000000000000       0.46875000000000000        0.0000000000000000     
   1.2500000000000000       0.50000000000000000        0.0000000000000000     
   1.2812500000000000       0.50000000000000000        0.0000000000000000     
   1.3125000000000000       0.50000000000000000        0.0000000000000000     
   1.3437500000000000       0.50000000000000000        0.0000000000000000     
   1.3750000000000000       0.50000000000000000        0.0000000000000000     
   1.3750000000000000       0.37500000000000000        0.0000000000000000     
   1.4062500000000000       0.37500000000000000        0.0000000000000000     
   1.4375000000000000       0.37500000000000000        0.0000000000000000     
   1.4687500000000000       0.37500000000000000        0.0000000000000000     
   1.5000000000000000       0.37500000000000000        0.0000000000000000     
   1.3750000000000000       0.40625000000000000        0.0000000000000000     
   1.4062500000000000       0.40625000000000000        0.0000000000000000     
   1.4375000000000000       0.40625000000000000        0.0000000000000000     
   1.4687500000000000       0.40625000000000000        0.0000000000000000     
   1.5000000000000000       0.40625000000000000        0.0000000000000000     
   1.3750000000000000       0.43750000000000000        0.0000000000000000     
   1.4062500000000000       0.43750000000000000        0.0000000000000000     
   1.4375000000000000       0.43750000000000000        0.0000000000000000     
   1.4687500000000000       0.43750000000000000        0.0000000000000000     
   1.5000000000000000       0.43750000000000000        0.0000000000000000     
   1.3750000000000000       0.46875000000000000        0.0000000000000000     
   1.4062500000000000       0.46875000000000000        0.0000000000000000     
   1.4375000000000000       0.46875000000000000        0.0000000000000000     
   1.4687500000000000       0.46875000000000000        0.0000000000000000     
   1.5000000000000000       0.46875000000000000        0.0000000000000000     
   1.3750000000000000       0.50000000000000000        0.0000000000000000     
   1.4062500000000000       0.50000000000000000        0.0000000000000000     
   1.4375000000000000       0.50000000000000000        0.0000000000000000     
   1.4687500000000000       0.50000000000000000        0.0000000000000000     
   1.5000000000000000       0.50000000000000000        0.0000000000000000     
  0.50000000000000000       0.50000000000000000        0.0000000000000000     
  0.53125000000000000       0.50000000000000000        0.0000000000000000     
  0.56250000000000000       0.50000000000000000        0.0000000000000000     
  0.59375000000000000       0.50000000000000000        0.0000000000000000     
  0.62500000000000000       0.50000000000000000        0.0000000000000000     
  0.50000000000000000       0.53125000000000000        0.0000000000000000     
  0.53125000000000000       0.53125000000000000        0.0000000000000000     
  0.56250000000000000       0.53125000000000000        0.0000000000000000     
  0.59375000000000000       0.53125000000000000        0.0000000000000000     
  0.62500000000000000       0.53125000000000000        0.0000000000000000     
  0.50000000000000000       0.56250000000000000        0.0000000000000000     
  0.53125000000000000       0.56250000000000000        0.0000000000000000     
  0.56250000000000000       0.56250000000000000        0.0000000000000000     
  0.59375000000000000       0.56250000000000000        0.0000000000000000     
  0.62500000000000000       0.56250000000000000        0.0000000000000000     
  0.50000000000000000       0.59375000000000000        0.0000000000000000     
  0.53125000000000000       0.59375000000000000        0.0000000000000000     
  0.56250000000000000       0.59375000000000000        0.0000000000000000     
  0.59375000000000000       0.59375000000000000        0.0000000000000000     
  0.62500000000000000       0.59375000000000000        0.0000000000000000     
  0.50000000000000000       0.62500000000000000        0.0000000000000000     
  0.53125000000000000       0.62500000000000000        0.0000000000000000     
  0.56250000000000000       0.62500000000000000        0.0000000000000000     
  0.59375000000000000       0.62500000000000000        0.0000000000000000     
  0.62500000000000000       0.62500000000000000        0.0000000000000000     
  0.62500000000000000       0.50000000000000000        0.0000000000000000     
  0.65625000000000000       0.50000000000000000        0.0000000000000000     
  0.68750000000000000       0.50000000000000000        0.0000000000000000     
  0.71875000000000000       0.50000000000000000        0.0000000000000000     
  0.75000000000000000       0.50000000000000000        0.0000000000000000     
  0.62500000000000000       0.53125000000000000        0.0000000000000000     
  0.65625000000000000       0.53125000000000000        0.0000000000000000     
  0.68750000000000000       0.53125000000000000        0.0000000000000000     
  0.71875000000000000       0.53125000000000000        0.0000000000000000     
  0.75000000000000000       0.53125000000000000        0.0000000000000000     
  0.62500000000000000       0.56250000000000000        0.0000000000000000     
  0.65625000000000000       0.56250000000000000        0.0000000000000000     
  0.68750000000000000       0.56250000000000000        0.0000000000000000     
  0.71875000000000000       0.56250000000000000        0.0000000000000000     
  0.75000000000000000       0.56250000000000000        0.0000000000000000     
  0.62500000000000000       0.59375000000000000        0.0000000000000000     
  0.65625000000000000       0.59375000000000000        0.0000000000000000     
  0.68750000000000000       0.59375000000000000        0.0000000000000000     
  0.71875000000000000       0.59375000000000000        0.0000000000000000     
  0.75000000000000000       0.59375000000000000        0.0000000000000000     
  0.62500000000000000       0.62500000000000000        0.0000000000000000     
  0.65625000000000000       0.62500000000000000        0.0000000000000000     
  0.68750000000000000       0.62500000000000000        0.0000000000000000     
  0.71875000000000000       0.62500000000000000        0.0000000000000000     
  0.75000000000000000       0.62500000000000000        0.0000000000000000     
  0.75000000000000000       0.50000000000000000        0.0000000000000000     
  0.78125000000000000       0.50000000000000000        0.0000000000000000     
  0.81250000000000000       0.50000000000000000        0.0000000000000000     
  0.84375000000000000       0.50000000000000000        0.0000000000000000     
  0.87500000000000000       0.50000000000000000        0.0000000000000000     
  0.75000000000000000       0.53125000000000000        0.0000000000000000     
  0.78125000000000000       0.53125000000000000        0.0000000000000000     
  0.81250000000000000       0.53125000000000000        0.0000000000000000     
  0.84375000000000000       0.53125000000000000        0.0000000000000000     
  0.87500000000000000       0.53125000000000000        0.0000000000000000     
  0.75000000000000000       0.56250000000000000        0.0000000000000000     
  0.78125000000000000       0.56250000000000000        0.0000000000000000     
  0.81250000000000000       0.56250000000000000        0.0000000000000000     
  0.84375000000000000       0.56250000000000000        0.0000000000000000     
  0.87500000000000000       0.56250000000000000        0.0000000000000000     
  0.75000000000000000       0.59375000000000000        0.0000000000000000     
  0.78125000000000000       0.59375000000000000        0.0000000000000000     
  0.81250000000000000       0.59375000000000000        0.0000000000000000     
  0.84375000000000000       0.59375000000000000        0.0000000000000000     
  0.87500000000000000       0.59375000000000000        0.0000000000000000     
  0.75000000000000000       0.62500000000000000        0.0000000000000000     
  0.78125000000000000       0.62500000000000000        0.0000000000000000     
  0.81250000000000000       0.62500000000000000        0.0000000000000000     
  0.84375000000000000       0.62500000000000000        0.0000000000000000     
  0.87500000000000000       0.62500000000000000        0.0000000000000000     
  0.87500000000000000       0.50000000000000000        0.0000000000000000     
  0.90625000000000000       0.50000000000000000        0.0000000000000000     
  0.93750000000000000       0.50000000000000000        0.0000000000000000     
  0.96875000000000000       0.50000000000000000        0.0000000000000000     
   1.0000000000000000       0.50000000000000000        0.0000000000000000     
  0.87500000000000000       0.53125000000000000        0.0000000000000000     
  0.90625000000000000       0.53125000000000000        0.0000000000000000     
  0.93750000000000000       0.53125000000000000        0.0000000000000000     
  0.96875000000000000       0.53125000000000000        0.0000000000000000     
   1.0000000000000000       0.53125000000000000        0.0000000000000000     
  0.87500000000000000       0.56250000000000000        0.0000000000000000     
  0.90625000000000000       0.56250000000000000        0.0000000000000000     
  0.93750000000000000       0.56250000000000000        0.0000000000000000     
  0.96875000000000000       0.56250000000000000        0.0000000000000000     
   1.0000000000000000       0.56250000000000000        0.0000000000000000     
  0.87500000000000000       0.59375000000000000        0.0000000000000000     
  0.90625000000000000       0.59375000000000000        0.0000000000000000     
  0.93750000000000000       0.59375000000000000        0.0000000000000000     
  0.96875000000000000       0.59375000000000000        0.0000000000000000     
   1.0000000000000000       0.59375000000000000        0.0000000000000000     
  0.87500000000000000       0.62500000000000000        0.0000000000000000     
  0.90625000000000000       0.62500000000000000        0.0000000000000000     
  0.93750000000000000       0.62500000000000000        0.0000000000000000     
  0.96875000000000000       0.62500000000000000        0.0000000000000000     
   1.0000000000000000       0.62500000000000000        0.0000000000000000     
   1.0000000000000000       0.50000000000000000        0.0000000000000000     
   1.0312500000000000       0.50000000000000000        0.0000000000000000     
   1.0625000000000000       0.50000000000000000        0.0000000000000000     
   1.0937500000000000       0.50000000000000000        0.0000000000000000     
   1.1250000000000000       0.50000000000000000        0.0000000000000000     
   1.0000000000000000       0.53125000000000000        0.0000000000000000     
   1.0312500000000000       0.53125000000000000        0.0000000000000000     
   1.0625000000000000       0.53125000000000000        0.0000000000000000     
   1.0937500000000000       0.53125000000000000        0.0000000000000000     
   1.1250000000000000       0.53125000000000000        0.0000000000000000     
   1.0000000000000000       0.56250000000000000        0.0000000000000000     
   1.0312500000000000       0.56250000000000000        0.0000000000000000     
   1.0625000000000000       0.56250000000000000        0.0000000000000000     
   1.0937500000000000       0.56250000000000000        0.0000000000000000     
   1.1250000000000000       0.56250000000000000        0.0000000000000000     
   1.0000000000000000       0.59375000000000000        0.0000000000000000     
   1.0312500000000000       0.59375000000000000        0.0000000000000000     
   1.0625000000000000       0.59375000000000000        0.0000000000000000     
   1.0937500000000000       0.59375000000000000        0.0000000000000000     
   1.1250000000000000       0.59375000000000000        0.0000000000000000     
   1.0000000000000000       0.62500000000000000        0.0000000000000000     
   1.0312500000000000       0.62500000000000000        0.0000000000000000     
   1.0625000000000000       0.62500000000000000        0.0000000000000000     
   1.0937500000000000       0.62500000000000000        0.0000000000000000     
   1.1250000000000000       0.62500000000000000        0.0000000000000000     
   1.1250000000000000       0.50000000000000000        0.0000000000000000     
   1.1562500000000000       0.50000000000000000        0.0000000000000000     
   1.1875000000000000       0.50000000000000000        0.0000000000000000     
   1.2187500000000000       0.50000000000000000        0.0000000000000000     
   1.2500000000000000       0.50000000000000000        0.0000000000000000     
   1.1250000000000000       0.53125000000000000        0.0000000000000000     
   1.1562500000000000       0.53125000000000000        0.0000000000000000     
   1.1875000000000000       0.53125000000000000        0.0000000000000000     
   1.2187500000000000       0.53125000000000000        0.0000000000000000     
   1.2500000000000000       0.53125000000000000        0.0000000000000000     
   1.1250000000000000       0.56250000000000000        0.0000000000000000     
   1.1562500000000000       0.56250000000000000        0.0000000000000000     
   1.1875000000000000       0.56250000000000000        0.0000000000000000     
   1.2187500000000000       0.56250000000000000        0.0000000000000000     
   1.2500000000000000       0.56250000000000000        0.0000000000000000     
   1.1250000000000000       0.59375000000000000        0.0000000000000000     
   1.1562500000000000       0.59375000000000000        0.0000000000000000     
   1.1875000000000000       0.59375000000000000        0.0000000000000000     
   1.2187500000000000       0.59375000000000000        0.0000000000000000     
   1.2500000000000000       0.59375000000000000        0.0000000000000000     
   1.1250000000000000       0.62500000000000000        0.0000000000000000     
   1.1562500000000000       0.62500000000000000        0.0000000000000000     
   1.1875000000000000       0.62500000000000000        0.0000000000000000     
   1.2187500000000000       0.62500000000000000        0.0000000000000000     
   1.2500000000000000       0.62500000000000000        0.0000000000000000     
   1.2500000000000000       0.50000000000000000        0.0000000000000000     
   1.2812500000000000       0.50000000000000000        0.0000000000000000     
   1.3125000000000000       0.50000000000000000        0.0000000000000000     
   1.3437500000000000       0.50000000000000000        0.0000000000000000     
   1.3750000000000000       0.50000000000000000        0.0000000000000000     
   1.2500000000000000       0.53125000000000000        0.0000000000000000     
   1.2812500000000000       0.53125000000000000        0.0000000000000000     
   1.3125000000000000       0.53125000000000000        0.0000000000000000     
   1.3437500000000000       0.53125000000000000        0.0000000000000000     
   1.3750000000000000       0.53125000000000000        0.0000000000000000     
   1.2500000000000000       0.56250000000000000        0.0000000000000000     
   1.2812500000000000       0.56250000000000000        0.0000000000000000     
   1.3125000000000000       0.56250000000000000        0.0000000000000000     
   1.3437500000000000       0.56250000000000000        0.0000000000000000     
   1.3750000000000000       0.56250000000000000        0.0000000000000000     
   1.2500000000000000       0.59375000000000000        0.0000000000000000     
   1.2812500000000000       0.59375000000000000        0.0000000000000000     
   1.3125000000000000       0.59375000000000000        0.0000000000000000     
   1.3437500000000000       0.59375000000000000        0.0000000000000000     
   1.3750000000000000       0.59375000000000000        0.0000000000000000     
   1.2500000000000000       0.62500000000000000        0.0000000000000000     
   1.2812500000000000       0.62500000000000000        0.0000000000000000     
   1.3125000000000000       0.62500000000000000        0.0000000000000000     
   1.3437500000000000       0.62500000000000000        0.0000000000000000     
   1.3750000000000000       0.62500000000000000        0.0000000000000000     
   1.3750000000000000       0.50000000000000000        0.0000000000000000     
   1.4062500000000000       0.50000000000000000        0.0000000000000000     
   1.4375000000000000       0.50000000000000000        0.0000000000000000     
   1.4687500000000000       0.50000000000000000        0.0000000000000000     
   1.5000000000000000       0.50000000000000000        0.0000000000000000     
   1.3750000000000000       0.53125000000000000        0.0000000000000000     
   1.4062500000000000       0.53125000000000000        0.0000000000000000     
   1.4375000000000000       0.53125000000000000        0.0000000000000000     
   1.4687500000000000       0.53125000000000000        0.0000000000000000     
   1.5000000000000000       0.53125000000000000        0.0000000000000000     
   1.3750000000000000       0.56250000000000000        0.0000000000000000     
   1.4062500000000000       0.56250000000000000        0.0000000000000000     
   1.4375000000000000       0.56250000000000000        0.0000000000000000     
   1.4687500000000000       0.56250000000000000        0.0000000000000000     
   1.5000000000000000       0.56250000000000000        0.0000000000000000     
   1.3750000000000000       0.59375000000000000        0.0000000000000000     
   1.4062500000000000       0.59375000000000000        0.0000000000000000     
   1.4375000000000000       0.59375000000000000        0.0000000000000000     
   1.4687500000000000       0.59375000000000000        0.0000000000000000     
   1.5000000000000000       0.59375000000000000        0.0000000000000000     
   1.3750000000000000       0.62500000000000000        0.0000000000000000     
   1.4062500000000000       0.62500000000000000        0.0000000000000000     
   1.4375000000000000       0.62500000000000000        0.0000000000000000     
   1.4687500000000000       0.62500000000000000        0.0000000000000000     
   1.5000000000000000       0.62500000000000000        0.0000000000000000     
  0.50000000000000000       0.62500000000000000        0.0000000000000000     
  0.53125000000000000       0.62500000000000000        0.0000000000000000     
  0.56250000000000000       0.62500000000000000        0.0000000000000000     
  0.59375000000000000       0.62500000000000000        0.0000000000000000     
  0.62500000000000000       0.62500000000000000        0.0000000000000000     
  0.50000000000000000       0.65625000000000000        0.0000000000000000     
  0.53125000000000000       0.65625000000000000        0.0000000000000000     
  0.56250000000000000       0.65625000000000000        0.0000000000000000     
  0.59375000000000000       0.65625000000000000        0.0000000000000000     
  0.62500000000000000       0.65625000000000000        0.0000000000000000     
  0.50000000000000000       0.68750000000000000        0.0000000000000000     
  0.53125000000000000       0.68750000000000000        0.0000000000000000     
  0.56250000000000000       0.68750000000000000        0.0000000000000000     
  0.59375000000000000       0.68750000000000000        0.0000000000000000     
  0.62500000000000000       0.68750000000000000        0.0000000000000000     
  0.50000000000000000       0.71875000000000000        0.0000000000000000     
  0.53125000000000000       0.71875000000000000        0.0000000000000000     
  0.56250000000000000       0.71875000000000000        0.0000000000000000     
  0.59375000000000000       0.71875000000000000        0.0000000000000000     
  0.62500000000000000       0.71875000000000000        0.0000000000000000     
  0.50000000000000000       0.75000000000000000        0.0000000000000000     
  0.53125000000000000       0.75000000000000000        0.0000000000000000     
  0.56250000000000000       0.75000000000000000        0.0000000000000000     
  0.59375000000000000       0.75000000000000000        0.0000000000000000     
  0.62500000000000000       0.75000000000000000        0.0000000000000000     
  0.62500000000000000       0.62500000000000000        0.0000000000000000     
  0.65625000000000000       0.62500000000000000        0.0000000000000000     
  0.68750000000000000       0.62500000000000000        0.0000000000000000     
  0.71875000000000000       0.62500000000000000        0.0000000000000000     
  0.75000000000000000       0.62500000000000000        0.0000000000000000     
  0.62500000000000000       0.65625000000000000        0.0000000000000000     
  0.65625000000000000       0.65625000000000000        0.0000000000000000     
  0.68750000000000000       0.65625000000000000        0.0000000000000000     
  0.71875000000000000       0.65625000000000000        0.0000000000000000     
  0.75000000000000000       0.65625000000000000        0.0000000000000000     
  0.62500000000000000       0.68750000000000000        0.0000000000000000     
  0.65625000000000000       0.68750000000000000        0.0000000000000000     
  0.68750000000000000       0.68750000000000000        0.0000000000000000     
  0.71875000000000000       0.68750000000000000        0.0000000000000000     
  0.75000000000000000       0.68750000000000000        0.0000000000000000     
  0.62500000000000000       0.71875000000000000        0.0000000000000000     
  0.65625000000000000       0.71875000000000000        0.0000000000000000     
  0.68750000000000000       0.71875000000000000        0.0000000000000000     
  0.71875000000000000       0.71875000000000000        0.0000000000000000     
  0.75000000000000000       0.71875000000000000        0.0000000000000000     
  0.62500000000000000       0.75000000000000000        0.0000000000000000     
  0.65625000000000000       0.75000000000000000        0.0000000000000000     
  0.68750000000000000       0.75000000000000000        0.0000000000000000     
  0.71875000000000000       0.75000000000000000        0.0000000000000000     
  0.75000000000000000       0.75000000000000000        0.0000000000000000     
  0.75000000000000000       0.62500000000000000        0.0000000000000000     
  0.78125000000000000       0.62500000000000000        0.0000000000000000     
  0.81250000000000000       0.62500000000000000        0.0000000000000000     
  0.84375000000000000       0.62500000000000000        0.0000000000000000     
  0.87500000000000000       0.62500000000000000        0.0000000000000000     
  0.75000000000000000       0.65625000000000000        0.0000000000000000     
  0.78125000000000000       0.65625000000000000        0.0000000000000000     
  0.81250000000000000       0.65625000000000000        0.0000000000000000     
  0.84375000000000000       0.65625000000000000        0.0000000000000000     
  0.87500000000000000       0.65625000000000000        0.0000000000000000     
  0.75000000000000000       0.68750000000000000        0.0000000000000000     
  0.78125000000000000       0.68750000000000000        0.0000000000000000     
  0.81250000000000000       0.68750000000000000        0.0000000000000000     
  0.84375000000000000       0.68750000000000000        0.0000000000000000     
  0.87500000000000000       0.68750000000000000        0.0000000000000000     
  0.75000000000000000       0.71875000000000000        0.0000000000000000     
  0.78125000000000000       0.71875000000000000        0.0000000000000000     
  0.81250000000000000       0.71875000000000000        0.0000000000000000     
  0.84375000000000000       0.71875000000000000        0.0000000000000000     
  0.87500000000000000       0.71875000000000000        0.0000000000000000     
  0.75000000000000000       0.75000000000000000        0.0000000000000000     
  0.78125000000000000       0.75000000000000000        0.0000000000000000     
  0.81250000000000000       0.75000000000000000        0.0000000000000000     
  0.84375000000000000       0.75000000000000000        0.0000000000000000     
  0.87500000000000000       0.75000000000000000        0.0000000000000000     
  0.87500000000000000       0.62500000000000000        0.0000000000000000     
  0.90625000000000000       0.62500000000000000        0.0000000000000000     
  0.93750000000000000       0.62500000000000000        0.0000000000000000     
  0.96875000000000000       0.62500000000000000        0.0000000000000000     
   1.0000000000000000       0.62500000000000000        0.0000000000000000     
  0.87500000000000000       0.65625000000000000        0.0000000000000000     
  0.90625000000000000       0.65625000000000000        0.0000000000000000     
  0.93750000000000000       0.65625000000000000        0.0000000000000000     
  0.96875000000000000       0.65625000000000000        0.0000000000000000     
   1.0000000000000000       0.65625000000000000        0.0000000000000000     
  0.87500000000000000       0.68750000000000000        0.0000000000000000     
  0.90625000000000000       0.68750000000000000        0.0000000000000000     
  0.93750000000000000       0.68750000000000000        0.0000000000000000     
  0.96875000000000000       0.68750000000000000        0.0000000000000000     
   1.0000000000000000       0.68750000000000000        0.0000000000000000     
  0.87500000000000000       0.71875000000000000        0.0000000000000000     
  0.90625000000000000       0.71875000000000000        0.0000000000000000     
  0.93750000000000000       0.71875000000000000        0.0000000000000000     
  0.96875000000000000       0.71875000000000000        0.0000000000000000     
   1.0000000000000000       0.71875000000000000        0.0000000000000000     
  0.87500000000000000       0.75000000000000000        0.0000000000000000     
  0.90625000000000000       0.75000000000000000        0.0000000000000000     
  0.93750000000000000       0.75000000000000000        0.0000000000000000     
  0.96875000000000000       0.75000000000000000        0.0000000000000000     
   1.0000000000000000       0.75000000000000000        0.0000000000000000     
   1.0000000000000000       0.62500000000000000        0.0000000000000000     
   1.0312500000000000       0.62500000000000000        0.0000000000000000     
   1.0625000000000000       0.62500000000000000        0.0000000000000000     
   1.0937500000000000       0.62500000000000000        0.0000000000000000     
   1.1250000000000000       0.62500000000000000        0.0000000000000000     
   1.0000000000000000       0.65625000000000000        0.0000000000000000     
   1.0312500000000000       0.65625000000000000        0.0000000000000000     
   1.0625000000000000       0.65625000000000000        0.0000000000000000     
   1.0937500000000000       0.65625000000000000        0.0000000000000000     
   1.1250000000000000       0.65625000000000000        0.0000000000000000     
   1.0000000000000000       0.68750000000000000        0.0000000000000000     
   1.0312500000000000       0.68750000000000000        0.0000000000000000     
   1.0625000000000000       0.68750000000000000        0.0000000000000000     
   1.0937500000000000       0.68750000000000000        0.0000000000000000     
   1.1250000000000000       0.68750000000000000        0.0000000000000000     
   1.0000000000000000       0.71875000000000000        0.0000000000000000     
   1.0312500000000000       0.71875000000000000        0.0000000000000000     
   1.0625000000000000       0.71875000000000000        0.0000000000000000     
   1.0937500000000000       0.71875000000000000        0.0000000000000000     
   1.1250000000000000       0.71875000000000000        0.0000000000000000     
   1.0000000000000000       0.75000000000000000        0.0000000000000000     
   1.0312500000000000       0.75000000000000000        0.0000000000000000     
   1.0625000000000000       0.75000000000000000        0.0000000000000000     
   1.0937500000000000       0.75000000000000000        0.0000000000000000     
   1.1250000000000000       0.75000000000000000        0.0000000000000000     
   1.1250000000000000       0.62500000000000000        0.0000000000000000     
   1.1562500000000000       0.62500000000000000        0.0000000000000000     
   1.1875000000000000       0.62500000000000000        0.0000000000000000     
   1.2187500000000000       0.62500000000000000        0.0000000000000000     
   1.2500000000000000       0.62500000000000000        0.0000000000000000     
   1.1250000000000000       0.65625000000000000        0.0000000000000000     
   1.1562500000000000       0.65625000000000000        0.0000000000000000     
   1.1875000000000000       0.65625000000000000        0.0000000000000000     
   1.2187500000000000       0.65625000000000000        0.0000000000000000     
   1.2500000000000000       0.65625000000000000        0.0000000000000000     
   1.1250000000000000       0.68750000000000000        0.0000000000000000     
   1.1562500000000000       0.68750000000000000        0.0000000000000000     
   1.1875000000000000       0.68750000000000000        0.0000000000000000     
   1.2187500000000000       0.68750000000000000        0.0000000000000000     
   1.2500000000000000       0.68750000000000000        0.0000000000000000     
   1.1250000000000000       0.71875000000000000        0.0000000000000000     
   1.1562500000000000       0.71875000000000000        0.0000000000000000     
   1.1875000000000000       0.71875000000000000        0.0000000000000000     
   1.2187500000000000       0.71875000000000000        0.0000000000000000     
   1.2500000000000000       0.71875000000000000        0.0000000000000000     
   1.1250000000000000       0.75000000000000000        0.0000000000000000     
   1.1562500000000000       0.75000000000000000        0.0000000000000000     
   1.1875000000000000       0.75000000000000000        0.0000000000000000     
   1.2187500000000000       0.75000000000000000        0.0000000000000000     
   1.2500000000000000       0.75000000000000000        0.0000000000000000     
   1.2500000000000000       0.62500000000000000        0.0000000000000000     
   1.2812500000000000       0.62500000000000000        0.0000000000000000     
   1.3125000000000000       0.62500000000000000        0.0000000000000000     
   1.3437500000000000       0.62500000000000000        0.0000000000000000     
   1.3750000000000000       0.62500000000000000        0.0000000000000000     
   1.2500000000000000       0.65625000000000000        0.0000000000000000     
   1.2812500000000000       0.65625000000000000        0.0000000000000000     
   1.3125000000000000       0.65625000000000000        0.0000000000000000     
   1.3437500000000000       0.65625000000000000        0.0000000000000000     
   1.3750000000000000       0.65625000000000000        0.0000000000000000     
   1.2500000000000000       0.68750000000000000        0.0000000000000000     
   1.2812500000000000       0.68750000000000000        0.0000000000000000     
   1.3125000000000000       0.68750000000000000        0.0000000000000000     
   1.3437500000000000       0.68750000000000000        0.0000000000000000     
   1.3750000000000000       0.68750000000000000        0.0000000000000000     
   1.2500000000000000       0.71875000000000000        0.0000000000000000     
   1.2812500000000000       0.71875000000000000        0.0000000000000000     
   1.3125000000000000       0.71875000000000000        0.0000000000000000     
   1.3437500000000000       0.71875000000000000        0.0000000000000000     
   1.3750000000000000       0.71875000000000000        0.0000000000000000     
   1.2500000000000000       0.75000000000000000        0.0000000000000000     
   1.2812500000000000       0.75000000000000000        0.0000000000000000     
   1.3125000000000000       0.75000000000000000        0.0000000000000000     
   1.3437500000000000       0.75000000000000000        0.0000000000000000     
   1.3750000000000000       0.75000000000000000        0.0000000000000000     
   1.3750000000000000       0.62500000000000000        0.0000000000000000     
   1.4062500000000000       0.62500000000000000        0.0000000000000000     
   1.4375000000000000       0.62500000000000000        0.0000000000000000     
   1.4687500000000000       0.62500000000000000        0.0000000000000000     
   1.5000000000000000       0.62500000000000000        0.0000000000000000     
   1.3750000000000000       0.65625000000000000        0.0000000000000000     
   1.4062500000000000       0.65625000000000000        0.0000000000000000     
   1.4375000000000000       0.65625000000000000        0.0000000000000000     
   1.4687500000000000       0.65625000000000000        0.0000000000000000     
   1.5000000000000000       0.65625000000000000        0.0000000000000000     
   1.3750000000000000       0.68750000000000000        0.0000000000000000     
   1.4062500000000000       0.68750000000000000        0.0000000000000000     
   1.4375000000000000       0.68750000000000000        0.0000000000000000     
   1.4687500000000000       0.68750000000000000        0.0000000000000000     
   1.5000000000000000       0.68750000000000000        0.0000000000000000     
   1.3750000000000000       0.71875000000000000        0.0000000000000000     
   1.4062500000000000       0.71875000000000000        0.0000000000000000     
   1.4375000000000000       0.71875000000000000        0.0000000000000000     
   1.4687500000000000       0.71875000000000000        0.0000000000000000     
   1.5000000000000000       0.71875000000000000        0.0000000000000000     
   1.3750000000000000       0.75000000000000000        0.0000000000000000     
   1.4062500000000000       0.75000000000000000        0.0000000000000000     
   1.4375000000000000       0.75000000000000000        0.0000000000000000     
   1.4687500000000000       0.75000000000000000        0.0000000000000000     
   1.5000000000000000       0.75000000000000000        0.0000000000000000     
  0.50000000000000000       0.75000000000000000        0.0000000000000000     
  0.53125000000000000       0.75000000000000000        0.0000000000000000     
  0.56250000000000000       0.75000000000000000        0.0000000000000000     
  0.59375000000000000       0.75000000000000000        0.0000000000000000     
  0.62500000000000000       0.75000000000000000        0.0000000000000000     
  0.50000000000000000       0.78125000000000000        0.0000000000000000     
  0.53125000000000000       0.78125000000000000        0.0000000000000000     
  0.56250000000000000       0.78125000000000000        0.0000000000000000     
  0.59375000000000000       0.78125000000000000        0.0000000000000000     
  0.62500000000000000       0.78125000000000000        0.0000000000000000     
  0.50000000000000000       0.81250000000000000        0.0000000000000000     
  0.53125000000000000       0.81250000000000000        0.0000000000000000     
  0.56250000000000000       0.81250000000000000        0.0000000000000000     
  0.59375000000000000       0.81250000000000000        0.0000000000000000     
  0.62500000000000000       0.81250000000000000        0.0000000000000000     
  0.50000000000000000       0.84375000000000000        0.0000000000000000     
  0.53125000000000000       0.84375000000000000        0.0000000000000000     
  0.56250000000000000       0.84375000000000000        0.0000000000000000     
  0.59375000000000000       0.84375000000000000        0.0000000000000000     
  0.62500000000000000       0.84375000000000000        0.0000000000000000     
  0.50000000000000000       0.87500000000000000        0.0000000000000000     
  0.53125000000000000       0.87500000000000000        0.0000000000000000     
  0.56250000000000000       0.87500000000000000        0.0000000000000000     
  0.59375000000000000       0.87500000000000000        0.0000000000000000     
  0.62500000000000000       0.87500000000000000        0.0000000000000000     
  0.62500000000000000       0.75000000000000000        0.0000000000000000     
  0.65625000000000000       0.75000000000000000        0.0000000000000000     
  0.68750000000000000       0.75000000000000000        0.0000000000000000     
  0.71875000000000000       0.75000000000000000        0.0000000000000000     
  0.75000000000000000       0.75000000000000000        0.0000000000000000     
  0.62500000000000000       0.78125000000000000        0.0000000000000000     
  0.65625000000000000       0.78125000000000000        0.0000000000000000     
  0.68750000000000000       0.78125000000000000        0.0000000000000000     
  0.71875000000000000       0.78125000000000000        0.0000000000000000     
  0.75000000000000000       0.78125000000000000        0.0000000000000000     
  0.62500000000000000       0.81250000000000000        0.0000000000000000     
  0.65625000000000000       0.81250000000000000        0.0000000000000000     
  0.68750000000000000       0.81250000000000000        0.0000000000000000     
  0.71875000000000000       0.81250000000000000        0.0000000000000000     
  0.75000000000000000       0.81250000000000000        0.0000000000000000     
  0.62500000000000000       0.84375000000000000        0.0000000000000000     
  0.65625000000000000       0.84375000000000000        0.0000000000000000     
  0.68750000000000000       0.84375000000000000        0.0000000000000000     
  0.71875000000000000       0.84375000000000000        0.0000000000000000     
  0.75000000000000000       0.84375000000000000        0.0000000000000000     
  0.62500000000000000       0.87500000000000000        0.0000000000000000     
  0.65625000000000000       0.87500000000000000        0.0000000000000000     
  0.68750000000000000       0.87500000000000000        0.0000000000000000     
  0.71875000000000000       0.87500000000000000        0.0000000000000000     
  0.75000000000000000       0.87500000000000000        0.0000000000000000     
  0.75000000000000000       0.75000000000000000        0.0000000000000000     
  0.78125000000000000       0.75000000000000000        0.0000000000000000     
  0.81250000000000000       0.75000000000000000        0.0000000000000000     
  0.84375000000000000       0.75000000000000000        0.0000000000000000     
  0.87500000000000000       0.75000000000000000        0.0000000000000000     
  0.75000000000000000       0.78125000000000000        0.0000000000000000     
  0.78125000000000000       0.78125000000000000        0.0000000000000000     
  0.81250000000000000       0.78125000000000000        0.0000000000000000     
  0.84375000000000000       0.78125000000000000        0.0000000000000000     
  0.87500000000000000       0.78125000000000000        0.0000000000000000     
  0.75000000000000000       0.81250000000000000        0.0000000000000000     
  0.78125000000000000       0.81250000000000000        0.0000000000000000     
  0.81250000000000000       0.81250000000000000        0.0000000000000000     
  0.84375000000000000       0.81250000000000000        0.0000000000000000     
  0.87500000000000000       0.81250000000000000        0.0000000000000000     
  0.75000000000000000       0.84375000000000000        0.0000000000000000     
  0.78125000000000000       0.84375000000000000        0.0000000000000000     
  0.81250000000000000       0.84375000000000000        0.0000000000000000     
  0.84375000000000000       0.84375000000000000        0.0000000000000000     
  0.87500000000000000       0.84375000000000000        0.0000000000000000     
  0.75000000000000000       0.87500000000000000        0.0000000000000000     
  0.78125000000000000       0.87500000000000000        0.0000000000000000     
  0.81250000000000000       0.87500000000000000        0.0000000000000000     
  0.84375000000000000       0.87500000000000000        0.0000000000000000     
  0.87500000000000000       0.87500000000000000        0.0000000000000000     
  0.87500000000000000       0.75000000000000000        0.0000000000000000     
  0.90625000000000000       0.75000000000000000        0.0000000000000000     
  0.93750000000000000       0.75000000000000000        0.0000000000000000     
  0.96875000000000000       0.75000000000000000        0.0000000000000000     
   1.0000000000000000       0.75000000000000000        0.0000000000000000     
  0.87500000000000000       0.78125000000000000        0.0000000000000000     
  0.90625000000000000       0.78125000000000000        0.0000000000000000     
  0.93750000000000000       0.78125000000000000        0.0000000000000000     
  0.96875000000000000       0.78125000000000000        0.0000000000000000     
   1.0000000000000000       0.78125000000000000        0.0000000000000000     
  0.87500000000000000       0.81250000000000000        0.0000000000000000     
  0.90625000000000000       0.81250000000000000        0.0000000000000000     
  0.93750000000000000       0.81250000000000000        0.0000000000000000     
  0.96875000000000000       0.81250000000000000        0.0000000000000000     
   1.0000000000000000       0.81250000000000000        0.0000000000000000     
  0.87500000000000000       0.84375000000000000        0.0000000000000000     
  0.90625000000000000       0.84375000000000000        0.0000000000000000     
  0.93750000000000000       0.84375000000000000        0.0000000000000000     
  0.96875000000000000       0.84375000000000000        0.0000000000000000     
   1.0000000000000000       0.84375000000000000        0.0000000000000000     
  0.87500000000000000       0.87500000000000000        0.0000000000000000     
  0.90625000000000000       0.87500000000000000        0.0000000000000000     
  0.93750000000000000       0.87500000000000000        0.0000000000000000     
  0.96875000000000000       0.87500000000000000        0.0000000000000000     
   1.0000000000000000       0.87500000000000000        0.0000000000000000     
   1.0000000000000000       0.75000000000000000        0.0000000000000000     
   1.0312500000000000       0.75000000000000000        0.0000000000000000     
   1.0625000000000000       0.75000000000000000        0.0000000000000000     
   1.0937500000000000       0.75000000000000000        0.0000000000000000     
   1.1250000000000000       0.75000000000000000        0.0000000000000000     
   1.0000000000000000       0.78125000000000000        0.0000000000000000     
   1.0312500000000000       0.78125000000000000        0.0000000000000000     
   1.0625000000000000       0.78125000000000000        0.0000000000000000     
   1.0937500000000000       0.78125000000000000        0.0000000000000000     
   1.1250000000000000       0.78125000000000000        0.0000000000000000     
   1.0000000000000000       0.81250000000000000        0.0000000000000000     
   1.0312500000000000       0.81250000000000000        0.0000000000000000     
   1.0625000000000000       0.81250000000000000        0.0000000000000000     
   1.0937500000000000       0.81250000000000000        0.0000000000000000     
   1.1250000000000000       0.81250000000000000        0.0000000000000000     
   1.0000000000000000       0.84375000000000000        0.0000000000000000     
   1.0312500000000000       0.84375000000000000        0.0000000000000000     
   1.0625000000000000       0.84375000000000000        0.0000000000000000     
   1.0937500000000000       0.84375000000000000        0.0000000000000000     
   1.1250000000000000       0.84375000000000000        0.0000000000000000     
   1.0000000000000000       0.87500000000000000        0.0000000000000000     
   1.0312500000000000       0.87500000000000000        0.0000000000000000     
   1.0625000000000000       0.87500000000000000        0.0000000000000000     
   1.0937500000000000       0.87500000000000000        0.0000000000000000     
   1.1250000000000000       0.87500000000000000        0.0000000000000000     
   1.1250000000000000       0.75000000000000000        0.0000000000000000     
   1.1562500000000000       0.75000000000000000        0.0000000000000000     
   1.1875000000000000       0.75000000000000000        0.0000000000000000     
   1.2187500000000000       0.75000000000000000        0.0000000000000000     
   1.2500000000000000       0.75000000000000000        0.0000000000000000     
   1.1250000000000000       0.78125000000000000        0.0000000000000000     
   1.1562500000000000       0.78125000000000000        0.0000000000000000     
   1.1875000000000000       0.78125000000000000        0.0000000000000000     
   1.2187500000000000       0.78125000000000000        0.0000000000000000     
   1.2500000000000000       0.78125000000000000        0.0000000000000000     
   1.1250000000000000       0.81250000000000000        0.0000000000000000     
   1.1562500000000000       0.81250000000000000        0.0000000000000000     
   1.1875000000000000       0.81250000000000000        0.0000000000000000     
   1.2187500000000000       0.81250000000000000        0.0000000000000000     
   1.2500000000000000       0.81250000000000000        0.0000000000000000     
   1.1250000000000000       0.84375000000000000        0.0000000000000000     
   1.1562500000000000       0.84375000000000000        0.0000000000000000     
   1.1875000000000000       0.84375000000000000        0.0000000000000000     
   1.2187500000000000       0.84375000000000000        0.0000000000000000     
   1.2500000000000000       0.84375000000000000        0.0000000000000000     
   1.1250000000000000       0.87500000000000000        0.0000000000000000     
   1.1562500000000000       0.87500000000000000        0.0000000000000000     
   1.1875000000000000       0.87500000000000000        0.0000000000000000     
   1.2187500000000000       0.87500000000000000        0.0000000000000000     
   1.2500000000000000       0.87500000000000000        0.0000000000000000     
   1.2500000000000000       0.75000000000000000        0.0000000000000000     
   1.2812500000000000       0.75000000000000000        0.0000000000000000     
   1.3125000000000000       0.75000000000000000        0.0000000000000000     
   1.3437500000000000       0.75000000000000000        0.0000000000000000     
   1.3750000000000000       0.75000000000000000        0.0000000000000000     
   1.2500000000000000       0.78125000000000000        0.0000000000000000     
   1.2812500000000000       0.78125000000000000        0.0000000000000000     
   1.3125000000000000       0.78125000000000000        0.0000000000000000     
   1.3437500000000000       0.78125000000000000        0.0000000000000000     
   1.3750000000000000       0.78125000000000000        0.0000000000000000     
   1.2500000000000000       0.81250000000000000        0.0000000000000000     
   1.2812500000000000       0.81250000000000000        0.0000000000000000     
   1.3125000000000000       0.81250000000000000        0.0000000000000000     
   1.3437500000000000       0.81250000000000000        0.0000000000000000     
   1.3750000000000000       0.81250000000000000        0.0000000000000000     
   1.2500000000000000       0.84375000000000000        0.0000000000000000     
   1.2812500000000000       0.84375000000000000        0.0000000000000000     
   1.3125000000000000       0.84375000000000000        0.0000000000000000     
   1.3437500000000000       0.84375000000000000        0.0000000000000000     
   1.3750000000000000       0.84375000000000000        0.0000000000000000     
   1.2500000000000000       0.87500000000000000        0.0000000000000000     
   1.2812500000000000       0.87500000000000000        0.0000000000000000     
   1.3125000000000000       0.87500000000000000        0.0000000000000000     
   1.3437500000000000       0.87500000000000000        0.0000000000000000     
   1.3750000000000000       0.87500000000000000        0.0000000000000000     
   1.3750000000000000       0.75000000000000000        0.0000000000000000     
   1.4062500000000000       0.75000000000000000        0.0000000000000000     
   1.4375000000000000       0.75000000000000000        0.0000000000000000     
   1.4687500000000000       0.75000000000000000        0.0000000000000000     
   1.5000000000000000       0.75000000000000000        0.0000000000000000     
   1.3750000000000000       0.78125000000000000        0.0000000000000000     
   1.4062500000000000       0.78125000000000000        0.0000000000000000     
   1.4375000000000000       0.78125000000000000        0.0000000000000000     
   1.4687500000000000       0.78125000000000000        0.0000000000000000     
   1.5000000000000000       0.78125000000000000        0.0000000000000000     
   1.3750000000000000       0.81250000000000000        0.0000000000000000     
   1.4062500000000000       0.81250000000000000        0.0000000000000000     
   1.4375000000000000       0.81250000000000000        0.0000000000000000     
   1.4687500000000000       0.81250000000000000        0.0000000000000000     
   1.5000000000000000       0.81250000000000000        0.0000000000000000     
   1.3750000000000000       0.84375000000000000        0.0000000000000000     
   1.4062500000000000       0.84375000000000000        0.0000000000000000     
   1.4375000000000000       0.84375000000000000        0.0000000000000000     
   1.4687500000000000       0.84375000000000000        0.0000000000000000     
   1.5000000000000000       0.84375000000000000        0.0000000000000000     
   1.3750000000000000       0.87500000000000000        0.0000000000000000     
   1.4062500000000000       0.87500000000000000        0.0000000000000000     
   1.4375000000000000       0.87500000000000000        0.0000000000000000     
   1.4687500000000000       0.87500000000000000        0.0000000000000000     
   1.5000000000000000       0.87500000000000000        0.0000000000000000     
  0.50000000000000000       0.87500000000000000        0.0000000000000000     
  0.53125000000000000       0.87500000000000000        0.0000000000000000     
  0.56250000000000000       0.87500000000000000        0.0000000000000000     
  0.59375000000000000       0.87500000000000000        0.0000000000000000     
  0.62500000000000000       0.87500000000000000        0.0000000000000000     
  0.50000000000000000       0.90625000000000000        0.0000000000000000     
  0.53125000000000000       0.90625000000000000        0.0000000000000000     
  0.56250000000000000       0.90625000000000000        0.0000000000000000     
  0.59375000000000000       0.90625000000000000        0.0000000000000000     
  0.62500000000000000       0.90625000000000000        0.0000000000000000     
  0.50000000000000000       0.93750000000000000        0.0000000000000000     
  0.53125000000000000       0.93750000000000000        0.0000000000000000     
  0.56250000000000000       0.93750000000000000        0.0000000000000000     
  0.59375000000000000       0.93750000000000000        0.0000000000000000     
  0.62500000000000000       0.93750000000000000        0.0000000000000000     
  0.50000000000000000       0.96875000000000000        0.0000000000000000     
  0.53125000000000000       0.96875000000000000        0.0000000000000000     
  0.56250000000000000       0.96875000000000000        0.0000000000000000     
  0.59375000000000000       0.96875000000000000        0.0000000000000000     
  0.62500000000000000       0.96875000000000000        0.0000000000000000     
  0.50000000000000000        1.0000000000000000        0.0000000000000000     
  0.53125000000000000        1.0000000000000000        0.0000000000000000     
  0.56250000000000000        1.0000000000000000        0.0000000000000000     
  0.59375000000000000        1.0000000000000000        0.0000000000000000     
  0.62500000000000000        1.0000000000000000        0.0000000000000000     
  0.62500000000000000       0.87500000000000000        0.0000000000000000     
  0.65625000000000000       0.87500000000000000        0.0000000000000000     
  0.68750000000000000       0.87500000000000000        0.0000000000000000     
  0.71875000000000000       0.87500000000000000        0.0000000000000000     
  0.75000000000000000       0.87500000000000000        0.0000000000000000     
  0.62500000000000000       0.90625000000000000        0.0000000000000000     
  0.65625000000000000       0.90625000000000000        0.0000000000000000     
  0.68750000000000000       0.90625000000000000        0.0000000000000000     
  0.71875000000000000       0.90625000000000000        0.0000000000000000     
  0.75000000000000000       0.90625000000000000        0.0000000000000000     
  0.62500000000000000       0.93750000000000000        0.0000000000000000     
  0.65625000000000000       0.93750000000000000        0.0000000000000000     
  0.68750000000000000       0.93750000000000000        0.0000000000000000     
  0.71875000000000000       0.93750000000000000        0.0000000000000000     
  0.75000000000000000       0.93750000000000000        0.0000000000000000     
  0.62500000000000000       0.96875000000000000        0.0000000000000000     
  0.65625000000000000       0.96875000000000000        0.0000000000000000     
  0.68750000000000000       0.96875000000000000        0.0000000000000000     
  0.71875000000000000       0.96875000000000000        0.0000000000000000     
  0.75000000000000000       0.96875000000000000        0.0000000000000000     
  0.62500000000000000        1.0000000000000000        0.0000000000000000     
  0.65625000000000000        1.0000000000000000        0.0000000000000000     
  0.68750000000000000        1.0000000000000000        0.0000000000000000     
  0.71875000000000000        1.0000000000000000        0.0000000000000000     
  0.75000000000000000        1.0000000000000000        0.0000000000000000     
  0.75000000000000000       0.87500000000000000        0.0000000000000000     
  0.78125000000000000       0.87500000000000000        0.0000000000000000     
  0.81250000000000000       0.87500000000000000        0.0000000000000000     
  0.84375000000000000       0.87500000000000000        0.0000000000000000     
  0.87500000000000000       0.87500000000000000        0.0000000000000000     
  0.75000000000000000       0.90625000000000000        0.0000000000000000     
  0.78125000000000000       0.90625000000000000        0.0000000000000000     
  0.81250000000000000       0.90625000000000000        0.0000000000000000     
  0.84375000000000000       0.90625000000000000        0.0000000000000000     
  0.87500000000000000       0.90625000000000000        0.0000000000000000     
  0.75000000000000000       0.93750000000000000        0.0000000000000000     
  0.78125000000000000       0.93750000000000000        0.0000000000000000     
  0.81250000000000000       0.93750000000000000        0.0000000000000000     
  0.84375000000000000       0.93750000000000000        0.0000000000000000     
  0.87500000000000000       0.93750000000000000        0.0000000000000000     
  0.75000000000000000       0.96875000000000000        0.0000000000000000     
  0.78125000000000000       0.96875000000000000        0.0000000000000000     
  0.81250000000000000       0.96875000000000000        0.0000000000000000     
  0.84375000000000000       0.96875000000000000        0.0000000000000000     
  0.87500000000000000       0.96875000000000000        0.0000000000000000     
  0.75000000000000000        1.0000000000000000        0.0000000000000000     
  0.78125000000000000        1.0000000000000000        0.0000000000000000     
  0.81250000000000000        1.0000000000000000        0.0000000000000000     
  0.84375000000000000        1.0000000000000000        0.0000000000000000     
  0.87500000000000000        1.0000000000000000        0.0000000000000000     
  0.87500000000000000       0.87500000000000000        0.0000000000000000     
  0.90625000000000000       0.87500000000000000        0.0000000000000000     
  0.93750000000000000       0.87500000000000000        0.0000000000000000     
  0.96875000000000000       0.87500000000000000        0.0000000000000000     
   1.0000000000000000       0.87500000000000000        0.0000000000000000     
  0.87500000000000000       0.90625000000000000        0.0000000000000000     
  0.90625000000000000       0.90625000000000000        0.0000000000000000     
  0.93750000000000000       0.90625000000000000        0.0000000000000000     
  0.96875000000000000       0.90625000000000000        0.0000000000000000     
   1.0000000000000000       0.90625000000000000        0.0000000000000000     
  0.87500000000000000       0.93750000000000000        0.0000000000000000     
  0.90625000000000000       0.93750000000000000        0.0000000000000000     
  0.93750000000000000       0.93750000000000000        0.0000000000000000     
  0.96875000000000000       0.93750000000000000        0.0000000000000000     
   1.0000000000000000       0.93750000000000000        0.0000000000000000     
  0.87500000000000000       0.96875000000000000        0.0000000000000000     
  0.90625000000000000       0.96875000000000000        0.0000000000000000     
  0.93750000000000000       0.96875000000000000        0.0000000000000000     
  0.96875000000000000       0.96875000000000000        0.0000000000000000     
   1.0000000000000000       0.96875000000000000        0.0000000000000000     
  0.87500000000000000        1.0000000000000000        0.0000000000000000     
  0.90625000000000000        1.0000000000000000        0.0000000000000000     
  0.93750000000000000        1.0000000000000000        0.0000000000000000     
  0.96875000000000000        1.0000000000000000        0.0000000000000000     
   1.0000000000000000        1.0000000000000000        0.0000000000000000     
   1.0000000000000000       0.87500000000000000        0.0000000000000000     
   1.0312500000000000       0.87500000000000000        0.0000000000000000     
   1.0625000000000000       0.87500000000000000        0.0000000000000000     
   1.0937500000000000       0.87500000000000000        0.0000000000000000     
   1.1250000000000000       0.87500000000000000        0.0000000000000000     
   1.0000000000000000       0.90625000000000000        0.0000000000000000     
   1.0312500000000000       0.90625000000000000        0.0000000000000000     
   1.0625000000000000       0.90625000000000000        0.0000000000000000     
   1.0937500000000000       0.90625000000000000        0.0000000000000000     
   1.1250000000000000       0.90625000000000000        0.0000000000000000     
   1.0000000000000000       0.93750000000000000        0.0000000000000000     
   1.0312500000000000       0.93750000000000000        0.0000000000000000     
   1.0625000000000000       0.93750000000000000        0.0000000000000000     
   1.0937500000000000       0.93750000000000000        0.0000000000000000     
   1.1250000000000000       0.93750000000000000        0.0000000000000000     
   1.0000000000000000       0.96875000000000000        0.0000000000000000     
   1.0312500000000000       0.96875000000000000        0.0000000000000000     
   1.0625000000000000       0.96875000000000000        0.0000000000000000     
   1.0937500000000000       0.96875000000000000        0.0000000000000000     
   1.1250000000000000       0.96875000000000000        0.0000000000000000     
   1.0000000000000000        1.0000000000000000        0.0000000000000000     
   1.0312500000000000        1.0000000000000000        0.0000000000000000     
   1.0625000000000000        1.0000000000000000        0.0000000000000000     
   1.0937500000000000        1.0000000000000000        0.0000000000000000     
   1.1250000000000000        1.0000000000000000        0.0000000000000000     
   1.1250000000000000       0.87500000000000000        0.0000000000000000     
   1.1562500000000000       0.87500000000000000        0.0000000000000000     
   1.1875000000000000       0.87500000000000000        0.0000000000000000     
   1.2187500000000000       0.87500000000000000        0.0000000000000000     
   1.2500000000000000       0.87500000000000000        0.0000000000000000     
   1.1250000000000000       0.90625000000000000        0.0000000000000000     
   1.1562500000000000       0.90625000000000000        0.0000000000000000     
   1.1875000000000000       0.90625000000000000        0.0000000000000000     
   1.2187500000000000       0.90625000000000000        0.0000000000000000     
   1.2500000000000000       0.90625000000000000        0.0000000000000000     
   1.1250000000000000       0.93750000000000000        0.0000000000000000     
   1.1562500000000000       0.93750000000000000        0.0000000000000000     
   1.1875000000000000       0.93750000000000000        0.0000000000000000     
   1.2187500000000000       0.93750000000000000        0.0000000000000000     
   1.2500000000000000       0.93750000000000000        0.0000000000000000     
   1.1250000000000000       0.96875000000000000        0.0000000000000000     
   1.1562500000000000       0.96875000000000000        0.0000000000000000     
   1.1875000000000000       0.96875000000000000        0.0000000000000000     
   1.2187500000000000       0.96875000000000000        0.0000000000000000     
   1.2500000000000000       0.96875000000000000        0.0000000000000000     
   1.1250000000000000        1.0000000000000000        0.0000000000000000     
   1.1562500000000000        1.0000000000000000        0.0000000000000000     
   1.1875000000000000        1.0000000000000000        0.0000000000000000     
   1.2187500000000000        1.0000000000000000        0.0000000000000000     
   1.2500000000000000        1.0000000000000000        0.0000000000000000     
   1.2500000000000000       0.87500000000000000        0.0000000000000000     
   1.2812500000000000       0.87500000000000000        0.0000000000000000     
   1.3125000000000000       0.87500000000000000        0.0000000000000000     
   1.3437500000000000       0.87500000000000000        0.0000000000000000     
   1.3750000000000000       0.87500000000000000        0.0000000000000000     
   1.2500000000000000       0.90625000000000000        0.0000000000000000     
   1.2812500000000000       0.90625000000000000        0.0000000000000000     
   1.3125000000000000       0.90625000000000000        0.0000000000000000     
   1.3437500000000000       0.90625000000000000        0.0000000000000000     
   1.3750000000000000       0.90625000000000000        0.0000000000000000     
   1.2500000000000000       0.93750000000000000        0.0000000000000000     
   1.2812500000000000       0.93750000000000000        0.0000000000000000     
   1.3125000000000000       0.93750000000000000        0.0000000000000000     
   1.3437500000000000       0.93750000000000000        0.0000000000000000     
   1.3750000000000000       0.93750000000000000        0.0000000000000000     
   1.2500000000000000       0.96875000000000000        0.0000000000000000     
   1.2812500000000000       0.96875000000000000        0.0000000000000000     
   1.3125000000000000       0.96875000000000000        0.0000000000000000     
   1.3437500000000000       0.96875000000000000        0.0000000000000000     
   1.3750000000000000       0.96875000000000000        0.0000000000000000     
   1.2500000000000000        1.0000000000000000        0.0000000000000000     
   1.2812500000000000        1.0000000000000000        0.0000000000000000     
   1.3125000000000000        1.0000000000000000        0.0000000000000000     
   1.3437500000000000        1.0000000000000000        0.0000000000000000     
   1.3750000000000000        1.0000000000000000        0.0000000000000000     
   1.3750000000000000       0.87500000000000000        0.0000000000000000     
   1.4062500000000000       0.87500000000000000        0.0000000000000000     
   1.4375000000000000       0.87500000000000000        0.0000000000000000     
   1.4687500000000000       0.87500000000000000        0.0000000000000000     
   1.5000000000000000       0.87500000000000000        0.0000000000000000     
   1.3750000000000000       0.90625000000000000        0.0000000000000000     
   1.4062500000000000       0.90625000000000000        0.0000000000000000     
   1.4375000000000000       0.90625000000000000        0.0000000000000000     
   1.4687500000000000       0.90625000000000000        0.0000000000000000     
   1.5000000000000000       0.90625000000000000        0.0000000000000000     
   1.3750000000000000       0.93750000000000000        0.0000000000000000     
   1.4062500000000000       0.93750000000000000        0.0000000000000000     
   1.4375000000000000       0.93750000000000000        0.0000000000000000     
   1.4687500000000000       0.93750000000000000        0.0000000000000000     
   1.5000000000000000       0.93750000000000000        0.0000000000000000     
   1.3750000000000000       0.96875000000000000        0.0000000000000000     
   1.4062500000000000       0.96875000000000000        0.0000000000000000     
   1.4375000000000000       0.96875000000000000        0.0000000000000000     
   1.4687500000000000       0.96875000000000000        0.0000000000000000     
   1.5000000000000000       0.96875000000000000        0.0000000000000000     
   1.3750000000000000        1.0000000000000000        0.0000000000000000     
   1.4062500000000000        1.0000000000000000        0.0000000000000000     
   1.4375000000000000        1.0000000000000000        0.0000000000000000     
   1.4687500000000000        1.0000000000000000        0.0000000000000000     
   1.5000000000000000        1.0000000000000000        0.0000000000000000     
 </DataArray>
 </Points>
 <Cells>
 <DataArray  type="Int32"  Name="connectivity"  format="ascii">
           0           1           6           5
           1           2           7           6
           2           3           8           7
           3           4           9           8
           5           6          11          10
           6           7          12          11
           7           8          13          12
           8           9          14          13
          10          11          16          15
          11          12          17          16
          12          13          18          17
          13          14          19          18
          15          16          21          20
          16          17          22          21
          17          18          23          22
          18          19          24          23
          25          26          31          30
          26          27          32          31
          27          28          33          32
          28          29          34          33
          30          31          36          35
          31          32          37          36
          32          33          38          37
          33          34          39          38
          35          36          41          40
          36          37          42          41
          37          38          43          42
          38          39          44          43
          40          41          46          45
          41          42          47          46
          42          43          48          47
          43          44          49          48
          50          51          56          55
          51          52          57          56
          52          53          58          57
          53          54          59          58
          55          56          61          60
          56          57          62          61
          57          58          63          62
          58          59          64          63
          60          61          66          65
          61          62          67          66
          62          63          68          67
          63          64          69          68
          65          66          71          70
          66          67          72          71
          67          68          73          72
          68          69          74          73
          75          76          81          80
          76          77          82          81
          77          78          83          82
          78          79          84          83
          80          81          86          85
          81          82          87          86
          82          83          88          87
          83          84          89          88
          85          86          91          90
          86          87          92          91
          87          88          93          92
          88          89          94          93
          90          91          96          95
          91          92          97          96
          92          93          98          97
          93          94          99          98
         100         101         106         105
         101         102         107         106
         102         103         108         107
         103         104         109         108
         105         106         111         110
         106         107         112         111
         107         108         113         112
         108         109         114         113
         110         111         116         115
         111         112         117         116
         112         113         118         117
         113         114         119         118
         115         116         121         120
         116         117         122         121
         117         118         123         122
         118         119         124         123
         125         126         131         130
         126         127         132         131
         127         128         133         132
         128         129         134         133
         130         131         136         135
         131         132         137         136
         132         133         138         137
         133         134         139         138
         135         136         141         140
         136         137         142         141
         137         138         143         142
         138         139         144         143
         140         141         146         145
         141         142         147         146
         142         143         148         147
         143         144         149         148
         150         151         156         155
         151         152         157         156
         152         153         158         157
         153         154         159         158
         155         156         161         160
         156         157         162         161
         157         158         163         162
         158         159         164         163
         160         161         166         165
         161         162         167         166
         162         163         168         167
         163         164         169         168
         165         166         171         170
         166         167         172         171
         167         168         173         172
         168         169         174         173
         175         176         181         180
         176         177         182         181
         177         178         183         182
         178         179         184         183
         180         181         186         185
         181         182         187         186
         182         183         188         187
         183         184         189         188
         185         186         191         190
         186         187         192         191
         187         188         193         192
         188         189         194         193
         190         191         196         195
         191         192         197         196
         192         193         198         197
         193         194         199         198
         200         201         206         205
         201         202         207         206
         202         203         208         207
         203         204         209         208
         205         206         211         210
         206         207         212         211
         207         208         213         212
         208         209         214         213
         210         211         216         215
         211         212         217         216
         212         213         218         217
         213         214         219         218
         215         216         221         220
         216         217         222         221
         217         218         223         222
         218         219         224         223
         225         226         231         230
         226         227         232         231
         227         228         233         232
         228         229         234         233
         230         231         236         235
         231         232         237         236
         232         233         238         237
         233         234         239         238
         235         236         241         240
         236         237         242         241
         237         238         243         242
         238         239         244         243
         240         241         246         245
         241         242         247         246
         242         243         248         247
         243         244         249         248
         250         251         256         255
         251         252         257         256
         252         253         258         257
         253         254         259         258
         255         256         261         260
         256         257         262         261
         257         258         263         262
         258         259         264         263
         260         261         266         265
         261         262         267         266
         262         263         268         267
         263         264         269         268
         265         266         271         270
         266         267         272         271
         267         268         273         272
         268         269         274         273
         275         276         281         280
         276         277         282         281
         277         278         283         282
         278         279         284         283
         280         281         286         285
         281         282         287         286
         282         283         288         287
         283         284         289         288
         285         286         291         290
         286         287         292         291
         287         288         293         292
         288         289         294         293
         290         291         296         295
         291         292         297         296
         292         293         298         297
         293         294         299         298
         300         301         306         305
         301         302         307         306
         302         303         308         307
         303         304         309         308
         305         306         311         310
         306         307         312         311
         307         308         313         312
         308         309         314         313
         310         311         316         315
         311         312         317         316
         312         313         318         317
         313         314         319         318
         315         316         321         320
         316         317         322         321
         317         318         323         322
         318         319         324         323
         325         326         331         330
         326         327         332         331
         327         328         333         332
         328         329         334         333
         330         331         336         335
         331         332         337         336
         332         333         338         337
         333         334         339         338
         335         336         341         340
         336         337         342         341
         337         338         343         342
         338         339         344         343
         340         341         346         345
         341         342         347         346
         342         343         348         347
         343         344         349         348
         350         351         356         355
         351         352         357         356
         352         353         358         357
         353         354         359         358
         355         356         361         360
         356         357         362         361
         357         358         363         362
         358         359         364         363
         360         361         366         365
         361         362         367         366
         362         363         368         367
         363         364         369         368
         365         366         371         370
         366         367         372         371
         367         368         373         372
         368         369         374         373
         375         376         381         380
         376         377         382         381
         377         378         383         382
         378         379         384         383
         380         381         386         385
         381         382         387         386
         382         383         388         387
         383         384         389         388
         385         386         391         390
         386         387         392         391
         387         388         393         392
         388         389         394         393
         390         391         396         395
         391         392         397         396
         392         393         398         397
         393         394         399         398
         400         401         406         405
         401         402         407         406
         402         403         408         407
         403         404         409         408
         405         406         411         410
         406         407         412         411
         407         408         413         412
         408         409         414         413
         410         411         416         415
         411         412         417         416
         412         413         418         417
         413         414         419         418
         415         416         421         420
         416         417         422         421
         417         418         423         422
         418         419         424         423
         425         426         431         430
         426         427         432         431
         427         428         433         432
         428         429         434         433
         430         431         436         435
         431         432         437         436
         432         433         438         437
         433         434         439         438
         435         436         441         440
         436         437         442         441
         437         438         443         442
         438         439         444         443
         440         441         446         445
         441         442         447         446
         442         443         448         447
         443         444         449         448
         450         451         456         455
         451         452         457         456
         452         453         458         457
         453         454         459         458
         455         456         461         460
         456         457         462         461
         457         458         463         462
         458         459         464         463
         460         461         466         465
         461         462         467         466
         462         463         468         467
         463         464         469         468
         465         466         471         470
         466         467         472         471
         467         468         473         472
         468         469         474         473
         475         476         481         480
         476         477         482         481
         477         478         483         482
         478         479         484         483
         480         481         486         485
         481         482         487         486
         482         483         488         487
         483         484         489         488
         485         486         491         490
         486         487         492         491
         487         488         493         492
         488         489         494         493
         490         491         496         495
         491         492         497         496
         492         493         498         497
         493         494         499         498
         500         501         506         505
         501         502         507         506
         502         503         508         507
         503         504         509         508
         505         506         511         510
         506         507         512         511
         507         508         513         512
         508         509         514         513
         510         511         516         515
         511         512         517         516
         512         513         518         517
         513         514         519         518
         515         516         521         520
         516         517         522         521
         517         518         523         522
         518         519         524         523
         525         526         531         530
         526         527         532         531
         527         528         533         532
         528         529         534         533
         530         531         536         535
         531         532         537         536
         532         533         538         537
         533         534         539         538
         535         536         541         540
         536         537         542         541
         537         538         543         542
         538         539         544         543
         540         541         546         545
         541         542         547         546
         542         543         548         547
         543         544         549         548
         550         551         556         555
         551         552         557         556
         552         553         558         557
         553         554         559         558
         555         556         561         560
         556         557         562         561
         557         558         563         562
         558         559         564         563
         560         561         566         565
         561         562         567         566
         562         563         568         567
         563         564         569         568
         565         566         571         570
         566         567         572         571
         567         568         573         572
         568         569         574         573
         575         576         581         580
         576         577         582         581
         577         578         583         582
         578         579         584         583
         580         581         586         585
         581         582         587         586
         582         583         588         587
         583         584         589         588
         585         586         591         590
         586         587         592         591
         587         588         593         592
         588         589         594         593
         590         591         596         595
         591         592         597         596
         592         593         598         597
         593         594         599         598
         600         601         606         605
         601         602         607         606
         602         603         608         607
         603         604         609         608
         605         606         611         610
         606         607         612         611
         607         608         613         612
         608         609         614         613
         610         611         616         615
         611         612         617         616
         612         613         618         617
         613         614         619         618
         615         616         621         620
         616         617         622         621
         617         618         623         622
         618         619         624         623
         625         626         631         630
         626         627         632         631
         627         628         633         632
         628         629         634         633
         630         631         636         635
         631         632         637         636
         632         633         638         637
         633         634         639         638
         635         636         641         640
         636         637         642         641
         637         638         643         642
         638         639         644         643
         640         641         646         645
         641         642         647         646
         642         643         648         647
         643         644         649         648
         650         651         656         655
         651         652         657         656
         652         653         658         657
         653         654         659         658
         655         656         661         660
         656         657         662         661
         657         658         663         662
         658         659         664         663
         660         661         666         665
         661         662         667         666
         662         663         668         667
         663         664         669         668
         665         666         671         670
         666         667         672         671
         667         668         673         672
         668         669         674         673
         675         676         681         680
         676         677         682         681
         677         678         683         682
         678         679         684         683
         680         681         686         685
         681         682         687         686
         682         683         688         687
         683         684         689         688
         685         686         691         690
         686         687         692         691
         687         688         693         692
         688         689         694         693
         690         691         696         695
         691         692         697         696
         692         693         698         697
         693         694         699         698
         700         701         706         705
         701         702         707         706
         702         703         708         707
         703         704         709         708
         705         706         711         710
         706         707         712         711
         707         708         713         712
         708         709         714         713
         710         711         716         715
         711         712         717         716
         712         713         718         717
         713         714         719         718
         715         716         721         720
         716         717         722         721
         717         718         723         722
         718         719         724         723
         725         726         731         730
         726         727         732         731
         727         728         733         732
         728         729         734         733
         730         731         736         735
         731         732         737         736
         732         733         738         737
         733         734         739         738
         735         736         741         740
         736         737         742         741
         737         738         743         742
         738         739         744         743
         740         741         746         745
         741         742         747         746
         742         743         748         747
         743         744         749         748
         750         751         756         755
         751         752         757         756
         752         753         758         757
         753         754         759         758
         755         756         761         760
         756         757         762         761
         757         758         763         762
         758         759         764         763
         760         761         766         765
         761         762         767         766
         762         763         768         767
         763         764         769         768
         765         766         771         770
         766         767         772         771
         767         768         773         772
         768         769         774         773
         775         776         781         780
         776         777         782         781
         777         778         783         782
         778         779         784         783
         780         781         786         785
         781         782         787         786
         782         783         788         787
         783         784         789         788
         785         786         791         790
         786         787         792         791
         787         788         793         792
         788         789         794         793
         790         791         796         795
         791         792         797         796
         792         793         798         797
         793         794         799         798
         800         801         806         805
         801         802         807         806
         802         803         808         807
         803         804         809         808
         805         806         811         810
         806         807         812         811
         807         808         813         812
         808         809         814         813
         810         811         816         815
         811         812         817         816
         812         813         818         817
         813         814         819         818
         815         816         821         820
         816         817         822         821
         817         818         823         822
         818         819         824         823
         825         826         831         830
         826         827         832         831
         827         828         833         832
         828         829         834         833
         830         831         836         835
         831         832         837         836
         832         833         838         837
         833         834         839         838
         835         836         841         840
         836         837         842         841
         837         838         843         842
         838         839         844         843
         840         841         846         845
         841         842         847         846
         842         843         848         847
         843         844         849         848
         850         851         856         855
         851         852         857         856
         852         853         858         857
         853         854         859         858
         855         856         861         860
         856         857         862         861
         857         858         863         862
         858         859         864         863
         860         861         866         865
         861         862         867         866
         862         863         868         867
         863         864         869         868
         865         866         871         870
         866         867         872         871
         867         868         873         872
         868         869         874         873
         875         876         881         880
         876         877         882         881
         877         878         883         882
         878         879         884         883
         880         881         886         885
         881         882         887         886
         882         883         888         887
         883         884         889         888
         885         886         891         890
         886         887         892         891
         887         888         893         892
         888         889         894         893
         890         891         896         895
         891         892         897         896
         892         893         898         897
         893         894         899         898
         900         901         906         905
         901         902         907         906
         902         903         908         907
         903         904         909         908
         905         906         911         910
         906         907         912         911
         907         908         913         912
         908         909         914         913
         910         911         916         915
         911         912         917         916
         912         913         918         917
         913         914         919         918
         915         916         921         920
         916         917         922         921
         917         918         923         922
         918         919         924         923
         925         926         931         930
         926         927         932         931
         927         928         933         932
         928         929         934         933
         930         931         936         935
         931         932         937         936
         932         933         938         937
         933         934         939         938
         935         936         941         940
         936         937         942         941
         937         938         943         942
         938         939         944         943
         940         941         946         945
         941         942         947         946
         942         943         948         947
         943         944         949         948
         950         951         956         955
         951         952         957         956
         952         953         958         957
         953         954         959         958
         955         956         961         960
         956         957         962         961
         957         958         963         962
         958         959         964         963
         960         961         966         965
         961         962         967         966
         962         963         968         967
         963         964         969         968
         965         966         971         970
         966         967         972         971
         967         968         973         972
         968         969         974         973
         975         976         981         980
         976         977         982         981
         977         978         983         982
         978         979         984         983
         980         981         986         985
         981         982         987         986
         982         983         988         987
         983         984         989         988
         985         986         991         990
         986         987         992         991
         987         988         993         992
         988         989         994         993
         990         991         996         995
         991         992         997         996
         992         993         998         997
         993         994         999         998
        1000        1001        1006        1005
        1001        1002        1007        1006
        1002        1003        1008        1007
        1003        1004        1009        1008
        1005        1006        1011        1010
        1006        1007        1012        1011
        1007        1008        1013        1012
        1008        1009        1014        1013
        1010        1011        1016        1015
        1011        1012        1017        1016
        1012        1013        1018        1017
        1013        1014        1019        1018
        1015        1016        1021        1020
        1016        1017        1022        1021
        1017        1018        1023        1022
        1018        1019        1024        1023
        1025        1026        1031        1030
        1026        1027        1032        1031
        1027        1028        1033        1032
        1028        1029        1034        1033
        1030        1031        1036        1035
        1031        1032        1037        1036
        1032        1033        1038        1037
        1033        1034        1039        1038
        1035        1036        1041        1040
        1036        1037        1042        1041
        1037        1038        1043        1042
        1038        1039        1044        1043
        1040        1041        1046        1045
        1041        1042        1047        1046
        1042        1043        1048        1047
        1043        1044        1049        1048
        1050        1051        1056        1055
        1051        1052        1057        1056
        1052        1053        1058        1057
        1053        1054        1059        1058
        1055        1056        1061        1060
        1056        1057        1062        1061
        1057        1058        1063        1062
        1058        1059        1064        1063
        1060        1061        1066        1065
        1061        1062        1067        1066
        1062        1063        1068        1067
        1063        1064        1069        1068
        1065        1066        1071        1070
        1066        1067        1072        1071
        1067        1068        1073        1072
        1068        1069        1074        1073
        1075        1076        1081        1080
        1076        1077        1082        1081
        1077        1078        1083        1082
        1078        1079        1084        1083
        1080        1081        1086        1085
        1081        1082        1087        1086
        1082        1083        1088        1087
        1083        1084        1089        1088
        1085        1086        1091        1090
        1086        1087        1092        1091
        1087        1088        1093        1092
        1088        1089        1094        1093
        1090        1091        1096        1095
        1091        1092        1097        1096
        1092        1093        1098        1097
        1093        1094        1099        1098
        1100        1101        1106        1105
        1101        1102        1107        1106
        1102        1103        1108        1107
        1103        1104        1109        1108
        1105        1106        1111        1110
        1106        1107        1112        1111
        1107        1108        1113        1112
        1108        1109        1114        1113
        1110        1111        1116        1115
        1111        1112        1117        1116
        1112        1113        1118        1117
        1113        1114        1119        1118
        1115        1116        1121        1120
        1116        1117        1122        1121
        1117        1118        1123        1122
        1118        1119        1124        1123
        1125        1126        1131        1130
        1126        1127        1132        1131
        1127        1128        1133        1132
        1128        1129        1134        1133
        1130        1131        1136        1135
        1131        1132        1137        1136
        1132        1133        1138        1137
        1133        1134        1139        1138
        1135        1136        1141        1140
        1136        1137        1142        1141
        1137        1138        1143        1142
        1138        1139        1144        1143
        1140        1141        1146        1145
        1141        1142        1147        1146
        1142        1143        1148        1147
        1143        1144        1149        1148
        1150        1151        1156        1155
        1151        1152        1157        1156
        1152        1153        1158        1157
        1153        1154        1159        1158
        1155        1156        1161        1160
        1156        1157        1162        1161
        1157        1158        1163        1162
        1158        1159        1164        1163
        1160        1161        1166        1165
        1161        1162        1167        1166
        1162        1163        1168        1167
        1163        1164        1169        1168
        1165        1166        1171        1170
        1166        1167        1172        1171
        1167        1168        1173        1172
        1168        1169        1174        1173
        1175        1176        1181        1180
        1176        1177        1182        1181
        1177        1178        1183        1182
        1178        1179        1184        1183
        1180        1181        1186        1185
        1181        1182        1187        1186
        1182        1183        1188        1187
        1183        1184        1189        1188
        1185        1186        1191        1190
        1186        1187        1192        1191
        1187        1188        1193        1192
        1188        1189        1194        1193
        1190        1191        1196        1195
        1191        1192        1197        1196
        1192        1193        1198        1197
        1193        1194        1199        1198
        1200        1201        1206        1205
        1201        1202        1207        1206
        1202        1203        1208        1207
        1203        1204        1209        1208
        1205        1206        1211        1210
        1206        1207        1212        1211
        1207        1208        1213        1212
        1208        1209        1214        1213
        1210        1211        1216        1215
        1211        1212        1217        1216
        1212        1213        1218        1217
        1213        1214        1219        1218
        1215        1216        1221        1220
        1216        1217        1222        1221
        1217        1218        1223        1222
        1218        1219        1224        1223
        1225        1226        1231        1230
        1226        1227        1232        1231
        1227        1228        1233        1232
        1228        1229        1234        1233
        1230        1231        1236        1235
        1231        1232        1237        1236
        1232        1233        1238        1237
        1233        1234        1239        1238
        1235        1236        1241        1240
        1236        1237        1242        1241
        1237        1238        1243        1242
        1238        1239        1244        1243
        1240        1241        1246        1245
        1241        1242        1247        1246
        1242        1243        1248        1247
        1243        1244        1249        1248
        1250        1251        1256        1255
        1251        1252        1257        1256
        1252        1253        1258        1257
        1253        1254        1259        1258
        1255        1256        1261        1260
        1256        1257        1262        1261
        1257        1258        1263        1262
        1258        1259        1264        1263
        1260        1261        1266        1265
        1261        1262        1267        1266
        1262        1263        1268        1267
        1263        1264        1269        1268
        1265        1266        1271        1270
        1266        1267        1272        1271
        1267        1268        1273        1272
        1268        1269        1274        1273
        1275        1276        1281        1280
        1276        1277        1282        1281
        1277        1278        1283        1282
        1278        1279        1284        1283
        1280        1281        1286        1285
        1281        1282        1287        1286
        1282        1283        1288        1287
        1283        1284        1289        1288
        1285        1286        1291        1290
        1286        1287        1292        1291
        1287        1288        1293        1292
        1288        1289        1294        1293
        1290        1291        1296        1295
        1291        1292        1297        1296
        1292        1293        1298        1297
        1293        1294        1299        1298
        1300        1301        1306        1305
        1301        1302        1307        1306
        1302        1303        1308        1307
        1303        1304        1309        1308
        1305        1306        1311        1310
        1306        1307        1312        1311
        1307        1308        1313        1312
        1308        1309        1314        1313
        1310        1311        1316        1315
        1311        1312        1317        1316
        1312        1313        1318        1317
        1313        1314        1319        1318
        1315        1316        1321        1320
        1316        1317        1322        1321
        1317        1318        1323        1322
        1318        1319        1324        1323
        1325        1326        1331        1330
        1326        1327        1332        1331
        1327        1328        1333        1332
        1328        1329        1334        1333
        1330        1331        1336        1335
        1331        1332        1337        1336
        1332        1333        1338        1337
        1333        1334        1339        1338
        1335        1336        1341        1340
        1336        1337        1342        1341
        1337        1338        1343        1342
        1338        1339        1344        1343
        1340        1341        1346        1345
        1341        1342        1347        1346
        1342        1343        1348        1347
        1343        1344        1349        1348
        1350        1351        1356        1355
        1351        1352        1357        1356
        1352        1353        1358        1357
        1353        1354        1359        1358
        1355        1356        1361        1360
        1356        1357        1362        1361
        1357        1358        1363        1362
        1358        1359        1364        1363
        1360        1361        1366        1365
        1361        1362        1367        1366
        1362        1363        1368        1367
        1363        1364        1369        1368
        1365        1366        1371        1370
        1366        1367        1372        1371
        1367        1368        1373        1372
        1368        1369        1374        1373
        1375        1376        1381        1380
        1376        1377        1382        1381
        1377        1378        1383        1382
        1378        1379        1384        1383
        1380        1381        1386        1385
        1381        1382        1387        1386
        1382        1383        1388        1387
        1383        1384        1389        1388
        1385        1386        1391        1390
        1386        1387        1392        1391
        1387        1388        1393        1392
        1388        1389        1394        1393
        1390        1391        1396        1395
        1391        1392        1397        1396
        1392        1393        1398        1397
        1393        1394        1399        1398
        1400        1401        1406        1405
        1401        1402        1407        1406
        1402        1403        1408        1407
        1403        1404        1409        1408
        1405        1406        1411        1410
        1406        1407        1412        1411
        1407        1408        1413        1412
        1408        1409        1414        1413
        1410        1411        1416        1415
        1411        1412        1417        1416
        1412        1413        1418        1417
        1413        1414        1419        1418
        1415        1416        1421        1420
        1416        1417        1422        1421
        1417        1418        1423        1422
        1418        1419        1424        1423
        1425        1426        1431        1430
        1426        1427        1432        1431
        1427        1428        1433        1432
        1428        1429        1434        1433
        1430        1431        1436        1435
        1431        1432        1437        1436
        1432        1433        1438        1437
        1433        1434        1439        1438
        1435        1436        1441        1440
        1436        1437        1442        1441
        1437        1438        1443        1442
        1438        1439        1444        1443
        1440        1441        1446        1445
        1441        1442        1447        1446
        1442        1443        1448        1447
        1443        1444        1449        1448
        1450        1451        1456        1455
        1451        1452        1457        1456
        1452        1453        1458        1457
        1453        1454        1459        1458
        1455        1456        1461        1460
        1456        1457        1462        1461
        1457        1458        1463        1462
        1458        1459        1464        1463
        1460        1461        1466        1465
        1461        1462        1467        1466
        1462        1463        1468        1467
        1463        1464        1469        1468
        1465        1466        1471        1470
        1466        1467        1472        1471
        1467        1468        1473        1472
        1468        1469        1474        1473
        1475        1476        1481        1480
        1476        1477        1482        1481
        1477        1478        1483        1482
        1478        1479        1484        1483
        1480        1481        1486        1485
        1481        1482        1487        1486
        1482        1483        1488        1487
        1483        1484        1489        1488
        1485        1486        1491        1490
        1486        1487        1492        1491
        1487        1488        1493        1492
        1488        1489        1494        1493
        1490        1491        1496        1495
        1491        1492        1497        1496
        1492        1493        1498        1497
        1493        1494        1499        1498
        1500        1501        1506        1505
        1501        1502        1507        1506
        1502        1503        1508        1507
        1503        1504        1509        1508
        1505        1506        1511        1510
        1506        1507        1512        1511
        1507        1508        1513        1512
        1508        1509        1514        1513
        1510        1511        1516        1515
        1511        1512        1517        1516
        1512        1513        1518        1517
        1513        1514        1519        1518
        1515        1516        1521        1520
        1516        1517        1522        1521
        1517        1518        1523        1522
        1518        1519        1524        1523
        1525        1526        1531        1530
        1526        1527        1532        1531
        1527        1528        1533        1532
        1528        1529        1534        1533
        1530        1531        1536        1535
        1531        1532        1537        1536
        1532        1533        1538        1537
        1533        1534        1539        1538
        1535        1536        1541        1540
        1536        1537        1542        1541
        1537        1538        1543        1542
        1538        1539        1544        1543
        1540        1541        1546        1545
        1541        1542        1547        1546
        1542        1543        1548        1547
        1543        1544        1549        1548
        1550        1551        1556        1555
        1551        1552        1557        1556
        1552        1553        1558        1557
        1553        1554        1559        1558
        1555        1556        1561        1560
        1556        1557        1562        1561
        1557        1558        1563        1562
        1558        1559        1564        1563
        1560        1561        1566        1565
        1561        1562        1567        1566
        1562        1563        1568        1567
        1563        1564        1569        1568
        1565        1566        1571        1570
        1566        1567        1572        1571
        1567        1568        1573        1572
        1568        1569        1574        1573
        1575        1576        1581        1580
        1576        1577        1582        1581
        1577        1578        1583        1582
        1578        1579        1584        1583
        1580        1581        1586        1585
        1581        1582        1587        1586
        1582        1583        1588        1587
        1583        1584        1589        1588
        1585        1586        1591        1590
        1586        1587        1592        1591
        1587        1588        1593        1592
        1588        1589        1594        1593
        1590        1591        1596        1595
        1591        1592        1597        1596
        1592        1593        1598        1597
        1593        1594        1599        1598
 </DataArray>
 <DataArray  type="Int32"  Name="offsets"  format="ascii"> 
           4
           8
          12
          16
          20
          24
          28
          32
          36
          40
          44
          48
          52
          56
          60
          64
          68
          72
          76
          80
          84
          88
          92
          96
         100
         104
         108
         112
         116
         120
         124
         128
         132
         136
         140
         144
         148
         152
         156
         160
         164
         168
         172
         176
         180
         184
         188
         192
         196
         200
         204
         208
         212
         216
         220
         224
         228
         232
         236
         240
         244
         248
         252
         256
         260
         264
         268
         272
         276
         280
         284
         288
         292
         296
         300
         304
         308
         312
         316
         320
         324
         328
         332
         336
         340
         344
         348
         352
         356
         360
         364
         368
         372
         376
         380
         384
         388
         392
         396
         400
         404
         408
         412
         416
         420
         424
         428
         432
         436
         440
         444
         448
         452
         456
         460
         464
         468
         472
         476
         480
         484
         488
         492
         496
         500
         504
         508
         512
         516
         520
         524
         528
         532
         536
         540
         544
         548
         552
         556
         560
         564
         568
         572
         576
         580
         584
         588
         592
         596
         600
         604
         608
         612
         616
         620
         624
         628
         632
         636
         640
         644
         648
         652
         656
         660
         664
         668
         672
         676
         680
         684
         688
         692
         696
         700
         704
         708
         712
         716
         720
         724
         728
         732
         736
         740
         744
         748
         752
         756
         760
         764
         768
         772
         776
         780
         784
         788
         792
         796
         800
         804
         808
         812
         816
         820
         824
         828
         832
         836
         840
         844
         848
         852
         856
         860
         864
         868
         872
         876
         880
         884
         888
         892
         896
         900
         904
         908
         912
         916
         920
         924
         928
         932
         936
         940
         944
         948
         952
         956
         960
         964
         968
         972
         976
         980
         984
         988
         992
         996
        1000
        1004
        1008
        1012
        1016
        1020
        1024
        1028
        1032
        1036
        1040
        1044
        1048
        1052
        1056
        1060
        1064
        1068
        1072
        1076
        1080
        1084
        1088
        1092
        1096
        1100
        1104
        1108
        1112
        1116
        1120
        1124
        1128
        1132
        1136
        1140
        1144
        1148
        1152
        1156
        1160
        1164
        1168
        1172
        1176
        1180
        1184
        1188
        1192
        1196
        1200
        1204
        1208
        1212
        1216
        1220
        1224
        1228
        1232
        1236
        1240
        1244
        1248
        1252
        1256
        1260
        1264
        1268
        1272
        1276
        1280
        1284
        1288
        1292
        1296
        1300
        1304
        1308
        1312
        1316
        1320
        1324
        1328
        1332
        1336
        1340
        1344
        1348
        1352
        1356
        1360
        1364
        1368
        1372
        1376
        1380
        1384
        1388
        1392
        1396
        1400
        1404
        1408
        1412
        1416
        1420
        1424
        1428
        1432
        1436
        1440
        1444
        1448
        1452
        1456
        1460
        1464
        1468
        1472
        1476
        1480
        1484
        1488
        1492
        1496
        1500
        1504
        1508
        1512
        1516
        1520
        1524
        1528
        1532
        1536
        1540
        1544
        1548
        1552
        1556
        1560
        1564
        1568
        1572
        1576
        1580
        1584
        1588
        1592
        1596
        1600
        1604
        1608
        1612
        1616
        1620
        1624
        1628
        1632
        1636
        1640
        1644
        1648
        1652
        1656
        1660
        1664
        1668
        1672
        1676
        1680
        1684
        1688
        1692
        1696
        1700
        1704
        1708
        1712
        1716
        1720
        1724
        1728
        1732
        1736
        1740
        1744
        1748
        1752
        1756
        1760
        1764
        1768
        1772
        1776
        1780
        1784
        1788
        1792
        1796
        1800
        1804
        1808
        1812
        1816
        1820
        1824
        1828
        1832
        1836
        1840
        1844
        1848
        1852
        1856
        1860
        1864
        1868
        1872
        1876
        1880
        1884
        1888
        1892
        1896
        1900
        1904
        1908
        1912
        1916
        1920
        1924
        1928
        1932
        1936
        1940
        1944
        1948
        1952
        1956
        1960
        1964
        1968
        1972
        1976
        1980
        1984
        1988
        1992
        1996
        2000
        2004
        2008
        2012
        2016
        2020
        2024
        2028
        2032
        2036
        2040
        2044
        2048
        2052
        2056
        2060
        2064
        2068
        2072
        2076
        2080
        2084
        2088
        2092
        2096
        2100
        2104
        2108
        2112
        2116
        2120
        2124
        2128
        2132
        2136
        2140
        2144
        2148
        2152
        2156
        2160
        2164
        2168
        2172
        2176
        2180
        2184
        2188
        2192
        2196
        2200
        2204
        2208
        2212
        2216
        2220
        2224
        2228
        2232
        2236
        2240
        2244
        2248
        2252
        2256
        2260
        2264
        2268
        2272
        2276
        2280
        2284
        2288
        2292
        2296
        2300
        2304
        2308
        2312
        2316
        2320
        2324
        2328
        2332
        2336
        2340
        2344
        2348
        2352
        2356
        2360
        2364
        2368
        2372
        2376
        2380
        2384
        2388
        2392
        2396
        2400
        2404
        2408
        2412
        2416
        2420
        2424
        2428
        2432
        2436
        2440
        2444
        2448
        2452
        2456
        2460
        2464
        2468
        2472
        2476
        2480
        2484
        2488
        2492
        2496
        2500
        2504
        2508
        2512
        2516
        2520
        2524
        2528
        2532
        2536
        2540
        2544
        2548
        2552
        2556
        2560
        2564
        2568
        2572
        2576
        2580
        2584
        2588
        2592
        2596
        2600
        2604
        2608
        2612
        2616
        2620
        2624
        2628
        2632
        2636
        2640
        2644
        2648
        2652
        2656
        2660
        2664
        2668
        2672
        2676
        2680
        2684
        2688
        2692
        2696
        2700
        2704
        2708
        2712
        2716
        2720
        2724
        2728
        2732
        2736
        2740
        2744
        2748
        2752
        2756
        2760
        2764
        2768
        2772
        2776
        2780
        2784
        2788
        2792
        2796
        2800
        2804
        2808
        2812
        2816
        2820
        2824
        2828
        2832
        2836
        2840
        2844
        2848
        2852
        2856
        2860
        2864
        2868
        2872
        2876
        2880
        2884
        2888
        2892
        2896
        2900
        2904
        2908
        2912
        2916
        2920
        2924
        2928
        2932
        2936
        2940
        2944
        2948
        2952
        2956
        2960
        2964
        2968
        2972
        2976
        2980
        2984
        2988
        2992
        2996
        3000
        3004
        3008
        3012
        3016
        3020
        3024
        3028
        3032
        3036
        3040
        3044
        3048
        3052
        3056
        3060
        3064
        3068
        3072
        3076
        3080
        3084
        3088
        3092
        3096
        3100
        3104
        3108
        3112
        3116
        3120
        3124
        3128
        3132
        3136
        3140
        3144
        3148
        3152
        3156
        3160
        3164
        3168
        3172
        3176
        3180
        3184
        3188
        3192
        3196
        3200
        3204
        3208
        3212
        3216
        3220
        3224
        3228
        3232
        3236
        3240
        3244
        3248
        3252
        3256
        3260
        3264
        3268
        3272
        3276
        3280
        3284
        3288
        3292
        3296
        3300
        3304
        3308
        3312
        3316
        3320
        3324
        3328
        3332
        3336
        3340
        3344
        3348
        3352
        3356
        3360
        3364
        3368
        3372
        3376
        3380
        3384
        3388
        3392
        3396
        3400
        3404
        3408
        3412
        3416
        3420
        3424
        3428
        3432
        3436
        3440
        3444
        3448
        3452
        3456
        3460
        3464
        3468
        3472
        3476
        3480
        3484
        3488
        3492
        3496
        3500
        3504
        3508
        3512
        3516
        3520
        3524
        3528
        3532
        3536
        3540
        3544
        3548
        3552
        3556
        3560
        3564
        3568
        3572
        3576
        3580
        3584
        3588
        3592
        3596
        3600
        3604
        3608
        3612
        3616
        3620
        3624
        3628
        3632
        3636
        3640
        3644
        3648
        3652
        3656
        3660
        3664
        3668
        3672
        3676
        3680
        3684
        3688
        3692
        3696
        3700
        3704
        3708
        3712
        3716
        3720
        3724
        3728
        3732
        3736
        3740
        3744
        3748
        3752
        3756
        3760
        3764
        3768
        3772
        3776
        3780
        3784
        3788
        3792
        3796
        3800
        3804
        3808
        3812
        3816
        3820
        3824
        3828
        3832
        3836
        3840
        3844
        3848
        3852
        3856
        3860
        3864
        3868
        3872
        3876
        3880
        3884
        3888
        3892
        3896
        3900
        3904
        3908
        3912
        3916
        3920
        3924
        3928
        3932
        3936
        3940
        3944
        3948
        3952
        3956
        3960
        3964
        3968
        3972
        3976
        3980
        3984
        3988
        3992
        3996
        4000
        4004
        4008
        4012
        4016
        4020
        4024
        4028
        4032
        4036
        4040
        4044
        4048
        4052
        4056
        4060
        4064
        4068
        4072
        4076
        4080
        4084
        4088
        4092
        4096
 </DataArray>
 <DataArray  type="UInt8"  Name="types"  format="ascii">
 9
 9
 9
 9
 9
 9
 9
 9
 9
 9
 9
 9
 9
 9
 9
 9
 9
 9
 9
 9
 9
 9
 9
 9
 9
 9
 9
 9
 9
 9
 9
 9
 9
 9
 9
 9
 9
 9
 9
 9
 9
 9
 9
 9
 9
 9
 9
 9
 9
 9
 9
 9
 9
 9
 9
 9
 9
 9
 9
 9
 9
 9
 9
 9
 9
 9
 9
 9
 9
 9
 9
 9
 9
 9
 9
 9
 9
 9
 9
 9
 9
 9
 9
 9
 9
 9
 9
 9
 9
 9
 9
 9
 9
 9
 9
 9
 9
 9
 9
 9
 9
 9
 9
 9
 9
 9
 9
 9
 9
 9
 9
 9
 9
 9
 9
 9
 9
 9
 9
 9
 9
 9
 9
 9
 9
 9
 9
 9
 9
 9
 9
 9
 9
 9
 9
 9
 9
 9
 9
 9
 9
 9
 9
 9
 9
 9
 9
 9
 9
 9
 9
 9
 9
 9
 9
 9
 9
 9
 9
 9
 9
 9
 9
 9
 9
 9
 9
 9
 9
 9
 9
 9
 9
 9
 9
 9
 9
 9
 9
 9
 9
 9
 9
 9
 9
 9
 9
 9
 9
 9
 9
 9
 9
 9
 9
 9
 9
 9
 9
 9
 9
 9
 9
 9
 9
 9
 9
 9
 9
 9
 9
 9
 9
 9
 9
 9
 9
 9
 9
 9
 9
 9
 9
 9
 9
 9
 9
 9
 9
 9
 9
 9
 9
 9
 9
 9
 9
 9
 9
 9
 9
 9
 9
 9
 9
 9
 9
 9
 9
 9
 9
 9
 9
 9
 9
 9
 9
 9
 9
 9
 9
 9
 9
 9
 9
 9
 9
 9
 9
 9
 9
 9
 9
 9
 9
 9
 9
 9
 9
 9
 9
 9
 9
 9
 9
 9
 9
 9
 9
 9
 9
 9
 9
 9
 9
 9
 9
 9
 9
 9
 9
 9
 9
 9
 9
 9
 9
 9
 9
 9
 9
 9
 9
 9
 9
 9
 9
 9
 9
 9
 9
 9
 9
 9
 9
 9
 9
 9
 9
 9
 9
 9
 9
 9
 9
 9
 9
 9
 9
 9
 9
 9
 9
 9
 9
 9
 9
 9
 9
 9
 9
 9
 9
 9
 9
 9
 9
 9
 9
 9
 9
 9
 9
 9
 9
 9
 9
 9
 9
 9
 9
 9
 9
 9
 9
 9
 9
 9
 9
 9
 9
 9
 9
 9
 9
 9
 9
 9
 9
 9
 9
 9
 9
 9
 9
 9
 9
 9
 9
 9
 9
 9
 9
 9
 9
 9
 9
 9
 9
 9
 9
 9
 9
 9
 9
 9
 9
 9
 9
 9
 9
 9
 9
 9
 9
 9
 9
 9
 9
 9
 9
 9
 9
 9
 9
 9
 9
 9
 9
 9
 9
 9
 9
 9
 9
 9
 9
 9
 9
 9
 9
 9
 9
 9
 9
 9
 9
 9
 9
 9
 9
 9
 9
 9
 9
 9
 9
 9
 9
 9
 9
 9
 9
 9
 9
 9
 9
 9
 9
 9
 9
 9
 9
 9
 9
 9
 9
 9
 9
 9
 9
 9
 9
 9
 9
 9
 9
 9
 9
 9
 9
 9
 9
 9
 9
 9
 9
 9
 9
 9
 9
 9
 9
 9
 9
 9
 9
 9
 9
 9
 9
 9
 9
 9
 9
 9
 9
 9
 9
 9
 9
 9
 9
 9
 9
 9
 9
 9
 9
 9
 9
 9
 9
 9
 9
 9
 9
 9
 9
 9
 9
 9
 9
 9
 9
 9
 9
 9
 9
 9
 9
 9
 9
 9
 9
 9
 9
 9
 9
 9
 9
 9
 9
 9
 9
 9
 9
 9
 9
 9
 9
 9
 9
 9
 9
 9
 9
 9
 9
 9
 9
 9
 9
 9
 9
 9
 9
 9
 9
 9
 9
 9
 9
 9
 9
 9
 9
 9
 9
 9
 9
 9
 9
 9
 9
 9
 9
 9
 9
 9
 9
 9
 9
 9
 9
 9
 9
 9
 9
 9
 9
 9
 9
 9
 9
 9
 9
 9
 9
 9
 9
 9
 9
 9
 9
 9
 9
 9
 9
 9
 9
 9
 9
 9
 9
 9
 9
 9
 9
 9
 9
 9
 9
 9
 9
 9
 9
 9
 9
 9
 9
 9
 9
 9
 9
 9
 9
 9
 9
 9
 9
 9
 9
 9
 9
 9
 9
 9
 9
 9
 9
 9
 9
 9
 9
 9
 9
 9
 9
 9
 9
 9
 9
 9
 9
 9
 9
 9
 9
 9
 9
 9
 9
 9
 9
 9
 9
 9
 9
 9
 9
 9
 9
 9
 9
 9
 9
 9
 9
 9
 9
 9
 9
 9
 9
 9
 9
 9
 9
 9
 9
 9
 9
 9
 9
 9
 9
 9
 9
 9
 9
 9
 9
 9
 9
 9
 9
 9
 9
 9
 9
 9
 9
 9
 9
 9
 9
 9
 9
 9
 9
 9
 9
 9
 9
 9
 9
 9
 9
 9
 9
 9
 9
 9
 9
 9
 9
 9
 9
 9
 9
 9
 9
 9
 9
 9
 9
 9
 9
 9
 9
 9
 9
 9
 9
 9
 9
 9
 9
 9
 9
 9
 9
 9
 9
 9
 9
 9
 9
 9
 9
 9
 9
 9
 9
 9
 9
 9
 9
 9
 9
 9
 9
 9
 9
 9
 9
 9
 9
 9
 9
 9
 9
 9
 9
 9
 9
 9
 9
 9
 9
 9
 9
 9
 9
 9
 9
 9
 9
 9
 9
 9
 9
 9
 9
 9
 9
 9
 9
 9
 9
 9
 9
 9
 9
 9
 9
 9
 9
 9
 9
 9
 9
 9
 9
 9
 9
 9
 9
 9
 9
 9
 9
 9
 9
 9
 9
 9
 9
 9
 9
 9
 9
 9
 9
 9
 9
 9
 9
 9
 9
 9
 9
 9
 9
 9
 9
 9
 9
 9
 9
 9
 9
 9
 9
 9
 9
 9
 9
 9
 9
 9
 9
 9
 9
 9
 9
 9
 9
 9
 9
 9
 9
 9
 9
 9
 9
 9
 9
 9
 9
 9
 9
 9
 9
 9
 9
 9
 9
 9
 9
 9
 9
 9
 9
 9
 9
 9
 9
 9
 9
 9
 9
 9
 9
 9
 9
 9
 9
 9
 9
 9
 9
 9
 9
 9
 9
 9
 9
 9
 9
 9
 9
 9
 9
 9
 9
 9
 9
 9
 9
 9
 9
 9
 9
 9
 9
 9
 9
 9
 9
 9
 9
 9
 9
 9
 9
 9
 9
 9
 9
 9
 9
 9
 </DataArray>
 </Cells> 
 <PointData>
 <DataArray  type="Float64" Name="disp" NumberOfComponents="3" format="ascii">
   6.1930748871128281E-002   6.3211454209581949E-002   0.0000000000000000     
   6.7448833279006665E-002   6.8507177199129715E-002   0.0000000000000000     
   7.1959919079986681E-002   7.3984893990294495E-002   0.0000000000000000     
   7.5464006274068296E-002   7.9644604583076262E-002   0.0000000000000000     
   7.7961094861251537E-002   8.5486308977475056E-002   0.0000000000000000     
   5.8092452589189457E-002   6.1946380036268983E-002   0.0000000000000000     
   6.2868713632796530E-002   6.7464896143272196E-002   0.0000000000000000     
   6.6808858017703088E-002   7.3116327626945227E-002   0.0000000000000000     
   6.9912885743909151E-002   7.8900674487288075E-002   0.0000000000000000     
   7.2180796811414691E-002   8.4817936724300741E-002   0.0000000000000000     
   5.3959777773034914E-002   6.0727316176596768E-002   0.0000000000000000     
   5.8163355229391180E-002   6.6486735808514177E-002   0.0000000000000000     
   6.1656173762457078E-002   7.2314919424862206E-002   0.0000000000000000     
   6.4438233372232590E-002   7.8211867025640897E-002   0.0000000000000000     
   6.6509534058717734E-002   8.4177578610850207E-002   0.0000000000000000     
   4.9532724422664640E-002   5.9554262630565298E-002   0.0000000000000000     
   5.3332758068790641E-002   6.5572696194855631E-002   0.0000000000000000     
   5.6501866314248639E-002   7.1580669384045434E-002   0.0000000000000000     
   5.9040049159038661E-002   7.7578182198134726E-002   0.0000000000000000     
   6.0947306603160660E-002   8.3565234637123481E-002   0.0000000000000000     
   4.4811292538078654E-002   5.8427219398174579E-002   0.0000000000000000     
   4.8376922150994900E-002   6.4722777302296586E-002   0.0000000000000000     
   5.1345935673077783E-002   7.0913577504494910E-002   0.0000000000000000     
   5.3718333104327304E-002   7.6999620004769551E-002   0.0000000000000000     
   5.5494114444743468E-002   8.2980904803120509E-002   0.0000000000000000     
   7.7961094861251537E-002   8.5486308977475056E-002   0.0000000000000000     
   8.0017497387476877E-002   9.1519167617904879E-002   0.0000000000000000     
   8.2199526398684816E-002   9.7752340948779770E-002   0.0000000000000000     
   8.4507181894875341E-002  0.10418582897009976        0.0000000000000000     
   8.6940463876048438E-002  0.11081963168186479        0.0000000000000000     
   7.2180796811414691E-002   8.4817936724300741E-002   0.0000000000000000     
   7.4088767424295265E-002   9.0892036827505948E-002   0.0000000000000000     
   7.6112973786626403E-002   9.7146897286426392E-002   0.0000000000000000     
   7.8253415898408077E-002  0.10358251810106214        0.0000000000000000     
   8.0510093759640328E-002  0.11019889927141313        0.0000000000000000     
   6.6509534058717734E-002   8.4177578610850207E-002   0.0000000000000000     
   6.8279061590924214E-002   9.0265633715996538E-002   0.0000000000000000     
   7.0155801737863760E-002   9.6529611876586235E-002   0.0000000000000000     
   7.2139754499536343E-002  0.10296951309261930        0.0000000000000000     
   7.4230919875942020E-002  0.10958533736409577        0.0000000000000000     
   6.0947306603160660E-002   8.3565234637123481E-002   0.0000000000000000     
   6.2588379887363724E-002   8.9639958283376661E-002   0.0000000000000000     
   6.4328010252396886E-002   9.5900484719259244E-002   0.0000000000000000     
   6.6166197698260154E-002  0.10234681394477127        0.0000000000000000     
   6.8102942224953500E-002  0.10897894595991264        0.0000000000000000     
   5.5494114444743468E-002   8.2980904803120509E-002   0.0000000000000000     
   5.7016722313613787E-002   8.9015010529646318E-002   0.0000000000000000     
   5.8629599330225789E-002   9.5259515814445458E-002   0.0000000000000000     
   6.0332745494579461E-002  0.10171442065751797        0.0000000000000000     
   6.2126160806674810E-002  0.10837972505886381        0.0000000000000000     
   8.6940463876048438E-002  0.11081963168186479        0.0000000000000000     
   8.9382032026745772E-002  0.11761647818761914        0.0000000000000000     
   9.1714546031508914E-002  0.12453909759090699        0.0000000000000000     
   9.3938005890337947E-002  0.13158748989172833        0.0000000000000000     
   9.6052411603232801E-002  0.13876165509008320        0.0000000000000000     
   8.0510093759640328E-002  0.11019889927141313        0.0000000000000000     
   8.2776430975933582E-002  0.11697801099770053        0.0000000000000000     
   8.4945851152898336E-002  0.12390182348014536        0.0000000000000000     
   8.7018354290534575E-002  0.13097033671874767        0.0000000000000000     
   8.8993940388842327E-002  0.13818355071350746        0.0000000000000000     
   7.4230919875942020E-002  0.10958533736409577        0.0000000000000000     
   7.6332095561073315E-002  0.11636688206554552        0.0000000000000000     
   7.8346079248922867E-002  0.12330394457149851        0.0000000000000000     
   8.0272870939490662E-002  0.13039652488195466        0.0000000000000000     
   8.2112470632776685E-002  0.13764462299691410        0.0000000000000000     
   6.8102942224953500E-002  0.10897894595991264        0.0000000000000000     
   7.0049025782164973E-002  0.11578309139115416        0.0000000000000000     
   7.1915230319582524E-002  0.12274546086496636        0.0000000000000000     
   7.3701555837206167E-002  0.12986605438134938        0.0000000000000000     
   7.5408002335035931E-002  0.13714487194030306        0.0000000000000000     
   6.2126160806674810E-002  0.10837972505886381        0.0000000000000000     
   6.3927221639208540E-002  0.11522663897452635        0.0000000000000000     
   6.5653304364877318E-002  0.12222637236054901        0.0000000000000000     
   6.7304408983681133E-002  0.12937892521693170        0.0000000000000000     
   6.8880535495620010E-002  0.13668429754367445        0.0000000000000000     
   9.6052411603232801E-002  0.13876165509008320        0.0000000000000000     
   9.8045772551421231E-002  0.14604757885915731        0.0000000000000000     
   9.9906098116130937E-002  0.15343124687213636        0.0000000000000000     
  0.10163338829736192       0.16091265912902036        0.0000000000000000     
  0.10322764309511417       0.16849181562980931        0.0000000000000000     
   8.8993940388842327E-002  0.13818355071350746        0.0000000000000000     
   9.0859061658407972E-002  0.14551419917579858        0.0000000000000000     
   9.2600170309817986E-002  0.15293501581699495        0.0000000000000000     
   9.4217266343072342E-002  0.16044600063709658        0.0000000000000000     
   9.5710349758171068E-002  0.16804715363610340        0.0000000000000000     
   8.2112470632776685E-002  0.13764462299691410        0.0000000000000000     
   8.3850625191039252E-002  0.14501311601978548        0.0000000000000000     
   8.5473081476536608E-002  0.15246688105397765        0.0000000000000000     
   8.6979839489268809E-002  0.16000591809949066        0.0000000000000000     
   8.8370899229235786E-002  0.16763022715632442        0.0000000000000000     
   7.5408002335035931E-002  0.13714487194030306        0.0000000000000000     
   7.7020463149315044E-002  0.14454432939111800        0.0000000000000000     
   7.8524831616286830E-002  0.15202684258308452        0.0000000000000000     
   7.9921107735951263E-002  0.15959241151620260        0.0000000000000000     
   8.1209291508308371E-002  0.16724103619047231        0.0000000000000000     
   6.8880535495620010E-002  0.13668429754367445        0.0000000000000000     
   7.0368575533235347E-002  0.14410783928979609        0.0000000000000000     
   7.1755420729068597E-002  0.15161490040431541        0.0000000000000000     
   7.3041071083119746E-002  0.15920548088723244        0.0000000000000000     
   7.4225526595388780E-002  0.16687958073854714        0.0000000000000000     
  0.10322764309511417       0.16849181562980931        0.0000000000000000     
  0.10472300542028948       0.17616780570247800        0.0000000000000000     
  0.10615361818378957       0.18393971867500133        0.0000000000000000     
  0.10751948138561448       0.19180755454737922        0.0000000000000000     
  0.10882059502576419       0.19977131331961173        0.0000000000000000     
   9.5710349758171068E-002  0.16804715363610340        0.0000000000000000     
   9.7108898606125565E-002  0.17574222093585273        0.0000000000000000     
   9.8442390937947349E-002  0.18353494865818185        0.0000000000000000     
   9.9710826753636350E-002  0.19142533680309068        0.0000000000000000     
  0.10091420605319264       0.19941338537057929        0.0000000000000000     
   8.8370899229235786E-002  0.16763022715632442        0.0000000000000000     
   8.9671786029338313E-002  0.17534643578562648        0.0000000000000000     
   9.0908025222476999E-002  0.18316117154854450        0.0000000000000000     
   9.2079616808651926E-002  0.19107443444507832        0.0000000000000000     
   9.3186560787863068E-002  0.19908622447522800        0.0000000000000000     
   8.1209291508308371E-002  0.16724103619047231        0.0000000000000000     
   8.2411667689927637E-002  0.17498045025179929        0.0000000000000000     
   8.3550521037378575E-002  0.18281838734608921        0.0000000000000000     
   8.4625851550661199E-002  0.19075484747334204        0.0000000000000000     
   8.5637659229775467E-002  0.19878983063355785        0.0000000000000000     
   7.4225526595388780E-002  0.16687958073854714        0.0000000000000000     
   7.5328543587893593E-002  0.17464426433437116        0.0000000000000000     
   7.6369878382652051E-002  0.18250659605081609        0.0000000000000000     
   7.7349530979664155E-002  0.19046657588788196        0.0000000000000000     
   7.8267501378929905E-002  0.19852420384556879        0.0000000000000000     
  0.10882059502576419       0.19977131331961173        0.0000000000000000     
  0.11004784888062431       0.20782207415909565        0.0000000000000000     
  0.11119213272658048       0.21595091623322768        0.0000000000000000     
  0.11225344656363266       0.22415783954200796        0.0000000000000000     
  0.11323179039178091       0.23244284408543639        0.0000000000000000     
  0.10091420605319264       0.19941338537057929        0.0000000000000000     
  0.10204571725965297       0.20748774198815007        0.0000000000000000     
  0.10309854879605423       0.21563705428330543        0.0000000000000000     
  0.10407270066239639       0.22386132225604538        0.0000000000000000     
  0.10496817285867946       0.23216054590636984        0.0000000000000000     
   9.3186560787863068E-002  0.19908622447522800        0.0000000000000000     
   9.4223105250687736E-002  0.20718387264931273        0.0000000000000000     
   9.5183498287703339E-002  0.21535470997765171        0.0000000000000000     
   9.6067739898909821E-002  0.22359873646024486        0.0000000000000000     
   9.6875830084307252E-002  0.23191595209709226        0.0000000000000000     
   8.5637659229775467E-002  0.19878983063355785        0.0000000000000000     
   8.6580012853728613E-002  0.20691046614258360        0.0000000000000000     
   8.7446981201527801E-002  0.21510388331626648        0.0000000000000000     
   8.8238564273173045E-002  0.22337008215460649        0.0000000000000000     
   8.8954762068664275E-002  0.23170906265760363        0.0000000000000000     
   7.8267501378929905E-002  0.19852420384556879        0.0000000000000000     
   7.9116440068775606E-002  0.20666752246796272        0.0000000000000000     
   7.9888997537527609E-002  0.21488457429914984        0.0000000000000000     
   8.0585173785185926E-002  0.22317535933913030        0.0000000000000000     
   8.1204968811750544E-002  0.23153987758790398        0.0000000000000000     
  0.11323179039178091       0.23244284408543639        0.0000000000000000     
  0.11416034525819679       0.24082494632441134        0.0000000000000000     
  0.11507229221005186       0.24932316271983124        0.0000000000000000     
  0.11596763124734615       0.25793749327169596        0.0000000000000000     
  0.11684636237007962       0.26666793798000554        0.0000000000000000     
  0.10496817285867946       0.23216054590636984        0.0000000000000000     
  0.10579351274696168       0.24055976077327007        0.0000000000000000     
  0.10655726768930134       0.24908400239573728        0.0000000000000000     
  0.10725943768569834       0.25773327077377139        0.0000000000000000     
  0.10790002273615279       0.26650756590737240        0.0000000000000000     
   9.6875830084307252E-002  0.23191595209709226        0.0000000000000000     
   9.7601123293793349E-002  0.24033380123104572        0.0000000000000000     
   9.8236973977265829E-002  0.24887972820495705        0.0000000000000000     
   9.8783382134724776E-002  0.25755373301882617        0.0000000000000000     
   9.9240347766170134E-002  0.26635581567265326        0.0000000000000000     
   8.8954762068664275E-002  0.23170906265760363        0.0000000000000000     
   8.9583176898691691E-002  0.24014706769773819        0.0000000000000000     
   9.0111411073945394E-002  0.24871034014749038        0.0000000000000000     
   9.0539464594425370E-002  0.25739888000686029        0.0000000000000000     
   9.0867337460131647E-002  0.26621268727584796        0.0000000000000000     
   8.1204968811750544E-002  0.23153987758790398        0.0000000000000000     
   8.1739673561656789E-002  0.23999956017334750        0.0000000000000000     
   8.2180578979340016E-002  0.24857583822333745        0.0000000000000000     
   8.2527685064800196E-002  0.25726871173787380        0.0000000000000000     
   8.2780991818037344E-002  0.26607818071695655        0.0000000000000000     
  0.11684636237007962       0.26666793798000554        0.0000000000000000     
  0.11764715914668744       0.27567805799409184        0.0000000000000000     
  0.11830869514560480       0.28513141446328666        0.0000000000000000     
  0.11883097036683167       0.29502800738759000        0.0000000000000000     
  0.11921398481036806       0.30536783676700180        0.0000000000000000     
  0.10790002273615279       0.26650756590737240        0.0000000000000000     
  0.10845901590475818       0.27553865268545036        0.0000000000000000     
  0.10891641025560803       0.28495829599691502        0.0000000000000000     
  0.10927220578870242       0.29476649584176651        0.0000000000000000     
  0.10952640250404128       0.30496325222000475        0.0000000000000000     
   9.9240347766170134E-002  0.26635581567265326        0.0000000000000000     
   9.9618281300118364E-002  0.27538428330973103        0.0000000000000000     
   9.9927593165085996E-002  0.28473744307335241        0.0000000000000000     
  0.10016828336107295       0.29441529496351743        0.0000000000000000     
  0.10034035188807928       0.30441783898022601        0.0000000000000000     
   9.0867337460131647E-002  0.26621268727584796        0.0000000000000000     
   9.1124955332768126E-002  0.27521494986693396        0.0000000000000000     
   9.1342243874038664E-002  0.28446885569259883        0.0000000000000000     
   9.1519203083943332E-002  0.29397440475284276        0.0000000000000000     
   9.1655832962482087E-002  0.30373159704766556        0.0000000000000000     
   8.2780991818037344E-002  0.26607818071695655        0.0000000000000000     
   8.2979038002707339E-002  0.27503065235705898        0.0000000000000000     
   8.3160362382466060E-002  0.28415253385465428        0.0000000000000000     
   8.3324964957313494E-002  0.29344382520974244        0.0000000000000000     
   8.3472845727249667E-002  0.30290452642232346        0.0000000000000000     
   4.4811292538078654E-002   5.8427219398174579E-002   0.0000000000000000     
   4.8376922150994900E-002   6.4722777302296586E-002   0.0000000000000000     
   5.1345935673077783E-002   7.0913577504494910E-002   0.0000000000000000     
   5.3718333104327304E-002   7.6999620004769551E-002   0.0000000000000000     
   5.5494114444743468E-002   8.2980904803120509E-002   0.0000000000000000     
   4.0129899672794331E-002   5.7491499971157496E-002   0.0000000000000000     
   4.3509631475947122E-002   6.4006797844244054E-002   0.0000000000000000     
   4.6313726297256747E-002   7.0337342587644111E-002   0.0000000000000000     
   4.8542184136723197E-002   7.6483134201357633E-002   0.0000000000000000     
   5.0195004994346475E-002   8.2444172685384620E-002   0.0000000000000000     
   3.5822963380329045E-002   5.6892417841246892E-002   0.0000000000000000     
   3.8944670043590486E-002   6.3494576534105091E-002   0.0000000000000000     
   4.1530582645097784E-002   6.9875663434926516E-002   0.0000000000000000     
   4.3580701184850953E-002   7.6035678543711183E-002   0.0000000000000000     
   4.5095025662849980E-002   8.1974621860459090E-002   0.0000000000000000     
   3.1890483660682804E-002   5.6629973008442809E-002   0.0000000000000000     
   3.4682037853924964E-002   6.3186113371879654E-002   0.0000000000000000     
   3.6996504716600896E-002   6.9528540046342138E-002   0.0000000000000000     
   3.8833884248710558E-002   7.5657253031830227E-002   0.0000000000000000     
   4.0194176450254006E-002   8.1572252328343905E-002   0.0000000000000000     
   2.8332460513855611E-002   5.6704165472745212E-002   0.0000000000000000     
   3.0721734906950578E-002   6.3081408357567800E-002   0.0000000000000000     
   3.2711492511766062E-002   6.9295972421890978E-002   0.0000000000000000     
   3.4301733328302046E-002   7.5347857665714738E-002   0.0000000000000000     
   3.5492457356558538E-002   8.1237064089039079E-002   0.0000000000000000     
   5.5494114444743468E-002   8.2980904803120509E-002   0.0000000000000000     
   5.7016722313613787E-002   8.9015010529646318E-002   0.0000000000000000     
   5.8629599330225789E-002   9.5259515814445458E-002   0.0000000000000000     
   6.0332745494579461E-002  0.10171442065751797        0.0000000000000000     
   6.2126160806674810E-002  0.10837972505886381        0.0000000000000000     
   5.0195004994346475E-002   8.2444172685384620E-002   0.0000000000000000     
   5.1601063501330195E-002   8.8431839275459390E-002   0.0000000000000000     
   5.3089234288877983E-002   9.4657515207316162E-002   0.0000000000000000     
   5.4659517356989831E-002  0.10112120048095496        0.0000000000000000     
   5.6311912705665747E-002  0.10782289509637581        0.0000000000000000     
   4.5095025662849980E-002   8.1974621860459090E-002   0.0000000000000000     
   4.6378378082168721E-002   8.7931493341469755E-002   0.0000000000000000     
   4.7735580445880992E-002   9.4145292943042677E-002   0.0000000000000000     
   4.9166632753986798E-002  0.10061602066517783        0.0000000000000000     
   5.0671535006486149E-002  0.10734367650787527        0.0000000000000000     
   4.0194176450254006E-002   8.1572252328343905E-002   0.0000000000000000     
   4.1348666056129364E-002   8.7513972727677428E-002   0.0000000000000000     
   4.2568637801234828E-002   9.3722849021624963E-002   0.0000000000000000     
   4.3854091685570369E-002  0.10019888121018654        0.0000000000000000     
   4.5205027709136002E-002  0.10694206929336214        0.0000000000000000     
   3.5492457356558538E-002   8.1237064089039079E-002   0.0000000000000000     
   3.6511927423212152E-002   8.7179277434082408E-002   0.0000000000000000     
   3.7588406354939485E-002   9.3390183443063074E-002   0.0000000000000000     
   3.8721894151740530E-002   9.9869782115981104E-002   0.0000000000000000     
   3.9912390813615306E-002  0.10661807345283647        0.0000000000000000     
   6.2126160806674810E-002  0.10837972505886381        0.0000000000000000     
   6.3927221639208540E-002  0.11522663897452635        0.0000000000000000     
   6.5653304364877318E-002  0.12222637236054901        0.0000000000000000     
   6.7304408983681133E-002  0.12937892521693170        0.0000000000000000     
   6.8880535495620010E-002  0.13668429754367445        0.0000000000000000     
   5.6311912705665747E-002  0.10782289509637581        0.0000000000000000     
   5.7969999225425374E-002  0.11471620226801049        0.0000000000000000     
   5.9557355806788309E-002  0.12175472521029072        0.0000000000000000     
   6.1073982449754566E-002  0.12893846392321659        0.0000000000000000     
   6.2519879154324137E-002  0.13626741840678802        0.0000000000000000     
   5.0671535006486149E-002  0.10734367650787527        0.0000000000000000     
   5.2180674634036833E-002  0.11427045872395468        0.0000000000000000     
   5.3624439067296623E-002  0.12133856556623591        0.0000000000000000     
   5.5002828306265517E-002  0.12854799703471886        0.0000000000000000     
   5.6315842350943515E-002  0.13589875312940361        0.0000000000000000     
   4.5205027709136002E-002  0.10694206929336214        0.0000000000000000     
   4.6559247865042890E-002  0.11388940834235904        0.0000000000000000     
   4.7854554146402217E-002  0.12097789342838453        0.0000000000000000     
   4.9090946553213971E-002  0.12820752455143855        0.0000000000000000     
   5.0268425085478165E-002  0.13557830171152116        0.0000000000000000     
   3.9912390813615306E-002  0.10661807345283647        0.0000000000000000     
   4.1105718918443584E-002  0.11357305112322352        0.0000000000000000     
   4.2247701044105128E-002  0.12067270879673658        0.0000000000000000     
   4.3338337190599950E-002  0.12791704647337568        0.0000000000000000     
   4.4377627357928037E-002  0.13530606415314075        0.0000000000000000     
   6.8880535495620010E-002  0.13668429754367445        0.0000000000000000     
   7.0368575533235347E-002  0.14410783928979609        0.0000000000000000     
   7.1755420729068597E-002  0.15161490040431541        0.0000000000000000     
   7.3041071083119746E-002  0.15920548088723244        0.0000000000000000     
   7.4225526595388780E-002  0.16687958073854714        0.0000000000000000     
   6.2519879154324137E-002  0.13626741840678802        0.0000000000000000     
   6.3883207966286187E-002  0.14371134656904283        0.0000000000000000     
   6.5152130931429852E-002  0.15124000631801873        0.0000000000000000     
   6.6326648049755133E-002  0.15885339765371576        0.0000000000000000     
   6.7406759321262041E-002  0.16655152057613387        0.0000000000000000     
   5.6315842350943515E-002  0.13589875312940361        0.0000000000000000     
   5.7552606071953553E-002  0.14336255208208121        0.0000000000000000     
   5.8702244339918497E-002  0.15091111212454270        0.0000000000000000     
   5.9764757154838359E-002  0.15854443325678813        0.0000000000000000     
   6.0740144516713127E-002  0.16626251547881749        0.0000000000000000     
   5.0268425085478165E-002  0.13557830171152116        0.0000000000000000     
   5.1376769850237460E-002  0.14306145582891117        0.0000000000000000     
   5.2405760954534537E-002  0.15062821782388730        0.0000000000000000     
   5.3355398398369398E-002  0.15827858769644959        0.0000000000000000     
   5.4225682181742056E-002  0.16601256544659804        0.0000000000000000     
   4.4377627357928037E-002  0.13530606415314075        0.0000000000000000     
   4.5355699301137885E-002  0.14280805780953276        0.0000000000000000     
   4.6262680775277960E-002  0.15039132341605255        0.0000000000000000     
   4.7098571780348264E-002  0.15805586097270014        0.0000000000000000     
   4.7863372316348803E-002  0.16580167047947550        0.0000000000000000     
   7.4225526595388780E-002  0.16687958073854714        0.0000000000000000     
   7.5328543587893593E-002  0.17464426433437116        0.0000000000000000     
   7.6369878382652051E-002  0.18250659605081609        0.0000000000000000     
   7.7349530979664155E-002  0.19046657588788196        0.0000000000000000     
   7.8267501378929905E-002  0.19852420384556879        0.0000000000000000     
   6.7406759321262041E-002  0.16655152057613387        0.0000000000000000     
   6.8410110484173323E-002  0.17434044578082383        0.0000000000000000     
   6.9354347276711761E-002  0.18222624396333637        0.0000000000000000     
   7.0239469698877330E-002  0.19020891512367152        0.0000000000000000     
   7.1065477750670028E-002  0.19828845926182925        0.0000000000000000     
   6.0740144516713127E-002  0.16626251547881749        0.0000000000000000     
   6.1644065139703975E-002  0.17407156233863910        0.0000000000000000     
   6.2492177737971978E-002  0.18197777738426135        0.0000000000000000     
   6.3284482311517204E-002  0.18998116061568418        0.0000000000000000     
   6.4020978860339597E-002  0.19808171203290759        0.0000000000000000     
   5.4225682181742056E-002  0.16601256544659804        0.0000000000000000     
   5.5030407554485496E-002  0.17383761400781703        0.0000000000000000     
   5.5783369766432750E-002  0.18176119631359100        0.0000000000000000     
   5.6484568817583784E-002  0.18978331236391988        0.0000000000000000     
   5.7134004707938620E-002  0.19790396215880374        0.0000000000000000     
   4.7863372316348803E-002  0.16580167047947550        0.0000000000000000     
   4.8569137728517939E-002  0.17363860078835758        0.0000000000000000     
   4.9227923362094028E-002  0.18157650075132534        0.0000000000000000     
   4.9839729217077078E-002  0.18961537036837875        0.0000000000000000     
   5.0404555293467088E-002  0.19775520963951776        0.0000000000000000     
   7.8267501378929905E-002  0.19852420384556879        0.0000000000000000     
   7.9116440068775606E-002  0.20666752246796272        0.0000000000000000     
   7.9888997537527609E-002  0.21488457429914984        0.0000000000000000     
   8.0585173785185926E-002  0.22317535933913030        0.0000000000000000     
   8.1204968811750544E-002  0.23153987758790398        0.0000000000000000     
   7.1065477750670028E-002  0.19828845926182925        0.0000000000000000     
   7.1823439248069082E-002  0.20645377906525608        0.0000000000000000     
   7.2504422007053745E-002  0.21469377722139860        0.0000000000000000     
   7.3108426027624018E-002  0.22300845373025674        0.0000000000000000     
   7.3635451309779831E-002  0.23139780859183062        0.0000000000000000     
   6.4020978860339597E-002  0.19808171203290759        0.0000000000000000     
   6.4692062743849491E-002  0.20626797337426991        0.0000000000000000     
   6.5288129321457194E-002  0.21452848637810962        0.0000000000000000     
   6.5809178593162682E-002  0.22286325104442661        0.0000000000000000     
   6.6255210558965966E-002  0.23127226737322085        0.0000000000000000     
   5.7134004707938620E-002  0.19790396215880374        0.0000000000000000     
   5.7722310556116818E-002  0.20611010539500418        0.0000000000000000     
   5.8240119480737929E-002  0.21438870176928282        0.0000000000000000     
   5.8687431481801978E-002  0.22273975128163967        0.0000000000000000     
   5.9064246559308919E-002  0.23116325393207479        0.0000000000000000     
   5.0404555293467088E-002  0.19775520963951776        0.0000000000000000     
   5.0914182684871051E-002  0.20598017512745886        0.0000000000000000     
   5.1360392484895975E-002  0.21427442339491834        0.0000000000000000     
   5.1743184693541860E-002  0.22263795444189613        0.0000000000000000     
   5.2062559310808713E-002  0.23107076826839235        0.0000000000000000     
   8.1204968811750544E-002  0.23153987758790398        0.0000000000000000     
   8.1739673561656789E-002  0.23999956017334750        0.0000000000000000     
   8.2180578979340016E-002  0.24857583822333745        0.0000000000000000     
   8.2527685064800196E-002  0.25726871173787380        0.0000000000000000     
   8.2780991818037344E-002  0.26607818071695655        0.0000000000000000     
   7.3635451309779831E-002  0.23139780859183062        0.0000000000000000     
   7.4084260215117381E-002  0.23987653753708182        0.0000000000000000     
   7.4453615105232698E-002  0.24845933629697209        0.0000000000000000     
   7.4743515980125824E-002  0.25714620487150136        0.0000000000000000     
   7.4953962839796745E-002  0.26593714326066975        0.0000000000000000     
   6.6255210558965966E-002  0.23127226737322085        0.0000000000000000     
   6.6630583791502204E-002  0.23976325866814918        0.0000000000000000     
   6.6939656863406513E-002  0.24834394823286812        0.0000000000000000     
   6.7182429774678892E-002  0.25701433606737784        0.0000000000000000     
   6.7358902525319370E-002  0.26577442217167813        0.0000000000000000     
   5.9064246559308919E-002  0.23116325393207479        0.0000000000000000     
   5.9378644290811258E-002  0.23965972356654963        0.0000000000000000     
   5.9638704253861433E-002  0.24822967403102572        0.0000000000000000     
   5.9844426448459422E-002  0.25687310532550311        0.0000000000000000     
   5.9995810874605253E-002  0.26559001744998162        0.0000000000000000     
   5.2062559310808713E-002  0.23107076826839235        0.0000000000000000     
   5.2328441713044557E-002  0.23956593223228312        0.0000000000000000     
   5.2550757276597457E-002  0.24811651369144475        0.0000000000000000     
   5.2729506001467398E-002  0.25672251264587720        0.0000000000000000     
   5.2864687887654381E-002  0.26538392909558045        0.0000000000000000     
   8.2780991818037344E-002  0.26607818071695655        0.0000000000000000     
   8.2979038002707339E-002  0.27503065235705898        0.0000000000000000     
   8.3160362382466060E-002  0.28415253385465428        0.0000000000000000     
   8.3324964957313494E-002  0.29344382520974244        0.0000000000000000     
   8.3472845727249667E-002  0.30290452642232346        0.0000000000000000     
   7.4953962839796745E-002  0.26593714326066975        0.0000000000000000     
   7.5125347155167249E-002  0.27482559887777558        0.0000000000000000     
   7.5298060397159167E-002  0.28380501913611711        0.0000000000000000     
   7.5472102565772511E-002  0.29287540403569451        0.0000000000000000     
   7.5647473661007242E-002  0.30203675357650772        0.0000000000000000     
   6.7358902525319370E-002  0.26577442217167813        0.0000000000000000     
   6.7508700635379060E-002  0.27459399752675290        0.0000000000000000     
   6.7671449624909050E-002  0.28344285311358580        0.0000000000000000     
   6.7847149493909367E-002  0.29232098893217695        0.0000000000000000     
   6.8035800242379998E-002  0.30122840498252645        0.0000000000000000     
   5.9995810874605253E-002  0.26559001744998162        0.0000000000000000     
   6.0129098443342743E-002  0.27433584830399105        0.0000000000000000     
   6.0280530065715675E-002  0.28306603578706047        0.0000000000000000     
   6.0450105741724075E-002  0.29178057989918998        0.0000000000000000     
   6.0637825471367937E-002  0.30047948064037966        0.0000000000000000     
   5.2864687887654381E-002  0.26538392909558045        0.0000000000000000     
   5.2986540579058300E-002  0.27405115120948986        0.0000000000000000     
   5.3125301719579056E-002  0.28267456715654088        0.0000000000000000     
   5.3280971309216635E-002  0.29125417693673333        0.0000000000000000     
   5.3453549347971058E-002  0.29978998055006734        0.0000000000000000     
   2.8332460513855611E-002   5.6704165472745212E-002   0.0000000000000000     
   3.0721734906950578E-002   6.3081408357567800E-002   0.0000000000000000     
   3.2711492511766062E-002   6.9295972421890978E-002   0.0000000000000000     
   3.4301733328302046E-002   7.5347857665714738E-002   0.0000000000000000     
   3.5492457356558538E-002   8.1237064089039079E-002   0.0000000000000000     
   2.4901011061254488E-002   5.6797291733307886E-002   0.0000000000000000     
   2.6886521782243829E-002   6.3002471446083702E-002   0.0000000000000000     
   2.8549797042416107E-002   6.9095335732579019E-002   0.0000000000000000     
   2.9890836841771316E-002   7.5075884592793865E-002   0.0000000000000000     
   3.0909641180309456E-002   8.0944118026728240E-002   0.0000000000000000     
   2.1348252424286469E-002   5.6591648289284598E-002   0.0000000000000000     
   2.2999159059381220E-002   6.2771312592341533E-002   0.0000000000000000     
   2.4385669320373837E-002   6.8844005149412246E-002   0.0000000000000000     
   2.5507783207264302E-002   7.4809725960496759E-002   0.0000000000000000     
   2.6365500720052629E-002   8.0668475025594974E-002   0.0000000000000000     
   1.7674184602951552E-002   5.6087235140675339E-002   0.0000000000000000     
   1.9059646738362749E-002   6.2387931796341348E-002   0.0000000000000000     
   2.0219109345639232E-002   6.8541980672390701E-002   0.0000000000000000     
   2.1152572424781003E-002   7.4549381768823336E-002   0.0000000000000000     
   2.1860035975788047E-002   8.0410135085639309E-002   0.0000000000000000     
   1.3878807597249737E-002   5.5284052287480123E-002   0.0000000000000000     
   1.5067984819188425E-002   6.1852329058083126E-002   0.0000000000000000     
   1.6050117118212318E-002   6.8189262301514314E-002   0.0000000000000000     
   1.6825204494321417E-002   7.4294852017773680E-002   0.0000000000000000     
   1.7393246947515720E-002   8.0169098206861245E-002   0.0000000000000000     
   3.5492457356558538E-002   8.1237064089039079E-002   0.0000000000000000     
   3.6511927423212152E-002   8.7179277434082408E-002   0.0000000000000000     
   3.7588406354939485E-002   9.3390183443063074E-002   0.0000000000000000     
   3.8721894151740530E-002   9.9869782115981104E-002   0.0000000000000000     
   3.9912390813615306E-002  0.10661807345283647        0.0000000000000000     
   3.0909641180309456E-002   8.0944118026728240E-002   0.0000000000000000     
   3.1791976888777933E-002   8.6890285187632629E-002   0.0000000000000000     
   3.2723610797924151E-002   9.3104635228757573E-002   0.0000000000000000     
   3.3704542907748110E-002   9.9587168150103017E-002   0.0000000000000000     
   3.4734773218249804E-002  0.10633788395166904        0.0000000000000000     
   2.6365500720052629E-002   8.0668475025594974E-002   0.0000000000000000     
   2.7112629158187601E-002   8.6609873715276064E-002   0.0000000000000000     
   2.7902975821118021E-002   9.2823543400109024E-002   0.0000000000000000     
   2.8736540708843891E-002   9.9309484080093893E-002   0.0000000000000000     
   2.9613323821365199E-002  0.10606769575523065        0.0000000000000000     
   2.1860035975788047E-002   8.0410135085639309E-002   0.0000000000000000     
   2.2473884231441154E-002   8.6338043017012658E-002   0.0000000000000000     
   2.3126501424521096E-002   9.2546907957117466E-002   0.0000000000000000     
   2.3817887555027881E-002   9.9036729905953677E-002   0.0000000000000000     
   2.4548042622961501E-002  0.10580750886352133        0.0000000000000000     
   1.7393246947515720E-002   8.0169098206861245E-002   0.0000000000000000     
   1.7875742108538584E-002   8.6074793092842480E-002   0.0000000000000000     
   1.8394187608133373E-002   9.2274728899782860E-002   0.0000000000000000     
   1.8948583446300082E-002   9.8768905627682382E-002   0.0000000000000000     
   1.9538929623038714E-002  0.10555732327654106        0.0000000000000000     
   3.9912390813615306E-002  0.10661807345283647        0.0000000000000000     
   4.1105718918443584E-002  0.11357305112322352        0.0000000000000000     
   4.2247701044105128E-002  0.12067270879673658        0.0000000000000000     
   4.3338337190599950E-002  0.12791704647337568        0.0000000000000000     
   4.4377627357928037E-002  0.13530606415314075        0.0000000000000000     
   3.4734773218249804E-002  0.10633788395166904        0.0000000000000000     
   3.5767762497093958E-002  0.11329719168497958        0.0000000000000000     
   3.6756971511945319E-002  0.12040550040155862        0.0000000000000000     
   3.7702400262803880E-002  0.12766281010140618        0.0000000000000000     
   3.8604048749669641E-002  0.13506912078452227        0.0000000000000000     
   2.9613323821365199E-002  0.10606769575523065        0.0000000000000000     
   3.0493053303849112E-002  0.11303763464605865        0.0000000000000000     
   3.1335457301462789E-002  0.12015875697311712        0.0000000000000000     
   3.2140535814206228E-002  0.12743106273640611        0.0000000000000000     
   3.2908288842079442E-002  0.13485455193592563        0.0000000000000000     
   2.4548042622961501E-002  0.10580750886352133        0.0000000000000000     
   2.5281591338709022E-002  0.11279438000646072        0.0000000000000000     
   2.5983158412657522E-002  0.11993247851141207        0.0000000000000000     
   2.6652743844806988E-002  0.12722180437837546        0.0000000000000000     
   2.7290347635157433E-002  0.13466235760735085        0.0000000000000000     
   1.9538929623038714E-002  0.10555732327654106        0.0000000000000000     
   2.0133376601673712E-002  0.11256742776618581        0.0000000000000000     
   2.0700074845529534E-002  0.11972666501644351        0.0000000000000000     
   2.1239024354606163E-002  0.12703503502731420        0.0000000000000000     
   2.1750225128903622E-002  0.13449253779879788        0.0000000000000000     
   4.4377627357928037E-002  0.13530606415314075        0.0000000000000000     
   4.5355699301137885E-002  0.14280805780953276        0.0000000000000000     
   4.6262680775277960E-002  0.15039132341605255        0.0000000000000000     
   4.7098571780348264E-002  0.15805586097270014        0.0000000000000000     
   4.7863372316348803E-002  0.16580167047947550        0.0000000000000000     
   3.8604048749669641E-002  0.13506912078452227        0.0000000000000000     
   3.9452528017795960E-002  0.14258924539831630        0.0000000000000000     
   4.0238449112436209E-002  0.15018799689019766        0.0000000000000000     
   4.0961812033590381E-002  0.15786537526016634        0.0000000000000000     
   4.1622616781258476E-002  0.16562138050822237        0.0000000000000000     
   3.2908288842079442E-002  0.13485455193592563        0.0000000000000000     
   3.3630389593352801E-002  0.14239190596963205        0.0000000000000000     
   3.4298511276296698E-002  0.15000580623548176        0.0000000000000000     
   3.4912653890911152E-002  0.15769625273347482        0.0000000000000000     
   3.5472817437196151E-002  0.16546324546361116        0.0000000000000000     
   2.7290347635157433E-002  0.13466235760735085        0.0000000000000000     
   2.7889284027808398E-002  0.14221603952348005        0.0000000000000000     
   2.8442867266859455E-002  0.14984475145190498        0.0000000000000000     
   2.8951097352310603E-002  0.15754849339262555        0.0000000000000000     
   2.9413974284161835E-002  0.16532726534564191        0.0000000000000000     
   2.1750225128903622E-002  0.13449253779879788        0.0000000000000000     
   2.2229211321162758E-002  0.14206164605986030        0.0000000000000000     
   2.2671517084124453E-002  0.14970483253946723        0.0000000000000000     
   2.3077142417788712E-002  0.15742209723761863        0.0000000000000000     
   2.3446087322155522E-002  0.16521344015431455        0.0000000000000000     
   4.7863372316348803E-002  0.16580167047947550        0.0000000000000000     
   4.8569137728517939E-002  0.17363860078835758        0.0000000000000000     
   4.9227923362094028E-002  0.18157650075132534        0.0000000000000000     
   4.9839729217077078E-002  0.18961537036837875        0.0000000000000000     
   5.0404555293467088E-002  0.19775520963951776        0.0000000000000000     
   4.1622616781258476E-002  0.16562138050822237        0.0000000000000000     
   4.2231250509522408E-002  0.17346843458023778        0.0000000000000000     
   4.2798100372464086E-002  0.18141895942208469        0.0000000000000000     
   4.3323166370083495E-002  0.18947295503376296        0.0000000000000000     
   4.3806448502380663E-002  0.19763042141527271        0.0000000000000000     
   3.5472817437196151E-002  0.16546324546361116        0.0000000000000000     
   3.5987740745220029E-002  0.17332102728343468        0.0000000000000000     
   3.6466162645051134E-002  0.18128384105048928        0.0000000000000000     
   3.6908083136689460E-002  0.18935168676477490        0.0000000000000000     
   3.7313502220135006E-002  0.19752456442629160        0.0000000000000000     
   2.9413974284161835E-002  0.16532726534564191        0.0000000000000000     
   2.9838608435610803E-002  0.17319637889794828        0.0000000000000000     
   3.0232110179855186E-002  0.18117114563653919        0.0000000000000000     
   3.0594479516894962E-002  0.18925156556141454        0.0000000000000000     
   3.0925716446730141E-002  0.19743763867257436        0.0000000000000000     
   2.3446087322155522E-002  0.16521344015431455        0.0000000000000000     
   2.3783853580694746E-002  0.17309448942377861        0.0000000000000000     
   2.4095942976876242E-002  0.18108087318023439        0.0000000000000000     
   2.4382355510700005E-002  0.18917259142368187        0.0000000000000000     
   2.4643091182166042E-002  0.19736964415412103        0.0000000000000000     
   5.0404555293467088E-002  0.19775520963951776        0.0000000000000000     
   5.0914182684871051E-002  0.20598017512745886        0.0000000000000000     
   5.1360392484895975E-002  0.21427442339491834        0.0000000000000000     
   5.1743184693541860E-002  0.22263795444189613        0.0000000000000000     
   5.2062559310808713E-002  0.23107076826839235        0.0000000000000000     
   4.3806448502380663E-002  0.19763042141527271        0.0000000000000000     
   4.4241308205685538E-002  0.20587233214921702        0.0000000000000000     
   4.4621106916328132E-002  0.21417966081819895        0.0000000000000000     
   4.4945844634308417E-002  0.22255240742221849        0.0000000000000000     
   4.5215521359626414E-002  0.23099057196127565        0.0000000000000000     
   3.7313502220135006E-002  0.19752456442629160        0.0000000000000000     
   3.7677316194133642E-002  0.20578072603786168        0.0000000000000000     
   3.7994421357431196E-002  0.21409842360230760        0.0000000000000000     
   3.8264817710027682E-002  0.22247765711962939        0.0000000000000000     
   3.8488505251923100E-002  0.23091842658982698        0.0000000000000000     
   3.0925716446730141E-002  0.19743763867257436        0.0000000000000000     
   3.1222206650215335E-002  0.20570535679339289        0.0000000000000000     
   3.1480335808205175E-002  0.21403071174724439        0.0000000000000000     
   3.1700103920699663E-002  0.22241370353412881        0.0000000000000000     
   3.1881510987698793E-002  0.23085433215404624        0.0000000000000000     
   2.4643091182166042E-002  0.19736964415412103        0.0000000000000000     
   2.4875979573930639E-002  0.20564622441581057        0.0000000000000000     
   2.5078850268650074E-002  0.21397652525300917        0.0000000000000000     
   2.5251703266324355E-002  0.22236054666571675        0.0000000000000000     
   2.5394538566953478E-002  0.23079828865393340        0.0000000000000000     
   5.2062559310808713E-002  0.23107076826839235        0.0000000000000000     
   5.2328441713044557E-002  0.23956593223228312        0.0000000000000000     
   5.2550757276597457E-002  0.24811651369144475        0.0000000000000000     
   5.2729506001467398E-002  0.25672251264587720        0.0000000000000000     
   5.2864687887654381E-002  0.26538392909558045        0.0000000000000000     
   4.5215521359626414E-002  0.23099057196127565        0.0000000000000000     
   4.5440561535776719E-002  0.23948040638457591        0.0000000000000000     
   4.5631389606253972E-002  0.24800816264132455        0.0000000000000000     
   4.5788005571058138E-002  0.25657384073152173        0.0000000000000000     
   4.5910409430189258E-002  0.26517744065516735        0.0000000000000000     
   3.8488505251923100E-002  0.23091842658982698        0.0000000000000000     
   3.8675589236582347E-002  0.23940166774265409        0.0000000000000000     
   3.8836174917470323E-002  0.24790831630786447        0.0000000000000000     
   3.8970262294587006E-002  0.25643837228545818        0.0000000000000000     
   3.9077851367932424E-002  0.26499183567543516        0.0000000000000000     
   3.1881510987698793E-002  0.23085433215404624        0.0000000000000000     
   3.2033524815461456E-002  0.23932971630651773        0.0000000000000000     
   3.2165113210246517E-002  0.24781697469106451        0.0000000000000000     
   3.2276276172053989E-002  0.25631610730768650        0.0000000000000000     
   3.2367013700883865E-002  0.26482711415638394        0.0000000000000000     
   2.5394538566953478E-002  0.23079828865393340        0.0000000000000000     
   2.5514368272414024E-002  0.23926455207616676        0.0000000000000000     
   2.5618204484582553E-002  0.24773413779092462        0.0000000000000000     
   2.5706047203459082E-002  0.25620704579820691        0.0000000000000000     
   2.5777896429043601E-002  0.26468327609801362        0.0000000000000000     
   5.2864687887654381E-002  0.26538392909558045        0.0000000000000000     
   5.2986540579058300E-002  0.27405115120948986        0.0000000000000000     
   5.3125301719579056E-002  0.28267456715654088        0.0000000000000000     
   5.3280971309216635E-002  0.29125417693673333        0.0000000000000000     
   5.3453549347971058E-002  0.29978998055006734        0.0000000000000000     
   4.5910409430189258E-002  0.26517744065516735        0.0000000000000000     
   4.6022204832516476E-002  0.27376867358639584        0.0000000000000000     
   4.6146995426908956E-002  0.28229725069934181        0.0000000000000000     
   4.6284781213366696E-002  0.29076317199400503        0.0000000000000000     
   4.6435562191889712E-002  0.29916643747038579        0.0000000000000000     
   3.9077851367932424E-002  0.26499183567543516        0.0000000000000000     
   3.9177268993707992E-002  0.27351718277785508        0.0000000000000000     
   3.9286842028115151E-002  0.28196288989277779        0.0000000000000000     
   3.9406570471153909E-002  0.29032895702020312        0.0000000000000000     
   3.9536454322824252E-002  0.29861538416013123        0.0000000000000000     
   3.2367013700883865E-002  0.26482711415638394        0.0000000000000000     
   3.2451733062632861E-002  0.27329667878386754        0.0000000000000000     
   3.2544841523197657E-002  0.28167148473684878        0.0000000000000000     
   3.2646339082578260E-002  0.28995153201532747        0.0000000000000000     
   3.2756225740774678E-002  0.29813682061930358        0.0000000000000000     
   2.5777896429043601E-002  0.26468327609801362        0.0000000000000000     
   2.5845597039291068E-002  0.27310716160443343        0.0000000000000000     
   2.5920993912156458E-002  0.28142303523155493        0.0000000000000000     
   2.6004087047639769E-002  0.28963089697937805        0.0000000000000000     
   2.6094876445740996E-002  0.29773074684790291        0.0000000000000000     
   1.3878807597249737E-002   5.5284052287480123E-002   0.0000000000000000     
   1.5067984819188425E-002   6.1852329058083126E-002   0.0000000000000000     
   1.6050117118212318E-002   6.8189262301514314E-002   0.0000000000000000     
   1.6825204494321417E-002   7.4294852017773680E-002   0.0000000000000000     
   1.7393246947515720E-002   8.0169098206861245E-002   0.0000000000000000     
   1.0119358417241691E-002   5.4450555539653951E-002   0.0000000000000000     
   1.1112933224019636E-002   6.1317079558654099E-002   0.0000000000000000     
   1.1919328528890012E-002   6.7858455146031185E-002   0.0000000000000000     
   1.2538544331852816E-002   7.4074682301785211E-002   0.0000000000000000     
   1.2970580632908050E-002   7.9965761025916141E-002   0.0000000000000000     
   6.5530740729880799E-003   5.3855200707151829E-002   0.0000000000000000     
   7.2832518750177910E-003   6.0934758479141524E-002   0.0000000000000000     
   7.8673794684692572E-003   6.7622164315189345E-002   0.0000000000000000     
   8.3054568533424758E-003   7.3917418215295280E-002   0.0000000000000000     
   8.5974840296374495E-003   7.9820520179459342E-002   0.0000000000000000     
   3.1799545644889049E-003   5.3497987789973750E-002   0.0000000000000000     
   3.5789407721828885E-003   6.0705365819545401E-002   0.0000000000000000     
   3.8942699369500519E-003   6.7480389808988808E-002   0.0000000000000000     
   4.1259420587903941E-003   7.3823059758303972E-002   0.0000000000000000     
   4.2739571377039152E-003   7.9733375667490877E-002   0.0000000000000000     
  -1.0825583485196688E-010   5.3378916788119721E-002   0.0000000000000000     
  -8.4485071499482145E-011   6.0628901579865731E-002   0.0000000000000000     
  -6.5667602974252282E-011   6.7433131627429560E-002   0.0000000000000000     
  -5.1803428869701476E-011   7.3791606930811229E-002   0.0000000000000000     
  -4.2892549755035869E-011   7.9704327490010718E-002   0.0000000000000000     
   1.7393246947515720E-002   8.0169098206861245E-002   0.0000000000000000     
   1.7875742108538584E-002   8.6074793092842480E-002   0.0000000000000000     
   1.8394187608133373E-002   9.2274728899782860E-002   0.0000000000000000     
   1.8948583446300082E-002   9.8768905627682382E-002   0.0000000000000000     
   1.9538929623038714E-002  0.10555732327654106        0.0000000000000000     
   1.2970580632908050E-002   7.9965761025916141E-002   0.0000000000000000     
   1.3325127683728358E-002   8.5848203496647082E-002   0.0000000000000000     
   1.3711875735986393E-002   9.2038521892201089E-002   0.0000000000000000     
   1.4130824789682155E-002   9.8536716212578132E-002   0.0000000000000000     
   1.4581974844815644E-002  0.10534278645777828        0.0000000000000000     
   8.5974840296374495E-003   7.9820520179459342E-002   0.0000000000000000     
   8.8289658512589377E-003   8.5686353782308058E-002   0.0000000000000000     
   9.0854071721117105E-003   9.1869802598467970E-002   0.0000000000000000     
   9.3668079921957626E-003   9.8370866627939077E-002   0.0000000000000000     
   9.6731683115110993E-003  0.10518954587072135        0.0000000000000000     
   4.2739571377039152E-003   7.9733375667490877E-002   0.0000000000000000     
   4.3872566111303217E-003   8.5589243949825422E-002   0.0000000000000000     
   4.5147819165093179E-003   9.1768571018583545E-002   0.0000000000000000     
   4.6565330538409049E-003   9.8271356873765162E-002   0.0000000000000000     
   4.8125100231250816E-003  0.10509760151537036        0.0000000000000000     
  -4.2892549755035869E-011   7.9704327490010718E-002   0.0000000000000000     
  -3.6657492145930615E-011   8.5556873999199187E-002   0.0000000000000000     
  -3.0820783317002387E-011   9.1734827152547771E-002   0.0000000000000000     
  -2.5382422915885480E-011   9.8238186950056469E-002   0.0000000000000000     
  -2.0342408747070495E-011  0.10506695339172527        0.0000000000000000     
   1.9538929623038714E-002  0.10555732327654106        0.0000000000000000     
   2.0133376601673712E-002  0.11256742776618581        0.0000000000000000     
   2.0700074845529534E-002  0.11972666501644351        0.0000000000000000     
   2.1239024354606163E-002  0.12703503502731420        0.0000000000000000     
   2.1750225128903622E-002  0.13449253779879788        0.0000000000000000     
   1.4581974844815644E-002  0.10534278645777828        0.0000000000000000     
   1.5037597220851006E-002  0.11237597685475098        0.0000000000000000     
   1.5469963237252393E-002  0.11955553163044584        0.0000000000000000     
   1.5879072894019804E-002  0.12688145078486285        0.0000000000000000     
   1.6264926191153245E-002  0.13435373431800202        0.0000000000000000     
   9.6731683115110993E-003  0.10518954587072135        0.0000000000000000     
   9.9834413243487328E-003  0.11223922620167336        0.0000000000000000     
   1.0276580224999686E-002  0.11943329349565353        0.0000000000000000     
   1.0552585013463959E-002  0.12677174775266190        0.0000000000000000     
   1.0811455689741550E-002  0.13425458897269840        0.0000000000000000     
   4.8125100231250816E-003  0.10509760151537036        0.0000000000000000     
   4.9709089121669015E-003  0.11215717580695288        0.0000000000000000     
   5.1199258087714153E-003  0.11935995061206649        0.0000000000000000     
   5.2595607129386265E-003  0.12670592593071123        0.0000000000000000     
   5.3898136246685316E-003  0.13419510176288704        0.0000000000000000     
  -2.0342408747070495E-011  0.10506695339172527        0.0000000000000000     
  -1.5694492363702017E-011  0.11212982567058957        0.0000000000000000     
  -1.1432420440014857E-011  0.11933550297968480        0.0000000000000000     
  -7.5561917562815689E-012  0.12668398531901093        0.0000000000000000     
  -4.0658071527588380E-012  0.13417527268856799        0.0000000000000000     
   2.1750225128903622E-002  0.13449253779879788        0.0000000000000000     
   2.2229211321162758E-002  0.14206164605986030        0.0000000000000000     
   2.2671517084124453E-002  0.14970483253946723        0.0000000000000000     
   2.3077142417788712E-002  0.15742209723761863        0.0000000000000000     
   2.3446087322155522E-002  0.16521344015431455        0.0000000000000000     
   1.6264926191153245E-002  0.13435373431800202        0.0000000000000000     
   1.6625218405631772E-002  0.14193594620823530        0.0000000000000000     
   1.6957644814434455E-002  0.14959165043393469        0.0000000000000000     
   1.7262205417561280E-002  0.15732084699510018        0.0000000000000000     
   1.7538900215012265E-002  0.16512353589173184        0.0000000000000000     
   1.0811455689741550E-002  0.13425458897269840        0.0000000000000000     
   1.1052352213431335E-002  0.14184616059806748        0.0000000000000000     
   1.1274434544132191E-002  0.14951080607107350        0.0000000000000000     
   1.1477702681844117E-002  0.15724852539171646        0.0000000000000000     
   1.1662156626567112E-002  0.16505931855999634        0.0000000000000000     
   5.3898136246685316E-003  0.13419510176288704        0.0000000000000000     
   5.5106127445614427E-003  0.14179228922935694        0.0000000000000000     
   5.6218862732176685E-003  0.14946229945088371        0.0000000000000000     
   5.7236342106372082E-003  0.15720513242746745        0.0000000000000000     
   5.8158565568200635E-003  0.16502078815910812        0.0000000000000000     
  -4.0658071527588380E-012  0.13417527268856799        0.0000000000000000     
  -9.7790200416503215E-013  0.14177433210210358        0.0000000000000000     
   1.6908872305793077E-012  0.14944613057336528        0.0000000000000000     
   3.9405608225247246E-012  0.15719066810235313        0.0000000000000000     
   5.7711205606048033E-012  0.16500794468906710        0.0000000000000000     
   2.3446087322155522E-002  0.16521344015431455        0.0000000000000000     
   2.3783853580694746E-002  0.17309448942377861        0.0000000000000000     
   2.4095942976876242E-002  0.18108087318023439        0.0000000000000000     
   2.4382355510700005E-002  0.18917259142368187        0.0000000000000000     
   2.4643091182166042E-002  0.19736964415412103        0.0000000000000000     
   1.7538900215012265E-002  0.16512353589173184        0.0000000000000000     
   1.7791688136674127E-002  0.17301529315712985        0.0000000000000000     
   1.8024528112433606E-002  0.18101169482459450        0.0000000000000000     
   1.8237420142290697E-002  0.18911274089412580        0.0000000000000000     
   1.8430364226245402E-002  0.19731843136572366        0.0000000000000000     
   1.1662156626567112E-002  0.16505931855999634        0.0000000000000000     
   1.1830324059751247E-002  0.17295872439420623        0.0000000000000000     
   1.1984732662846590E-002  0.18096228171263923        0.0000000000000000     
   1.2125382435853142E-002  0.18906999051529522        0.0000000000000000     
   1.2252273378770899E-002  0.19728185080217434        0.0000000000000000     
   5.8158565568200635E-003  0.16502078815910812        0.0000000000000000     
   5.8997613499261027E-003  0.17292478313500775        0.0000000000000000     
   5.9765566281151953E-003  0.18093263384436845        0.0000000000000000     
   6.0462423913873386E-003  0.18904434028719019        0.0000000000000000     
   6.1088186397425378E-003  0.19725990246347302        0.0000000000000000     
   5.7711205606048033E-012  0.16500794468906710        0.0000000000000000     
   7.1986958494890674E-012  0.17291346937953442        0.0000000000000000     
   8.2394196717142099E-012  0.18092275121978227        0.0000000000000000     
   8.8932915122841988E-012  0.18903579020981071        0.0000000000000000     
   9.1603109646232195E-012  0.19725258634961967        0.0000000000000000     
   2.4643091182166042E-002  0.19736964415412103        0.0000000000000000     
   2.4875979573930639E-002  0.20564622441581057        0.0000000000000000     
   2.5078850268650074E-002  0.21397652525300917        0.0000000000000000     
   2.5251703266324355E-002  0.22236054666571675        0.0000000000000000     
   2.5394538566953478E-002  0.23079828865393340        0.0000000000000000     
   1.8430364226245402E-002  0.19731843136572366        0.0000000000000000     
   1.8602391469283070E-002  0.20560158721456920        0.0000000000000000     
   1.8752532976389052E-002  0.21393502941584333        0.0000000000000000     
   1.8880788747563347E-002  0.22231875796954603        0.0000000000000000     
   1.8987158782805949E-002  0.23075277287567739        0.0000000000000000     
   1.2252273378770899E-002  0.19728185080217434        0.0000000000000000     
   1.2365198840276179E-002  0.20556970349912310        0.0000000000000000     
   1.2463952169045289E-002  0.21390538953198815        0.0000000000000000     
   1.2548533365078232E-002  0.22228890890076947        0.0000000000000000     
   1.2618942428375005E-002  0.23072026160546705        0.0000000000000000     
   6.1088186397425378E-003  0.19725990246347302        0.0000000000000000     
   6.1644016869099602E-003  0.20555057326947226        0.0000000000000000     
   6.2131078466187853E-003  0.21388760560144365        0.0000000000000000     
   6.2549371188690105E-003  0.22227099945938700        0.0000000000000000     
   6.2898895036606339E-003  0.23070075484330235        0.0000000000000000     
   9.1603109646232195E-012  0.19725258634961967        0.0000000000000000     
   9.1844155978432207E-012  0.20554419652561684        0.0000000000000000     
   9.1095365842633336E-012  0.21388167762420984        0.0000000000000000     
   8.9356802393612128E-012  0.22226502964539865        0.0000000000000000     
   8.6628408439703986E-012  0.23069425258918330        0.0000000000000000     
   2.5394538566953478E-002  0.23079828865393340        0.0000000000000000     
   2.5514368272414024E-002  0.23926455207616676        0.0000000000000000     
   2.5618204484582553E-002  0.24773413779092462        0.0000000000000000     
   2.5706047203459082E-002  0.25620704579820691        0.0000000000000000     
   2.5777896429043601E-002  0.26468327609801362        0.0000000000000000     
   1.8987158782805949E-002  0.23075277287567739        0.0000000000000000     
   1.9076443302902091E-002  0.23921050277714723        0.0000000000000000     
   1.9153442528636971E-002  0.24766537631686547        0.0000000000000000     
   1.9218156460010599E-002  0.25611739349483198        0.0000000000000000     
   1.9270585097022976E-002  0.26456655431104686        0.0000000000000000     
   1.2618942428375005E-002  0.23072026160546705        0.0000000000000000     
   1.2678073602387666E-002  0.23917189613500506        0.0000000000000000     
   1.2728821130568283E-002  0.24761626097830758        0.0000000000000000     
   1.2771185012916849E-002  0.25605335613537467        0.0000000000000000     
   1.2805165249433368E-002  0.26448318160620632        0.0000000000000000     
   6.2898895036606339E-003  0.23070075484330235        0.0000000000000000     
   6.3192591708707618E-003  0.23914873214974022        0.0000000000000000     
   6.3443402903764941E-003  0.24758679177525106        0.0000000000000000     
   6.3651328621778334E-003  0.25601493371983491        0.0000000000000000     
   6.3816368862747771E-003  0.26443315798349182        0.0000000000000000     
   8.6628408439703986E-012  0.23069425258918330        0.0000000000000000     
   8.3513666902096384E-012  0.23914101082135275        0.0000000000000000     
   8.0616034681124660E-012  0.24757696870769597        0.0000000000000000     
   7.7935481419127983E-012  0.25600212624821284        0.0000000000000000     
   7.5472020126532424E-012  0.26441648344290347        0.0000000000000000     
   2.5777896429043601E-002  0.26468327609801362        0.0000000000000000     
   2.5845597039291068E-002  0.27310716160443343        0.0000000000000000     
   2.5920993912156458E-002  0.28142303523155493        0.0000000000000000     
   2.6004087047639769E-002  0.28963089697937805        0.0000000000000000     
   2.6094876445740996E-002  0.29773074684790291        0.0000000000000000     
   1.9270585097022976E-002  0.26456655431104686        0.0000000000000000     
   1.9320420172685329E-002  0.27295489080387342        0.0000000000000000     
   1.9377353420008889E-002  0.28122443501167477        0.0000000000000000     
   1.9441384838993665E-002  0.28937518693445091        0.0000000000000000     
   1.9512514429639645E-002  0.29740714657220196        0.0000000000000000     
   1.2805165249433368E-002  0.26448318160620632        0.0000000000000000     
   1.2837761711818343E-002  0.27284612594650837        0.0000000000000000     
   1.2875974271772287E-002  0.28108257771198697        0.0000000000000000     
   1.2919802929295196E-002  0.28919253690264202        0.0000000000000000     
   1.2969247684387071E-002  0.29717600351847345        0.0000000000000000     
   6.3816368862747771E-003  0.26443315798349182        0.0000000000000000     
   6.3976216566901181E-003  0.27278086703233845        0.0000000000000000     
   6.4168564674466494E-003  0.28099746333249159        0.0000000000000000     
   6.4393413185443674E-003  0.28908294688395120        0.0000000000000000     
   6.4650762099832731E-003  0.29703731768671732        0.0000000000000000     
   7.5472020126532424E-012  0.26441648344290347        0.0000000000000000     
   7.3006485839383073E-012  0.27275911406136344        0.0000000000000000     
   7.0319729856757607E-012  0.28096909187318853        0.0000000000000000     
   6.7411744318190275E-012  0.28904641687837856        0.0000000000000000     
   6.4282520279013156E-012  0.29699108907693367        0.0000000000000000     
  -1.0825583485196688E-010   5.3378916788119721E-002   0.0000000000000000     
  -8.4485071499482145E-011   6.0628901579865731E-002   0.0000000000000000     
  -6.5667602974252282E-011   6.7433131627429560E-002   0.0000000000000000     
  -5.1803428869701476E-011   7.3791606930811229E-002   0.0000000000000000     
  -4.2892549755035869E-011   7.9704327490010718E-002   0.0000000000000000     
  -3.1799547763178408E-003   5.3497987712201628E-002   0.0000000000000000     
  -3.5789409379218952E-003   6.0705365766481223E-002   0.0000000000000000     
  -3.8942700661558824E-003   6.7480389773851845E-002   0.0000000000000000     
  -4.1259421610198013E-003   7.3823059734313454E-002   0.0000000000000000     
  -4.2739572225136517E-003   7.9733375647866075E-002   0.0000000000000000     
  -6.5530742707688144E-003   5.3855200572831372E-002   0.0000000000000000     
  -7.2832520310633884E-003   6.0934758385770615E-002   0.0000000000000000     
  -7.8673795912869611E-003   6.7622164251595812E-002   0.0000000000000000     
  -8.3054569514395288E-003   7.3917418170306975E-002   0.0000000000000000     
  -8.5974841115210952E-003   7.9820520141904105E-002   0.0000000000000000     
  -1.0119358591608757E-002   5.4450555370008959E-002   0.0000000000000000     
  -1.1112933363909554E-002   6.1317079437733887E-002   0.0000000000000000     
  -1.1919328641060841E-002   6.7858455060661529E-002   0.0000000000000000     
  -1.2538544423062613E-002   7.4074682238791822E-002   0.0000000000000000     
  -1.2970580709914879E-002   7.9965760972124794E-002   0.0000000000000000     
  -1.3878807738837666E-002   5.5284052103734369E-002   0.0000000000000000     
  -1.5067984936460388E-002   6.1852328922371080E-002   0.0000000000000000     
  -1.6050117215477520E-002   6.8189262201048956E-002   0.0000000000000000     
  -1.6825204575889059E-002   7.4294851939767981E-002   0.0000000000000000     
  -1.7393247017695006E-002   8.0169098138528155E-002   0.0000000000000000     
  -4.2892549755035869E-011   7.9704327490010718E-002   0.0000000000000000     
  -3.6657492145930615E-011   8.5556873999199187E-002   0.0000000000000000     
  -3.0820783317002387E-011   9.1734827152547771E-002   0.0000000000000000     
  -2.5382422915885480E-011   9.8238186950056469E-002   0.0000000000000000     
  -2.0342408747070495E-011  0.10506695339172527        0.0000000000000000     
  -4.2739572225136517E-003   7.9733375647866075E-002   0.0000000000000000     
  -4.3872566836707007E-003   8.5589243931210701E-002   0.0000000000000000     
  -4.5147819775242159E-003   9.1768571001048321E-002   0.0000000000000000     
  -4.6565331040741937E-003   9.8271356857378950E-002   0.0000000000000000     
  -4.8125100633206394E-003  0.10509760150020257        0.0000000000000000     
  -8.5974841115210952E-003   7.9820520141904105E-002   0.0000000000000000     
  -8.8289659214755064E-003   8.5686353746641325E-002   0.0000000000000000     
  -9.0854072312466037E-003   9.1869802564772882E-002   0.0000000000000000     
  -9.3668080408343957E-003   9.8370866596298692E-002   0.0000000000000000     
  -9.6731683502388754E-003  0.10518954584121884        0.0000000000000000     
  -1.2970580709914879E-002   7.9965760972124794E-002   0.0000000000000000     
  -1.3325127750071900E-002   8.5848203445491086E-002   0.0000000000000000     
  -1.3711875791987949E-002   9.2038521843721424E-002   0.0000000000000000     
  -1.4130824835663022E-002   9.8536716166815738E-002   0.0000000000000000     
  -1.4581974881097118E-002  0.10534278641477404        0.0000000000000000     
  -1.7393247017695006E-002   8.0169098138528155E-002   0.0000000000000000     
  -1.7875742169459894E-002   8.6074793027759999E-002   0.0000000000000000     
  -1.8394187659748248E-002   9.2274728837893963E-002   0.0000000000000000     
  -1.8948583488560076E-002   9.8768905568930032E-002   0.0000000000000000     
  -1.9538929655895369E-002  0.10555732322086821        0.0000000000000000     
  -2.0342408747070495E-011  0.10506695339172527        0.0000000000000000     
  -1.5694492363702017E-011  0.11212982567058957        0.0000000000000000     
  -1.1432420440014857E-011  0.11933550297968480        0.0000000000000000     
  -7.5561917562815689E-012  0.12668398531901093        0.0000000000000000     
  -4.0658071527588380E-012  0.13417527268856799        0.0000000000000000     
  -4.8125100633206394E-003  0.10509760150020257        0.0000000000000000     
  -4.9709089430893267E-003  0.11215717579288161        0.0000000000000000     
  -5.1199258312060354E-003  0.11935995059877845        0.0000000000000000     
  -5.2595607276707656E-003  0.12670592591789315        0.0000000000000000     
  -5.3898136324835181E-003  0.13419510175022573        0.0000000000000000     
  -9.6731683502388754E-003  0.10518954584121884        0.0000000000000000     
  -9.9834413538714816E-003  0.11223922617412714        0.0000000000000000     
  -1.0276580246143646E-002  0.11943329346961756        0.0000000000000000     
  -1.0552585027055366E-002  0.12677174772769009        0.0000000000000000     
  -1.0811455696606645E-002  0.13425458894834472        0.0000000000000000     
  -1.4581974881097118E-002  0.10534278641477404        0.0000000000000000     
  -1.5037597248040956E-002  0.11237597681432622        0.0000000000000000     
  -1.5469963256245249E-002  0.11955553159220210        0.0000000000000000     
  -1.5879072905709991E-002  0.12688145074840168        0.0000000000000000     
  -1.6264926196435197E-002  0.13435373428292499        0.0000000000000000     
  -1.9538929655895369E-002  0.10555732322086821        0.0000000000000000     
  -2.0133376625597752E-002  0.11256742771347880        0.0000000000000000     
  -2.0700074861510848E-002  0.11972666496653206        0.0000000000000000     
  -2.1239024363634649E-002  0.12703503498002797        0.0000000000000000     
  -2.1750225131969166E-002  0.13449253775396658        0.0000000000000000     
  -4.0658071527588380E-012  0.13417527268856799        0.0000000000000000     
  -9.7790200416503215E-013  0.14177433210210358        0.0000000000000000     
   1.6908872305793077E-012  0.14944613057336528        0.0000000000000000     
   3.9405608225247246E-012  0.15719066810235313        0.0000000000000000     
   5.7711205606048033E-012  0.16500794468906710        0.0000000000000000     
  -5.3898136324835181E-003  0.13419510175022573        0.0000000000000000     
  -5.5106127462725418E-003  0.14179228921694340        0.0000000000000000     
  -5.6218862696660963E-003  0.14946229943921363        0.0000000000000000     
  -5.7236342026641771E-003  0.15720513241703632        0.0000000000000000     
  -5.8158565452667886E-003  0.16502078815041152        0.0000000000000000     
  -1.0811455696606645E-002  0.13425458894834472        0.0000000000000000     
  -1.1052352214408319E-002  0.14184616057451241        0.0000000000000000     
  -1.1274434540071227E-002  0.14951080604912409        0.0000000000000000     
  -1.1477702673595363E-002  0.15724852537217981        0.0000000000000000     
  -1.1662156614980733E-002  0.16505931854367950        0.0000000000000000     
  -1.6264926196435197E-002  0.13435373428292499        0.0000000000000000     
  -1.6625218405385236E-002  0.14193594617481048        0.0000000000000000     
  -1.6957644809524507E-002  0.14959165040309672        0.0000000000000000     
  -1.7262205408852996E-002  0.15732084696778351        0.0000000000000000     
  -1.7538900203370719E-002  0.16512353586887110        0.0000000000000000     
  -2.1750225131969166E-002  0.13449253775396658        0.0000000000000000     
  -2.2229211319203288E-002  0.14206164601783772        0.0000000000000000     
  -2.2671517078025925E-002  0.14970483250113137        0.0000000000000000     
  -2.3077142408437074E-002  0.15742209720384762        0.0000000000000000     
  -2.3446087310436736E-002  0.16521344012598629        0.0000000000000000     
   5.7711205606048033E-012  0.16500794468906710        0.0000000000000000     
   7.1986958494890674E-012  0.17291346937953442        0.0000000000000000     
   8.2394196717142099E-012  0.18092275121978227        0.0000000000000000     
   8.8932915122841988E-012  0.18903579020981071        0.0000000000000000     
   9.1603109646232195E-012  0.19725258634961967        0.0000000000000000     
  -5.8158565452667886E-003  0.16502078815041152        0.0000000000000000     
  -5.8997613355938304E-003  0.17292478312817031        0.0000000000000000     
  -5.9765566117652158E-003  0.18093263383914387        0.0000000000000000     
  -6.0462423737809379E-003  0.18904434028333209        0.0000000000000000     
  -6.1088186216410045E-003  0.19725990246073508        0.0000000000000000     
  -1.1662156614980733E-002  0.16505931854367950        0.0000000000000000     
  -1.1830324045614342E-002  0.17295872438129961        0.0000000000000000     
  -1.1984732646883196E-002  0.18096228170271628        0.0000000000000000     
  -1.2125382418787292E-002  0.18906999050792975        0.0000000000000000     
  -1.2252273361326636E-002  0.19728185079693986        0.0000000000000000     
  -1.7538900203370719E-002  0.16512353586887110        0.0000000000000000     
  -1.7791688122862834E-002  0.17301529313892219        0.0000000000000000     
  -1.8024528097114516E-002  0.18101169481049975        0.0000000000000000     
  -1.8237420126125770E-002  0.18911274088360369        0.0000000000000000     
  -1.8430364209896584E-002  0.19731843135823407        0.0000000000000000     
  -2.3446087310436736E-002  0.16521344012598629        0.0000000000000000     
  -2.3783853567339305E-002  0.17309448940103819        0.0000000000000000     
  -2.4095942962459184E-002  0.18108087316249405        0.0000000000000000     
  -2.4382355495796367E-002  0.18917259141035389        0.0000000000000000     
  -2.4643091167350854E-002  0.19736964414461763        0.0000000000000000     
   9.1603109646232195E-012  0.19725258634961967        0.0000000000000000     
   9.1844155978432207E-012  0.20554419652561684        0.0000000000000000     
   9.1095365842633336E-012  0.21388167762420984        0.0000000000000000     
   8.9356802393612128E-012  0.22226502964539865        0.0000000000000000     
   8.6628408439703986E-012  0.23069425258918330        0.0000000000000000     
  -6.1088186216410045E-003  0.19725990246073508        0.0000000000000000     
  -6.1644016687884065E-003  0.20555057326764287        0.0000000000000000     
  -6.2131078286661373E-003  0.21388760560034553        0.0000000000000000     
  -6.2549371012742012E-003  0.22227099945884313        0.0000000000000000     
  -6.2898894866125973E-003  0.23070075484313562        0.0000000000000000     
  -1.2252273361326636E-002  0.19728185079693986        0.0000000000000000     
  -1.2365198822896439E-002  0.20556970349563652        0.0000000000000000     
  -1.2463952151891921E-002  0.21390538952990956        0.0000000000000000     
  -1.2548533348313073E-002  0.22228890889975902        0.0000000000000000     
  -1.2618942412159904E-002  0.23072026160518486        0.0000000000000000     
  -1.8430364209896584E-002  0.19731843135823407        0.0000000000000000     
  -1.8602391453139688E-002  0.20560158720959779        0.0000000000000000     
  -1.8752532960567808E-002  0.21393502941290188        0.0000000000000000     
  -1.8880788732180936E-002  0.22231875796814632        0.0000000000000000     
  -1.8987158767979077E-002  0.23075277287533100        0.0000000000000000     
  -2.4643091167350854E-002  0.19736964414461763        0.0000000000000000     
  -2.4875979559518160E-002  0.20564622440952673        0.0000000000000000     
  -2.5078850254693811E-002  0.21397652524932251        0.0000000000000000     
  -2.5251703252877795E-002  0.22236054666400498        0.0000000000000000     
  -2.5394538554070121E-002  0.23079828865357419        0.0000000000000000     
   8.6628408439703986E-012  0.23069425258918330        0.0000000000000000     
   8.3513666902096384E-012  0.23914101082135275        0.0000000000000000     
   8.0616034681124660E-012  0.24757696870769597        0.0000000000000000     
   7.7935481419127983E-012  0.25600212624821284        0.0000000000000000     
   7.5472020126532424E-012  0.26441648344290347        0.0000000000000000     
  -6.2898894866125973E-003  0.23070075484313562        0.0000000000000000     
  -6.3192591544420163E-003  0.23914873214985893        0.0000000000000000     
  -6.3443402745231555E-003  0.24758679177564907        0.0000000000000000     
  -6.3651328468560071E-003  0.25601493372050593        0.0000000000000000     
  -6.3816368714405798E-003  0.26443315798442962        0.0000000000000000     
  -1.2618942412159904E-002  0.23072026160518486        0.0000000000000000     
  -1.2678073586780894E-002  0.23917189613527498        0.0000000000000000     
  -1.2728821115524543E-002  0.24761626097911735        0.0000000000000000     
  -1.2771184998390838E-002  0.25605335613671193        0.0000000000000000     
  -1.2805165235379787E-002  0.26448318160805878        0.0000000000000000     
  -1.8987158767979077E-002  0.23075277287533100        0.0000000000000000     
  -1.9076443288665271E-002  0.23921050277760092        0.0000000000000000     
  -1.9153442514942554E-002  0.24766537631810090        0.0000000000000000     
  -1.9218156446810943E-002  0.25611739349683077        0.0000000000000000     
  -1.9270585084270424E-002  0.26456655431379072        0.0000000000000000     
  -2.5394538554070121E-002  0.23079828865357419        0.0000000000000000     
  -2.5514368260095139E-002  0.23926455207683681        0.0000000000000000     
  -2.5618204472777205E-002  0.24773413779259959        0.0000000000000000     
  -2.5706047192116326E-002  0.25620704580086257        0.0000000000000000     
  -2.5777896418112491E-002  0.26468327610162568        0.0000000000000000     
   7.5472020126532424E-012  0.26441648344290347        0.0000000000000000     
   7.3006485839383073E-012  0.27275911406136344        0.0000000000000000     
   7.0319729856757607E-012  0.28096909187318853        0.0000000000000000     
   6.7411744318190275E-012  0.28904641687837856        0.0000000000000000     
   6.4282520279013156E-012  0.29699108907693367        0.0000000000000000     
  -6.3816368714405798E-003  0.26443315798442962        0.0000000000000000     
  -6.3976216423437555E-003  0.27278086703356319        0.0000000000000000     
  -6.4168564536324253E-003  0.28099746333404974        0.0000000000000000     
  -6.4393413053065885E-003  0.28908294688588926        0.0000000000000000     
  -6.4650761973662485E-003  0.29703731768908181        0.0000000000000000     
  -1.2805165235379787E-002  0.26448318160805878        0.0000000000000000     
  -1.2837761698236791E-002  0.27284612594891727        0.0000000000000000     
  -1.2875974258707236E-002  0.28108257771504724        0.0000000000000000     
  -1.2919802916791135E-002  0.28919253690644858        0.0000000000000000     
  -1.2969247672488481E-002  0.29717600352312118        0.0000000000000000     
  -1.9270585084270424E-002  0.26456655431379072        0.0000000000000000     
  -1.9320420160378451E-002  0.27295489080742574        0.0000000000000000     
  -1.9377353408192462E-002  0.28122443501618094        0.0000000000000000     
  -1.9441384827712464E-002  0.28937518694005626        0.0000000000000000     
  -1.9512514418938448E-002  0.29740714657905187        0.0000000000000000     
  -2.5777896418112491E-002  0.26468327610162568        0.0000000000000000     
  -2.5845597028768739E-002  0.27310716160908854        0.0000000000000000     
  -2.5920993902088098E-002  0.28142303523745094        0.0000000000000000     
  -2.6004087038070570E-002  0.28963089698671257        0.0000000000000000     
  -2.6094876436716152E-002  0.29773074685687367        0.0000000000000000     
  -1.3878807738837666E-002   5.5284052103734369E-002   0.0000000000000000     
  -1.5067984936460388E-002   6.1852328922371080E-002   0.0000000000000000     
  -1.6050117215477520E-002   6.8189262201048956E-002   0.0000000000000000     
  -1.6825204575889059E-002   7.4294851939767981E-002   0.0000000000000000     
  -1.7393247017695006E-002   8.0169098138528155E-002   0.0000000000000000     
  -1.7674184715378193E-002   5.6087234948948975E-002   0.0000000000000000     
  -1.9059646835538673E-002   6.2387931651005382E-002   0.0000000000000000     
  -2.0219109429629189E-002   6.8541980561047031E-002   0.0000000000000000     
  -2.1152572497649753E-002   7.4549381679073906E-002   0.0000000000000000     
  -2.1860036039600357E-002   8.0410135005085981E-002   0.0000000000000000     
  -2.1348252524152990E-002   5.6591648080594123E-002   0.0000000000000000     
  -2.2999159147967175E-002   6.2771312434960078E-002   0.0000000000000000     
  -2.4385669398608045E-002   6.8844005028944708E-002   0.0000000000000000     
  -2.5507783276075589E-002   7.4809725862548027E-002   0.0000000000000000     
  -2.6365500780369817E-002   8.0668474935770007E-002   0.0000000000000000     
  -2.4901011165162048E-002   5.6797291498669807E-002   0.0000000000000000     
  -2.6886521873745912E-002   6.3002471274235125E-002   0.0000000000000000     
  -2.8549797122414081E-002   6.9095335604741973E-002   0.0000000000000000     
  -2.9890836911166573E-002   7.5075884490190342E-002   0.0000000000000000     
  -3.0909641240003380E-002   8.0944117930580234E-002   0.0000000000000000     
  -2.8332460638405377E-002   5.6704165203176032E-002   0.0000000000000000     
  -3.0721735012874861E-002   6.3081408168830566E-002   0.0000000000000000     
  -3.2711492601047304E-002   6.9295972288438853E-002   0.0000000000000000     
  -3.4301733402922696E-002   7.5347857562000881E-002   0.0000000000000000     
  -3.5492457418501051E-002   8.1237063989516661E-002   0.0000000000000000     
  -1.7393247017695006E-002   8.0169098138528155E-002   0.0000000000000000     
  -1.7875742169459894E-002   8.6074793027759999E-002   0.0000000000000000     
  -1.8394187659748248E-002   9.2274728837893963E-002   0.0000000000000000     
  -1.8948583488560076E-002   9.8768905568930032E-002   0.0000000000000000     
  -1.9538929655895369E-002  0.10555732322086821        0.0000000000000000     
  -2.1860036039600357E-002   8.0410135005085981E-002   0.0000000000000000     
  -2.2473884287060323E-002   8.6338042939494153E-002   0.0000000000000000     
  -2.3126501471608971E-002   9.2546907882709306E-002   0.0000000000000000     
  -2.3817887593246299E-002   9.9036729834731413E-002   0.0000000000000000     
  -2.4548042651972298E-002  0.10580750879556047        0.0000000000000000     
  -2.6365500780369817E-002   8.0668474935770007E-002   0.0000000000000000     
  -2.7112629210294035E-002   8.6609873626739733E-002   0.0000000000000000     
  -2.7902975864651576E-002   9.2823543313586332E-002   0.0000000000000000     
  -2.8736540743442431E-002   9.9309483996309705E-002   0.0000000000000000     
  -2.9613323846666598E-002  0.10606769567490996        0.0000000000000000     
  -3.0909641240003380E-002   8.0944117930580234E-002   0.0000000000000000     
  -3.1791976939161040E-002   8.6890285089496741E-002   0.0000000000000000     
  -3.2723610838876066E-002   9.3104635130524999E-002   0.0000000000000000     
  -3.3704542939148471E-002   9.9587168053664979E-002   0.0000000000000000     
  -3.4734773239978256E-002  0.10633788385891670        0.0000000000000000     
  -3.5492457418501051E-002   8.1237063989516661E-002   0.0000000000000000     
  -3.6511927473661311E-002   8.7179277327765162E-002   0.0000000000000000     
  -3.7588406394282438E-002   9.3390183333525320E-002   0.0000000000000000     
  -3.8721894180364425E-002   9.9869782006797164E-002   0.0000000000000000     
  -3.9912390831907278E-002  0.10661807334758067        0.0000000000000000     
  -1.9538929655895369E-002  0.10555732322086821        0.0000000000000000     
  -2.0133376625597752E-002  0.11256742771347880        0.0000000000000000     
  -2.0700074861510848E-002  0.11972666496653206        0.0000000000000000     
  -2.1239024363634649E-002  0.12703503498002797        0.0000000000000000     
  -2.1750225131969166E-002  0.13449253775396658        0.0000000000000000     
  -2.4548042651972298E-002  0.10580750879556047        0.0000000000000000     
  -2.5281591358906178E-002  0.11279437994185884        0.0000000000000000     
  -2.5983158425167099E-002  0.11993247845028890        0.0000000000000000     
  -2.6652743850755087E-002  0.12722180432085059        0.0000000000000000     
  -2.7290347635670120E-002  0.13466235755354394        0.0000000000000000     
  -2.9613323846666598E-002  0.10606769567490996        0.0000000000000000     
  -3.0493053320330532E-002  0.11303763456974032        0.0000000000000000     
  -3.1335457310440684E-002  0.12015875690115405        0.0000000000000000     
  -3.2140535816997051E-002  0.12743106266915119        0.0000000000000000     
  -3.2908288839999640E-002  0.13485455187373169        0.0000000000000000     
  -3.4734773239978256E-002  0.10633788385891670        0.0000000000000000     
  -3.5767762509870828E-002  0.11329719159712319        0.0000000000000000     
  -3.6756971517331594E-002  0.12040550031912756        0.0000000000000000     
  -3.7702400262360561E-002  0.12766281002492977        0.0000000000000000     
  -3.8604048744957722E-002  0.13506912071452981        0.0000000000000000     
  -3.9912390831907278E-002  0.10661807334758067        0.0000000000000000     
  -4.1105718927527055E-002  0.11357305102400750        0.0000000000000000     
  -4.2247701045839831E-002  0.12067270870420939        0.0000000000000000     
  -4.3338337186845592E-002  0.12791704638818630        0.0000000000000000     
  -4.4377627350544360E-002  0.13530606407593829        0.0000000000000000     
  -2.1750225131969166E-002  0.13449253775396658        0.0000000000000000     
  -2.2229211319203288E-002  0.14206164601783772        0.0000000000000000     
  -2.2671517078025925E-002  0.14970483250113137        0.0000000000000000     
  -2.3077142408437074E-002  0.15742209720384762        0.0000000000000000     
  -2.3446087310436736E-002  0.16521344012598629        0.0000000000000000     
  -2.7290347635670120E-002  0.13466235755354394        0.0000000000000000     
  -2.7889284023910124E-002  0.14221603947381872        0.0000000000000000     
  -2.8442867259473027E-002  0.14984475140712469        0.0000000000000000     
  -2.8951097342358800E-002  0.15754849335346183        0.0000000000000000     
  -2.9413974272567471E-002  0.16532726531283015        0.0000000000000000     
  -3.2908288839999640E-002  0.13485455187373169        0.0000000000000000     
  -3.3630389587553405E-002  0.14239190591297812        0.0000000000000000     
  -3.4298511267763322E-002  0.15000580618497292        0.0000000000000000     
  -3.4912653880629377E-002  0.15769625268971618        0.0000000000000000     
  -3.5472817426151590E-002  0.16546324542720783        0.0000000000000000     
  -3.8604048744957722E-002  0.13506912071452981        0.0000000000000000     
  -3.9452528010133124E-002  0.14258924533531589        0.0000000000000000     
  -4.0238449102896819E-002  0.15018799683467612        0.0000000000000000     
  -4.0961812023248820E-002  0.15786537521261063        0.0000000000000000     
  -4.1622616771189107E-002  0.16562138046911928        0.0000000000000000     
  -4.4377627350544360E-002  0.13530606407593829        0.0000000000000000     
  -4.5355699291649280E-002  0.14280805774083205        0.0000000000000000     
  -4.6262680764873526E-002  0.15039132335623431        0.0000000000000000     
  -4.7098571770217111E-002  0.15805586092214519        0.0000000000000000     
  -4.7863372307680029E-002  0.16580167043856453        0.0000000000000000     
  -2.3446087310436736E-002  0.16521344012598629        0.0000000000000000     
  -2.3783853567339305E-002  0.17309448940103819        0.0000000000000000     
  -2.4095942962459184E-002  0.18108087316249405        0.0000000000000000     
  -2.4382355495796367E-002  0.18917259141035389        0.0000000000000000     
  -2.4643091167350854E-002  0.19736964414461763        0.0000000000000000     
  -2.9413974272567471E-002  0.16532726531283015        0.0000000000000000     
  -2.9838608423059326E-002  0.17319637887153425        0.0000000000000000     
  -3.0232110166794668E-002  0.18117114561587877        0.0000000000000000     
  -3.0594479503773499E-002  0.18925156554586364        0.0000000000000000     
  -3.0925716433995821E-002  0.19743763866148895        0.0000000000000000     
  -3.5472817426151590E-002  0.16546324542720783        0.0000000000000000     
  -3.5987740734038459E-002  0.17332102725429710        0.0000000000000000     
  -3.6466162633998461E-002  0.18128384102783329        0.0000000000000000     
  -3.6908083126031596E-002  0.18935168674781633        0.0000000000000000     
  -3.7313502210137871E-002  0.19752456441424632        0.0000000000000000     
  -4.1622616771189107E-002  0.16562138046911928        0.0000000000000000     
  -4.2231250500276686E-002  0.17346843454932676        0.0000000000000000     
  -4.2798100364070536E-002  0.18141895939835767        0.0000000000000000     
  -4.3323166362570643E-002  0.18947295501621200        0.0000000000000000     
  -4.3806448495777014E-002  0.19763042140288972        0.0000000000000000     
  -4.7863372307680029E-002  0.16580167043856453        0.0000000000000000     
  -4.8569137721774028E-002  0.17363860075662316        0.0000000000000000     
  -4.9227923357010900E-002  0.18157650072745182        0.0000000000000000     
  -4.9839729213390638E-002  0.18961537035105050        0.0000000000000000     
  -5.0404555290913242E-002  0.19775520962741919        0.0000000000000000     
  -2.4643091167350854E-002  0.19736964414461763        0.0000000000000000     
  -2.4875979559518160E-002  0.20564622440952673        0.0000000000000000     
  -2.5078850254693811E-002  0.21397652524932251        0.0000000000000000     
  -2.5251703252877795E-002  0.22236054666400498        0.0000000000000000     
  -2.5394538554070121E-002  0.23079828865357419        0.0000000000000000     
  -3.0925716433995821E-002  0.19743763866148895        0.0000000000000000     
  -3.1222206638082617E-002  0.20570535678608756        0.0000000000000000     
  -3.1480335796654865E-002  0.21403071174299246        0.0000000000000000     
  -3.1700103909712569E-002  0.22241370353220363        0.0000000000000000     
  -3.1881510977255743E-002  0.23085433215372106        0.0000000000000000     
  -3.7313502210137871E-002  0.19752456441424632        0.0000000000000000     
  -3.7677316184883819E-002  0.20578072602994466        0.0000000000000000     
  -3.7994421348835919E-002  0.21409842359773271        0.0000000000000000     
  -3.8264817701994205E-002  0.22247765711761058        0.0000000000000000     
  -3.8488505244358651E-002  0.23091842658957829        0.0000000000000000     
  -4.3806448495777014E-002  0.19763042140288972        0.0000000000000000     
  -4.4241308199921760E-002  0.20587233214109782        0.0000000000000000     
  -4.4621106911236982E-002  0.21417966081354323        0.0000000000000000     
  -4.4945844629722682E-002  0.22255240742022589        0.0000000000000000     
  -4.5215521355378846E-002  0.23099057196114592        0.0000000000000000     
  -5.0404555290913242E-002  0.19775520962741919        0.0000000000000000     
  -5.0914182683196460E-002  0.20598017511954725        0.0000000000000000     
  -5.1360392483858042E-002  0.21427442339042405        0.0000000000000000     
  -5.1743184692898014E-002  0.22263795444004961        0.0000000000000000     
  -5.2062559310316343E-002  0.23107076826842393        0.0000000000000000     
  -2.5394538554070121E-002  0.23079828865357419        0.0000000000000000     
  -2.5514368260095139E-002  0.23926455207683681        0.0000000000000000     
  -2.5618204472777205E-002  0.24773413779259959        0.0000000000000000     
  -2.5706047192116326E-002  0.25620704580086257        0.0000000000000000     
  -2.5777896418112491E-002  0.26468327610162568        0.0000000000000000     
  -3.1881510977255743E-002  0.23085433215372106        0.0000000000000000     
  -3.2033524805528985E-002  0.23932971630741717        0.0000000000000000     
  -3.2165113200776946E-002  0.24781697469316455        0.0000000000000000     
  -3.2276276162999620E-002  0.25631610731096316        0.0000000000000000     
  -3.2367013692197001E-002  0.26482711416081306        0.0000000000000000     
  -3.8488505244358651E-002  0.23091842658957829        0.0000000000000000     
  -3.8675589229425315E-002  0.23940166774377669        0.0000000000000000     
  -3.8836174910690260E-002  0.24790831631034685        0.0000000000000000     
  -3.8970262288153472E-002  0.25643837228928873        0.0000000000000000     
  -3.9077851361814950E-002  0.26499183568060242        0.0000000000000000     
  -4.5215521355378846E-002  0.23099057196114592        0.0000000000000000     
  -4.5440561531784128E-002  0.23948040638591539        0.0000000000000000     
  -4.5631389602517135E-002  0.24800816264414652        0.0000000000000000     
  -4.5788005567577887E-002  0.25657384073583928        0.0000000000000000     
  -4.5910409426966371E-002  0.26517744066099380        0.0000000000000000     
  -5.2062559310316343E-002  0.23107076826842393        0.0000000000000000     
  -5.2328441712605402E-002  0.23956593223383313        0.0000000000000000     
  -5.2550757276257583E-002  0.24811651369456345        0.0000000000000000     
  -5.2729506001272859E-002  0.25672251265061474        0.0000000000000000     
  -5.2864687887651238E-002  0.26538392910198710        0.0000000000000000     
  -2.5777896418112491E-002  0.26468327610162568        0.0000000000000000     
  -2.5845597028768739E-002  0.27310716160908854        0.0000000000000000     
  -2.5920993902088098E-002  0.28142303523745094        0.0000000000000000     
  -2.6004087038070570E-002  0.28963089698671257        0.0000000000000000     
  -2.6094876436716152E-002  0.29773074685687367        0.0000000000000000     
  -3.2367013692197001E-002  0.26482711416081306        0.0000000000000000     
  -3.2451733054311913E-002  0.27329667878955854        0.0000000000000000     
  -3.2544841515287179E-002  0.28167148474404430        0.0000000000000000     
  -3.2646339075122800E-002  0.28995153202427010        0.0000000000000000     
  -3.2756225733818797E-002  0.29813682063023605        0.0000000000000000     
  -3.9077851361814950E-002  0.26499183568060242        0.0000000000000000     
  -3.9177268987912212E-002  0.27351718278448872        0.0000000000000000     
  -3.9286842022682733E-002  0.28196288990114837        0.0000000000000000     
  -3.9406570466126521E-002  0.29032895703058159        0.0000000000000000     
  -3.9536454318243590E-002  0.29861538417278816        0.0000000000000000     
  -4.5910409426966371E-002  0.26517744066099380        0.0000000000000000     
  -4.6022204829569646E-002  0.27376867359387880        0.0000000000000000     
  -4.6146995424274764E-002  0.28229725070876316        0.0000000000000000     
  -4.6284781211081732E-002  0.29076317200564689        0.0000000000000000     
  -4.6435562189990537E-002  0.29916643748453003        0.0000000000000000     
  -5.2864687887651238E-002  0.26538392910198710        0.0000000000000000     
  -5.2986540579284216E-002  0.27405115121772894        0.0000000000000000     
  -5.3125301720063266E-002  0.28267456716688866        0.0000000000000000     
  -5.3280971309988413E-002  0.29125417694946620        0.0000000000000000     
  -5.3453549349059638E-002  0.29978998056546169        0.0000000000000000     
  -2.8332460638405377E-002   5.6704165203176032E-002   0.0000000000000000     
  -3.0721735012874861E-002   6.3081408168830566E-002   0.0000000000000000     
  -3.2711492601047304E-002   6.9295972288438853E-002   0.0000000000000000     
  -3.4301733402922696E-002   7.5347857562000881E-002   0.0000000000000000     
  -3.5492457418501051E-002   8.1237063989516661E-002   0.0000000000000000     
  -3.1890483792236655E-002   5.6629972739348486E-002   0.0000000000000000     
  -3.4682037964511969E-002   6.3186113187829671E-002   0.0000000000000000     
  -3.6996504808357256E-002   6.9528539918741208E-002   0.0000000000000000     
  -3.8833884323772515E-002   7.5657252932083086E-002   0.0000000000000000     
  -4.0194176510757747E-002   8.1572252227855316E-002   0.0000000000000000     
  -3.5822963475009552E-002   5.6892417652422832E-002   0.0000000000000000     
  -3.8944670127815155E-002   6.3494576400315791E-002   0.0000000000000000     
  -4.1530582718193473E-002   6.9875663334355020E-002   0.0000000000000000     
  -4.3580701246144563E-002   7.6035678454540484E-002   0.0000000000000000     
  -4.5095025711668381E-002   8.1974621760872154E-002   0.0000000000000000     
  -4.0129899686724070E-002   5.7491499942399077E-002   0.0000000000000000     
  -4.3509631502784397E-002   6.4006797806288915E-002   0.0000000000000000     
  -4.6313726330555992E-002   7.0337342535280220E-002   0.0000000000000000     
  -4.8542184170038832E-002   7.6483134129372993E-002   0.0000000000000000     
  -5.0195005021232940E-002   8.2444172588567205E-002   0.0000000000000000     
  -4.4811292427380224E-002   5.8427219609277214E-002   0.0000000000000000     
  -4.8376922089419738E-002   6.4722777405749041E-002   0.0000000000000000     
  -5.1345935645444776E-002   7.0913577521516863E-002   0.0000000000000000     
  -5.3718333095455345E-002   7.6999619956580667E-002   0.0000000000000000     
  -5.5494114439451445E-002   8.2980904710940467E-002   0.0000000000000000     
  -3.5492457418501051E-002   8.1237063989516661E-002   0.0000000000000000     
  -3.6511927473661311E-002   8.7179277327765162E-002   0.0000000000000000     
  -3.7588406394282438E-002   9.3390183333525320E-002   0.0000000000000000     
  -3.8721894180364425E-002   9.9869782006797164E-002   0.0000000000000000     
  -3.9912390831907278E-002  0.10661807334758067        0.0000000000000000     
  -4.0194176510757747E-002   8.1572252227855316E-002   0.0000000000000000     
  -4.1348666103606942E-002   8.7513972614882557E-002   0.0000000000000000     
  -4.2568637836614111E-002   9.3722848901989578E-002   0.0000000000000000     
  -4.3854091709779233E-002  0.10019888108917632        0.0000000000000000     
  -4.5205027723102323E-002  0.10694206917644281        0.0000000000000000     
  -4.5095025711668381E-002   8.1974621760872154E-002   0.0000000000000000     
  -4.6378378118809994E-002   8.7931493224186516E-002   0.0000000000000000     
  -4.7735580471614483E-002   9.4145292815319956E-002   0.0000000000000000     
  -4.9166632770081820E-002  0.10061602053427253        0.0000000000000000     
  -5.0671535014212038E-002  0.10734367638104415        0.0000000000000000     
  -5.0195005021232940E-002   8.2444172588567205E-002   0.0000000000000000     
  -5.1601063519270456E-002   8.8431839155677011E-002   0.0000000000000000     
  -5.3089234299283548E-002   9.4657515073516496E-002   0.0000000000000000     
  -5.4659517361272204E-002  0.10112120034208574        0.0000000000000000     
  -5.6311912705236437E-002  0.10782289496138467        0.0000000000000000     
  -5.5494114439451445E-002   8.2980904710940467E-002   0.0000000000000000     
  -5.7016722304988339E-002   8.9015010409354056E-002   0.0000000000000000     
  -5.8629599319621320E-002   9.5259515676579212E-002   0.0000000000000000     
  -6.0332745483350374E-002  0.10171442051261599        0.0000000000000000     
  -6.2126160796175528E-002  0.10837972491746434        0.0000000000000000     
  -3.9912390831907278E-002  0.10661807334758067        0.0000000000000000     
  -4.1105718927527055E-002  0.11357305102400750        0.0000000000000000     
  -4.2247701045839831E-002  0.12067270870420939        0.0000000000000000     
  -4.3338337186845592E-002  0.12791704638818630        0.0000000000000000     
  -4.4377627350544360E-002  0.13530606407593829        0.0000000000000000     
  -4.5205027723102323E-002  0.10694206917644281        0.0000000000000000     
  -4.6559247870248253E-002  0.11388940823269415        0.0000000000000000     
  -4.7854554144881947E-002  0.12097789332683538        0.0000000000000000     
  -4.9090946547003377E-002  0.12820752445886655        0.0000000000000000     
  -5.0268425076612548E-002  0.13557830162878759        0.0000000000000000     
  -5.0671535014212038E-002  0.10734367638104415        0.0000000000000000     
  -5.2180674634983472E-002  0.11427045860548407        0.0000000000000000     
  -5.3624439063374503E-002  0.12133856545744136        0.0000000000000000     
  -5.5002828299385104E-002  0.12854799693691607        0.0000000000000000     
  -5.6315842343015288E-002  0.13589875304390819        0.0000000000000000     
  -5.6311912705236437E-002  0.10782289496138467        0.0000000000000000     
  -5.7969999221732710E-002  0.11471620214237722        0.0000000000000000     
  -5.9557355801317498E-002  0.12175472509602729        0.0000000000000000     
  -6.1073982443990781E-002  0.12893846382233495        0.0000000000000000     
  -6.2519879149752600E-002  0.13626741832130013        0.0000000000000000     
  -6.2126160796175528E-002  0.10837972491746434        0.0000000000000000     
  -6.3927221630495967E-002  0.11522663884337361        0.0000000000000000     
  -6.5653304358710932E-002  0.12222637224259322        0.0000000000000000     
  -6.7304408980820435E-002  0.12937892511512311        0.0000000000000000     
  -6.8880535496824435E-002  0.13668429746096333        0.0000000000000000     
  -4.4377627350544360E-002  0.13530606407593829        0.0000000000000000     
  -4.5355699291649280E-002  0.14280805774083205        0.0000000000000000     
  -4.6262680764873526E-002  0.15039132335623431        0.0000000000000000     
  -4.7098571770217111E-002  0.15805586092214519        0.0000000000000000     
  -4.7863372307680029E-002  0.16580167043856453        0.0000000000000000     
  -5.0268425076612548E-002  0.13557830162878759        0.0000000000000000     
  -5.1376769840326901E-002  0.14306145575648191        0.0000000000000000     
  -5.2405760944763881E-002  0.15062821776183277        0.0000000000000000     
  -5.3355398389923460E-002  0.15827858764484021        0.0000000000000000     
  -5.4225682175805659E-002  0.16601256540550421        0.0000000000000000     
  -5.6315842343015288E-002  0.13589875304390819        0.0000000000000000     
  -5.7552606064391040E-002  0.14336255200922077        0.0000000000000000     
  -5.8702244333638291E-002  0.15091111206365676        0.0000000000000000     
  -5.9764757150757075E-002  0.15854443320721617        0.0000000000000000     
  -6.0740144515747357E-002  0.16626251543989898        0.0000000000000000     
  -6.2519879149752600E-002  0.13626741832130013        0.0000000000000000     
  -6.3883207963841671E-002  0.14371134649904863        0.0000000000000000     
  -6.5152130931496785E-002  0.15124000626170628        0.0000000000000000     
  -6.6326648052717943E-002  0.15885339760927303        0.0000000000000000     
  -6.7406759327505117E-002  0.16655152054174885        0.0000000000000000     
  -6.8880535496824435E-002  0.13668429746096333        0.0000000000000000     
  -7.0368575538678813E-002  0.14410783922596554        0.0000000000000000     
  -7.1755420738339348E-002  0.15161490035598127        0.0000000000000000     
  -7.3041071095806070E-002  0.15920548085101072        0.0000000000000000     
  -7.4225526611078951E-002  0.16687958071105374        0.0000000000000000     
  -4.7863372307680029E-002  0.16580167043856453        0.0000000000000000     
  -4.8569137721774028E-002  0.17363860075662316        0.0000000000000000     
  -4.9227923357010900E-002  0.18157650072745182        0.0000000000000000     
  -4.9839729213390638E-002  0.18961537035105050        0.0000000000000000     
  -5.0404555290913242E-002  0.19775520962741919        0.0000000000000000     
  -5.4225682175805659E-002  0.16601256540550421        0.0000000000000000     
  -5.5030407551375948E-002  0.17383761397648809        0.0000000000000000     
  -5.5783369765599805E-002  0.18176119629045501        0.0000000000000000     
  -5.6484568818477215E-002  0.18978331234740503        0.0000000000000000     
  -5.7134004710008200E-002  0.19790396214733816        0.0000000000000000     
  -6.0740144515747357E-002  0.16626251543989898        0.0000000000000000     
  -6.1644065141927905E-002  0.17407156230922313        0.0000000000000000     
  -6.2492177742617457E-002  0.18197777736270634        0.0000000000000000     
  -6.3284482317816013E-002  0.18998116060034873        0.0000000000000000     
  -6.4020978867523545E-002  0.19808171202215016        0.0000000000000000     
  -6.7406759327505117E-002  0.16655152054174885        0.0000000000000000     
  -6.8410110493429904E-002  0.17434044575482832        0.0000000000000000     
  -6.9354347288063875E-002  0.18222624394420583        0.0000000000000000     
  -7.0239469711406988E-002  0.19020891510988150        0.0000000000000000     
  -7.1065477763459270E-002  0.19828845925185523        0.0000000000000000     
  -7.4225526611078951E-002  0.16687958071105374        0.0000000000000000     
  -7.5328543605881954E-002  0.17464426431330365        0.0000000000000000     
  -7.6369878401939026E-002  0.18250659603495351        0.0000000000000000     
  -7.7349530999250168E-002  0.19046657587600338        0.0000000000000000     
  -7.8267501397815409E-002  0.19852420383645331        0.0000000000000000     
  -5.0404555290913242E-002  0.19775520962741919        0.0000000000000000     
  -5.0914182683196460E-002  0.20598017511954725        0.0000000000000000     
  -5.1360392483858042E-002  0.21427442339042405        0.0000000000000000     
  -5.1743184692898014E-002  0.22263795444004961        0.0000000000000000     
  -5.2062559310316343E-002  0.23107076826842393        0.0000000000000000     
  -5.7134004710008200E-002  0.19790396214733816        0.0000000000000000     
  -5.7722310558949511E-002  0.20611010538746119        0.0000000000000000     
  -5.8240119484057926E-002  0.21438870176498093        0.0000000000000000     
  -5.8687431485333418E-002  0.22273975127989740        0.0000000000000000     
  -5.9064246562776014E-002  0.23116325393221060        0.0000000000000000     
  -6.4020978867523545E-002  0.19808171202215016        0.0000000000000000     
  -6.4692062751422544E-002  0.20626797336700808        0.0000000000000000     
  -6.5288129329195380E-002  0.21452848637381969        0.0000000000000000     
  -6.5809178600842150E-002  0.22286325104258511        0.0000000000000000     
  -6.6255210566362771E-002  0.23127226737330420        0.0000000000000000     
  -7.1065477763459270E-002  0.19828845925185523        0.0000000000000000     
  -7.1823439260615518E-002  0.20645377905818788        0.0000000000000000     
  -7.2504422019270501E-002  0.21469377721694036        0.0000000000000000     
  -7.3108426039424163E-002  0.22300845372811265        0.0000000000000000     
  -7.3635451321076600E-002  0.23139780859170470        0.0000000000000000     
  -7.8267501397815409E-002  0.19852420383645331        0.0000000000000000     
  -7.9116440086528461E-002  0.20666752246100065        0.0000000000000000     
  -7.9888997554283178E-002  0.21488457429434293        0.0000000000000000     
  -8.0585173801079532E-002  0.22317535933648003        0.0000000000000000     
  -8.1204968826917523E-002  0.23153987758741210        0.0000000000000000     
  -5.2062559310316343E-002  0.23107076826842393        0.0000000000000000     
  -5.2328441712605402E-002  0.23956593223383313        0.0000000000000000     
  -5.2550757276257583E-002  0.24811651369456345        0.0000000000000000     
  -5.2729506001272859E-002  0.25672251265061474        0.0000000000000000     
  -5.2864687887651238E-002  0.26538392910198710        0.0000000000000000     
  -5.9064246562776014E-002  0.23116325393221060        0.0000000000000000     
  -5.9378644294121853E-002  0.23965972356826162        0.0000000000000000     
  -5.9638704257107107E-002  0.24822967403439153        0.0000000000000000     
  -5.9844426451731762E-002  0.25687310533060037        0.0000000000000000     
  -5.9995810877995832E-002  0.26559001745688809        0.0000000000000000     
  -6.6255210566362771E-002  0.23127226737330420        0.0000000000000000     
  -6.6630583798566179E-002  0.23976325866993234        0.0000000000000000     
  -6.6939656870261252E-002  0.24834394823642469        0.0000000000000000     
  -6.7182429781447991E-002  0.25701433607278135        0.0000000000000000     
  -6.7358902532126397E-002  0.26577442217900232        0.0000000000000000     
  -7.3635451321076600E-002  0.23139780859170470        0.0000000000000000     
  -7.4084260225938336E-002  0.23987653753884525        0.0000000000000000     
  -7.4453615115719990E-002  0.24845933630066294        0.0000000000000000     
  -7.4743515990421533E-002  0.25714620487715784        0.0000000000000000     
  -7.4953962850042979E-002  0.26593714326832979        0.0000000000000000     
  -8.1204968826917523E-002  0.23153987758741210        0.0000000000000000     
  -8.1739673576238389E-002  0.23999956017500038        0.0000000000000000     
  -8.2180578993483328E-002  0.24857583822710619        0.0000000000000000     
  -8.2527685078652380E-002  0.25726871174372962        0.0000000000000000     
  -8.2780991831745532E-002  0.26607818072487061        0.0000000000000000     
  -5.2864687887651238E-002  0.26538392910198710        0.0000000000000000     
  -5.2986540579284216E-002  0.27405115121772894        0.0000000000000000     
  -5.3125301720063266E-002  0.28267456716688866        0.0000000000000000     
  -5.3280971309988413E-002  0.29125417694946620        0.0000000000000000     
  -5.3453549349059638E-002  0.29978998056546169        0.0000000000000000     
  -5.9995810877995832E-002  0.26559001745688809        0.0000000000000000     
  -6.0129098446908821E-002  0.27433584831287711        0.0000000000000000     
  -6.0280530069480281E-002  0.28306603579818995        0.0000000000000000     
  -6.0450105745710178E-002  0.29178057991282647        0.0000000000000000     
  -6.0637825475598546E-002  0.30047948065678676        0.0000000000000000     
  -6.7358902532126397E-002  0.26577442217900232        0.0000000000000000     
  -6.7508700642296388E-002  0.27459399753616126        0.0000000000000000     
  -6.7671449631957786E-002  0.28344285312533202        0.0000000000000000     
  -6.7847149501110635E-002  0.29232098894651459        0.0000000000000000     
  -6.8035800249754946E-002  0.30122840499970893        0.0000000000000000     
  -7.4953962850042979E-002  0.26593714326832979        0.0000000000000000     
  -7.5125347165446874E-002  0.27482559888758140        0.0000000000000000     
  -7.5298060407495829E-002  0.28380501914831502        0.0000000000000000     
  -7.5472102576189776E-002  0.29287540405053064        0.0000000000000000     
  -7.5647473671528784E-002  0.30203675359422805        0.0000000000000000     
  -8.2780991831745532E-002  0.26607818072487061        0.0000000000000000     
  -8.2979038016360335E-002  0.27503065236713758        0.0000000000000000     
  -8.3160362396094367E-002  0.28415253386713879        0.0000000000000000     
  -8.3324964970947629E-002  0.29344382522487444        0.0000000000000000     
  -8.3472845740920121E-002  0.30290452644034427        0.0000000000000000     
  -4.4811292427380224E-002   5.8427219609277214E-002   0.0000000000000000     
  -4.8376922089419738E-002   6.4722777405749041E-002   0.0000000000000000     
  -5.1345935645444776E-002   7.0913577521516863E-002   0.0000000000000000     
  -5.3718333095455345E-002   7.6999619956580667E-002   0.0000000000000000     
  -5.5494114439451445E-002   8.2980904710940467E-002   0.0000000000000000     
  -4.9532724168951818E-002   5.9554263082242757E-002   0.0000000000000000     
  -5.3332757899965423E-002   6.5572696441996370E-002   0.0000000000000000     
  -5.6501866207899744E-002   7.1580669473728736E-002   0.0000000000000000     
  -5.9040049092754766E-002   7.7578182177439822E-002   0.0000000000000000     
  -6.0947306554530532E-002   8.3565234553129669E-002   0.0000000000000000     
  -5.3959777383412677E-002   6.0727316790481177E-002   0.0000000000000000     
  -5.8163354946665725E-002   6.6486736158331103E-002   0.0000000000000000     
  -6.1656173562960777E-002   7.2314919572579670E-002   0.0000000000000000     
  -6.4438233232297817E-002   7.8211867033226828E-002   0.0000000000000000     
  -6.6509533954676847E-002   8.4177578540272635E-002   0.0000000000000000     
  -5.8092452070762801E-002   6.1946380733992494E-002   0.0000000000000000     
  -6.2868713229520659E-002   6.7464896554753254E-002   0.0000000000000000     
  -6.6808857710627875E-002   7.3116327818069621E-002   0.0000000000000000     
  -6.9912885514084450E-002   7.8900674523941672E-002   0.0000000000000000     
  -7.2180796639890382E-002   8.4817936672369310E-002   0.0000000000000000     
  -6.1930748231002197E-002   6.3211454912776702E-002   0.0000000000000000     
  -6.7448832748530224E-002   6.8507177631262808E-002   0.0000000000000000     
  -7.1959918650901067E-002   7.3984894210198673E-002   0.0000000000000000     
  -7.5464005938114698E-002   7.9644604649584311E-002   0.0000000000000000     
  -7.7961094610171172E-002   8.5486308949419720E-002   0.0000000000000000     
  -5.5494114439451445E-002   8.2980904710940467E-002   0.0000000000000000     
  -5.7016722304988339E-002   8.9015010409354056E-002   0.0000000000000000     
  -5.8629599319621320E-002   9.5259515676579212E-002   0.0000000000000000     
  -6.0332745483350374E-002  0.10171442051261599        0.0000000000000000     
  -6.2126160796175528E-002  0.10837972491746434        0.0000000000000000     
  -6.0947306554530532E-002   8.3565234553129669E-002   0.0000000000000000     
  -6.2588379845370481E-002   8.9639958165727660E-002   0.0000000000000000     
  -6.4328010217418116E-002   9.5900484580163189E-002   0.0000000000000000     
  -6.6166197670673443E-002  0.10234681379643619        0.0000000000000000     
  -6.8102942205136463E-002  0.10897894581454677        0.0000000000000000     
  -6.6509533954676847E-002   8.4177578540272635E-002   0.0000000000000000     
  -6.8279061509823699E-002   9.0265633605307913E-002   0.0000000000000000     
  -7.0155801677464269E-002   9.6529611739923471E-002   0.0000000000000000     
  -7.2139754457598515E-002  0.10296951294411942        0.0000000000000000     
  -7.4230919850226437E-002  0.10958533721789562        0.0000000000000000     
  -7.2180796639890382E-002   8.4817936672369310E-002   0.0000000000000000     
  -7.4088767298348041E-002   9.0892036728094733E-002   0.0000000000000000     
  -7.6112973699759778E-002   9.7146897155860168E-002   0.0000000000000000     
  -7.8253415844125568E-002  0.10358251795566555        0.0000000000000000     
  -8.0510093731445465E-002  0.11019889912751088        0.0000000000000000     
  -7.7961094610171172E-002   8.5486308949419720E-002   0.0000000000000000     
  -8.0017497210943464E-002   9.1519167534088230E-002   0.0000000000000000     
  -8.2199526284304603E-002   9.7752340827973183E-002   0.0000000000000000     
  -8.4507181830254643E-002  0.10418582883107463        0.0000000000000000     
  -8.6940463848793517E-002  0.11081963154339251        0.0000000000000000     
  -6.2126160796175528E-002  0.10837972491746434        0.0000000000000000     
  -6.3927221630495967E-002  0.11522663884337361        0.0000000000000000     
  -6.5653304358710932E-002  0.12222637224259322        0.0000000000000000     
  -6.7304408980820435E-002  0.12937892511512311        0.0000000000000000     
  -6.8880535496824435E-002  0.13668429746096333        0.0000000000000000     
  -6.8102942205136463E-002  0.10897894581454677        0.0000000000000000     
  -7.0049025770136178E-002  0.11578309125675815        0.0000000000000000     
  -7.1915230315001660E-002  0.12274546074533355        0.0000000000000000     
  -7.3701555839732841E-002  0.12986605428027304        0.0000000000000000     
  -7.5408002344329775E-002  0.13714487186157656        0.0000000000000000     
  -7.4230919850226437E-002  0.10958533721789562        0.0000000000000000     
  -7.6332095549516338E-002  0.11636688193081561        0.0000000000000000     
  -7.8346079249636477E-002  0.12330394445244278        0.0000000000000000     
  -8.0272870950586855E-002  0.13039652478277711        0.0000000000000000     
  -8.2112470652367500E-002  0.13764462292181862        0.0000000000000000     
  -8.0510093731445465E-002  0.11019889912751088        0.0000000000000000     
  -8.2776430968636419E-002  0.11697801086554603        0.0000000000000000     
  -8.4945851162615438E-002  0.12390182336392082        0.0000000000000000     
  -8.7018354313382507E-002  0.13097033662263527        0.0000000000000000     
  -8.8993940420937612E-002  0.13818355064168941        0.0000000000000000     
  -8.6940463848793517E-002  0.11081963154339251        0.0000000000000000     
  -8.9382032027496422E-002  0.11761647806094938        0.0000000000000000     
  -9.1714546053938487E-002  0.12453909747976775        0.0000000000000000     
  -9.3938005928119739E-002  0.13158748979984763        0.0000000000000000     
  -9.6052411650040165E-002  0.13876165502118903        0.0000000000000000     
  -6.8880535496824435E-002  0.13668429746096333        0.0000000000000000     
  -7.0368575538678813E-002  0.14410783922596554        0.0000000000000000     
  -7.1755420738339348E-002  0.15161490035598127        0.0000000000000000     
  -7.3041071095806070E-002  0.15920548085101072        0.0000000000000000     
  -7.4225526611078951E-002  0.16687958071105374        0.0000000000000000     
  -7.5408002344329775E-002  0.13714487186157656        0.0000000000000000     
  -7.7020463164571021E-002  0.14454432933420627        0.0000000000000000     
  -7.8524831636235221E-002  0.15202684254312421        0.0000000000000000     
  -7.9921107759322332E-002  0.15959241148833045        0.0000000000000000     
  -8.1209291533832398E-002  0.16724103616982486        0.0000000000000000     
  -8.2112470652367500E-002  0.13764462292181862        0.0000000000000000     
  -8.3850625217186905E-002  0.14501311596800584        0.0000000000000000     
  -8.5473081507253634E-002  0.15246688101977737        0.0000000000000000     
  -8.6979839522567687E-002  0.16000591807713319        0.0000000000000000     
  -8.8370899263129021E-002  0.16763022714007325        0.0000000000000000     
  -8.8993940420937612E-002  0.13818355064168941        0.0000000000000000     
  -9.0859061696526439E-002  0.14551419912736427        0.0000000000000000     
  -9.2600170351394590E-002  0.15293501578594082        0.0000000000000000     
  -9.4217266385542023E-002  0.16044600061741898        0.0000000000000000     
  -9.5710349798968794E-002  0.16804715362179889        0.0000000000000000     
  -9.6052411650040165E-002  0.13876165502118903        0.0000000000000000     
  -9.8045772602589648E-002  0.14604757881228148        0.0000000000000000     
  -9.9906098168658072E-002  0.15343124684161441        0.0000000000000000     
 -0.10163338834824547       0.16091265910918789        0.0000000000000000     
 -0.10322764314135180       0.16849181561500187        0.0000000000000000     
  -7.4225526611078951E-002  0.16687958071105374        0.0000000000000000     
  -7.5328543605881954E-002  0.17464426431330365        0.0000000000000000     
  -7.6369878401939026E-002  0.18250659603495351        0.0000000000000000     
  -7.7349530999250168E-002  0.19046657587600338        0.0000000000000000     
  -7.8267501397815409E-002  0.19852420383645331        0.0000000000000000     
  -8.1209291533832398E-002  0.16724103616982486        0.0000000000000000     
  -8.2411667716523099E-002  0.17498045023550904        0.0000000000000000     
  -8.3550521064152145E-002  0.18281838733328445        0.0000000000000000     
  -8.4625851576719549E-002  0.19075484746315108        0.0000000000000000     
  -8.5637659254225340E-002  0.19878983062510897        0.0000000000000000     
  -8.8370899263129021E-002  0.16763022714007325        0.0000000000000000     
  -8.9671786062592365E-002  0.17534643577230449        0.0000000000000000     
  -9.0908025254612404E-002  0.18316117153753381        0.0000000000000000     
  -9.2079616839189110E-002  0.19107443443576125        0.0000000000000000     
  -9.3186560816322511E-002  0.19908622446698676        0.0000000000000000     
  -9.5710349798968794E-002  0.16804715362179889        0.0000000000000000     
  -9.7108898644089767E-002  0.17574222092368999        0.0000000000000000     
  -9.8442390973319777E-002  0.18353494864770162        0.0000000000000000     
  -9.9710826786658810E-002  0.19142533679383386        0.0000000000000000     
 -0.10091420608410691       0.19941338536208664        0.0000000000000000     
 -0.10322764314135180       0.16849181561500187        0.0000000000000000     
 -0.10472300546101532       0.17616780568966553        0.0000000000000000     
 -0.10615361822027429       0.18393971866378786        0.0000000000000000     
 -0.10751948141912870       0.19180755453736895        0.0000000000000000     
 -0.10882059505757857       0.19977131331040873        0.0000000000000000     
  -7.8267501397815409E-002  0.19852420383645331        0.0000000000000000     
  -7.9116440086528461E-002  0.20666752246100065        0.0000000000000000     
  -7.9888997554283178E-002  0.21488457429434293        0.0000000000000000     
  -8.0585173801079532E-002  0.22317535933648003        0.0000000000000000     
  -8.1204968826917523E-002  0.23153987758741210        0.0000000000000000     
  -8.5637659254225340E-002  0.19878983062510897        0.0000000000000000     
  -8.6580012876287527E-002  0.20691046613558484        0.0000000000000000     
  -8.7446981222524256E-002  0.21510388331100549        0.0000000000000000     
  -8.8238564292935473E-002  0.22337008215137094        0.0000000000000000     
  -8.8954762087521247E-002  0.23170906265668120        0.0000000000000000     
  -9.3186560816322511E-002  0.19908622446698676        0.0000000000000000     
  -9.4223105277018868E-002  0.20718387264207891        0.0000000000000000     
  -9.5183498312284481E-002  0.21535470997190634        0.0000000000000000     
  -9.6067739922119311E-002  0.22359873645646902        0.0000000000000000     
  -9.6875830106523425E-002  0.23191595209576696        0.0000000000000000     
 -0.10091420608410691       0.19941338536208664        0.0000000000000000     
 -0.10204571728872244       0.20748774198048289        0.0000000000000000     
 -0.10309854882356383       0.21563705427704541        0.0000000000000000     
 -0.10407270068863106       0.22386132225177424        0.0000000000000000     
 -0.10496817288392411       0.23216054590466928        0.0000000000000000     
 -0.10882059505757857       0.19977131331040873        0.0000000000000000     
 -0.11004784891139829       0.20782207415079679        0.0000000000000000     
 -0.11119213275636233       0.21595091622642276        0.0000000000000000     
 -0.11225344659247065       0.22415783953728652        0.0000000000000000     
 -0.11323179041972328       0.23244284408338817        0.0000000000000000     
  -8.1204968826917523E-002  0.23153987758741210        0.0000000000000000     
  -8.1739673576238389E-002  0.23999956017500038        0.0000000000000000     
  -8.2180578993483328E-002  0.24857583822710619        0.0000000000000000     
  -8.2527685078652380E-002  0.25726871174372962        0.0000000000000000     
  -8.2780991831745532E-002  0.26607818072487061        0.0000000000000000     
  -8.8954762087521247E-002  0.23170906265668120        0.0000000000000000     
  -8.9583176916880017E-002  0.24014706769922153        0.0000000000000000     
  -9.0111411091610430E-002  0.24871034015127716        0.0000000000000000     
  -9.0539464611712459E-002  0.25739888001284800        0.0000000000000000     
  -9.0867337477186089E-002  0.26621268728393421        0.0000000000000000     
  -9.6875830106523425E-002  0.23191595209576696        0.0000000000000000     
  -9.7601123315277039E-002  0.24033380123233261        0.0000000000000000     
  -9.8236973998160448E-002  0.24887972820869836        0.0000000000000000     
  -9.8783382155173641E-002  0.25755373302486434        0.0000000000000000     
  -9.9240347786316629E-002  0.26635581568083044        0.0000000000000000     
 -0.10496817288392411       0.23216054590466928        0.0000000000000000     
 -0.10579351277142943       0.24055976077433353        0.0000000000000000     
 -0.10655726771313336       0.24908400239936990        0.0000000000000000     
 -0.10725943770903597       0.25773327077977842        0.0000000000000000     
 -0.10790002275913720       0.26650756591555902        0.0000000000000000     
 -0.11323179041972328       0.23244284408338817        0.0000000000000000     
 -0.11416034528533714       0.24082494632522433        0.0000000000000000     
 -0.11507229223652918       0.24932316272329172        0.0000000000000000     
 -0.11596763127329940       0.25793749327759030        0.0000000000000000     
 -0.11684636239564776       0.26666793798812011        0.0000000000000000     
  -8.2780991831745532E-002  0.26607818072487061        0.0000000000000000     
  -8.2979038016360335E-002  0.27503065236713758        0.0000000000000000     
  -8.3160362396094367E-002  0.28415253386713879        0.0000000000000000     
  -8.3324964970947629E-002  0.29344382522487444        0.0000000000000000     
  -8.3472845740920121E-002  0.30290452644034427        0.0000000000000000     
  -9.0867337477186089E-002  0.26621268728393421        0.0000000000000000     
  -9.1124955349684400E-002  0.27521494987718609        0.0000000000000000     
  -9.1342243890860542E-002  0.28446885570525388        0.0000000000000000     
  -9.1519203100714444E-002  0.29397440476813758        0.0000000000000000     
  -9.1655832979246205E-002  0.30373159706583719        0.0000000000000000     
  -9.9240347786316629E-002  0.26635581568083044        0.0000000000000000     
  -9.9618281320066768E-002  0.27538428332008352        0.0000000000000000     
  -9.9927593184901436E-002  0.28473744308611054        0.0000000000000000     
 -0.10016828338082059       0.29441529497891139        0.0000000000000000     
 -0.10034035190782428       0.30441783899848629        0.0000000000000000     
 -0.10790002275913720       0.26650756591555902        0.0000000000000000     
 -0.10845901592750745       0.27553865269582983        0.0000000000000000     
 -0.10891641027821704       0.28495829600970884        0.0000000000000000     
 -0.10927220581126604       0.29476649585719611        0.0000000000000000     
 -0.10952640252665438       0.30496325223829163        0.0000000000000000     
 -0.11684636239564776       0.26666793798812011        0.0000000000000000     
 -0.11764715917200641       0.27567805800442496        0.0000000000000000     
 -0.11830869517080742       0.28513141447604884        0.0000000000000000     
 -0.11883097039205076       0.29502800740299151        0.0000000000000000     
 -0.11921398483573650       0.30536783678525325        0.0000000000000000     
 </DataArray>
 <DataArray  type="Float64" Name="stress" NumberOfComponents="3" format="ascii">
   11889568166.584778        1093758136.1194105        1117749469.9630501     
   9900200818.3005295        907324725.98822212        641885259.87229216     
   7884538790.6871576        633242384.75998354        309019736.24928129     
   5842582083.7446795        271511112.43471169        119152899.09402373     
   3774330697.4730964       -177869090.98757935        72284748.406531006     
   10173254332.503658        667203788.08532429        1083007657.5667429     
   8555892407.5558434        627143987.27583337        695804138.23782110     
   6902695111.8940897        467632950.75324631        417981425.16416216     
   5213662445.5184135        188670678.51756907        249539518.34577519     
   3488794408.4288034       -209742829.43120790        190478417.78264472     
   8861832384.3078556        362117005.81681919        1067205087.8323867     
   7520424796.3750725        439615488.43261600        757531452.64969099     
   6133641146.3435383        365860430.71926188        523620743.50976449     
   4701481434.2132578        140851832.67675281        365472960.41260862     
   3223945659.9842329       -235410305.69490957        283088103.35824132     
   7955302321.9973698        178497789.31391621        1070341760.7599840     
   6793797984.7582159        344739229.45858026        827067203.10788822     
   5577376894.0354977        327924824.65803194        625937691.28607810     
   4306039049.8292227        128054574.91227651        466953225.29454917     
   2979784452.1393733       -254871519.77869964        350113805.13330036     
   7453664145.5722046        116346138.57661247        1092417676.3495369     
   6376011972.7052832        342515210.35371780        904411389.61242211     
   5233902354.9699783        353826132.56955576        724932268.49310100     
   4027335292.3662925        150278905.22412086        553980312.99157071     
   2756310784.8942261       -268126471.68258274        391555523.10783851     
   3774330697.4730964       -177869090.98757935        72284748.406531006     
   4074128977.0834894        17449003.825148106        106909999.43296535     
   4356892308.6408539        155983938.46113920        134464823.91961411     
   4622620692.1451950        237735712.92038417        154949221.86646190     
   4871314127.5965261        262704327.20290852        168363193.27352411     
   3488794408.4288034       -209742829.43120790        190478417.78264472     
   3751507837.8611393       -77940194.473653555        218039913.44233885     
   4006501716.8753433        28130605.756814957        238802441.62528968     
   4253776045.4714255        108469571.26020861        252766002.33148244     
   4493330823.6493988        163076702.03656387        259930595.56093186     
   3223945659.9842329       -235410305.69490957        283088103.35824132     
   3450349836.5614777       -166890451.39566541        314453807.55857474     
   3678349860.3555064       -93051106.373814344        339292003.34520513     
   3907945731.3663120       -13892270.629363775        357602690.71812719     
   4139137449.5939054        70586055.837699890        369385869.67735112     
   2979784452.1393733       -254871519.77869964        350113805.13330036     
   3170654973.1845160       -249401766.94085908        396151681.78166413     
   3372436739.0813456       -207561197.93073702        435933509.07936805     
   3585129749.8298512       -129349812.74835038        469459287.02640593     
   3808734005.4300480       -14767611.393671751        496729015.62277955     
   2756310784.8942261       -268126471.68258274        391555523.10783851     
   2912423247.7302494       -325474141.10924900        463133536.11161363     
   3088762353.0528593       -315399668.91395843        528726958.82777089     
   3285328100.8620520       -237903055.09672856        588335791.25630808     
   3502120491.1578312       -92984299.657541037        641960033.39722300     
   4871314127.5965261        262704327.20290852        168363193.27352411     
   4623613571.0033331        134982339.20418453        128122401.77202906     
   4390460662.6821461        55752512.112161160        97735005.139529899     
   4171855402.6329713        25014845.926843166        77201003.376025349     
   3967797790.8558011        42769340.648200989        66520396.481508985     
   4493330823.6493988        163076702.03656387        259930595.56093186     
   4284003752.0554838        85588848.425975800        241103166.66822815     
   4084090453.2168345        39480237.332905293        230347915.73947674     
   3893590927.1334171        24750868.757296801        227664842.77469689     
   3712505173.8052573        41400742.699213505        233053947.77387065     
   4139137449.5939054        70586055.837699890        369385869.67735112     
   3963094671.8420463        41805579.268080950        365982281.95721161     
   3791331791.3286762        27291426.826768160        368869655.29600483     
   3623848808.0537968        27043598.513750315        378047989.69372910     
   3460645722.0174026        41062094.329012394        393517285.15036917     
   3808734005.4300480       -14767611.393671751        496729015.62277955     
   3660886330.3630047        3632531.7305159569        502759747.63898969     
   3512184677.0176945        19186080.593790531        513300223.80910081     
   3362629045.3941126        31893035.196168065        528350444.13311458     
   3212219435.4922585        41753395.537634850        547910408.61102223     
   3502120491.1578312       -92984299.657541037        641960033.39722300     
   3377378727.6183705       -28930294.186736584        651435563.71356487     
   3246649110.2838793        15164198.633967638        663639621.27877915     
   3109931639.1543598        39299178.804566264        678572206.09285116     
   2967226314.2298088        43474646.325078726        696233318.15579736     
   3967797790.8558011        42769340.648200989        66520396.481508985     
   3717594455.9253187        60184678.477050066        43530672.141091675     
   3461747578.2525997        58788207.165135145        27465483.398986246     
   3200257157.8376441        38579926.712431908        18324830.255188864     
   2933123194.6804767       -440162.88099992275        16108712.709698243     
   3712505173.8052573        41400742.699213505        233053947.77387065     
   3476983985.0522590        50010869.718708754        205409628.22357485     
   3237515540.2726264        45463476.649430394        184166703.39827523     
   2994099839.4663620        27758563.491381764        169325173.29796025     
   2746736882.6334653       -3103869.7554515600        160885037.92266962     
   3460645722.0174026        41062094.329012394        393517285.15036917     
   3238311991.2324371        40418604.076341867        363197371.55839169     
   3013727291.1364303        32271882.786873937        338755711.81809080     
   2786891621.7293854        16621930.460610390        320192305.92947257     
   2557804983.0113034       -6531252.9024482965        307507153.89254189     
   3212219435.4922585        41753395.537634850        547910408.61102223     
   3001578474.4658546        31407881.549938560        516893902.14553893     
   2790382830.8440094        19213425.577448726        491232508.65843433     
   2578632504.6267157        5170027.6201242208        470926228.14970273     
   2366327495.8139892       -10722312.321984172        455975060.61933875     
   2967226314.2298088        43474646.325078726        696233318.15579736     
   2766783434.7525063        22978702.139518857        666499219.98502243     
   2567482159.3953600        6288105.0211453438        641597093.91930664     
   2369322488.1583686       -6597145.0300443172        621526939.95865285     
   2172304421.0415258       -15677048.014071226        606288758.10305572     
   2933123194.6804767       -440162.88099992275        16108712.709698243     
   2807930736.2959528       -3351162.7747838497        15764373.964647446     
   2684113670.0610080       -1677522.1699731350        14929042.281154070     
   2561671995.9757051        4580758.9336378574        13602717.659243736     
   2440605714.0399761        15423680.535842538        11785400.098880576     
   2746736882.6334653       -3103869.7554515600        160885037.92266962     
   2622203292.8922896       -1854132.3097796440        161197156.10852024     
   2498493900.2096472        2142928.6643186808        161546919.11090022     
   2375608704.5854988        8887313.1667518616        161934326.92981091     
   2253547706.0198770        18379021.197582364        162359379.56523305     
   2557804983.0113034       -6531252.9024482965        307507153.89254189     
   2435440655.4990959       -667660.04155433178        307832668.06970680     
   2313349329.9542985        6105939.3773742914        308724464.81835383     
   2191531006.3769293        13789545.354396343        310182544.13847184     
   2069985684.7669814        22383157.889483213        312206906.03007525     
   2366327495.8139892       -10722312.321984172        455975060.61933875     
   2247642824.1163263        208254.02975809574        455670909.84819722     
   2128679959.2949934        10211509.969269514        456461679.40349525     
   2009438901.3499913        19287455.496537089        458347369.28523576     
   1889919650.2813096        27436090.611551166        461327979.49339819     
   2172304421.0415258       -15677048.014071226        606288758.10305572     
   2058809798.7440000        773609.90421020985        604711881.44400978     
   1944485788.2317264        14459640.439982891        604758562.86635017     
   1829332389.5046647        25381043.593139768        606428802.37007964     
   1713349602.5628526        33537819.363790333        609722599.95521092     
   2440605714.0399761        15423680.535842538        11785400.098880576     
   2280579743.5954161        13011836.039268374       -1543362.5844201844     
   2118145286.7950146        2571703.6899353266       -11053255.501106782     
   1953302343.6387765       -15896716.512208462       -16744278.651165122     
   1786050914.1267037       -42393424.567136049       -18616432.034601614     
   2253547706.0198770        18379021.197582364        162359379.56523305     
   2102381316.8457961        18040945.662186980        147295489.02999541     
   1949666664.8657043        12541994.106738210        134749229.17593148     
   1795403750.0796337        1882166.5313576460        124720600.00305788     
   1639592572.4875393       -13938537.064103365        117209601.51135030     
   2069985684.7669814        22383157.889483213        312206906.03007525     
   1923961050.9049873        23003503.527692080        296411481.78437120     
   1777248377.7868195        21330384.978682041        281832449.13441133     
   1629847665.4124928        17363802.242471099        268469808.08019549     
   1481758913.7820034        11103755.319044590        256323558.62171870     
   1889919650.2813096        27436090.611551166        461327979.49339819     
   1745318945.7729917        27899509.635856032        445804615.67871845     
   1600890425.5583467        28936876.305742919        430196404.37434393     
   1456634089.6373804        30548190.621219695        414503345.58027053     
   1312549938.0100825        32733452.582263708        398725439.29648381     
   1713349602.5628526        33537819.363790333        609722599.95521092     
   1566455001.4498205        32728963.986680865        595474890.71303165     
   1420592808.1802888        35361468.087923110        579841094.89571750     
   1275763022.7542760        41435331.667552829        562821212.50325632     
   1131965645.1717808        50950554.725575268        544415243.53565645     
   1786050914.1267037       -42393424.567136049       -18616432.034601614     
   1761360195.0710876       -18405168.230066180       -10260718.575553304     
   1744165930.2317986        30571268.828081846       -41439841.082434848     
   1734468119.6088574        104535886.60739458       -112153799.55524625     
   1732266763.2022302        203488685.10775501       -222402593.99399775     
   1639592572.4875393       -13938537.064103365        117209601.51135030     
   1520968407.1512902       -15208767.485647321        134486593.83284903     
   1406130550.4433348       -3857969.1461899281        124870806.54102072     
   1295079002.3636494        20113857.954150021        88362239.635860890     
   1187813762.9122515        56706713.815459490        24960893.117365047     
   1481758913.7820034        11103755.319044590        256323558.62171870     
   1305321463.1725752       -4588913.5588736534        278193326.61960369     
   1128960175.6033783       -20027705.636002898        285812371.35675800     
   952675051.07443309       -35212620.912297010        279180692.83320343     
   776466089.58572876       -50143659.387799233        258298291.04892212     
   1312549938.0100825        32733452.582263708        398725439.29648381     
   1114419363.1349323        13454393.550206602        420859479.78469908     
   912654805.71196866       -17937940.641218483        441384853.36480510     
   707256265.74122000       -61443549.991943121        460301560.03678876     
   498223743.22265828       -117062434.50202230        477609599.80067533     
   1131965645.1717808        50950554.725575268        544415243.53565645     
   948262107.03836954        38921153.841610909        562485053.32814682     
   757214440.76911020        2411325.8381645977        591588252.56514037     
   558822646.36401057       -58578929.284746468        631724841.24662614     
   353086723.82304901       -144049611.52721369        682894819.37262154     
   1732266763.2022302        203488685.10775501       -222402593.99399775     
   1459177646.2033985        184460605.66405517       -96080727.827810943     
   1154384679.5377908        59753027.331124425        59782823.641811691     
   817887863.20548177       -170634049.89080983        245188060.41483170     
   449687197.20641279       -506700626.00196683        460134982.49125677     
   1187813762.9122515        56706713.815459490        24960893.117365047     
   979258142.39686179        11753745.732716382        155760828.17484203     
   733185195.91803980       -158256975.56145614        312642895.67902809     
   449594923.47584742       -453325450.06689143        495607095.62992322     
   128487325.07024145       -873451677.78366053        704653428.02753258     
   776466089.58572876       -50143659.387799233        258298291.04892212     
   622559528.82033360       -123986847.12967303        386793905.98490787     
   425322165.79486835       -342266042.40508616        537912100.51089001     
   184754000.50935313       -704981245.21401012        711652874.62688720     
  -99144967.036220670       -1212132455.5564682        908016228.33289230     
   498223743.22265828       -117062434.50202230        477609599.80067533     
   389081805.47383296       -222761172.92302763        597018505.60239863     
   230795589.16828793       -492274173.19975394        735590438.13743222     
   23365094.306023836       -925601435.33218980        893325397.40576553     
  -233209679.11295375       -1522742959.3203707        1070223383.4073961     
   353086723.82304901       -144049611.52721369        682894819.37262154     
   278824972.35735250       -284569231.64738286        786434627.02731633     
   149605466.03828999       -608281367.94543862        905677908.55862319     
  -34571795.134152114       -1115186020.4214182        1040624663.9665045     
  -273706811.15996927       -1805283189.0753310        1191274893.2510273     
   7453664145.5722046        116346138.57661247        1092417676.3495369     
   6376011972.7052832        342515210.35371780        904411389.61242211     
   5233902354.9699783        353826132.56955576        724932268.49310100     
   4027335292.3662925        150278905.22412086        553980312.99157071     
   2756310784.8942261       -268126471.68258274        391555523.10783851     
   7252388699.1512613        702307115.09480548        1560745742.0714014     
   6134892020.0492010        661394868.55091643        1260402649.5072699     
   4980583848.6915703        497777647.82180810        982516921.52623856     
   3789464185.0783749        211455452.90747201        727088558.12830281     
   2561533029.2096128       -197571716.19208109        494117559.31347406     
   6879032228.0044985        1236643784.1952515        1914820861.1599798     
   5761491611.1396065        940590389.87206173        1534394574.1504426     
   4634785454.6319599        613985196.73969948        1190355850.6893163     
   3498913758.4815607        256828204.79815590        882704690.77659559     
   2353876522.6884041       -130880585.95256495        611441094.41228211     
   6333594732.1319218        1719356145.8779545        2154643033.6152606     
   5255810745.9765034        1180101774.3171542        1726387163.5419450     
   4196507172.7911448        702448779.32322609        1348449055.9823377     
   3155684012.5758462        286397160.89616716        1020828710.9364476     
   2133341265.3306105       -68053080.964022279        743526128.40426743     
   5616076211.5335293        2150444200.1429119        2280212259.4372573     
   4617849424.5598907        1379929021.8861938        1836380417.6817677     
   3665749003.1691265        763168395.57240033        1456796537.4052970     
   2759774947.3612347        300162321.20150995        1141460618.6078534     
   1899927257.1362195       -9089201.2264591455        890372661.28942788     
   2756310784.8942261       -268126471.68258274        391555523.10783851     
   2912423247.7302494       -325474141.10924900        463133536.11161363     
   3088762353.0528593       -315399668.91395843        528726958.82777089     
   3285328100.8620520       -237903055.09672856        588335791.25630808     
   3502120491.1578312       -92984299.657541037        641960033.39722300     
   2561533029.2096128       -197571716.19208109        494117559.31347406     
   2710337552.2586794       -227075234.97189653        581537830.33346462     
   2873867598.3178596       -207493677.05131960        662895626.27106452     
   3052123167.3871560       -138827042.43037248        738190947.12627602     
   3245104259.4665666       -21075331.109035850        807423792.89909661     
   2353876522.6884041       -130880585.95256495        611441094.41228211     
   2495150577.9654555       -132606712.48103940        708285650.72593927     
   2645649036.7761502       -103584827.23070002        798989847.16243732     
   2805371899.1204901       -43814930.201547265        883553683.72177172     
   2974319164.9984722        46702978.606418967        961977160.40394640     
   2133341265.3306105       -68053080.964022279        743526128.40426743     
   2266862324.8505836       -42068573.636680365        843376997.28904545     
   2404106668.4277310       -3673119.4520866871        937009621.50188935     
   2545074296.0620522        47133281.589741111        1024424001.0427992     
   2689765207.7535477        110350629.48882544        1105620135.9117782     
   1899927257.1362195       -9089201.2264591455        890372661.28942788     
   2025472792.9140592        44539181.561187983        986811870.02276945     
   2149240493.2726011        92241446.284509420        1076954949.2894127     
   2271230358.2118478        134017592.94351017        1160801899.0893512     
   2391442387.7317953        169867621.53818381        1238352719.4225876     
   3502120491.1578312       -92984299.657541037        641960033.39722300     
   3377378727.6183705       -28930294.186736584        651435563.71356487     
   3246649110.2838793        15164198.633967638        663639621.27877915     
   3109931639.1543598        39299178.804566264        678572206.09285116     
   2967226314.2298088        43474646.325078726        696233318.15579736     
   3245104259.4665666       -21075331.109035850        807423792.89909661     
   3121148862.5417676        18411618.213728547        806873763.22825778     
   2993555536.9163198        45772138.534317374        809869424.35400021     
   2862324282.5902238        61006229.852751493        816410776.27631187     
   2727455099.5634794        64113892.169021606        826497818.99520755     
   2974319164.9984722        46702978.606418967        961977160.40394640     
   2853484887.6817918        62323297.679170012        954143150.02270555     
   2731362606.7588487        73650271.397696495        950671993.98575294     
   2607952322.2296357        80683899.762000561        951563692.29308355     
   2483254034.0941544        83424182.772072673        956818244.94470417     
   2689765207.7535477        110350629.48882544        1105620135.9117782     
   2574386803.0384483        102804744.20961022        1093243724.0969100     
   2460070319.8114667        98798597.224105954        1086047330.1740446     
   2346815758.0725942        98332188.532307148        1084030954.1431706     
   2234623117.8218360        101405518.13421893        1087194596.0042977     
   2391442387.7317953        169867621.53818381        1238352719.4225876     
   2283854608.6117358        139855957.80503309        1224175485.4508753     
   2179678676.0741687        121217116.01353049        1215995432.9188695     
   2078914590.1190991        113951096.16368437        1213812561.8265715     
   1981562350.7465224        118057898.25547981        1217626872.1739824     
   2967226314.2298088        43474646.325078726        696233318.15579736     
   2766783434.7525063        22978702.139518857        666499219.98502243     
   2567482159.3953600        6288105.0211453438        641597093.91930664     
   2369322488.1583686       -6597145.0300443172        621526939.95865285     
   2172304421.0415258       -15677048.014071226        606288758.10305572     
   2727455099.5634794        64113892.169021606        826497818.99520755     
   2541009879.3402052        46827244.395739436        796289889.21190417     
   2354957643.4677477        30850544.458506346        771276810.65457869     
   2169298391.9461002        16183792.357298851        751458583.32322943     
   1984032124.7752557        2826988.0921285152        736835207.21785545     
   2483254034.0941544        83424182.772072673        956818244.94470417     
   2311843270.6132441        69657870.657575250        925263093.81797791     
   2140076871.7138019        54706107.147967339        899265673.03814137     
   1967954837.3958216        38568892.243232131        878825982.60519516     
   1795477167.6593142        21246225.943403482        863944022.51914358     
   2234623117.8218360        101405518.13421893        1087194596.0042977     
   2079283608.5716190        91470580.924998760        1053418833.8032409     
   1922839844.1335258        77854793.089515805        1025563681.0699887     
   1765291824.5075583        60558154.627780139        1003629137.8045468     
   1606639549.6937094        39580665.539791167        987615204.00691819     
   1981562350.7465224        118057898.25547981        1217626872.1739824     
   1843330893.2153358        112265375.19803804        1180757109.1676934     
   1703246560.7269273        100296602.28319430        1150170834.7501347     
   1561309353.2812872        82151579.510912359        1125868048.9212961     
   1417519270.8784418        57830306.881273389        1107848751.6811798     
   2172304421.0415258       -15677048.014071226        606288758.10305572     
   2058809798.7440000        773609.90421020985        604711881.44400978     
   1944485788.2317264        14459640.439982891        604758562.86635017     
   1829332389.5046647        25381043.593139768        606428802.37007964     
   1713349602.5628526        33537819.363790333        609722599.95521092     
   1984032124.7752557        2826988.0921285152        736835207.21785545     
   1873347541.1658223        12210346.446997881        734859669.78937101     
   1762511066.0967708        21087399.936473608        735053057.78496981     
   1651522699.5680985        29458148.560533464        737415371.20464396     
   1540382441.5797923        37322592.319173813        741946610.04839742     
   1795477167.6593142        21246225.943403482        863944022.51914358     
   1689160815.1456525        24029742.457178175        862360237.20222569     
   1583370067.9275112        28565276.622686446        863490744.65206921     
   1478104926.0048842        34852828.439912677        867335544.86868286     
   1373365389.3777721        42892397.908852756        873894637.85205352     
   1606639549.6937094        39580665.539791167        987615204.00691819     
   1506249620.6834941        36231797.934773266        987213583.68256557     
   1407062793.7239306        36893270.498603046        990071623.46765482     
   1309079068.8150337        41565083.231311023        996189323.36219764     
   1212298445.9567847        50247236.132856429        1005566683.3662039     
   1417519270.8784418        57830306.881273389        1107848751.6811798     
   1324613957.7793458        48816512.879758120        1109419709.2303851     
   1233589243.4860420        46071381.564228892        1114795694.2317238     
   1144445127.9985468        49594912.934715569        1123976706.6852026     
   1057181611.3168385        59387106.991159141        1136962746.5908203     
   1713349602.5628526        33537819.363790333        609722599.95521092     
   1566455001.4498205        32728963.986680865        595474890.71303165     
   1420592808.1802888        35361468.087923110        579841094.89571750     
   1275763022.7542760        41435331.667552829        562821212.50325632     
   1131965645.1717808        50950554.725575268        544415243.53565645     
   1540382441.5797923        37322592.319173813        741946610.04839742     
   1391556425.4339094        33899797.685119033        731424234.32981849     
   1242894491.3330944        31023943.201275885        721405458.06655812     
   1094396639.2773411        28695028.867649496        711890281.25861943     
   946062869.26664853        26913054.684219360        702878703.90600181     
   1373365389.3777721        42892397.908852756        873894637.85205352     
   1228007061.1432281        38475394.901132703        866084548.89221275     
   1081944489.1552947        31710912.715453088        860667745.41815257     
   935177673.41397107        22598951.351808786        857644227.42987585     
   787706613.91925728        11139510.810189188        857013994.92737937     
   1212298445.9567847        50247236.132856429        1005566683.3662039     
   1075806908.5777428        46455755.634688556        999455834.40023410     
   937742801.64687932        37422376.630442619        997627956.95051312     
   798106125.16416061        23147099.120019346        1000083051.0170326     
   656896879.12961066        3629923.1034840345        1006821116.5997934     
   1057181611.3168385        59387106.991159141        1136962746.5908203     
   934955967.73748863        57840879.885843754        1131538090.8538718     
   810289428.80785418        48158334.946245790        1132286092.6636288     
   683181994.52792335        30339472.172324389        1139206752.0200951     
   553633664.89770150        4384291.5640935302        1152300068.9232671     
   1131965645.1717808        50950554.725575268        544415243.53565645     
   948262107.03836954        38921153.841610909        562485053.32814682     
   757214440.76911020        2411325.8381645977        591588252.56514037     
   558822646.36401057       -58578929.284746468        631724841.24662614     
   353086723.82304901       -144049611.52721369        682894819.37262154     
   946062869.26664853        26913054.684219360        702878703.90600181     
   788332318.83255374        9650250.6593604088        720900160.61052907     
   622089249.61862290       -35987615.964952141        749075157.59485841     
   447333661.62486720       -110000545.18869206        787403694.85896862     
   264065554.85125411       -212388537.01193440        835885772.40289497     
   787706613.91925728        11139510.810189188        857013994.92737937     
   653435196.42818248       -12110852.782443404        873623976.12596095     
   509482869.51328242       -67630914.454504877        899507648.43963230     
   355849633.17455339       -155420674.20599547        934665011.86839831     
   192535487.41198725       -275480132.03693342        979096066.41225219     
   656896879.12961066        3629923.1034840345        1006821116.5997934     
   543570739.82525504       -26362156.483814090        1020656499.8744401     
   419395300.45307744       -92518569.630536973        1042885725.0994641     
   284370561.01308483       -194839316.33664191        1073508792.2748808     
   138496521.50526801       -333324396.60215640        1112525701.4006810     
   553633664.89770150        4384291.5640935302        1152300068.9232671     
   458738949.02376527       -33103660.444766849        1161997731.8559716     
   351826542.43802440       -110650581.49298677        1179209387.5743618     
   232896445.14045957       -228256471.58061457        1203935036.0784326     
   101948657.13108158       -385921330.70761955        1236174677.3681865     
   353086723.82304901       -144049611.52721369        682894819.37262154     
   278824972.35735250       -284569231.64738286        786434627.02731633     
   149605466.03828999       -608281367.94543862        905677908.55862319     
  -34571795.134152114       -1115186020.4214182        1040624663.9665045     
  -273706811.15996927       -1805283189.0753310        1191274893.2510273     
   264065554.85125411       -212388537.01193440        835885772.40289497     
   224809960.37338760       -351745648.98184621        885244987.61321259     
   141205649.17949349       -638931816.67184436        945560270.90288305     
   13252621.269578695       -1073947040.0818894        1016831622.2719172     
  -159049123.35635406       -1656791319.2120330        1099059041.7203028     
   192535487.41198725       -275480132.03693342        979096066.41225219     
   174722033.35838789       -417743940.82564998        986651900.33841908     
   123168900.72611612       -672473344.87660527        1000416396.5467087     
   37876089.515180290       -1039668344.1897997        1020389555.0371071     
  -81156400.274449646       -1519328938.7652481        1046571375.8096061     
   138496521.50526801       -333324396.60215640        1112525701.4006810     
   128561191.31237921       -482564107.17874140        1090655365.2029550     
   95495220.678163648       -708905952.55974817        1070246285.4900873     
   39298609.602631271       -1012349932.7451485        1051298462.2620919     
  -40028641.914225399       -1392896047.7349675        1033811895.5189744     
   101948657.13108158       -385921330.70761955        1236174677.3681865     
   86327434.235348254       -546206148.04112625        1197255382.2068017     
   58184609.035621375       -748229639.72127807        1155049937.7330317     
   17520181.531937182       -991991805.74794316        1109558343.9468763     
  -35665848.275718391       -1277492646.1212018        1060780600.8483561     
   5616076211.5335293        2150444200.1429119        2280212259.4372573     
   4617849424.5598907        1379929021.8861938        1836380417.6817677     
   3665749003.1691265        763168395.57240033        1456796537.4052970     
   2759774947.3612347        300162321.20150995        1141460618.6078534     
   1899927257.1362195       -9089201.2264591455        890372661.28942788     
   4493540305.3266649        1240045595.4758067        2044972342.9894006     
   3751128529.1538363        827646624.12894070        1689403625.2437336     
   3026347123.8159513        474015555.56521797        1383725521.9635496     
   2319196089.3130035        179152389.78462303        1127938033.1488504     
   1629675425.6449907       -56942873.212850690        922041158.79963470     
   3537434021.8041945        379575877.61401749        1934574976.1712735     
   3009816264.9649186        312986815.73683286        1634024055.2295082     
   2471332884.2126565        210179007.48299909        1369006401.7396882     
   1921983879.5473955        71152452.852516055        1139522015.7018104     
   1361769250.9691372       -104092848.15462118        945570897.11587620     
   2747757360.9661026       -430964953.44245636        1949020158.9828801     
   2393912631.9931369       -164050403.29013896        1670241707.6390958     
   2000706284.3592405       -28341248.674254060        1412639176.7337120     
   1568138318.0644159       -23837489.594803691        1176212566.2667344     
   1096208733.1086609       -150539126.05178106        960961876.23816419     
   2124510322.8124003       -1191576897.6936150        2088307891.4242253     
   1903417630.2384889       -603465032.95196533        1798056582.4724908     
   1614467324.2557080       -241545212.90654218        1514623846.9456246     
   1257659404.8640659       -105817437.55732542        1238009684.8436234     
   832993872.06355762       -196281706.90433246        968214096.16648686     
   1899927257.1362195       -9089201.2264591455        890372661.28942788     
   2025472792.9140592        44539181.561187983        986811870.02276945     
   2149240493.2726011        92241446.284509420        1076954949.2894127     
   2271230358.2118478        134017592.94351017        1160801899.0893512     
   2391442387.7317953        169867621.53818381        1238352719.4225876     
   1629675425.6449907       -56942873.212850690        922041158.79963470     
   1733431386.6965678       -26598154.045125604        1019526992.1248404     
   1838319830.5940635        7521507.9423325062        1111920896.7319162     
   1944340757.3374827        45416112.749533057        1199222872.6208596     
   2051494166.9268217        87085660.376467824        1281432919.7916679     
   1361769250.9691372       -104092848.15462118        945570897.11587620     
   1447176210.8617914       -95999620.536625504        1047498726.3423737     
   1536625971.8655846       -74430389.214829564        1145538827.5993049     
   1630118533.9805224       -39385154.189219356        1239691200.8866765     
   1727653897.2065985        9136084.5401836634        1329955846.2044816     
   1096208733.1086609       -150539126.05178106        960961876.23816419     
   1166707265.4097345       -163665217.91330916        1070727072.6753685     
   1244158917.0871685       -153614245.18696469        1177808741.8915777     
   1328563688.1409633       -120386207.87275457        1282206883.8867967     
   1419921578.5711174       -63981105.970676064        1383921498.6610188     
   832993872.06355762       -196281706.90433246        968214096.16648686     
   892024550.34039307       -229594946.17517984        1089212031.1238241     
   960918666.25880945       -230030059.97409350        1208730639.6087368     
   1039676219.8188084       -197587048.30106479        1326769921.6212280     
   1128297211.0203817       -132265911.15611899        1443329877.1612928     
   2391442387.7317953        169867621.53818381        1238352719.4225876     
   2283854608.6117358        139855957.80503309        1224175485.4508753     
   2179678676.0741687        121217116.01353049        1215995432.9188695     
   2078914590.1190991        113951096.16368437        1213812561.8265715     
   1981562350.7465224        118057898.25547981        1217626872.1739824     
   2051494166.9268217        87085660.376467824        1281432919.7916679     
   1963857600.5760593        75157462.094527245        1275674154.5705018     
   1878279263.6034217        70090028.406328917        1275092187.2434254     
   1794759156.0089149        71883359.311901331        1279687017.8104389     
   1713297277.7925375        80537454.811237395        1289458646.2715411     
   1727653897.2065985        9136084.5401836634        1329955846.2044816     
   1657624590.6376448        14588165.813186407        1331036329.6621001     
   1588299896.2424536        22388954.332060695        1336473227.4681942     
   1519679814.0210249        32538450.096806467        1346266539.6227515     
   1451764343.9733553        45036653.107425869        1360416266.1257818     
   1419921578.5711174       -63981105.970676064        1383921498.6610188     
   1365155578.7964931       -41851931.038965464        1390262010.7256694     
   1309740573.9912667       -21886106.209266484        1400138553.5931673     
   1253676564.1554320       -4083631.4815893173        1413551127.2635150     
   1196963549.2889934        11555493.144068837        1430499731.7367148     
   1128297211.0203817       -132265911.15611899        1443329877.1612928     
   1086450565.0526023       -94162828.461945653        1453351197.7612066     
   1042601296.8498530       -62735153.217674136        1466088165.6183479     
   996749406.41212988       -37982885.423312724        1481540780.7327230     
   948894893.73943686       -19906025.078853309        1499709043.1043298     
   1981562350.7465224        118057898.25547981        1217626872.1739824     
   1843330893.2153358        112265375.19803804        1180757109.1676934     
   1703246560.7269273        100296602.28319430        1150170834.7501347     
   1561309353.2812872        82151579.510912359        1125868048.9212961     
   1417519270.8784418        57830306.881273389        1107848751.6811798     
   1713297277.7925375        80537454.811237395        1289458646.2715411     
   1592497382.8181324        78243448.540763378        1253009131.5287240     
   1470201875.9980927        70964069.451503277        1222877672.4438627     
   1346410757.3324113        58699317.543441951        1199064269.0169666     
   1221124026.8210886        41449192.816572666        1181568921.2480295     
   1451764343.9733553        45036653.107425869        1360416266.1257818     
   1348494774.6107075        46270792.540435553        1324803806.6099403     
   1244086856.5139990        43710436.193254590        1295543969.8212993     
   1138540589.6832266        37355584.065858901        1272636755.7598591     
   1031855974.1184022        27206236.158281863        1256082164.4256129     
   1196963549.2889934        11555493.144068837        1430499731.7367148     
   1111323068.5930533        16347407.197035551        1396141134.4113619     
   1024901502.2746372        18535702.508412242        1368169726.8824472     
   937698850.33374262        18120379.078199327        1346585509.1499662     
   849715112.77036834        15101436.906385213        1331388481.2139206     
   948894893.73943686       -19906025.078853309        1499709043.1043298     
   880982264.76517498       -11526707.489424884        1467021114.9329767     
   812645813.28001642       -4560131.6029880047        1440754943.6272986     
   743885539.28395462        993702.58043700457        1420910529.1872928     
   674701442.77699685        5134795.0608806312        1407487871.6129565     
   1417519270.8784418        57830306.881273389        1107848751.6811798     
   1324613957.7793458        48816512.879758120        1109419709.2303851     
   1233589243.4860420        46071381.564228892        1114795694.2317238     
   1144445127.9985468        49594912.934715569        1123976706.6852026     
   1057181611.3168385        59387106.991159141        1136962746.5908203     
   1221124026.8210886        41449192.816572666        1181568921.2480295     
   1139563822.1314201        36998581.913458467        1187513328.2083893     
   1059289266.2613900        36833467.075801075        1197326671.9319210     
   980300359.21100128        40953848.303624034        1211008952.4186277     
   902597100.98025525        49359725.596909225        1228560169.6685112     
   1031855974.1184022        27206236.158281863        1256082164.4256129     
   961823475.86968517        27373587.763002813        1265705912.4799416     
   892481676.45445502        29843268.812674284        1279262506.6084852     
   823830575.87271106        34615279.307302296        1296751946.8112366     
   755870174.12445593        41689619.246887743        1318174233.0882018     
   849715112.77036834        15101436.906385213        1331388481.2139206     
   791392918.99414074        19941530.428397506        1343997462.0450392     
   733166474.06525123        25100786.774880648        1360603198.2614129     
   675035777.98368549        30579205.945776671        1381205689.8630297     
   617000830.74945533        36376787.941119254        1405804936.8498950     
   674701442.77699685        5134795.0608806312        1407487871.6129565     
   628272151.50479460        14702409.909678400        1422387976.9036901     
   581343659.09376597        22606020.962385893        1441348746.8907073     
   533915965.54391074        28845628.219005436        1464370181.5740094     
   485989070.85523534        33421231.679558203        1491452280.9535980     
   1057181611.3168385        59387106.991159141        1136962746.5908203     
   934955967.73748863        57840879.885843754        1131538090.8538718     
   810289428.80785418        48158334.946245790        1132286092.6636288     
   683181994.52792335        30339472.172324389        1139206752.0200951     
   553633664.89770150        4384291.5640935302        1152300068.9232671     
   902597100.98025525        49359725.596909225        1228560169.6685112     
   796297516.02811694        47418128.795154423        1223029998.3466303     
   687546188.13855314        37304055.535311639        1223669222.9673946     
   576343117.31156552        19017505.817391366        1230477843.5307875     
   462688303.54715806       -7441520.3585952520        1243455860.0368171     
   755870174.12445593        41689619.246887743        1318174233.0882018     
   665487328.93074691        39349857.088037282        1312525890.6630828     
   572641893.21249008        28801459.847357243        1313043682.5765209     
   477333866.96966964        10044427.524797350        1319727608.8285215     
   379563250.20229650       -16921239.879599497        1332577669.4190879     
   617000830.74945533        36376787.941119254        1405804936.8498950     
   542525406.44540119        33636064.764544934        1400025767.8032048     
   465576544.02966034        22650547.882355258        1400409471.4910061     
   386154243.50224304        3420237.2945705503        1406956047.9132965     
   304258504.86312366       -24054866.998880401        1419665497.0700810     
   485989070.85523534        33421231.679558203        1491452280.9535980     
   427411748.57206452        30276751.824655294        1485529629.7670128     
   366350140.59007668        18851319.640353784        1485766589.7108514     
   302804246.90926003       -855064.87336978316        1492163160.7851110     
   236774067.52963212       -28842401.716470271        1504719342.9897840     
   553633664.89770150        4384291.5640935302        1152300068.9232671     
   458738949.02376527       -33103660.444766849        1161997731.8559716     
   351826542.43802440       -110650581.49298677        1179209387.5743618     
   232896445.14045957       -228256471.58061457        1203935036.0784326     
   101948657.13108158       -385921330.70761955        1236174677.3681865     
   462688303.54715806       -7441520.3585952520        1243455860.0368171     
   386731146.97724110       -41674565.950705573        1242364875.1704681     
   300643326.81215024       -109676490.19339269        1247576118.5792074     
   204424843.05186987       -211447293.08670878        1259089590.2630236     
   98075695.696419790       -346986974.63059878        1276905290.2219217     
   379563250.20229650       -16921239.879599497        1332577669.4190879     
   319081468.62040645       -48938034.349730775        1322899568.3897626     
   250356050.55997062       -108433617.08167857        1318311931.1249118     
   173386996.02098602       -195407988.07545832        1318814757.6245439     
   88174305.003455788       -309861147.33104867        1324408047.8886626     
   304258504.86312366       -24054866.998880401        1419665497.0700810     
   255789913.95325691       -54894065.641850442        1403601811.5138347     
   200964713.68148255       -106921962.15784951        1391416825.2114744     
   139782904.04779160       -180138556.54689747        1383110538.1629987     
   72244485.052189559       -274543848.80898589        1378682950.3684080     
   236774067.52963212       -28842401.716470271        1504719342.9897840     
   196856482.97579497       -59542659.827067196        1484471604.5427039     
   152469316.17668015       -105141525.42192306        1466890800.8389087     
   103612567.13227981       -165638998.50106391        1451976931.8783948     
   50286235.842609793       -241035079.06443718        1439729997.6611724     
   101948657.13108158       -385921330.70761955        1236174677.3681865     
   86327434.235348254       -546206148.04112625        1197255382.2068017     
   58184609.035621375       -748229639.72127807        1155049937.7330317     
   17520181.531937182       -991991805.74794316        1109558343.9468763     
  -35665848.275718391       -1277492646.1212018        1060780600.8483561     
   98075695.696419790       -346986974.63059878        1276905290.2219217     
   80593020.373710811       -488431788.25731474        1222352661.7196877     
   51769531.486192584       -667679313.76673388        1165306602.8844361     
   11605229.033863068       -884729551.15886009        1105767113.7161689     
  -39899886.983274996       -1139582500.4336758        1043734194.2149087     
   88174305.003455788       -309861147.33104867        1324408047.8886626     
   71095088.623401999       -431786483.84007144        1255599672.9079397     
   43855847.417692274       -587578569.76795292        1185090586.5735636     
   6456581.3863400817       -777237405.11462879        1112880788.8855555     
  -41102709.470652640       -1000762989.8801228        1038970279.8438863     
   72244485.052189559       -274543848.80898589        1378682950.3684080     
   57833638.984397307       -376270234.78946012        1296996415.7715564     
   34443556.830116034       -507927407.72490042        1214401888.8004208     
   2074238.5893730223       -669515367.61521530        1130899369.4550056     
  -39274315.737867296       -861034114.46051431        1046488857.7353158     
   50286235.842609793       -241035079.06443718        1439729997.6611724     
   40808671.456716582       -321883041.10543162        1346542890.3105416     
   23532659.723496407       -428725827.63751614        1253240509.5650058     
  -1541799.3570395410       -561563438.66065431        1159822855.4245529     
  -34414705.784890682       -720395874.17483497        1066289927.8891985     
   2124510322.8124003       -1191576897.6936150        2088307891.4242253     
   1903417630.2384889       -603465032.95196533        1798056582.4724908     
   1614467324.2557080       -241545212.90654218        1514623846.9456246     
   1257659404.8640659       -105817437.55732542        1238009684.8436234     
   832993872.06355762       -196281706.90433246        968214096.16648686     
   1841589775.5059049       -819220584.46339417        2485832472.1335545     
   1608473604.8870437       -398325674.31781864        2076246152.1993570     
   1324464223.5805087       -147074799.79780984        1689180957.5586581     
   989561631.58630276       -65467960.903376758        1324636888.2114527     
   603765828.90443063       -153505157.63449374        982613944.15774119     
   1393197877.1695209       -496505676.54214031        2810534262.3391356     
   1192922662.4160719       -229368390.81952739        2301404734.5972061     
   958718639.69614708       -75327131.651832759        1830498884.0174029     
   690585809.00974822       -34381899.039052159        1397816710.5997207     
   388524170.35687530       -106532692.98118684        1003358214.3441614     
   779334627.80323982       -223432173.92985702        3062413262.0409756     
   656764802.82557201       -96593182.457096636        2473532329.6660414     
   517230572.60262352       -26302208.468604356        1938577626.3218608     
   360731937.13439769       -12559251.964371413        1457549152.0084283     
   187268896.42089123       -55364312.944405258        1030446906.7257499     
   27.407067641013107       -76.626537807241618        3241469471.2390704     
   26.115546080985009       -49.230522085681386        2592628937.4058614     
   22.299941563660113       -30.248117609555912        2013417184.4720294     
   15.960251366856966       -19.679332065024603        1503834212.4375789     
   7.0964768859795102       -17.524159412962213        1063880021.3025054     
   832993872.06355762       -196281706.90433246        968214096.16648686     
   892024550.34039307       -229594946.17517984        1089212031.1238241     
   960918666.25880945       -230030059.97409350        1208730639.6087368     
   1039676219.8188084       -197587048.30106479        1326769921.6212280     
   1128297211.0203817       -132265911.15611899        1443329877.1612928     
   603765828.90443063       -153505157.63449374        982613944.15774119     
   659090964.30912364       -175174448.82029551        1117286624.8634951     
   721813677.95270216       -172185145.87647504        1247901149.5050106     
   791933969.83517039       -144537248.80302334        1374457518.0822892     
   869451839.95652556       -92230757.599948108        1496955730.5953319     
   388524170.35687530       -106532692.98118684        1003358214.3441614     
   432775678.34138131       -118768461.44636714        1148828804.8285239     
   481958905.16208738       -114565167.12421510        1287662409.6568375     
   536073850.81898546       -93922810.014755696        1419859028.8290985     
   595120515.31208420       -56841390.117961049        1545418662.3453114     
   187268896.42089123       -55364312.944405258        1030446906.7257499     
   213078692.43717545       -60376984.053369135        1183838571.0189157     
   241354347.88696867       -57170123.717303187        1328014420.0642149     
   272095862.77026093       -45743731.936240062        1462974453.8616517     
   305303237.08706129       -26097808.710149348        1588718672.4112229     
   7.0964768859795102       -17.524159412962213        1063880021.3025054     
   6.5965005436008113       -16.641318497205191        1222315923.4346626     
   6.1273440533869721       -15.655744740898633        1368957180.7271464     
   5.6889890463320434       -14.567499027117682        1503803793.1799517     
   5.2814587867934968       -13.376504848838179        1626855760.7930799     
   1128297211.0203817       -132265911.15611899        1443329877.1612928     
   1086450565.0526023       -94162828.461945653        1453351197.7612066     
   1042601296.8498530       -62735153.217674136        1466088165.6183479     
   996749406.41212988       -37982885.423312724        1481540780.7327230     
   948894893.73943686       -19906025.078853309        1499709043.1043298     
   869451839.95652556       -92230757.599948108        1496955730.5953319     
   832908578.19746661       -65200928.472711205        1500114422.8957303     
   794863349.73025036       -43177655.039330989        1507192360.4610531     
   755316154.55487823       -26160937.299802244        1518189543.2912996     
   714266992.67135525       -14150775.254112959        1533105971.3864708     
   595120515.31208420       -56841390.117961049        1545418662.3453114     
   567319489.21229446       -39853159.122500926        1542298824.4608183     
   538517151.93116450       -26202632.064839870        1544301829.8489368     
   508713503.46869898       -15889808.944963634        1551427678.5096755     
   477908543.82489717       -8914689.7628789246        1563676370.4430282     
   305303237.08706129       -26097808.710149348        1588718672.4112229     
   289683298.09709102       -18119520.411300018        1579904402.4564576     
   273562703.45259750       -11810084.294196263        1577416573.7819960     
   256941453.15359041       -7169500.3588037044        1581255186.3878481     
   239819547.20005742       -4197768.6051626503        1591420240.2739999     
   5.2814587867934968       -13.376504848838179        1626855760.7930799     
   4.8518603054628660       -12.339097326314690        1612931156.8826559     
   4.2945556909181137       -11.727377608394331        1606536592.2602336     
   3.6095476424652206       -11.541336350445803        1607672066.9258127     
   2.7968397744291424       -11.780959769995775        1616337580.8793943     
   948894893.73943686       -19906025.078853309        1499709043.1043298     
   880982264.76517498       -11526707.489424884        1467021114.9329767     
   812645813.28001642       -4560131.6029880047        1440754943.6272986     
   743885539.28395462        993702.58043700457        1420910529.1872928     
   674701442.77699685        5134795.0608806312        1407487871.6129565     
   714266992.67135525       -14150775.254112959        1533105971.3864708     
   662582489.39958966       -8091296.5012309253        1499467203.0281546     
   610580119.29114211       -3091373.8706231713        1472425198.8452880     
   558259882.34600902        848992.63770043850        1451979958.8378708     
   505621778.56419384        3729803.0237505436        1438131483.0059111     
   477908543.82489717       -8914689.7628789246        1563676370.4430282     
   442952187.14071178       -5025043.5810113251        1529210376.8509967     
   407783919.29405415       -1841767.9407190382        1501516154.7441945     
   372403740.28493416        635137.15803182125        1480593704.1226225     
   336811650.11334276        2405671.7152127028        1466443024.9862823     
   239819547.20005742       -4197768.6051626503        1591420240.2739999     
   222091357.98853183       -2327948.7287957668        1556250636.4015086     
   204257213.28875294       -811313.81327390671        1528027811.3240197     
   186317113.10072571        352136.14141979814        1506751765.0415392     
   168271057.42444137        1162401.1352564692        1492422497.5540709     
   2.7968397744291424       -11.780959769995775        1616337580.8793943     
   1.9430614168929159       -11.944550637039013        1580587981.6796837     
   1.2752346340077985       -11.488302228022498        1551960168.5847621     
  0.79338500055417960       -10.412130681457045        1530454141.5946257     
  0.49748831428013363       -8.7161152837369578        1516069900.7092783     
   674701442.77699685        5134795.0608806312        1407487871.6129565     
   628272151.50479460        14702409.909678400        1422387976.9036901     
   581343659.09376597        22606020.962385893        1441348746.8907073     
   533915965.54391074        28845628.219005436        1464370181.5740094     
   485989070.85523534        33421231.679558203        1491452280.9535980     
   505621778.56419384        3729803.0237505436        1438131483.0059111     
   469343354.95344973        10468578.096541315        1452786244.4009233     
   432690530.46647745        15959350.248568818        1471841510.0183129     
   395663305.10327274        20202119.479826987        1495297279.8580801     
   358261678.86384118        23196885.790323526        1523153553.9202235     
   336811650.11334276        2405671.7152127028        1466443024.9862823     
   311655064.23860967        6606898.0343690217        1480998042.7919352     
   286248877.75023663        9976122.3080594391        1500293404.3460600     
   260593090.64823514        12513344.536321998        1524329109.6486547     
   234687702.93259919        14218564.719137825        1553105158.6997211     
   168271057.42444137        1162401.1352564692        1492422497.5540709     
   155207279.36026749        3117369.7231394127        1507023372.0767267     
   142018700.94505024        4656337.1408763900        1526704429.8739502     
   128705322.17879547        5779303.3884897456        1551465670.9457340     
   115267143.06150883        6486268.4659926221        1581307095.2920775     
  0.49748831428013363       -8.7161152837369578        1516069900.7092783     
  0.31842230317692755       -6.8371477435701999        1530862232.2553024     
   5.0911152583087871E-002  -5.2530008044858389        1551074586.6019790     
 -0.30503733696461133       -3.9636425666348112        1576706963.7493131     
 -0.74943027973871168       -2.9691005606505683        1607759363.6972971     
   485989070.85523534        33421231.679558203        1491452280.9535980     
   427411748.57206452        30276751.824655294        1485529629.7670128     
   366350140.59007668        18851319.640353784        1485766589.7108514     
   302804246.90926003       -855064.87336978316        1492163160.7851110     
   236774067.52963212       -28842401.716470271        1504719342.9897840     
   358261678.86384118        23196885.790323526        1523153553.9202235     
   315652721.02408189        21235736.287257597        1515994086.0794556     
   271180548.89561522        13063872.488504782        1514685288.1373820     
   224845162.47846419       -1318705.6058697850        1519227160.0940168     
   176646561.77260599       -21911997.995927848        1529619701.9493513     
   234687702.93259919        14218564.719137825        1553105158.6997211     
   207164420.30276713        13175938.797843643        1545433457.5165699     
   178398994.79435906        7992836.6146306619        1543303485.0004032     
   148391426.40738291       -1330741.8304753602        1546715241.1512244     
   117141715.14183427       -14794796.537489124        1555668725.9690289     
   115267143.06150883        6486268.4659926221        1581307095.2920775     
   101946846.40813014        6097359.3564379886        1573847744.0783603     
   88005478.286300167        3638212.0187124200        1571621180.2999141     
   73443038.696033061       -891173.54713820666        1574627403.9567294     
   58259527.637311086       -7490797.3411691785        1582866415.0488255     
 -0.74943027973871168       -2.9691005606505683        1607759363.6972971     
 -0.65983226208883961       -2.0369652850906967        1601236945.7648261     
 -0.62855979578733390       -1.2992478201359898        1599638374.0359063     
 -0.65560256399523631      -0.75591551104672894        1602963648.5105395     
 -0.74097413186887096      -0.40701114639779484        1611212769.1887250     
   236774067.52963212       -28842401.716470271        1504719342.9897840     
   196856482.97579497       -59542659.827067196        1484471604.5427039     
   152469316.17668015       -105141525.42192306        1466890800.8389087     
   103612567.13227981       -165638998.50106391        1451976931.8783948     
   50286235.842609793       -241035079.06443718        1439729997.6611724     
   176646561.77260599       -21911997.995927848        1529619701.9493513     
   146096137.30021927       -45120862.325193994        1505098623.1981575     
   112193526.14337179       -79503682.269329280        1483387334.2783275     
   74938728.302073181       -125060457.82830170        1464485835.1898692     
   34331743.776309982       -181791189.00215602        1448394125.9327812     
   117141715.14183427       -14794796.537489124        1555668725.9690289     
   96366608.145418987       -30389819.867096484        1528177935.0680172     
   73356710.025369376       -53434146.942149550        1503639789.0864520     
   48112020.781686820       -83927777.762646437        1482054288.0243437     
   20632540.414377019       -121870712.32856816        1463421431.8816936     
   58259527.637311086       -7490797.3411691785        1582866415.0488255     
   47667895.511391021       -15349532.452783111        1553709540.1522813     
   35958867.822671823       -26932919.440388769        1527648165.2632782     
   23132444.571144290       -42240958.304024830        1504682290.3818202     
   9188625.7568161339       -61273649.043660350        1484811915.5079002     
 -0.74097413186887096      -0.40701114639779484        1611212769.1887250     
 -0.60185043761893520       -8.2207134872285703E-002   1581693438.4509518     
 -0.46470926923408518       0.23599192654988940        1555412462.8088093     
 -0.32955936514554507       0.54755135864952720        1532369842.2622876     
 -0.19638201321524862       0.85253631077774328        1512565576.8113978     
   50286235.842609793       -241035079.06443718        1439729997.6611724     
   40808671.456716582       -321883041.10543162        1346542890.3105416     
   23532659.723496407       -428725827.63751614        1253240509.5650058     
  -1541799.3570395410       -561563438.66065431        1159822855.4245529     
  -34414705.784890682       -720395874.17483497        1066289927.8891985     
   34331743.776309982       -181791189.00215602        1448394125.9327812     
   30021231.411069885       -241587862.18469799        1347709060.8572862     
   19861883.538939953       -320880653.72353673        1246255934.8406310     
   3853700.1599213183       -419669563.61867601        1144034747.8828268     
  -18003318.725987136       -537954591.87011039        1041045499.9838623     
   20632540.414377019       -121870712.32856816        1463421431.8816936     
   19623972.794821948       -161175628.83513477        1357512956.2284789     
   14716181.508810788       -213477957.56322166        1250183632.0878751     
   5909166.5563310385       -278777698.51286948        1141433459.4598827     
  -6797072.0626012087       -357074851.68402773        1031262438.3444901     
   9188625.7568161339       -61273649.043660350        1484811915.5079002     
   9616895.6079728939       -80646341.056743547        1375954576.4241393     
   8095553.6330941096       -106517739.15661328        1265023601.3067505     
   4624599.8321954757       -138887843.34321660        1152018990.1557388     
  -795965.79474306107       -177756653.61661673        1036940742.9710723     
 -0.19638201321524862       0.85253631077774328        1512565576.8113978     
 -0.14948591814938911        1.1504447577731685        1403033921.4442573     
  -8.8182346040628579E-002   1.4963788221343213        1290775842.4972548     
  -1.2492227948050605E-002   1.8902635294938275        1175791339.9703679     
   7.7596537254306597E-002   2.3321520538919494        1058080413.8636123     
   27.407067641013107       -76.626537807241618        3241469471.2390704     
   26.115546080985009       -49.230522085681386        2592628937.4058614     
   22.299941563660113       -30.248117609555912        2013417184.4720294     
   15.960251366856966       -19.679332065024603        1503834212.4375789     
   7.0964768859795102       -17.524159412962213        1063880021.3025054     
  -779334562.98691523        223432064.42711347        3062413289.7065382     
  -656764745.21308935        96593110.104767472        2473532350.1803904     
  -517230525.72979039        26302161.480663240        1938577640.2016733     
  -360731904.53701496        12559218.554813892        1457549159.7703893     
  -187268881.63476750        55364281.327203482        1030446908.8865407     
  -1393197809.2145467        496505608.73067027        2810534310.5359855     
  -1192922604.8095064        229368342.95971507        2301404770.2560439     
  -958718594.46143305        75327096.998872936        1830498908.1715970     
  -690585778.17032683        34381870.848139584        1397816724.2826326     
  -388524155.93618917        106532664.50751156        1003358218.5891560     
  -1841589711.2758231        819220556.28413272        2485832533.7273979     
  -1608473552.6737013        398325649.33433378        2076246197.6328263     
  -1324464183.8949862        147074776.30651182        1689180988.3817949     
  -989561604.93968236        65467937.200650513        1324636905.9743042     
  -603765815.80778635        153505132.01676610        982613950.41035485     
  -2124510269.1707456        1191576907.0875030        2088307959.2807894     
  -1903417588.8056734        603465029.22861969        1798056632.3107345     
  -1614467294.0304515        241545199.40357208        1514623880.8322721     
  -1257659384.8450804        105817417.61235571        1238009704.8454058     
  -832993861.24955916        196281683.85497129        968214104.35013294     
   7.0964768859795102       -17.524159412962213        1063880021.3025054     
   6.5965005436008113       -16.641318497205191        1222315923.4346626     
   6.1273440533869721       -15.655744740898633        1368957180.7271464     
   5.6889890463320434       -14.567499027117682        1503803793.1799517     
   5.2814587867934968       -13.376504848838179        1626855760.7930799     
  -187268881.63476750        55364281.327203482        1030446908.8865407     
  -213078678.62285924        60376953.957606941        1183838572.9344888     
  -241354335.01815331        57170095.230668992        1328014421.8125889     
  -272095850.82065701        45743705.146365017        1462974455.5208392     
  -305303226.03036118        26097783.704727486        1588718674.0592380     
  -388524155.93618917        106532664.50751156        1003358218.5891560     
  -432775664.64146501        118768434.31674528        1148828808.5418770     
  -481958892.19196105        114565141.30857962        1287662412.9945729     
  -536073838.58767891        93922785.483006328        1419859031.9472470     
  -595120503.82861578        56841366.840037763        1545418665.3998988     
  -603765815.80778635        153505132.01676610        982613950.41035485     
  -659090951.45931065        175174424.43611827        1117286630.2568257     
  -721813665.39407098        172185122.57801124        1247901154.2731011     
  -791933957.61207438        144537226.44243056        1374457522.4591835     
  -869451828.11330962        92230736.029410422        1496955734.8150697     
  -832993861.24955916        196281683.85497129        968214104.35013294     
  -892024539.07639694        229594924.31571585        1089212038.0793371     
  -960918654.62449300        230030039.03893501        1208730645.6481738     
  -1039676207.8938408        197587028.02464837        1326769927.0566416     
  -1128297198.8844385        132265891.27285928        1443329882.3047411     
   5.2814587867934968       -13.376504848838179        1626855760.7930799     
   4.8518603054628660       -12.339097326314690        1612931156.8826559     
   4.2945556909181137       -11.727377608394331        1606536592.2602336     
   3.6095476424652206       -11.541336350445803        1607672066.9258127     
   2.7968397744291424       -11.780959769995775        1616337580.8793943     
  -305303226.03036118        26097783.704727486        1588718674.0592380     
  -289683288.07819319        18119496.972622663        1579904403.8396003     
  -273562694.61268222        11810061.951662928        1577416574.8801260     
  -256941445.63383037        7169478.6418385357        1581255187.1808238     
  -239819541.14163381        4197747.0431647450        1591420240.7416866     
  -595120503.82861578        56841366.840037763        1545418665.3998988     
  -567319479.00277829        39853136.886001498        1542298827.1189327     
  -538517143.02255344        26202610.779919744        1544301832.0702977     
  -508713495.88794291        15889788.521792948        1551427680.2539947     
  -477908537.59894186        8914670.1116322875        1563676371.6700253     
  -869451828.11330962        92230736.029410422        1496955734.8150697     
  -832908567.92190039        65200907.401013374        1500114426.7206581     
  -794863340.93506062        43177634.757385939        1507192363.8307455     
  -755316147.15278912        26160918.098530620        1518189546.1453338     
  -714266986.57508481        14150757.424449325        1533105973.6644127     
  -1128297198.8844385        132265891.27285928        1443329882.3047411     
  -1086450554.8355618        94162808.517658472        1453351202.6447747     
  -1042601288.3502045        62735133.884056926        1466088170.1614702     
  -996749399.42837214        37982867.372037888        1481540784.8548281     
  -948894888.07005978        19906008.981623471        1499709046.7248492     
   2.7968397744291424       -11.780959769995775        1616337580.8793943     
   1.9430614168929159       -11.944550637039013        1580587981.6796837     
   1.2752346340077985       -11.488302228022498        1551960168.5847621     
  0.79338500055417960       -10.412130681457045        1530454141.5946257     
  0.49748831428013363       -8.7161152837369578        1516069900.7092783     
  -239819541.14163381        4197747.0431647450        1591420240.7416866     
  -222091353.45224130        2327927.4767863601        1556250637.1289165     
  -204257210.01916367        811293.72268943489        1528027812.3067508     
  -186317110.84240136       -352154.21912363172        1506751766.2751899     
  -168271055.92195776       -1162416.3486680165        1492422499.0342329     
  -477908537.59894186        8914670.1116322875        1563676371.6700253     
  -442952182.26404262        5025024.8731820881        1529210378.4615409     
  -407783915.62773991        1841750.6394085884        1501516156.7294767     
  -372403737.69002604       -635152.58966119587        1480593706.4738302     
  -336811648.45091349       -2405684.8140669912        1466443027.6946039     
  -714266986.57508481        14150757.424449325        1533105973.6644127     
  -662582484.49234629        8091280.2446296513        1499467205.6775551     
  -610580115.55048585        3091359.2618830800        1472425201.8529336     
  -558259879.74949574       -849005.52376571298        1451979962.1905422     
  -505621777.08938152       -3729814.1123329699        1438131486.6903894     
  -948894888.07005978        19906008.981623471        1499709046.7248492     
  -880982260.13715374        11526693.591122746        1467021118.7769608     
  -812645809.78740263        4560119.5901079178        1440754947.6771207     
  -743885537.02079797       -993713.02139458060        1420910533.4253302     
  -674701441.83735275       -5134804.2434299290        1407487876.0215940     
  0.49748831428013363       -8.7161152837369578        1516069900.7092783     
  0.31842230317692755       -6.8371477435701999        1530862232.2553024     
   5.0911152583087871E-002  -5.2530008044858389        1551074586.6019790     
 -0.30503733696461133       -3.9636425666348112        1576706963.7493131     
 -0.74943027973871168       -2.9691005606505683        1607759363.6972971     
  -168271055.92195776       -1162416.3486680165        1492422499.0342329     
  -155207278.38474840       -3117381.8208590895        1507023373.2625110     
  -142018700.63144952       -4656346.5727536976        1526704430.7836905     
  -128705322.66205096       -5779310.6043154970        1551465671.5977738     
  -115267144.47657043       -6486273.9156031050        1581307095.7047532     
  -336811648.45091349       -2405684.8140669912        1466443027.6946039     
  -311655063.21958327       -6606908.6440663338        1480998044.9604285     
  -286248877.46762693       -9976130.7386441082        1500293406.0113988     
  -260593091.19504076       -12513351.097791076        1524329110.8475173     
  -234687704.40183264       -14218569.721528947        1553105159.4687810     
  -505621777.08938152       -3729814.1123329699        1438131486.6903894     
  -469343354.18608034       -10468587.306770593        1452786247.3490465     
  -432690530.45762122       -15959357.750680029        1471841512.2851017     
  -395663305.90399808       -20202125.444042012        1495297281.4985490     
  -358261680.52522504       -23196890.386907160        1523153554.9893830     
  -674701441.83735275       -5134804.2434299290        1407487876.0215940     
  -628272151.28424478       -14702417.808981687        1422387980.4283798     
  -581343659.60143840       -22606027.608874440        1441348749.6048031     
  -533915966.78893620       -28845633.643111736        1464370183.5508699     
  -485989072.84673935       -33421235.911701977        1491452282.2665708     
 -0.74943027973871168       -2.9691005606505683        1607759363.6972971     
 -0.65983226208883961       -2.0369652850906967        1601236945.7648261     
 -0.62855979578733390       -1.2992478201359898        1599638374.0359063     
 -0.65560256399523631      -0.75591551104672894        1602963648.5105395     
 -0.74097413186887096      -0.40701114639779484        1611212769.1887250     
  -115267144.47657043       -6486273.9156031050        1581307095.7047532     
  -101946847.66864261       -6097363.0817192979        1573847744.3186238     
  -88005479.499836475       -3638214.3782404363        1571621180.3810997     
  -73443039.970145240        891172.19485384598        1574627403.8921771     
  -58259529.079564199        7490796.6375832781        1582866414.8518665     
  -234687704.40183264       -14218569.721528947        1553105159.4687810     
  -207164421.60400781       -13175942.204456434        1545433457.9514053     
  -178398996.02609056       -7992838.7537454367        1543303485.1276863     
  -148391427.66807625        1330740.6306269020        1546715240.9976232     
  -117141716.52997316        14794795.948625371        1555668725.5612204     
  -358261680.52522504       -23196890.386907160        1523153554.9893830     
  -315652722.46591634       -21235739.405141562        1515994086.6631768     
  -271180550.20732027       -13063874.425750181        1514685288.2756658     
  -224845163.74941164        1318704.5513485521        1519227159.8268690     
  -176646563.09219775        21911997.526132777        1529619701.3167834     
  -485989072.84673935       -33421235.911701977        1491452282.2665708     
  -427411750.25438035       -30276754.683806673        1485529630.4539275     
  -366350142.04351193       -18851321.394215196        1485766589.8250473     
  -302804248.21412861        855063.95709112287        1492163160.3799281     
  -236774068.76624376        28842401.370073766        1504719342.1185682     
 -0.74097413186887096      -0.40701114639779484        1611212769.1887250     
 -0.60185043761893520       -8.2207134872285703E-002   1581693438.4509518     
 -0.46470926923408518       0.23599192654988940        1555412462.8088093     
 -0.32955936514554507       0.54755135864952720        1532369842.2622876     
 -0.19638201321524862       0.85253631077774328        1512565576.8113978     
  -58259529.079564199        7490796.6375832781        1582866414.8518665     
  -47667896.686299585        15349532.359454077        1553709539.9561296     
  -35958868.734135710        26932919.944320690        1527648165.0686328     
  -23132445.223056018        42240959.392238446        1504682290.1893640     
  -9188626.1530818939        61273650.703139745        1484811915.3183377     
  -117141716.52997316        14794795.948625371        1555668725.5612204     
  -96366609.275112942        30389819.849799372        1528177934.6618884     
  -73356710.900458306        53434147.483621404        1503639788.6834002     
  -48112021.406021796        83927778.850051701        1482054287.6257555     
  -20632540.791790299        121870713.94913064        1463421431.4889603     
  -176646563.09219775        21911997.526132777        1529619701.3167834     
  -146096138.36828381        45120862.388860725        1505098622.5682211     
  -112193526.96369439        79503682.853844315        1483387333.6531165     
  -74938728.878436953        125060458.92105335        1464485834.5714588     
  -34331744.112497777        181791190.59053344        1448394125.3232667     
  -236774068.76624376        28842401.370073766        1504719342.1185682     
  -196856483.96582896        59542659.976576492        1484471603.6751440     
  -152469316.92385119        105141526.05495773        1466890799.9777782     
  -103612567.64031586        165638999.60519588        1451976931.0264795     
  -50286236.115217373        241035080.62731266        1439729996.8212340     
 -0.19638201321524862       0.85253631077774328        1512565576.8113978     
 -0.14948591814938911        1.1504447577731685        1403033921.4442573     
  -8.8182346040628579E-002   1.4963788221343213        1290775842.4972548     
  -1.2492227948050605E-002   1.8902635294938275        1175791339.9703679     
   7.7596537254306597E-002   2.3321520538919494        1058080413.8636123     
  -9188626.1530818939        61273650.703139745        1484811915.3183377     
  -9616895.9216161892        80646343.275189057        1375954576.2766888     
  -8095553.8340689540        106517742.03417370        1265023601.2013142     
  -4624599.8904565647        138887846.98004338        1152018990.0922127     
   795965.90922319889        177756658.11280498        1036940742.9493994     
  -20632540.791790299        121870713.94913064        1463421431.4889603     
  -19623973.101027012        161175630.97774586        1357512955.9214060     
  -14716181.712516591        213477960.33218777        1250183631.8662856     
  -5909166.6262605041        278777702.01244819        1141433459.3236115     
   6797072.1577412188        357074856.01852530        1031262438.2933464     
  -34331744.112497777        181791190.59053344        1448394125.3232667     
  -30021231.687723413        241587864.25810534        1347709060.3784373     
  -19861883.723518416        320880656.39044183        1246255934.4921904     
  -3853700.2198977768        419669566.98750126        1144034747.6645322     
   18003318.823146582        537954596.04930520        1041045499.8954599     
  -50286236.115217373        241035080.62731266        1439729996.8212340     
  -40808671.681695774        321883043.11629534        1346542889.6477540     
  -23532659.867074400        428725830.20894128        1253240509.0790074     
   1541799.3286373019        561563441.90522230        1159822855.1149952     
   34414705.905447721        720395878.20516706        1066289927.7557361     
  -2124510269.1707456        1191576907.0875030        2088307959.2807894     
  -1903417588.8056734        603465029.22861969        1798056632.3107345     
  -1614467294.0304515        241545199.40357208        1514623880.8322721     
  -1257659384.8450804        105817417.61235571        1238009704.8454058     
  -832993861.24955916        196281683.85497129        968214104.35013294     
  -2747757334.5051308        430964937.43382514        1949020213.2229996     
  -2393912608.8520060        164050389.42983556        1670241747.9106212     
  -2000706265.0468779        28341235.265870094        1412639204.2847910     
  -1568138303.0897460        23837474.941911459        1176212582.3455067     
  -1096208722.9806051        150539108.45797944        960961882.09277201     
  -3537434010.6044307       -379575915.44933069        1934575022.5216124     
  -3009816250.5348248       -312986836.85989439        1634024089.8990824     
  -2471332868.5713525       -210179018.62425399        1369006425.1580470     
  -1921983864.7140231       -71152460.742416501        1139522028.2985148     
  -1361769238.9628320        104092836.78562993        945570899.32047713     
  -4493540297.4686527       -1240045651.5619593        2044972387.1766417     
  -3751128513.8541217       -827646649.64056921        1689403658.2761176     
  -3026347104.6038756       -474015562.26679206        1383725543.4520457     
  -2319196069.7179132       -179152389.44062328        1127938042.7044222     
  -1629675409.1962316        56942868.837931991        922041156.03325272     
  -5616076195.0977936       -2150444270.9040675        2280212307.1880774     
  -4617849398.8099022       -1379929048.9121826        1836380453.0417261     
  -3665748973.1444454       -763168395.66174018        1456796559.1667788     
  -2759774918.1014142       -300162311.15271974        1141460625.5632336     
  -1899927233.6808102        9089204.6148735285        890372652.23109305     
  -832993861.24955916        196281683.85497129        968214104.35013294     
  -892024539.07639694        229594924.31571585        1089212038.0793371     
  -960918654.62449300        230030039.03893501        1208730645.6481738     
  -1039676207.8938408        197587028.02464837        1326769927.0566416     
  -1128297198.8844385        132265891.27285928        1443329882.3047411     
  -1096208722.9806051        150539108.45797944        960961882.09277201     
  -1166707255.1891189        163665198.46382499        1070727078.1990825     
  -1244158906.5265195        153614224.70671260        1177808747.2002172     
  -1328563676.9927967        120386187.18667740        1282206889.0961795     
  -1419921566.5879586        63981085.903693020        1383921503.8869665     
  -1361769238.9628320        104092836.78562993        945570899.32047713     
  -1447176199.6810350        95999604.098172426        1047498729.4949923     
  -1536625960.9357545        74430369.622334599        1145538831.6195285     
  -1630118522.7269833        39385133.358134151        1239691205.6940825     
  -1727653885.0547245       -9136104.6944452524        1329955851.7186589     
  -1629675409.1962316        56942868.837931991        922041156.03325272     
  -1733431372.5521481        26598141.218755841        1019526991.9670720     
  -1838319817.8522034       -7521526.2142093182        1111920898.9061055     
  -1944340745.0963998       -45416133.460983157        1199222876.8503537     
  -2051494154.2847369       -87085680.521556735        1281432925.7998137     
  -1899927233.6808102        9089204.6148735285        890372652.23109305     
  -2025472773.8024507       -44539190.174404263        986811865.61531746     
  -2149240477.2758632       -92241462.802919149        1076954949.0599489     
  -2271230344.1010466       -134017613.27067101        1160801902.5649867     
  -2391442374.2779965       -169867641.57764554        1238352726.1304348     
  -1128297198.8844385        132265891.27285928        1443329882.3047411     
  -1086450554.8355618        94162808.517658472        1453351202.6447747     
  -1042601288.3502045        62735133.884056926        1466088170.1614702     
  -996749399.42837214        37982867.372037888        1481540784.8548281     
  -948894888.07005978        19906008.981623471        1499709046.7248492     
  -1419921566.5879586        63981085.903693020        1383921503.8869665     
  -1365155568.8612037        41851911.352685571        1390262015.9983890     
  -1309740565.9382596        21886087.455647469        1400138558.7920833     
  -1253676557.8191357        4083614.2125372291        1413551132.2680557     
  -1196963544.5038202       -11555508.376602113        1430499736.4263020     
  -1727653885.0547245       -9136104.6944452524        1329955851.7186589     
  -1657624580.7769144       -14588185.179295540        1331036335.4877920     
  -1588299888.5432119       -22388972.477840781        1336473233.4448140     
  -1519679808.3536162       -32538466.590075135        1346266545.5897205     
  -1451764340.2081299       -45036667.516005754        1360416271.9225161     
  -2051494154.2847369       -87085680.521556735        1281432925.7998137     
  -1963857590.5826986       -75157481.078308225        1275674161.1129880     
  -1878279256.1650612       -70090045.916396737        1275092194.1196623     
  -1794759151.0318210       -71883375.035809994        1279687024.8198321     
  -1713297275.1829839       -80537468.436565936        1289458653.2135015     
  -2391442374.2779965       -169867641.57764554        1238352726.1304348     
  -2283854598.2785506       -139855976.34433472        1224175492.8739758     
  -2179678668.8038020       -121217132.86001182        1215995440.8166232     
  -2078914585.8537426       -113951111.12465596        1213812569.9583807     
  -1981562349.4283788       -118057911.13828194        1217626880.2992496     
  -948894888.07005978        19906008.981623471        1499709046.7248492     
  -880982260.13715374        11526693.591122746        1467021118.7769608     
  -812645809.78740263        4560119.5901079178        1440754947.6771207     
  -743885537.02079797       -993713.02139458060        1420910533.4253302     
  -674701441.83735275       -5134804.2434299290        1407487876.0215940     
  -1196963544.5038202       -11555508.376602113        1430499736.4263020     
  -1111323064.8905005       -16347420.132385731        1396141139.1620739     
  -1024901499.7410619       -18535713.434448242        1368169731.6574917     
  -937698849.05551815       -18120388.282823145        1346585513.9125476     
  -849715112.83386171       -15101444.677493870        1331388485.9272501     
  -1451764340.2081299       -45036667.516005754        1360416271.9225161     
  -1348494772.0241218       -46270804.569958150        1324803812.3144259     
  -1244086855.1847425       -43710446.106011748        1295543975.3775687     
  -1138540589.6899915       -37355592.124154568        1272636761.1119473     
  -1031855975.5398697       -27206242.624400854        1256082169.5175557     
  -1713297275.1829839       -80537468.436565936        1289458653.2135015     
  -1592497381.5380311       -78243459.721626163        1253009138.2340157     
  -1470201876.1184440       -70964078.424581110        1222877678.8373587     
  -1346410758.9242215       -58699324.545414567        1199064275.0235302     
  -1221124029.9553704       -41449198.084152341        1181568926.7925212     
  -1981562349.4283788       -118057911.13828194        1217626880.2992496     
  -1843330893.4322221       -112265385.58738208        1180757116.9208479     
  -1703246562.5421689       -100296610.39016241        1150170842.0368612     
  -1561309356.7582166       -82151585.546612144        1125868055.6472945     
  -1417519276.0803740       -57830311.056761324        1107848757.7521467     
  -674701441.83735275       -5134804.2434299290        1407487876.0215940     
  -628272151.28424478       -14702417.808981687        1422387980.4283798     
  -581343659.60143840       -22606027.608874440        1441348749.6048031     
  -533915966.78893620       -28845633.643111736        1464370183.5508699     
  -485989072.84673935       -33421235.911701977        1491452282.2665708     
  -849715112.83386171       -15101444.677493870        1331388485.9272501     
  -791392919.47203302       -19941536.713072658        1343997465.7290328     
  -733166475.01968682       -25100791.780259371        1360603201.0302069     
  -675035779.47682512       -30579209.879059613        1381205691.8307583     
  -617000832.84345436       -36376791.009500325        1405804938.1306999     
  -1031855975.5398697       -27206242.624400854        1256082169.5175557     
  -961823477.28433692       -27373592.504518270        1265705916.3353033     
  -892481677.97746789       -29843272.213511586        1279262509.3821762     
  -823830577.61926782       -34615281.751403779        1296751948.6581790     
  -755870176.20973480       -41689621.118184924        1318174234.1633089     
  -1221124029.9553704       -41449198.084152341        1181568926.7925212     
  -1139563824.7211547       -36998585.183318079        1187513332.2471862     
  -1059289268.4747806       -36833468.908626199        1197326674.6607187     
  -980300361.21625483       -40953849.260096192        1211008954.0331223     
  -902597102.94558060       -49359726.237734139        1228560170.3644044     
  -1417519276.0803740       -57830311.056761324        1107848757.7521467     
  -1324613961.7824886       -48816514.749479353        1109419713.4646773     
  -1233589246.5116208       -46071381.865592420        1114795696.8658245     
  -1144445130.2677858       -49594912.405146718        1123976707.9555879     
  -1057181613.0509839       -59387106.368143976        1136962746.7339699     
  -485989072.84673935       -33421235.911701977        1491452282.2665708     
  -427411750.25438035       -30276754.683806673        1485529630.4539275     
  -366350142.04351193       -18851321.394215196        1485766589.8250473     
  -302804248.21412861        855063.95709112287        1492163160.3799281     
  -236774068.76624376        28842401.370073766        1504719342.1185682     
  -617000832.84345436       -36376791.009500325        1405804938.1306999     
  -542525408.21135044       -33636066.862224698        1400025768.4201369     
  -465576545.51936728       -22650549.182019383        1400409471.4980631     
  -386154244.76750094       -3420237.9688765258        1406956047.3644810     
  -304258505.95576251        24054866.777187213        1419665496.0193980     
  -755870176.20973480       -41689621.118184924        1318174234.1633089     
  -665487330.66722143       -39349858.390319675        1312525891.0697525     
  -572641894.62346184       -28801460.658302814        1313043682.3694248     
  -477333868.07845545       -10044427.922125697        1319727608.0623188     
  -379563251.03219986        16921239.818215072        1332577668.1484389     
  -902597102.94558060       -49359726.237734139        1228560170.3644044     
  -796297517.62199855       -47418129.268093109        1223029998.4027846     
  -687546189.35580051       -37304055.823062390        1223669222.4391243     
  -576343118.14698279       -19017505.902639985        1230477842.4734190     
  -462688303.99555242        7441520.4931700528        1243455858.5056710     
  -1057181613.0509839       -59387106.368143976        1136962746.7339699     
  -934955969.07567215       -57840879.495522201        1131538090.4192271     
  -810289429.71637094       -48158334.676276505        1132286091.7071681     
  -683181994.97308969       -30339471.910431027        1139206750.5977964     
  -553633664.84581804       -4384291.1979422569        1152300067.0911174     
  -236774068.76624376        28842401.370073766        1504719342.1185682     
  -196856483.96582896        59542659.976576492        1484471603.6751440     
  -152469316.92385119        105141526.05495773        1466890799.9777782     
  -103612567.64031586        165638999.60519588        1451976931.0264795     
  -50286236.115217373        241035080.62731266        1439729996.8212340     
  -304258505.95576251        24054866.777187213        1419665496.0193980     
  -255789914.83700126        54894065.811196283        1403601810.5033965     
  -200964714.35229361        106921962.73170033        1391416824.2337065     
  -139782904.50163656        180138557.53869861        1383110537.2103403     
  -72244485.285036549        274543850.23217416        1378682949.4332845     
  -379563251.03219986        16921239.818215072        1332577668.1484389     
  -319081469.30865359        48938034.565642089        1322899567.2049751     
  -250356051.09476799        108433617.61420004        1318311930.0080864     
  -173386996.39054552        195407988.96387818        1318814756.5577683     
  -88174305.195981264        309861148.61470133        1324408046.8540306     
  -462688303.99555242        7441520.4931700528        1243455858.5056710     
  -386731147.38077497        41674566.239938855        1242364873.7798729     
  -300643327.15126157        109676490.70249732        1247576117.3009069     
  -204424843.30701843        211447293.88081861        1259089589.0687726     
  -98075695.848051339        346986975.77488929        1276905289.0834630     
  -553633664.84581804       -4384291.1979422569        1152300067.0911174     
  -458738949.05335325        33103660.834138513        1161997730.2281020     
  -351826542.52177340        110650581.99659750        1179209386.1121776     
  -232896445.25107414        228256472.28945956        1203935034.7433395     
  -101948657.24124584        385921331.71274650        1236174676.1215861     
  -50286236.115217373        241035080.62731266        1439729996.8212340     
  -40808671.681695774        321883043.11629534        1346542889.6477540     
  -23532659.867074400        428725830.20894128        1253240509.0790074     
   1541799.3286373019        561563441.90522230        1159822855.1149952     
   34414705.905447721        720395878.20516706        1066289927.7557361     
  -72244485.285036549        274543850.23217416        1378682949.4332845     
  -57833639.177306131        376270236.63090479        1296996415.0477879     
  -34443556.959976435        507927410.06162119        1214401888.2892992     
  -2074238.6330713034        669515370.52425981        1130899369.1578240     
   39274315.803442359        861034118.01893616        1046488857.6533800     
  -88174305.195981264        309861148.61470133        1324408046.8540306     
  -71095088.778958917        431786485.51369494        1255599672.1064160     
  -43855847.523850471        587578571.87298357        1185090586.0080950     
  -6456581.4306501746        777237407.69256973        1112880788.5590839     
   41102709.500633359        1000762992.9724373        1038970279.7593513     
  -98075695.848051339        346986975.77488929        1276905289.0834630     
  -80593020.486653268        488431789.76468921        1222352660.8236568     
  -51769531.558676094        667679315.64308012        1165306602.2354162     
  -11605229.064106226        884729553.41010642        1105767113.3187551     
   39899886.997036159        1139582503.0657220        1043734194.0736787     
  -101948657.24124584        385921331.71274650        1236174676.1215861     
  -86327434.300400406        546206149.38384104        1197255381.1994922     
  -58184609.064465702        748229641.37188578        1155049936.9712474     
  -17520181.533455372        991991807.67686486        1109558343.4368594     
   35665848.292632341        1277492648.2987516        1060780600.5963321     
  -5616076195.0977936       -2150444270.9040675        2280212307.1880774     
  -4617849398.8099022       -1379929048.9121826        1836380453.0417261     
  -3665748973.1444454       -763168395.66174018        1456796559.1667788     
  -2759774918.1014142       -300162311.15271974        1141460625.5632336     
  -1899927233.6808102        9089204.6148735285        890372652.23109305     
  -6333594660.0861073       -1719356046.7489116        2154643118.0041442     
  -5255810686.6022329       -1180101703.7548435        1726387223.7978280     
  -4196507124.9079885       -702448733.39287901        1348449093.0857484     
  -3155683975.0033731       -286397135.66300917        1020828725.8679008     
  -2133341236.8883884        68053089.434756994        743526122.14428711     
  -6879032130.5915918       -1236643524.2489102        1914820953.2869949     
  -5761491542.1322117       -940590228.91879404        1534394637.6589837     
  -4634785406.6296711       -613985110.11145473        1190355888.7480335     
  -3498913724.0839615       -256828167.82689261        882704706.55414891     
  -2353876494.4950819        130880597.93489397        611441091.07732737     
  -7252388606.6142445       -702306703.40405822        1560745813.0366390     
  -6134891965.3998480       -661394624.40404129        1260402694.6251929     
  -4980583818.3094988       -497777525.81747818        982516946.15364063     
  -3789464165.3431792       -211455407.64436388        727088567.62198067     
  -2561533006.5008950        197571730.11529779        494117559.03021449     
  -7453664088.1540642       -116345584.21435547        1092417697.2530723     
  -6376011956.4051485       -342514890.21059346        904411394.69645655     
  -5233902359.9474659       -353825980.51093841        724932265.30256021     
  -4027335298.7810264       -150278855.11542583        553980309.07139075     
  -2756310772.9058189        268126485.97597134        391555526.00294572     
  -1899927233.6808102        9089204.6148735285        890372652.23109305     
  -2025472773.8024507       -44539190.174404263        986811865.61531746     
  -2149240477.2758632       -92241462.802919149        1076954949.0599489     
  -2271230344.1010466       -134017613.27067101        1160801902.5649867     
  -2391442374.2779965       -169867641.57764554        1238352726.1304348     
  -2133341236.8883884        68053089.434756994        743526122.14428711     
  -2266862301.8162146        42068570.019635797        843376995.31775331     
  -2404106649.6357584        3673107.6321220398        937009623.49355757     
  -2545074280.3470140       -47133297.727761149        1024424006.6716988     
  -2689765193.9499855       -110350646.06003463        1105620144.8521767     
  -2353876494.4950819        130880597.93489397        611441091.07732737     
  -2495150555.8235803        132606712.41558850        708285651.24343300     
  -2645649019.5837340        103584818.79074514        798989851.35380673     
  -2805371885.7755494        43814917.060371280        883553691.40844715     
  -2974319154.3990283       -46702992.775546551        961977171.40735388     
  -2561533006.5008950        197571730.11529779        494117559.03021449     
  -2710337535.8245430        227075237.01346231        581537833.39235437     
  -2873867587.1197958        207493670.67294776        662895632.64069319     
  -3052123160.3866615        138827031.09372771        738190956.77522898     
  -3245104255.6251292        21075318.275822639        807423805.79596615     
  -2756310772.9058189        268126485.97597134        391555526.00294572     
  -2912423241.8191056        325474143.81326592        463133541.76452124     
  -3088762352.2439470        315399663.27870488        528726967.35422093     
  -3285328104.1803355        237903044.37232161        588335802.77205157     
  -3502120497.6282821        92984287.094086170        641960048.01800966     
  -2391442374.2779965       -169867641.57764554        1238352726.1304348     
  -2283854598.2785506       -139855976.34433472        1224175492.8739758     
  -2179678668.8038020       -121217132.86001182        1215995440.8166232     
  -2078914585.8537426       -113951111.12465596        1213812569.9583807     
  -1981562349.4283788       -118057911.13828194        1217626880.2992496     
  -2689765193.9499855       -110350646.06003463        1105620144.8521767     
  -2574386792.7947245       -102804759.62093639        1093243732.7764225     
  -2460070312.9166002       -98798610.772297859        1086047338.5739260     
  -2346815754.3156152       -98332199.514117599        1084030962.2446897     
  -2234623116.9917703       -101405525.84640062        1087194603.7887104     
  -2974319154.3990283       -46702992.775546551        961977171.40735388     
  -2853484880.4475226       -62323310.838521719        954143159.96778321     
  -2731362602.5255952       -73650282.333440661        950672003.07562172     
  -2607952320.6332598       -80683907.260314226        951563700.73086882     
  -2483254034.7705045       -83424185.619132638        956818252.93352842     
  -3245104255.6251292        21075318.275822639        807423805.79596615     
  -3121148861.2369404       -18411629.997084737        806873774.44805908     
  -2993555537.6307869       -45772147.543446898        809869434.32171154     
  -2862324284.8066602       -61006234.363229394        816410785.41692162     
  -2727455102.7645683       -64113890.456461549        826497827.73369896     
  -3502120497.6282821        92984287.094086170        641960048.01800966     
  -3377378735.1629910        28930282.903343916        651435576.21724761     
  -3246649118.2321725       -15164206.402300358        663639632.31219566     
  -3109931646.8358326       -39299180.822883487        678572216.30284870     
  -2967226320.9739714       -43474640.358382225        696233328.18921888     
  -1981562349.4283788       -118057911.13828194        1217626880.2992496     
  -1843330893.4322221       -112265385.58738208        1180757116.9208479     
  -1703246562.5421689       -100296610.39016241        1150170842.0368612     
  -1561309356.7582166       -82151585.546612144        1125868055.6472945     
  -1417519276.0803740       -57830311.056761324        1107848757.7521467     
  -2234623116.9917703       -101405525.84640062        1087194603.7887104     
  -2079283608.9333162       -91470585.026823759        1053418840.7274163     
  -1922839846.0165234       -77854794.679437637        1025563687.2345437     
  -1765291828.2413912       -60558154.804258704        1003629143.3100928     
  -1606639555.6079214       -39580665.401279867        987615208.95406282     
  -2483254034.7705045       -83424185.619132638        956818252.93352842     
  -2311843271.5811639       -69657868.610289454        925263100.14785469     
  -2140076873.5690427       -54706102.192176461        899265678.00461030     
  -1967954840.7341356       -38568886.364773273        878825986.50379562     
  -1795477173.0764487       -21246221.128102303        863944025.64540827     
  -2727455102.7645683       -64113890.456461549        826497827.73369896     
  -2541009881.3757591       -46827236.337787271        796289895.18216527     
  -2354957645.1997170       -30850532.928348184        771276814.34706676     
  -2169298394.2364554       -16183780.228165388        751458585.22840583     
  -1984032128.4859638       -2826978.2372261286        736835207.82618105     
  -2967226320.9739714       -43474640.358382225        696233328.18921888     
  -2766783438.3170981       -22978688.209294796        666499225.83034790     
  -2567482160.9085565       -6288086.8879815340        641597096.26191294     
  -2369322488.7483406        6597163.6055849791        621526939.48392200     
  -2172304421.8364558        15677063.271370292        606288755.49637151     
  -1417519276.0803740       -57830311.056761324        1107848757.7521467     
  -1324613961.7824886       -48816514.749479353        1109419713.4646773     
  -1233589246.5116208       -46071381.865592420        1114795696.8658245     
  -1144445130.2677858       -49594912.405146718        1123976707.9555879     
  -1057181613.0509839       -59387106.368143976        1136962746.7339699     
  -1606639555.6079214       -39580665.401279867        987615208.95406282     
  -1506249625.3336194       -36231797.104136229        987213587.00193298     
  -1407062797.2130916       -36893269.319578409        990071625.34538341     
  -1309079071.2463503       -41565082.047624767        996189323.98441672     
  -1212298447.4333746       -50247235.288241684        1005566682.9190265     
  -1795477173.0764487       -21246221.128102303        863944025.64540827     
  -1689160819.3772585       -24029738.606555521        862360239.04740608     
  -1583370070.9585993       -28565273.686768770        863490745.35194695     
  -1478104927.8204653       -34852826.368741214        867335544.55903757     
  -1373365389.9628618       -42892396.652475059        873894636.66867125     
  -1984032128.4859638       -2826978.2372261286        736835207.82618105     
  -1873347543.9134135       -12210339.256724596        734859669.60109413     
  -1762511067.7481475       -21087394.967171311        735053056.88551760     
  -1651522699.9901600       -29458145.368538141        737415369.67945385     
  -1540382440.6394470       -37322590.460844457        741946607.98290431     
  -2172304421.8364558        15677063.271370292        606288755.49637151     
  -2058809798.9420803       -773599.05465734005        604711878.66299713     
  -1944485787.5817366       -14459633.160796165        604758559.94609904     
  -1829332387.7554150       -25381039.047007322        606428799.34567523     
  -1713349599.4631255       -33537816.713321805        609722596.86172903     
  -1057181613.0509839       -59387106.368143976        1136962746.7339699     
  -934955969.07567215       -57840879.495522201        1131538090.4192271     
  -810289429.71637094       -48158334.676276505        1132286091.7071681     
  -683181994.97308969       -30339471.910431027        1139206750.5977964     
  -553633664.84581804       -4384291.1979422569        1152300067.0911174     
  -1212298447.4333746       -50247235.288241684        1005566682.9190265     
  -1075806909.6912084       -46455755.344947278        999455833.63078225     
  -937742802.31933391       -37422376.635945529        997627955.85189188     
  -798106125.31775856       -23147099.161277503        1000083049.5823510     
  -656896878.68646526       -3629922.9208785295        1006821114.8221574     
  -1373365389.9628618       -42892396.652475059        873894636.66867125     
  -1228007061.5776744       -38475394.575667858        866084547.69360936     
  -1081944489.3170452       -31710912.914059818        860667744.13456011     
  -935177673.18098831       -22598951.667692423        857644225.99152231     
  -787706613.16948950       -11139510.836527884        857013993.26449358     
  -1540382440.6394470       -37322590.460844457        741946607.98290431     
  -1391556424.7350478       -33899797.187645733        731424232.60769975     
  -1242894490.7094924       -31023943.510587871        721405456.55517578     
  -1094396638.5627768       -28695029.429664910        711890279.82532048     
  -946062868.29491067       -26913054.944906354        702878702.41814339     
  -1713349599.4631255       -33537816.713321805        609722596.86172903     
  -1566454999.1633458       -32728963.180907667        595474888.37306499     
  -1420592806.4966807       -35361468.425536573        579841093.11373913     
  -1275763021.4631302       -41435332.447224736        562821211.08374822     
  -1131965644.0627012       -50950555.245968938        544415242.28309679     
  -553633664.84581804       -4384291.1979422569        1152300067.0911174     
  -458738949.05335325        33103660.834138513        1161997730.2281020     
  -351826542.52177340        110650581.99659750        1179209386.1121776     
  -232896445.25107414        228256472.28945956        1203935034.7433395     
  -101948657.24124584        385921331.71274650        1236174676.1215861     
  -656896878.68646526       -3629922.9208785295        1006821114.8221574     
  -543570739.51790619        26362156.799829721        1020656498.2966741     
  -419395300.27413523        92518570.104591668        1042885723.6929519     
  -284370560.95513922        194839316.99342623        1073508791.0109857     
  -138496521.56093043        333324397.46631140        1112525700.2507832     
  -787706613.16948950       -11139510.836527884        857013993.26449358     
  -653435195.84006405        12110853.008249462        873623974.63532960     
  -509482869.09932560        67630914.890736461        899507647.10259509     
  -355849632.94726849        155420674.81095338        934665010.66629076     
  -192535487.38389093        275480132.76890349        979096065.32642078     
  -946062868.29491067       -26913054.944906354        702878702.41814339     
  -788332318.01983678       -9650250.5406368971        720900159.24407601     
  -622089248.99734509        35987616.355036288        749075156.34110141     
  -447333661.22743732        110000545.74208549        787403693.70923996     
  -264065554.71011442        212388537.62051839        835885771.34848249     
  -1131965644.0627012       -50950555.245968938        544415242.28309679     
  -948262106.05720758       -38921153.846772730        562485052.12290061     
  -757214439.96819353       -2411325.5025142431        591588251.40848088     
  -558822645.79567277        58578929.786772192        631724840.13983965     
  -353086723.53962809        144049612.02113283        682894818.31697118     
  -101948657.24124584        385921331.71274650        1236174676.1215861     
  -86327434.300400406        546206149.38384104        1197255381.1994922     
  -58184609.064465702        748229641.37188578        1155049936.9712474     
  -17520181.533455372        991991807.67686486        1109558343.4368594     
   35665848.292632341        1277492648.2987516        1060780600.5963321     
  -138496521.56093043        333324397.46631140        1112525700.2507832     
  -128561191.33686474        482564108.29399610        1090655364.2915766     
  -95495220.678696334        708905953.90202487        1070246284.8202404     
  -39298609.586402237        1012349934.2904882        1051298461.8367707     
   40028641.940011322        1392896049.4593165        1033811895.3411660     
  -192535487.38389093        275480132.76890349        979096065.32642078     
  -174722033.32229742        417743941.71943414        986651899.49231327     
  -123168900.68755683        672473345.91378927        1000416395.9400876     
  -37876089.479655206        1039668345.3520204        1020389554.6697500     
   81156400.301392198        1519328940.0340691        1046571375.6812780     
  -264065554.71011442        212388537.62051839        835885771.34848249     
  -224809960.25667739        351745649.66018796        885244986.80168366     
  -141205649.09104341        638931817.40715861        945560270.33078647     
  -13252621.213225305        1073947040.8614235        1016831621.9357766     
   159049123.37680227        1656791320.0230370        1099059041.6166666     
  -353086723.53962809        144049612.02113283        682894818.31697118     
  -278824972.14000767        284569232.11627001        786434626.21970081     
  -149605465.88916364        608281368.38214123        905677907.99233139     
   34571795.212917209        1115186020.8188047        1040624663.6348845     
   273706811.16621774        1805283189.4262064        1191274893.1473153     
  -7453664088.1540642       -116345584.21435547        1092417697.2530723     
  -6376011956.4051485       -342514890.21059346        904411394.69645655     
  -5233902359.9474659       -353825980.51093841        724932265.30256021     
  -4027335298.7810264       -150278855.11542583        553980309.07139075     
  -2756310772.9058189        268126485.97597134        391555526.00294572     
  -7955302397.2697639       -178497425.22512197        1070341695.3216091     
  -6793798062.2487593       -344739016.19584489        827067151.10399187     
  -5577376960.8480186       -327924719.23412442        625937655.85014057     
  -4306039093.0675383       -128054534.33994675        466953209.56005818     
  -2979784458.9073281        254871538.48668432        350113812.23373795     
  -8861832556.9468346       -362116821.40429974        1067204967.6887027     
  -7520424944.9364691       -439615375.23433232        757531367.09288442     
  -6133641264.8754053       -365860368.89534998        523620691.26187640     
  -4701481516.7636261       -140851802.38733840        365472940.19567633     
  -3223945700.6011453        235410324.28970289        283088113.89428741     
  -10173254567.185261       -667203772.75187588        1083007514.3543465     
  -8555892604.4682913       -627143967.32605696        695804042.66313088     
  -6902695272.0296297       -467632929.49462581        417981371.53776711     
  -5213662569.8692865       -188670659.25760102        249539500.97825649     
  -3488794497.9872799        209742843.38500690        190478430.98459426     
  -11889568427.985073       -1093758279.2678819        1117749335.3185441     
  -9900201040.8442078       -907324792.47100353        641885177.81473017     
  -7884538982.3106995       -633242401.03196955        309019696.67781341     
  -5842582252.3845234       -271511104.95074296        119152891.90779039     
  -3774330851.0657034        177869095.77265787        72284763.504658878     
  -2756310772.9058189        268126485.97597134        391555526.00294572     
  -2912423241.8191056        325474143.81326592        463133541.76452124     
  -3088762352.2439470        315399663.27870488        528726967.35422093     
  -3285328104.1803355        237903044.37232161        588335802.77205157     
  -3502120497.6282821        92984287.094086170        641960048.01800966     
  -2979784458.9073281        254871538.48668432        350113812.23373795     
  -3170654984.5465732        249401772.75172961        396151688.19622803     
  -3372436753.8985720        207561194.64092898        435933516.13499147     
  -3585129766.9633188        129349804.15429473        469459296.05002171     
  -3808734023.7408228        14767601.291804075        496729027.94131976     
  -3223945700.6011453        235410324.28970289        283088113.89428741     
  -3450349876.8288035        166890456.82376742        314453814.15629661     
  -3678349898.9704142        93051102.977984428        339292008.54271340     
  -3907945767.0259771        13892262.752361774        357602697.05354112     
  -4139137480.9954982       -70586063.853118658        369385879.68878162     
  -3488794497.9872799        209742843.38500690        190478430.98459426     
  -3751507918.6657901        77940196.029383659        218039919.64471534     
  -4006501787.4594679       -28130611.710115671        238802444.57738850     
  -4253776104.3683109       -108469579.83348870        252766005.78261393     
  -4493330869.3922958       -163076708.34068894        259930603.26039353     
  -3774330851.0657034        177869095.77265787        72284763.504658878     
  -4074129110.0575476       -17449009.631448030        106910004.66149065     
  -4356892419.3657513       -155983949.42340922        134464824.23902526     
  -4622620778.9903030       -237735723.60320473        154949222.23724577     
  -4871314188.9312220       -262704332.17088151        168363198.65615180     
  -3502120497.6282821        92984287.094086170        641960048.01800966     
  -3377378735.1629910        28930282.903343916        651435576.21724761     
  -3246649118.2321725       -15164206.402300358        663639632.31219566     
  -3109931646.8358326       -39299180.822883487        678572216.30284870     
  -2967226320.9739714       -43474640.358382225        696233328.18921888     
  -3808734023.7408228        14767601.291804075        496729027.94131976     
  -3660886347.5684433       -3632540.3262238503        502759758.19067287     
  -3512184692.7210097       -19186086.360746622        513300233.57145315     
  -3362629059.1985168       -31893036.811736345        528350454.08365786     
  -3212219447.0009708       -41753391.679213405        547910419.72729194     
  -4139137480.9954982       -70586063.853118658        369385879.68878162     
  -3963094699.0139885       -41805585.267833948        365982290.23270792     
  -3791331814.1478825       -27291430.400587559        368869663.14377391     
  -3623848826.3971925       -27043599.251390219        378047998.42197645     
  -3460645735.7619228       -41062091.820245504        393517296.06732786     
  -4493330869.3922958       -163076708.34068894        259930603.26039353     
  -4284003789.4996014       -85588851.921463966        241103172.34334251     
  -4084090482.5127921       -39480238.521844149        230347921.02914757     
  -3893590948.4318666       -24750868.141845226        227664849.31780934     
  -3712505187.2568235       -41400740.781447649        233053957.20932844     
  -4871314188.9312220       -262704332.17088151        168363198.65615180     
  -4623613619.0253096       -134982340.28710890        128122404.52257116     
  -4390460697.8157425       -55752510.724516153        97735007.227578864     
  -4171855425.3025317       -25014843.483096600        77201006.771146715     
  -3967797801.4856682       -42769338.562833309        66520403.153292626     
  -2967226320.9739714       -43474640.358382225        696233328.18921888     
  -2766783438.3170981       -22978688.209294796        666499225.83034790     
  -2567482160.9085565       -6288086.8879815340        641597096.26191294     
  -2369322488.7483406        6597163.6055849791        621526939.48392200     
  -2172304421.8364558        15677063.271370292        606288755.49637151     
  -3212219447.0009708       -41753391.679213405        547910419.72729194     
  -3001578481.8918796       -31407872.208818436        516893908.81459785     
  -2790382834.9318523       -19213413.235313654        491232511.46210170     
  -2578632506.1208978       -5170014.7587134838        470926227.66980112     
  -2366327495.4590130        10722323.221000552        455975057.43769085     
  -3460645735.7619228       -41062091.820245504        393517296.06732786     
  -3238312000.2870197       -40418598.654429913        363197378.21662205     
  -3013727295.8619308       -32271875.654677749        338755714.69586331     
  -2786891622.4866486       -16621922.820946813        320192305.50504440     
  -2557804980.1611843        6531259.8467298746        307507150.64418328     
  -3712505187.2568235       -41400740.781447649        233053957.20932844     
  -3476983993.5025392       -50010867.546201706        205409634.03640383     
  -3237515543.6988049       -45463474.146111727        184166705.96318445     
  -2994099837.8456092       -27758560.581157804        169325172.98967123     
  -2746736875.9429846        3103873.1485654116        160885035.11585987     
  -3967797801.4856682       -42769338.562833309        66520403.153292626     
  -3717594461.5384102       -60184678.884018898        43530676.273961358     
  -3461747578.4424419       -58788208.709524870        27465485.264082145     
  -3200257152.1977654       -38579928.039330006        18324830.123661220     
  -2933123182.8043823        440163.12656176090        16108710.852709321     
  -2172304421.8364558        15677063.271370292        606288755.49637151     
  -2058809798.9420803       -773599.05465734005        604711878.66299713     
  -1944485787.5817366       -14459633.160796165        604758559.94609904     
  -1829332387.7554150       -25381039.047007322        606428799.34567523     
  -1713349599.4631255       -33537816.713321805        609722596.86172903     
  -2366327495.4590130        10722323.221000552        455975057.43769085     
  -2247642822.9832034       -208246.25413584709        455670907.10739505     
  -2128679957.1928353       -10211504.680740595        456461676.91151732     
  -2009438898.0879111       -19287452.058835030        458347366.85005856     
  -1889919645.6684420       -27436088.388428926        461327976.92301965     
  -2557804980.1611843        6531259.8467298746        307507150.64418328     
  -2435440652.3383789        667664.95220828056        307832665.80697799     
  -2313349326.3524480       -6105936.0652391911        308724463.12213600     
  -2191531002.2033734       -13789543.205542445        310182542.58965051     
  -2069985679.8911693       -22383156.468745947        312206904.20953667     
  -2746736875.9429846        3103873.1485654116        160885035.11585987     
  -2622203287.0076370        1854134.5642918348        161197154.76175243     
  -2498493895.0605836       -2142927.3143147230        161546918.57796019     
  -2375608700.1018085       -8887312.4871666431        161934326.56446990     
  -2253547702.1313124       -18379020.954294443        162359378.72128218     
  -2933123182.8043823        440163.12656176090        16108710.852709321     
  -2807930726.9909511        3351162.5821783543        15764373.971723836     
  -2684113663.3172250        1677521.5720880032        14929043.278987937     
  -2561671991.7831945       -4580759.9036419392        13602718.774489772     
  -2440605712.3888679       -15423681.845053196        11785400.458249521     
  -1713349599.4631255       -33537816.713321805        609722596.86172903     
  -1566454999.1633458       -32728963.180907667        595474888.37306499     
  -1420592806.4966807       -35361468.425536573        579841093.11373913     
  -1275763021.4631302       -41435332.447224736        562821211.08374822     
  -1131965644.0627012       -50950555.245968938        544415242.28309679     
  -1889919645.6684420       -27436088.388428926        461327976.92301965     
  -1745318942.2158616       -27899508.829630017        445804613.68842107     
  -1600890422.9052291       -28936876.410660267        430196402.87440181     
  -1456634087.7365565       -30548191.131561458        414503344.48096204     
  -1312549936.7098293       -32733452.992267728        398725438.50809199     
  -2069985679.8911693       -22383156.468745947        312206904.20953667     
  -1923961047.0251138       -23003503.005390048        296411480.30203390     
  -1777248374.8098283       -21330385.044620156        281832448.00635022     
  -1629847663.2453363       -17363802.586491168        268469807.32248288     
  -1481758912.3316271       -11103755.630970836        256323558.25043237     
  -2253547702.1313124       -18379020.954294443        162359378.72128218     
  -2102381313.5910850       -18040945.708160758        147295488.21390846     
  -1949666662.2104700       -12541994.327388763        134749228.50958750     
  -1795403747.9894776       -1882166.8120425940        124720599.60831679     
  -1639592570.9280958        13938536.837953091        117209601.51011139     
  -2440605712.3888679       -15423681.845053196        11785400.458249521     
  -2280579741.9137912       -13011836.937938452       -1543362.5759730951     
  -2118145285.1071496       -2571704.2589522600       -11053255.615901493     
  -1953302341.9689763        15896716.191813111       -16744278.661538716     
  -1786050912.4992466        42393424.414432526       -18616431.712874357     
  -1131965644.0627012       -50950555.245968938        544415242.28309679     
  -948262106.05720758       -38921153.846772730        562485052.12290061     
  -757214439.96819353       -2411325.5025142431        591588251.40848088     
  -558822645.79567277        58578929.786772192        631724840.13983965     
  -353086723.53962809        144049612.02113283        682894818.31697118     
  -1312549936.7098293       -32733452.992267728        398725438.50809199     
  -1114419361.9933507       -13454393.559052765        420859478.97499037     
  -912654804.76986337        17937940.897541106        441384852.53516555     
  -707256265.03936458        61443550.377495587        460301559.18862301     
  -498223742.80185169        117062434.88083559        477609598.93536562     
  -1481758912.3316271       -11103755.630970836        256323558.25043237     
  -1305321461.9113019        4588913.5341131687        278193326.17183173     
  -1128960174.5604670        20027705.800910473        285812370.83401877     
  -952675050.27911901        35212621.169400394        279180692.23698407     
  -776466089.06726325        50143659.639581919        258298290.38074890     
  -1639592570.9280958        13938536.837953091        117209601.51011139     
  -1520968405.8110592        15208767.432733059        134486593.71343127     
  -1406130549.3399954        3857969.2076220512        124870806.30503152     
  -1295079001.5149376       -20113857.837527514        88362239.284935147     
  -1187813762.3358669       -56706713.702616096        24960892.653124221     
  -1786050912.4992466        42393424.414432526       -18616431.712874357     
  -1761360193.6926064        18405168.136842608       -10260718.400228165     
  -1744165929.1084592       -30571268.882367015       -41439841.051785648     
  -1734468118.7468190       -104535886.64326739       -112153799.66755080     
  -1732266762.6076655       -203488685.14581251       -222402594.24750778     
  -353086723.53962809        144049612.02113283        682894818.31697118     
  -278824972.14000767        284569232.11627001        786434626.21970081     
  -149605465.88916364        608281368.38214123        905677907.99233139     
   34571795.212917209        1115186020.8188047        1040624663.6348845     
   273706811.16621774        1805283189.4262064        1191274893.1473153     
  -498223742.80185169        117062434.88083559        477609598.93536562     
  -389081805.14181650        222761173.28555554        597018504.96485412     
  -230795588.92857057        492274173.53429747        735590437.71485198     
  -23365094.162152231        925601435.62692630        893325397.18535542     
   233209679.15745464        1522742959.5635502        1070223383.3763812     
  -776466089.06726325        50143659.639581919        258298290.38074890     
  -622559528.43079782        123986847.36870942        386793905.52261865     
  -425322165.53914654        342266042.61508119        537912100.23560381     
  -184754000.39238662        704981245.37848783        711652874.51969826     
   99144967.009545326        1212132455.6591640        908016228.37491763     
  -1187813762.3358669       -56706713.702616096        24960892.653124221     
  -979258142.00695252       -11753745.634278834        155760827.89299825     
  -733185195.72091079        158256975.62446591        312642895.55459577     
  -449594923.47778267        453325450.07353270        495607095.63789451     
  -128487325.27751124        873451677.71302640        704653428.14293063     
  -1732266762.6076655       -203488685.14581251       -222402594.24750778     
  -1459177645.8702979       -184460605.72345084       -96080727.924009621     
  -1154384679.4738193       -59753027.437409401        59782823.671805009     
  -817887863.41833305        170634049.71199226        245188060.53994942     
  -449687197.70372927        506700625.72514063        460134982.68040293     
 </DataArray>
 <DataArray  type="Float64" Name="VM" NumberOfComponents="1" format="ascii">
   11545644969.591482     
   9544137858.7538834     
   7606615759.0175667     
   5715395871.5480728     
   3868361623.7651749     
   10033511226.877787     
   8347649860.1484823     
   6720273663.8040638     
   5140137877.8426294     
   3613346672.0247679     
   8880932486.1131058     
   7427349283.6128531     
   6027759701.9379492     
   4675710223.3878813     
   3383579507.9631429     
   8083043181.3671923     
   6781192224.6047411     
   5528209597.0429106     
   4319849327.9936886     
   3173527389.8881521     
   7634367669.7005367     
   6406312835.6596680     
   5219541718.0679150     
   4069087407.4335017     
   2977940230.4922566     
   3868361623.7651749     
   4069647545.1170025     
   4287362676.8695498     
   4516437322.8143101     
   4754370419.6577015     
   3613346672.0247679     
   3809842935.5371480     
   4013878652.4286580     
   4223344999.5034242     
   4436952791.4043560     
   3383579507.9631429     
   3578441064.2607803     
   3771809634.4212303     
   3963604688.5907989     
   4153867305.6471596     
   3173527389.8881521     
   3372955620.5115256     
   3561813062.5449972     
   3740962259.3014941     
   3911922526.7180676     
   2977940230.4922566     
   3190538992.4534335     
   3384195774.3706598     
   3559492266.5947719     
   3719606738.5135083     
   4754370419.6577015     
   4563021209.6790085     
   4366134486.6576061     
   4161553184.5256429     
   3948268395.0972152     
   4436952791.4043560     
   4262363529.9844732     
   4084029033.4020963     
   3901254541.4564667     
   3713980431.1917963     
   4153867305.6471596     
   3992995956.4354653     
   3831405119.2158318     
   3669301088.1022515     
   3507167105.9371572     
   3911922526.7180676     
   3761263846.7550621     
   3613703863.3762341     
   3469655514.8274755     
   3329653649.6672192     
   3719606738.5135083     
   3574680051.8190813     
   3437001630.3483624     
   3306415307.0593066     
   3183008864.2798333     
   3948268395.0972152     
   3688641113.6708989     
   3433060656.8178678     
   3181300991.5186501     
   2933475991.5068603     
   3713980431.1917963     
   3470534695.4626842     
   3230810612.3649869     
   2994712927.6415443     
   2762381334.3281898     
   3507167105.9371572     
   3279199164.1232700     
   3054603297.1134109     
   2833423198.0820189     
   2615873966.5141349     
   3329653649.6672192     
   3117326497.2468123     
   2908078544.0264525     
   2702102007.4952555     
   2499746598.2802100     
   3183008864.2798333     
   2987424498.4372563     
   2794780863.3946815     
   2605427133.9985576     
   2419910279.9127240     
   2933475991.5068603     
   2809740491.4946527     
   2685077335.3830156     
   2559493133.0677757     
   2433016174.5136471     
   2762381334.3281898     
   2637947882.0329971     
   2513048843.2488456     
   2387708336.8437262     
   2261963473.4158177     
   2615873966.5141349     
   2493447519.6462011     
   2371377156.7720790     
   2249759480.3287754     
   2128715194.9015727     
   2499746598.2802100     
   2382086934.1276002     
   2265991483.1494493     
   2151675317.8877807     
   2039403719.4249175     
   2419910279.9127240     
   2309574646.7486310     
   2202343355.2874637     
   2098556289.5887234     
   1998628175.3094084     
   2433016174.5136471     
   2274103315.8106308     
   2116947177.1760042     
   1961513435.4581180     
   1807908072.7806809     
   2261963473.4158177     
   2108907682.5005863     
   1957390293.7775095     
   1807419321.4906046     
   1659073801.9970024     
   2128715194.9015727     
   1980271885.7149785     
   1832879149.7869115     
   1686603888.0196927     
   1541552783.2830324     
   2039403719.4249175     
   1895903037.7232327     
   1752874658.4514053     
   1610483653.3476682     
   1468958969.9365473     
   1998628175.3094084     
   1862083522.2219980     
   1725615020.4538918     
   1589569018.5366006     
   1454452397.1262097     
   1807908072.7806809     
   1770723712.1413162     
   1730572104.9444973     
   1695797355.5577748     
   1684650657.9727154     
   1659073801.9970024     
   1546275586.2977431     
   1424577471.4187183     
   1294221314.4329205     
   1161305003.0855939     
   1541552783.2830324     
   1393574457.5137453     
   1242026088.3028698     
   1084528212.9985170     
   918968360.41949606     
   1468958969.9365473     
   1326079110.0527248     
   1197536420.3956366     
   1087692810.2658019     
   1002290669.2451926     
   1454452397.1262097     
   1346468243.2808077     
   1273374891.6853769     
   1243253111.1860209     
   1263059196.3567100     
   1684650657.9727154     
   1386275169.1533961     
   1130450525.8203533     
   1008943808.7060258     
   1149779757.3398094     
   1161305003.0855939     
   1010128217.3853055     
   985836809.06900573     
   1161176799.4764040     
   1543134361.1870592     
   918968360.41949606     
   963831352.17542386     
   1145280143.2671225     
   1476729543.2946401     
   1957651244.3997681     
   1002290669.2451926     
   1164891754.1807671     
   1425656007.4059472     
   1809143860.0890129     
   2335411901.3255534     
   1263059196.3567100     
   1446895396.6064987     
   1715851875.2343862     
   2110682392.0935805     
   2664066838.5349469     
   7634367669.7005367     
   6406312835.6596680     
   5219541718.0679150     
   4069087407.4335017     
   2977940230.4922566     
   7436716665.0898199     
   6227567878.8182774     
   5046859741.5416212     
   3897360987.5282154     
   2799826602.9703012     
   7165408333.6452684     
   5976904914.2120600     
   4823211121.9483051     
   3707727227.0346470     
   2643392098.4599791     
   6790313878.3112659     
   5635160434.6099815     
   4539958146.0241337     
   3501836625.3047185     
   2521794982.3298597     
   6299664086.2265129     
   5193583742.3725481     
   4193963092.7208314     
   3284337339.0161877     
   2450584714.9320698     
   2977940230.4922566     
   3190538992.4534335     
   3384195774.3706598     
   3559492266.5947719     
   3719606738.5135083     
   2799826602.9703012     
   3004580185.3803582     
   3196368218.4628034     
   3375384960.6127172     
   3543351099.6173806     
   2643392098.4599791     
   2842400455.8257341     
   3033049961.3788881     
   3215112711.9414887     
   3389107001.9361820     
   2521794982.3298597     
   2714710391.1874042     
   2902160234.7760243     
   3083504599.7993379     
   3258432829.6311488     
   2450584714.9320698     
   2633572454.5779791     
   2812292662.4410019     
   2985707014.5012631     
   3153121539.8937206     
   3719606738.5135083     
   3574680051.8190813     
   3437001630.3483624     
   3306415307.0593066     
   3183008864.2798333     
   3543351099.6173806     
   3411389690.1327586     
   3285439674.6908765     
   3165688252.5842538     
   3052466229.7175598     
   3389107001.9361820     
   3271022632.4178376     
   3158469910.4551682     
   3051872511.1682234     
   2951753752.4806361     
   3258432829.6311488     
   3155776064.7960124     
   3058946232.7238154     
   2968470181.8761249     
   2884995097.3021202     
   3153121539.8937206     
   3067891416.9136515     
   2989550641.1224790     
   2918561106.8977418     
   2855596878.1265063     
   3183008864.2798333     
   2987424498.4372563     
   2794780863.3946815     
   2605427133.9985576     
   2419910279.9127240     
   3052466229.7175598     
   2870917670.3753958     
   2694202904.2192326     
   2522911009.3400416     
   2357872133.2163219     
   2951753752.4806361     
   2785097633.0542121     
   2625239560.9675279     
   2472941019.6204391     
   2329214539.3376956     
   2884995097.3021202     
   2733252207.6639099     
   2590176582.5083504     
   2456589920.8545890     
   2333541682.2122612     
   2855596878.1265063     
   2717736579.3173542     
   2590165488.8241558     
   2473642726.8156753     
   2369117182.2147923     
   2419910279.9127240     
   2309574646.7486310     
   2202343355.2874637     
   2098556289.5887234     
   1998628175.3094084     
   2357872133.2163219     
   2259814612.5087233     
   2165786728.6700959     
   2076316088.1082129     
   1992017643.7042358     
   2329214539.3376956     
   2245940142.7268300     
   2167832129.4210548     
   2095544224.4691219     
   2029813003.6984708     
   2333541682.2122612     
   2267002097.5987086     
   2206807904.9660239     
   2153644164.6763506     
   2108262489.4967570     
   2369117182.2147923     
   2320508226.3222976     
   2279328882.0936527     
   2246202698.2041731     
   2221807753.0985689     
   1998628175.3094084     
   1862083522.2219980     
   1725615020.4538918     
   1589569018.5366006     
   1454452397.1262097     
   1992017643.7042358     
   1869585310.1302273     
   1751704089.8274665     
   1639355660.9954903     
   1533757881.9996133     
   2029813003.6984708     
   1926795520.8327229     
   1832906685.1178451     
   1749455578.5268614     
   1677870702.5502234     
   2108262489.4967570     
   2026395103.0512774     
   1957410037.1345954     
   1902507203.7785726     
   1862849560.0792794     
   2221807753.0985689     
   2159755751.5434771     
   2113310526.3697112     
   2083340301.4514353     
   2070625150.0538838     
   1454452397.1262097     
   1346468243.2808077     
   1273374891.6853769     
   1243253111.1860209     
   1263059196.3567100     
   1533757881.9996133     
   1474124992.1492243     
   1447072364.1830730     
   1456512343.7366321     
   1505668980.3206501     
   1677870702.5502234     
   1650664848.2170646     
   1651043777.7617288     
   1681334883.5190196     
   1744100410.0526848     
   1862849560.0792794     
   1853567609.1256497     
   1867106280.8327222     
   1905649212.7697330     
   1972204608.5872338     
   2070625150.0538838     
   2068197137.7513342     
   2084840429.8373940     
   2123177007.4773452     
   2187019995.9097018     
   1263059196.3567100     
   1446895396.6064987     
   1715851875.2343862     
   2110682392.0935805     
   2664066838.5349469     
   1505668980.3206501     
   1613789487.3721340     
   1789035036.3813918     
   2066303495.2333052     
   2475991765.6795897     
   1744100410.0526848     
   1788427459.2853572     
   1884865427.4961331     
   2060414513.4958718     
   2340422707.9662533     
   1972204608.5872338     
   1969777269.3607624     
   2003907545.7572289     
   2093290730.4285100     
   2256614069.9730363     
   2187019995.9097018     
   2157129460.1977439     
   2146902319.0432651     
   2166816497.0327501     
   2227883099.2997971     
   6299664086.2265129     
   5193583742.3725481     
   4193963092.7208314     
   3284337339.0161877     
   2450584714.9320698     
   5357532859.5833673     
   4495954752.8635044     
   3700408221.7936387     
   2968502851.1931372     
   2302685949.1609440     
   4747897818.7657423     
   4028030005.6174130     
   3354813665.6193318     
   2730908660.1755004     
   2165482444.6765475     
   4507341474.6770554     
   3810455962.6070061     
   3169697100.3407946     
   2578261913.4726171     
   2039534530.8226962     
   4641983044.1937780     
   3851601890.8201823     
   3152312147.8915348     
   2514754609.0178747     
   1925674522.4613278     
   2450584714.9320698     
   2633572454.5779791     
   2812292662.4410019     
   2985707014.5012631     
   3153121539.8937206     
   2302685949.1609440     
   2483929099.6819491     
   2659840912.0092273     
   2829951536.6050534     
   2993955158.0927334     
   2165482444.6765475     
   2352493150.8054423     
   2533359142.7247076     
   2708051497.9727387     
   2876705602.4336681     
   2039534530.8226962     
   2240158685.9034538     
   2433998680.7025013     
   2621388665.5903392     
   2803004667.7753167     
   1925674522.4613278     
   2147643944.5532322     
   2362288713.8266721     
   2570281913.3185101     
   2772974491.2710872     
   3153121539.8937206     
   3067891416.9136515     
   2989550641.1224790     
   2918561106.8977418     
   2855596878.1265063     
   2993955158.0927334     
   2932033494.3843999     
   2877286432.5838847     
   2830213935.1631718     
   2791415419.2745414     
   2876705602.4336681     
   2835264278.3919172     
   2801092557.3881059     
   2774587942.2374568     
   2756168110.7692051     
   2803004667.7753167     
   2778672544.7582111     
   2761472143.9635844     
   2751585274.8565912     
   2749183917.3029580     
   2772974491.2710872     
   2761925748.2521696     
   2757644727.6332712     
   2760018252.1479635     
   2768947116.9847040     
   2855596878.1265063     
   2717736579.3173542     
   2590165488.8241558     
   2473642726.8156753     
   2369117182.2147923     
   2791415419.2745414     
   2669768363.6565595     
   2559001241.2248898     
   2459776312.6860781     
   2372880668.3442669     
   2756168110.7692051     
   2650188408.2950392     
   2555501059.0574136     
   2472640734.4456182     
   2402211736.0176506     
   2749183917.3029580     
   2657963346.5053144     
   2578261933.3493781     
   2510476772.2056189     
   2455035187.2896700     
   2768947116.9847040     
   2691258125.0528951     
   2625156034.8399200     
   2570911837.8284774     
   2528804119.6546736     
   2369117182.2147923     
   2320508226.3222976     
   2279328882.0936527     
   2246202698.2041731     
   2221807753.0985689     
   2372880668.3442669     
   2342728338.5773373     
   2320604799.5209222     
   2306977890.7200575     
   2302313235.7409091     
   2402211736.0176506     
   2388631307.5424328     
   2383341619.5254588     
   2386645081.3840656     
   2398815484.9962025     
   2455035187.2896700     
   2455586765.8963861     
   2464443803.8250222     
   2481764252.3915534     
   2507674490.2162590     
   2528804119.6546736     
   2540721868.4908972     
   2560817886.0861411     
   2589138326.3813963     
   2625709374.9065223     
   2221807753.0985689     
   2159755751.5434771     
   2113310526.3697112     
   2083340301.4514353     
   2070625150.0538838     
   2302313235.7409091     
   2255213161.8461204     
   2222737544.9905696     
   2205402370.5605679     
   2203662037.2631612     
   2398815484.9962025     
   2363558251.0096216     
   2341902320.0209236     
   2334137281.7727222     
   2340527078.4959040     
   2507674490.2162590     
   2481417585.4383807     
   2467826789.9898658     
   2467059387.3946900     
   2479278351.2525091     
   2625709374.9065223     
   2605964636.7184606     
   2598108675.8380680     
   2602230342.5273290     
   2618446844.8807311     
   2070625150.0538838     
   2068197137.7513342     
   2084840429.8373940     
   2123177007.4773452     
   2187019995.9097018     
   2203662037.2631612     
   2190394040.2017636     
   2191968832.4175873     
   2210349371.2170477     
   2248446386.3241916     
   2340527078.4959040     
   2317328837.0087099     
   2305519910.2859178     
   2306500732.9347720     
   2322343743.2771273     
   2479278351.2525091     
   2448014975.9968247     
   2425165769.1986370     
   2411670320.0720773     
   2408885199.0973692     
   2618446844.8807311     
   2581663610.1378956     
   2550615289.2946696     
   2525875126.7362924     
   2508229407.4074073     
   2187019995.9097018     
   2157129460.1977439     
   2146902319.0432651     
   2166816497.0327501     
   2227883099.2997971     
   2248446386.3241916     
   2183314711.3082442     
   2134680217.7041032     
   2112181639.5465312     
   2126714430.2470088     
   2322343743.2771273     
   2225260342.8380947     
   2141555453.9307978     
   2079583833.0605381     
   2049502293.5859957     
   2408885199.0973692     
   2283261746.6858397     
   2168176025.8855557     
   2070372917.1459756     
   1998630151.0188372     
   2508229407.4074073     
   2357528987.1869879     
   2215013319.3319335     
   2085679079.4684741     
   1976432393.5813909     
   4641983044.1937780     
   3851601890.8201823     
   3152312147.8915348     
   2514754609.0178747     
   1925674522.4613278     
   4910125533.8360796     
   4039670935.5213599     
   3245093020.0749416     
   2512427415.0017405     
   1837761863.8096280     
   5155245618.3673658     
   4199843371.5964718     
   3324035442.8345151     
   2522599689.8925176     
   1795514937.4643013     
   5382057022.2845535     
   4342717560.3840246     
   3399422482.9490070     
   2551110420.9990935     
   1798322925.1841013     
   5614389815.3694944     
   4490565044.7602625     
   3487340860.3378344     
   2604717262.1022153     
   1842694250.0533988     
   1925674522.4613278     
   2147643944.5532322     
   2362288713.8266721     
   2570281913.3185101     
   2772974491.2710872     
   1837761863.8096280     
   2079791116.7819941     
   2312297589.0619726     
   2535727665.4133921     
   2750867607.6164989     
   1795514937.4643013     
   2052370265.1026196     
   2296703879.4824843     
   2528743801.8628631     
   2748851282.7232823     
   1798322925.1841013     
   2065510649.9085970     
   2316502860.3292685     
   2551363965.7467656     
   2770187713.4735169     
   1842694250.0533988     
   2117113282.2893057     
   2371103390.4056673     
   2604664574.4024763     
   2817796834.2797341     
   2772974491.2710872     
   2761925748.2521696     
   2757644727.6332712     
   2760018252.1479635     
   2768947116.9847040     
   2750867607.6164989     
   2739219618.5555038     
   2735485116.8400884     
   2739643249.5144229     
   2751677083.4251900     
   2748851282.7232823     
   2735343880.1746082     
   2731190636.4565911     
   2736404356.0766582     
   2750997606.1064243     
   2770187713.4735169     
   2752778126.7935338     
   2746440600.3271303     
   2751184535.3156624     
   2767018772.4169693     
   2817796834.2797341     
   2793678712.8316078     
   2782603002.0132899     
   2784569701.8247800     
   2799578812.2660804     
   2768947116.9847040     
   2691258125.0528951     
   2625156034.8399200     
   2570911837.8284774     
   2528804119.6546736     
   2751677083.4251900     
   2681351870.7151275     
   2622749143.2991548     
   2576027612.6423640     
   2541347656.6555777     
   2750997606.1064243     
   2685872460.7111783     
   2632621212.6256671     
   2591316571.1249595     
   2562031040.6474776     
   2767018772.4169693     
   2704735687.2406745     
   2654523377.3030171     
   2616400433.0400467     
   2590385229.0907526     
   2799578812.2660804     
   2737658690.1019583     
   2688073863.3119678     
   2650824331.8961043     
   2625910095.8543730     
   2528804119.6546736     
   2540721868.4908972     
   2560817886.0861411     
   2589138326.3813963     
   2625709374.9065223     
   2541347656.6555777     
   2558758103.8782306     
   2584477244.6531091     
   2618531306.8065777     
   2660933899.4541888     
   2562031040.6474776     
   2583636790.4944606     
   2613775657.2796116     
   2652459642.5063286     
   2699694513.2989726     
   2590385229.0907526     
   2614760698.6191764     
   2648019817.6244850     
   2690165760.2403440     
   2741199978.3263121     
   2625910095.8543730     
   2651531165.6544909     
   2686539990.3235202     
   2730936569.8614702     
   2784720904.2683277     
   2625709374.9065223     
   2605964636.7184606     
   2598108675.8380680     
   2602230342.5273290     
   2618446844.8807311     
   2660933899.4541888     
   2643501217.3114648     
   2636850669.4636807     
   2641023870.1217089     
   2656080593.7178698     
   2699694513.2989726     
   2684297828.3928266     
   2678772314.5512662     
   2683133125.3987217     
   2697404254.1204009     
   2741199978.3263121     
   2727782780.0885301     
   2723493605.8871450     
   2728335483.1272182     
   2742313796.5208530     
   2784720904.2683277     
   2773423745.0210896     
   2770654937.5670571     
   2776414481.9062338     
   2790702378.0386181     
   2618446844.8807311     
   2581663610.1378956     
   2550615289.2946696     
   2525875126.7362924     
   2508229407.4074073     
   2656080593.7178698     
   2612649527.5691586     
   2574712017.2458377     
   2542593968.2138772     
   2516744831.2574139     
   2697404254.1204009     
   2649362570.8585072     
   2606713258.9066482     
   2569601391.5325046     
   2538227636.8594031     
   2742313796.5208530     
   2691705690.0409360     
   2646528603.6828861     
   2606818545.6880040     
   2572625348.7134423     
   2790702378.0386181     
   2739573397.3953652     
   2694053412.3106942     
   2654142422.7845883     
   2619840428.8170662     
   2508229407.4074073     
   2357528987.1869879     
   2215013319.3319335     
   2085679079.4684741     
   1976432393.5813909     
   2516744831.2574139     
   2348505455.1262274     
   2183848380.2458448     
   2025882816.7954862     
   1879191712.8200865     
   2538227636.8594031     
   2357551668.3158092     
   2176650713.0351644     
   1997000324.0895815     
   1820886662.2104256     
   2572625348.7134423     
   2384769354.3816099     
   2193884231.7686644     
   2000349164.9428360     
   1804770037.0270600     
   2619840428.8170662     
   2430126036.6840544     
   2235689340.3877683     
   2036530339.9281681     
   1832649035.3052816     
   5614389815.3694944     
   4490565044.7602625     
   3487340860.3378344     
   2604717262.1022153     
   1842694250.0533988     
   5382057046.3050089     
   4342717579.0037966     
   3399422495.4432201     
   2551110427.0870929     
   1798322924.5115438     
   5155245659.8640852     
   4199843402.8703675     
   3324035463.3968978     
   2522599699.7425961     
   1795514936.2624712     
   4910125587.9505453     
   4039670974.7736311     
   3245093045.2531033     
   2512427426.9693856     
   1837761862.6414690     
   4641983108.9004164     
   3851601935.3938236     
   3152312175.6067066     
   2514754622.2988696     
   1925674522.2417264     
   1842694250.0533988     
   2117113282.2893057     
   2371103390.4056673     
   2604664574.4024763     
   2817796834.2797341     
   1798322924.5115438     
   2065510649.1432385     
   2316502859.6495919     
   2551363965.3105774     
   2770187713.4248085     
   1795514936.2624712     
   2052370263.6227741     
   2296703878.0547819     
   2528743800.7837524     
   2748851282.2691646     
   1837761862.6414690     
   2079791114.9432678     
   2312297587.0223980     
   2535727663.5986619     
   2750867606.4315209     
   1925674522.2417264     
   2147643942.9788713     
   2362288711.5018911     
   2570281910.7941194     
   2772974489.0815797     
   2817796834.2797341     
   2793678712.8316078     
   2782603002.0132899     
   2784569701.8247800     
   2799578812.2660804     
   2770187713.4248085     
   2752778126.7001843     
   2746440600.1109395     
   2751184534.9001689     
   2767018771.7271318     
   2748851282.2691646     
   2735343879.8490653     
   2731190636.1227927     
   2736404355.5952244     
   2750997605.3364334     
   2750867606.4315209     
   2739219617.8876491     
   2735485116.5180464     
   2739643249.3528380     
   2751677083.2288036     
   2772974489.0815797     
   2761925747.1656179     
   2757644727.4744296     
   2760018252.7079506     
   2768947118.0303669     
   2799578812.2660804     
   2737658690.1019583     
   2688073863.3119678     
   2650824331.8961043     
   2625910095.8543730     
   2767018771.7271318     
   2704735687.2310314     
   2654523377.9689126     
   2616400434.3694773     
   2590385231.0645227     
   2750997605.3364334     
   2685872461.0756240     
   2632621214.1013436     
   2591316573.6774936     
   2562031044.2315326     
   2751677083.2288036     
   2681351871.8822832     
   2622749145.7739563     
   2576027616.3572555     
   2541347661.5314908     
   2768947118.0303669     
   2691258127.4798121     
   2625156038.5434308     
   2570911842.6945128     
   2528804125.5598979     
   2625910095.8543730     
   2651531165.6544909     
   2686539990.3235202     
   2730936569.8614702     
   2784720904.2683277     
   2590385231.0645227     
   2614760700.2675157     
   2648019818.9451218     
   2690165761.2339625     
   2741199978.9966350     
   2562031044.2315326     
   2583636793.4891539     
   2613775659.6874256     
   2652459644.3343015     
   2699694514.5590358     
   2541347661.5314908     
   2558758107.9535956     
   2584477247.9427423     
   2618531309.3302345     
   2660933901.2372694     
   2528804125.5598979     
   2540721873.4257808     
   2560817890.0862594     
   2589138329.4865999     
   2625709377.1620398     
   2784720904.2683277     
   2773423745.0210896     
   2770654937.5670571     
   2776414481.9062338     
   2790702378.0386181     
   2741199978.9966350     
   2727782780.4888191     
   2723493606.0311251     
   2728335483.0313148     
   2742313796.2030125     
   2699694514.5590358     
   2684297829.1263690     
   2678772314.7866044     
   2683133125.1693487     
   2697404253.4628916     
   2660933901.2372694     
   2643501218.3209934     
   2636850669.7436152     
   2641023869.7237902     
   2656080592.6987014     
   2625709377.1620398     
   2605964637.9580851     
   2598108676.1227255     
   2602230341.9287543     
   2618446843.4779243     
   2790702378.0386181     
   2739573397.3953652     
   2694053412.3106942     
   2654142422.7845883     
   2619840428.8170662     
   2742313796.2030125     
   2691705689.7240653     
   2646528603.3713961     
   2606818545.3882694     
   2572625348.4338422     
   2697404253.4628916     
   2649362570.2027869     
   2606713258.2614803     
   2569601390.9104128     
   2538227636.2766342     
   2656080592.6987014     
   2612649526.5523019     
   2574712016.2444110     
   2542593967.2463131     
   2516744830.3473759     
   2618446843.4779243     
   2581663608.7373967     
   2550615287.9140081     
   2525875125.3996940     
   2508229406.1454463     
   2619840428.8170662     
   2430126036.6840544     
   2235689340.3877683     
   2036530339.9281681     
   1832649035.3052816     
   2572625348.4338422     
   2384769354.2124467     
   2193884231.7369180     
   2000349165.0919528     
   1804770037.4259660     
   2538227636.2766342     
   2357551667.9537721     
   2176650712.9456444     
   1997000324.3547149     
   1820886662.9564590     
   2516744830.3473759     
   2348505454.5461602     
   2183848380.0685358     
   2025882817.1330628     
   1879191713.8365448     
   2508229406.1454463     
   2357528986.3625088     
   2215013319.0337996     
   2085679079.8282440     
   1976432394.7794478     
   4641983108.9004164     
   3851601935.3938236     
   3152312175.6067066     
   2514754622.2988696     
   1925674522.2417264     
   4507341521.2326546     
   3810455995.5767031     
   3169697120.5490470     
   2578261921.7096243     
   2039534527.2540252     
   4747897856.4567776     
   4028030031.3376818     
   3354813679.8506145     
   2730908663.1269479     
   2165482435.6045346     
   5357532893.9618053     
   4495954772.7972422     
   3700408229.5359058     
   2968502847.4814844     
   2302685932.3368602     
   6299664118.8443851     
   5193583755.5721016     
   4193963091.8635478     
   3284337326.3221922     
   2450584688.1562643     
   1925674522.2417264     
   2147643942.9788713     
   2362288711.5018911     
   2570281910.7941194     
   2772974489.0815797     
   2039534527.2540252     
   2240158681.6417885     
   2433998676.1507425     
   2621388661.1364880     
   2803004663.7680926     
   2165482435.6045346     
   2352493142.1835847     
   2533359134.8705921     
   2708051491.1463833     
   2876705596.8148975     
   2302685932.3368602     
   2483929084.9283037     
   2659840899.6850090     
   2829951526.8872290     
   2993955151.0128007     
   2450584688.1562643     
   2633572431.9198947     
   2812292644.4443836     
   2985707001.3186588     
   3153121531.4358125     
   2772974489.0815797     
   2761925747.1656179     
   2757644727.4744296     
   2760018252.7079506     
   2768947118.0303669     
   2803004663.7680926     
   2778672542.5841289     
   2761472143.4241986     
   2751585275.7180934     
   2749183919.2980790     
   2876705596.8148975     
   2835264275.2954884     
   2801092556.6084299     
   2774587943.5289536     
   2756168113.8410296     
   2993955151.0128007     
   2932033490.4875464     
   2877286431.6718273     
   2830213936.9918895     
   2791415423.5424428     
   3153121531.4358125     
   3067891412.2873201     
   2989550640.1479526     
   2918561109.3443975     
   2855596883.6956873     
   2768947118.0303669     
   2691258127.4798121     
   2625156038.5434308     
   2570911842.6945128     
   2528804125.5598979     
   2749183919.2980790     
   2657963349.8301563     
   2578261937.8599730     
   2510476777.7439570     
   2455035193.6826663     
   2756168113.8410296     
   2650188412.7058802     
   2555501064.6287827     
   2472640740.9791360     
   2402211743.2921867     
   2791415423.5424428     
   2669768369.3458090     
   2559001248.1294231     
   2459776320.5731874     
   2372880676.9490571     
   2855596883.6956873     
   2717736586.4711971     
   2590165497.3381801     
   2473642736.4320798     
   2369117192.6332793     
   2528804125.5598979     
   2540721873.4257808     
   2560817890.0862594     
   2589138329.4865999     
   2625709377.1620398     
   2455035193.6826663     
   2455586771.1357741     
   2464443807.9964390     
   2481764255.5873971     
   2507674492.5373816     
   2402211743.2921867     
   2388631313.3323956     
   2383341623.9584246     
   2386645084.5984340     
   2398815487.1452017     
   2372880676.9490571     
   2342728345.2146878     
   2320604804.3482881     
   2306977893.9106159     
   2302313237.4924784     
   2369117192.6332793     
   2320508234.1441507     
   2279328887.4900141     
   2246202701.3655820     
   2221807754.2518654     
   2625709377.1620398     
   2605964637.9580851     
   2598108676.1227255     
   2602230341.9287543     
   2618446843.4779243     
   2507674492.5373816     
   2481417586.6558585     
   2467826790.1654210     
   2467059386.6010556     
   2479278349.5712423     
   2398815487.1452017     
   2363558251.9999285     
   2341902319.9197450     
   2334137280.6585279     
   2340527076.4577384     
   2302313237.4924784     
   2255213162.4099588     
   2222737544.4447289     
   2205402368.9950452     
   2203662034.7807169     
   2221807754.2518654     
   2159755751.4957318     
   2113310525.2159286     
   2083340299.3000894     
   2070625147.0294745     
   2618446843.4779243     
   2581663608.7373967     
   2550615287.9140081     
   2525875125.3996940     
   2508229406.1454463     
   2479278349.5712423     
   2448014974.3736749     
   2425165767.6351323     
   2411670318.5790882     
   2408885197.6955614     
   2340527076.4577384     
   2317328835.1010804     
   2305519908.4947014     
   2306500731.2569799     
   2322343741.7228031     
   2203662034.7807169     
   2190394037.9416995     
   2191968830.3503056     
   2210349369.3246803     
   2248446384.6044412     
   2070625147.0294745     
   2068197135.0637374     
   2084840427.4418876     
   2123177005.3393381     
   2187019994.0114918     
   2508229406.1454463     
   2357528986.3625088     
   2215013319.0337996     
   2085679079.8282440     
   1976432394.7794478     
   2408885197.6955614     
   2283261745.8000035     
   2168176025.6099596     
   2070372917.6082780     
   1998630152.3753438     
   2322343741.7228031     
   2225260341.8528638     
   2141555453.6078918     
   2079583833.5123248     
   2049502294.9296708     
   2248446384.6044412     
   2183314710.1851254     
   2134680217.2639413     
   2112181639.8780348     
   2126714431.4213147     
   2187019994.0114918     
   2157129458.8982010     
   2146902318.4171660     
   2166816497.1404986     
   2227883100.1664248     
   6299664118.8443851     
   5193583755.5721016     
   4193963091.8635478     
   3284337326.3221922     
   2450584688.1562643     
   6790313921.6957779     
   5635160458.9587526     
   4539958152.6501207     
   3501836615.3465362     
   2521794956.1595368     
   7165408402.3049755     
   5976904954.2803192     
   4823211137.6493587     
   3707727221.9177747     
   2643392076.2705932     
   7436716785.7605133     
   6227567949.6058903     
   5046859775.6077938     
   3897360993.7373676     
   2799826588.5947332     
   7634367885.2243567     
   6406312964.2235098     
   5219541787.4916334     
   4069087435.0095024     
   2977940227.9001131     
   2450584688.1562643     
   2633572431.9198947     
   2812292644.4443836     
   2985707001.3186588     
   3153121531.4358125     
   2521794956.1595368     
   2714710368.3710785     
   2902160216.2155652     
   3083504586.1453800     
   3258432821.2926745     
   2643392076.2705932     
   2842400436.2274656     
   3033049945.4319763     
   3215112700.6312084     
   3389106996.0545297     
   2799826588.5947332     
   3004580172.7858815     
   3196368208.7126474     
   3375384954.8775959     
   3543351098.9514437     
   2977940227.9001131     
   3190538990.7277522     
   3384195774.4941907     
   3559492269.8125825     
   3719606746.0281296     
   3153121531.4358125     
   3067891412.2873201     
   2989550640.1479526     
   2918561109.3443975     
   2855596883.6956873     
   3258432821.2926745     
   3155776059.8427811     
   3058946231.2267447     
   2968470183.8665085     
   2884995102.7585816     
   3389106996.0545297     
   3271022629.3896618     
   3158469910.5781617     
   3051872514.7122021     
   2951753759.6917462     
   3543351098.9514437     
   3411389691.5768881     
   3285439678.7292347     
   3165688259.6866493     
   3052466240.3715377     
   3719606746.0281296     
   3574680060.3920522     
   3437001640.5953655     
   3306415319.5996194     
   3183008879.8043056     
   2855596883.6956873     
   2717736586.4711971     
   2590165497.3381801     
   2473642736.4320798     
   2369117192.6332793     
   2884995102.7585816     
   2733252214.5159912     
   2590176590.6580009     
   2456589930.1804214     
   2333541692.5606408     
   2951753759.6917462     
   2785097640.9527731     
   2625239569.4810028     
   2472941028.6547804     
   2329214548.7795577     
   3052466240.3715377     
   2870917680.5628057     
   2694202913.8015089     
   2522911018.1411738     
   2357872141.0411687     
   3183008879.8043056     
   2987424511.9807181     
   2794780874.6848831     
   2605427142.6892147     
   2419910285.6165676     
   2369117192.6332793     
   2320508234.1441507     
   2279328887.4900141     
   2246202701.3655820     
   2221807754.2518654     
   2333541692.5606408     
   2267002105.2503376     
   2206807910.0450096     
   2153644167.3310933     
   2108262489.9110761     
   2329214548.7795577     
   2245940149.4190307     
   2167832133.4847980     
   2095544226.0461819     
   2029813002.9581974     
   2357872141.0411687     
   2259814617.5367870     
   2165786731.0637565     
   2076316088.0400767     
   1992017641.3616414     
   2419910285.6165676     
   2309574649.5728688     
   2202343355.4756932     
   2098556287.3790090     
   1998628170.9385421     
   2221807754.2518654     
   2159755751.4957318     
   2113310525.2159286     
   2083340299.3000894     
   2070625147.0294745     
   2108262489.9110761     
   2026395102.5613945     
   1957410035.7693152     
   1902507201.5714316     
   1862849557.0729887     
   2029813002.9581974     
   1926795519.5861888     
   1832906683.3485558     
   1749455576.2080829     
   1677870699.6466322     
   1992017641.3616414     
   1869585307.7713132     
   1751704087.4189653     
   1639355658.4797299     
   1533757879.2873871     
   1998628170.9385421     
   1862083518.3984933     
   1725615017.1567402     
   1589569015.7168005     
   1454452394.6916559     
   2070625147.0294745     
   2068197135.0637374     
   2084840427.4418876     
   2123177005.3393381     
   2187019994.0114918     
   1862849557.0729887     
   1853567606.4777997     
   1867106278.5079737     
   1905649210.7383108     
   1972204606.8262594     
   1677870699.6466322     
   1650664845.6616683     
   1651043775.5253868     
   1681334881.5755727     
   1744100408.3747017     
   1533757879.2873871     
   1474124989.7434938     
   1447072362.0547950     
   1456512341.8616772     
   1505668978.6690557     
   1454452394.6916559     
   1346468241.0918589     
   1273374889.6969378     
   1243253109.3665040     
   1263059194.6744192     
   2187019994.0114918     
   2157129458.8982010     
   2146902318.4171660     
   2166816497.1404986     
   2227883100.1664248     
   1972204606.8262594     
   1969777268.1610975     
   2003907545.1909225     
   2093290730.5453205     
   2256614070.7702217     
   1744100408.3747017     
   1788427458.1296911     
   1884865426.9247484     
   2060414513.5376008     
   2340422708.5879679     
   1505668978.6690557     
   1613789486.2027643     
   1789035035.7431307     
   2066303495.1297102     
   2475991766.0526829     
   1263059194.6744192     
   1446895395.3637435     
   1715851874.4720855     
   2110682391.7902753     
   2664066838.6140862     
   7634367885.2243567     
   6406312964.2235098     
   5219541787.4916334     
   4069087435.0095024     
   2977940227.9001131     
   8083043399.7504902     
   6781192377.2295103     
   5528209697.3584137     
   4319849384.3690748     
   3173527409.1501327     
   8880932696.0374184     
   7427349454.0693369     
   6027759833.0411472     
   4675710314.7248840     
   3383579560.8737173     
   10033511417.404318     
   8347650039.4018564     
   6720273822.1472635     
   5140138008.2213964     
   3613346770.7296543     
   11545645127.146032     
   9544138034.3043461     
   7606615937.7648172     
   5715396042.9553461     
   3868361780.5562105     
   2977940227.9001131     
   3190538990.7277522     
   3384195774.4941907     
   3559492269.8125825     
   3719606746.0281296     
   3173527409.1501327     
   3372955637.0331826     
   3561813077.8476186     
   3740962274.9994421     
   3911922544.3171282     
   3383579560.8737173     
   3578441108.6350856     
   3771809672.2186389     
   3963604721.6161752     
   4153867335.4841290     
   3613346770.7296543     
   3809843017.7937574     
   4013878720.2331610     
   4223345054.5906644     
   4436952835.2806273     
   3868361780.5562105     
   4069647675.4830298     
   4287362782.2347603     
   4516437404.5490065     
   4754370479.1077728     
   3719606746.0281296     
   3574680060.3920522     
   3437001640.5953655     
   3306415319.5996194     
   3183008879.8043056     
   3911922544.3171282     
   3761263863.5494328     
   3613703879.9848700     
   3469655531.9203329     
   3329653667.9983602     
   4153867335.4841290     
   3992995982.6225929     
   3831405142.2389717     
   3669301108.4898252     
   3507167124.3020425     
   4436952835.2806273     
   4262363566.5193763     
   4084029062.8689537     
   3901254564.0942378     
   3713980447.2764068     
   4754370479.1077728     
   4563021257.3434563     
   4366134522.5828266     
   4161553208.5823483     
   3948268407.0845575     
   3183008879.8043056     
   2987424511.9807181     
   2794780874.6848831     
   2605427142.6892147     
   2419910285.6165676     
   3329653667.9983602     
   3117326512.0801744     
   2908078555.1959033     
   2702102014.7810726     
   2499746601.4077406     
   3507167124.3020425     
   3279199177.8318324     
   3054603306.1511750     
   2833423202.3930206     
   2615873965.9905539     
   3713980447.2764068     
   3470534705.9568758     
   3230810617.4318247     
   2994712927.4041805     
   2762381328.8721848     
   3948268407.0845575     
   3688641119.2301350     
   3433060656.3002338     
   3181300985.2257791     
   2933475979.7235141     
   2419910285.6165676     
   2309574649.5728688     
   2202343355.4756932     
   2098556287.3790090     
   1998628170.9385421     
   2499746601.4077406     
   2382086935.1533151     
   2265991482.1336565     
   2151675314.8741560     
   2039403714.4370553     
   2615873965.9905539     
   2493447518.1200666     
   2371377154.2075372     
   2249759476.6688533     
   2128715190.0607212     
   2762381328.8721848     
   2637947877.0566211     
   2513048838.6989632     
   2387708332.6523108     
   2261963469.4950018     
   2933475979.7235141     
   2809740482.0937443     
   2685077328.3569818     
   2559493128.4095497     
   2433016172.2194963     
   1998628170.9385421     
   1862083518.3984933     
   1725615017.1567402     
   1589569015.7168005     
   1454452394.6916559     
   2039403714.4370553     
   1895903033.4300337     
   1752874654.8996866     
   1610483650.5765297     
   1468958967.9732003     
   2128715190.0607212     
   1980271881.5499868     
   1832879146.3660295     
   1686603885.4121063     
   1541552781.5612621     
   2261963469.4950018     
   2108907679.0763490     
   1957390290.8951671     
   1807419319.1945977     
   1659073800.3354096     
   2433016172.2194963     
   2274103313.6835384     
   2116947175.2060289     
   1961513433.6266835     
   1807908071.0648699     
   1454452394.6916559     
   1346468241.0918589     
   1273374889.6969378     
   1243253109.3665040     
   1263059194.6744192     
   1468958967.9732003     
   1326079108.3245835     
   1197536418.8547459     
   1087692808.8599288     
   1002290667.9128295     
   1541552781.5612621     
   1393574456.0504315     
   1242026087.0632217     
   1084528211.9478149     
   918968359.52397215     
   1659073800.3354096     
   1546275584.9151528     
   1424577470.2966001     
   1294221313.5749009     
   1161305002.5323894     
   1807908071.0648699     
   1770723710.7125781     
   1730572103.7936578     
   1695797354.7087967     
   1684650657.4826875     
   1263059194.6744192     
   1446895395.3637435     
   1715851874.4720855     
   2110682391.7902753     
   2664066838.6140862     
   1002290667.9128295     
   1164891753.1877515     
   1425656006.8142376     
   1809143859.8765435     
   2335411901.4192677     
   918968359.52397215     
   963831351.45014632     
   1145280142.8478067     
   1476729543.1859295     
   1957651244.5261397     
   1161305002.5323894     
   1010128216.9257696     
   985836808.82173502     
   1161176799.4916160     
   1543134361.3781414     
   1684650657.4826875     
   1386275168.8215854     
   1130450525.7128267     
   1008943808.8850663     
   1149779757.6948512     
 </DataArray>
 <DataArray  type="Float64" Name="strain" NumberOfComponents="3" format="ascii">
  0.19269067876248258       -4.1218538564267049E-002   4.8435810365065501E-002
  0.16046672334173440       -3.4378925325032283E-002   2.7815027927799330E-002
  0.12824276792098604       -2.8868654207436062E-002   1.3390855237468857E-002
   9.6018812500237777E-002  -2.4687725211478204E-002   5.1632922940743620E-003
   6.3794857079489509E-002  -2.1836138337158473E-002   3.1323390976163434E-003
  0.16621821993463437       -3.9746208527762894E-002   4.6930331827892191E-002
  0.13946248685621820       -3.2327062249848659E-002   3.0151512656972246E-002
  0.11270675377780193       -2.6719593046916346E-002   1.8112528423780361E-002
   8.5951020699385705E-002  -2.2923800918965911E-002   1.0813379128316924E-002
   5.9195287620969428E-002  -2.0939685865997482E-002   8.2540647705812709E-003
  0.14588662137604683       -3.8273878491258961E-002   4.6245553806070094E-002
  0.12314233583075479       -3.0275199174665091E-002   3.2826362948153276E-002
  0.10039805028546266       -2.4570531886396657E-002   2.2690232218756462E-002
   7.7653764740170522E-002  -2.1159876626453737E-002   1.5837161617879708E-002
   5.4909479194878430E-002  -2.0043233394836324E-002   1.2267151145523791E-002
  0.13169588308671992       -3.6801548454754918E-002   4.6381476299599309E-002
  0.11150627026534403       -2.8223336099481411E-002   3.5839578801341823E-002
   9.1316657443968122E-002  -2.2421470725876955E-002   2.7123966622396717E-002
   7.1127044622592325E-002  -1.9395952333941504E-002   2.0234639762763799E-002
   5.0937431801216390E-002  -1.9146780923675194E-002   1.5171598222443017E-002
  0.12364600506665369       -3.5329218418250818E-002   4.7338099308479931E-002
  0.10455429015998613       -2.6171473024297787E-002   3.9191160216538290E-002
   8.5462575253318518E-002  -2.0272409565357294E-002   3.1413731634701042E-002
   6.6370860346650934E-002  -1.7632028041429448E-002   2.4005813562968062E-002
   4.7279145439983350E-002  -1.8250328452514175E-002   1.6967406001339669E-002
   6.3794857079489509E-002  -2.1836138337158473E-002   3.1323390976163434E-003
   6.7814904598932413E-002  -2.0079828154998314E-002   4.6327666420951652E-003
   7.1834952118375206E-002  -1.9184729235518616E-002   5.8268090365166114E-003
   7.5854999637817999E-002  -1.9150841578719574E-002   6.7144662808800160E-003
   7.9875047157260903E-002  -1.9978165184600827E-002   7.2957383751860450E-003
   5.9195287620969428E-002  -2.0939685865997482E-002   8.2540647705812709E-003
   6.2914831603387261E-002  -2.0056542430533258E-002   9.4483962491680173E-003
   6.6634375585804984E-002  -1.9563665155096471E-002   1.0348105803762553E-002
   7.0353919568222720E-002  -1.9461054039686988E-002   1.0953193434364239E-002
   7.4073463550640484E-002  -1.9748709084304261E-002   1.1263659140973714E-002
   5.4909479194878430E-002  -2.0043233394836324E-002   1.2267151145523791E-002
   5.8340282866336288E-002  -2.0033256706068481E-002   1.3626331660871571E-002
   6.1771086537794173E-002  -1.9942601074674438E-002   1.4702653478292221E-002
   6.5201890209252031E-002  -1.9771266500654291E-002   1.5496116597785513E-002
   6.8632693880709916E-002  -1.9519252984007862E-002   1.6006721019351883E-002
   5.0937431801216390E-002  -1.9146780923675194E-002   1.5171598222443017E-002
   5.4091258387779562E-002  -2.0009970981603564E-002   1.7166572877205445E-002
   5.7245084974342782E-002  -2.0321536994252348E-002   1.8890452060105950E-002
   6.0398911560905932E-002  -2.0081478961621761E-002   2.0343235771144257E-002
   6.3552738147469159E-002  -1.9289796883711435E-002   2.1524924010320447E-002
   4.7279145439983350E-002  -1.8250328452514175E-002   1.6967406001339669E-002
   5.0167758167717069E-002  -1.9986685257138731E-002   2.0069119898169924E-002
   5.3056370895450788E-002  -2.0700472913830273E-002   2.2911501549203406E-002
   5.5944983623184508E-002  -2.0391691422589068E-002   2.5494550954440018E-002
   5.8833596350918227E-002  -1.9060340783414842E-002   2.7818268113879663E-002
   7.9875047157260903E-002  -1.9978165184600827E-002   7.2957383751860450E-003
   7.6385314487367961E-002  -2.0868362201613588E-002   5.5519707434545928E-003
   7.2895581817474964E-002  -2.1023094778208046E-002   4.2351835560462958E-003
   6.9405849147581966E-002  -2.0442362914384136E-002   3.3453768129610983E-003
   6.5916116477689024E-002  -1.9126166610142326E-002   2.8825505141987229E-003
   7.4073463550640484E-002  -1.9748709084304261E-002   1.1263659140973714E-002
   7.0972118292128183E-002  -1.9993537953177820E-002   1.0447803888956553E-002
   6.7870773033616050E-002  -1.9762448310535752E-002   9.9817430153773257E-003
   6.4769427775103805E-002  -1.9055440156378806E-002   9.8654765202368655E-003
   6.1668082516591560E-002  -1.7872513490706066E-002   1.0099004403534395E-002
   6.8632693880709916E-002  -1.9519252984007862E-002   1.6006721019351883E-002
   6.5842549967693703E-002  -1.9118713704742218E-002   1.5859232218145836E-002
   6.3052406054677435E-002  -1.8501801842863916E-002   1.5984351729493543E-002
   6.0262262141661194E-002  -1.7668517398373145E-002   1.6382079553394928E-002
   5.7472118228644981E-002  -1.6618860371270139E-002   1.7052415689849332E-002
   6.3552738147469159E-002  -1.9289796883711435E-002   2.1524924010320447E-002
   6.0996609514064166E-002  -1.8243889456306422E-002   2.1786255731022885E-002
   5.8440480880659285E-002  -1.7241155375191962E-002   2.2243009698394368E-002
   5.5884352247254375E-002  -1.6281594640367762E-002   2.2895185912434966E-002
   5.3328223613849465E-002  -1.5365207251834045E-002   2.3742784373144296E-002
   5.8833596350918227E-002  -1.9060340783414842E-002   2.7818268113879663E-002
   5.6434296931239858E-002  -1.7369065207870793E-002   2.8228874427587813E-002
   5.4034997511561489E-002  -1.5980508907519939E-002   2.8757716922080429E-002
   5.1635698091883162E-002  -1.4894671882362358E-002   2.9404795597356884E-002
   4.9236398672204751E-002  -1.4111554132397730E-002   3.0170110453417887E-002
   6.5916116477689024E-002  -1.9126166610142326E-002   2.8825505141987229E-003
   6.1658984206370060E-002  -1.7584894305009091E-002   1.8863291261139725E-003
   5.7401851935050985E-002  -1.6328934438510745E-002   1.1901709472894040E-003
   5.3144719663731910E-002  -1.5358287010647689E-002   7.9407597772485072E-004
   4.8887587392412946E-002  -1.4672952021419050E-002   6.9804421742025724E-004
   6.1668082516591560E-002  -1.7872513490706066E-002   1.0099004403534395E-002
   5.7699678735610771E-002  -1.6551405429949484E-002   8.9010838896882438E-003
   5.3731274954629954E-002  -1.5429853090539292E-002   7.9805571472585934E-003
   4.9762871173649123E-002  -1.4507856472475447E-002   7.3374241762449444E-003
   4.5794467392668348E-002  -1.3785415575758186E-002   6.9716849766490174E-003
   5.7472118228644981E-002  -1.6618860371270139E-002   1.7052415689849332E-002
   5.3769773500158907E-002  -1.5517916554889821E-002   1.5738552767530306E-002
   5.0067428771672806E-002  -1.4530771742567589E-002   1.4679414178783934E-002
   4.6365084043186705E-002  -1.3657425934303420E-002   1.3874999923610479E-002
   4.2662739314700632E-002  -1.2897879130097323E-002   1.3325310002010149E-002
   5.3328223613849465E-002  -1.5365207251834045E-002   2.3742784373144296E-002
   4.9869268500014552E-002  -1.4484427679830297E-002   2.2398735759640021E-002
   4.6410313386179576E-002  -1.3631690394595899E-002   2.1286742041865488E-002
   4.2951358272344642E-002  -1.2806995396131508E-002   2.0406803219820451E-002
   3.9492403158509735E-002  -1.2010342684436348E-002   1.9758919293504679E-002
   4.9236398672204751E-002  -1.4111554132397730E-002   3.0170110453417887E-002
   4.5998163735177511E-002  -1.3450938804770551E-002   2.8881632866017637E-002
   4.2759928798150271E-002  -1.2732609046624377E-002   2.7802540736503289E-002
   3.9521693861123031E-002  -1.1956564857959248E-002   2.6932834064874955E-002
   3.6283458924095791E-002  -1.1122806238775484E-002   2.6272512851132412E-002
   4.8887587392412946E-002  -1.4672952021419050E-002   6.9804421742025724E-004
   4.6815601418806474E-002  -1.4095506394392832E-002   6.8312287180138931E-004
   4.4743615445200002E-002  -1.3448527053137926E-002   6.4692516551667634E-004
   4.2671629471593558E-002  -1.2732013997651226E-002   5.8945109856722855E-004
   4.0599643497987059E-002  -1.1945967227935839E-002   5.1070067095149163E-004
   4.5794467392668348E-002  -1.3785415575758186E-002   6.9716849766490174E-003
   4.3712658876420396E-002  -1.3141918669624442E-002   6.9852100980358767E-003
   4.1630850360172528E-002  -1.2456754023309591E-002   7.0003664948056765E-003
   3.9549041843924562E-002  -1.1729921636814966E-002   7.0171541669584725E-003
   3.7467233327676708E-002  -1.0961421510139679E-002   7.0355731144934319E-003
   4.2662739314700632E-002  -1.2897879130097323E-002   1.3325310002010149E-002
   4.0594015891859375E-002  -1.2188330944854719E-002   1.3339415616353961E-002
   3.8525292469018105E-002  -1.1464980993481921E-002   1.3378060142128667E-002
   3.6456569046176841E-002  -1.0727829275978040E-002   1.3441243579333781E-002
   3.4387845623335606E-002  -9.9768757923435203E-003   1.3528965927969927E-002
   3.9492403158509735E-002  -1.2010342684436348E-002   1.9758919293504679E-002
   3.7459672465123314E-002  -1.1234743220085663E-002   1.9745739426755213E-002
   3.5426941771736872E-002  -1.0473207963653808E-002   1.9780006107484795E-002
   3.3394211078350500E-002  -9.7257369151410034E-003   1.9861719335693549E-002
   3.1361480384964072E-002  -8.9923300745473611E-003   1.9990879111380588E-002
   3.6283458924095791E-002  -1.1122806238775484E-002   2.6272512851132412E-002
   3.4309628596212283E-002  -1.0281155495316496E-002   2.6204181529240422E-002
   3.2335798268328858E-002  -9.4814349338255832E-003   2.6206204390875176E-002
   3.0361967940445378E-002  -8.7236445543043273E-003   2.6278581436036785E-002
   2.8388137612561926E-002  -8.0077843567510909E-003   2.6421312664725805E-002
   4.0599643497987059E-002  -1.1945967227935839E-002   5.1070067095149163E-004
   3.7944603213060590E-002  -1.1186034783989274E-002  -6.6879045324874653E-005
   3.5289562928133900E-002  -1.0547864705809484E-002  -4.7897440504796052E-004
   3.2634522643207320E-002  -1.0031456993397359E-002  -7.2558540821715534E-004
   2.9979482358280740E-002  -9.6368116467524523E-003  -8.0671205483273667E-004
   3.7467233327676708E-002  -1.0961421510139679E-002   7.0355731144934319E-003
   3.4949483885785670E-002  -1.0211224156525867E-002   6.3828045246331344E-003
   3.2431734443894716E-002  -9.5393000892162183E-003   5.8391332642903637E-003
   2.9913985002003776E-002  -8.9456493082088751E-003   5.4045593334658415E-003
   2.7396235560112836E-002  -8.4302718135060850E-003   5.0790827321585130E-003
   3.4387845623335606E-002  -9.9768757923435203E-003   1.3528965927969927E-002
   3.1950999997444662E-002  -9.2364135290634031E-003   1.2844497543989419E-002
   2.9514154371553580E-002  -8.5307354726227302E-003   1.2212739462491157E-002
   2.7077308745662526E-002  -7.8598416230212798E-003   1.1633691683475139E-002
   2.4640463119771500E-002  -7.2237319802592737E-003   1.1107354206941145E-002
   3.1361480384964072E-002  -8.9923300745473611E-003   1.9990879111380588E-002
   2.8949151548037247E-002  -8.2616029016006898E-003   1.9318200012744466E-002
   2.6536822711110401E-002  -7.5221708560293532E-003   1.8641844189554904E-002
   2.4124493874183573E-002  -6.7740339378332404E-003   1.7961811641811723E-002
   2.1712165037256724E-002  -6.0171921470126843E-003   1.7278102369514298E-002
   2.8388137612561926E-002  -8.0077843567510909E-003   2.6421312664725805E-002
   2.5943938537563604E-002  -7.2867922741377544E-003   2.5803911930898038E-002
   2.3499739462565200E-002  -6.5136062394360594E-003   2.5126447445481093E-002
   2.1055540387566837E-002  -5.6882262526454994E-003   2.4388919208474441E-002
   1.8611341312568475E-002  -4.8106523137659840E-003   2.3591327219878444E-002
   2.9979482358280740E-002  -9.6368116467524523E-003  -8.0671205483273667E-004
   2.9448029092335126E-002  -9.1135537791898757E-003  -4.4463113827397649E-004
   2.8916575826389568E-002  -8.2113085040242950E-003  -1.7957264469055101E-003
   2.8385122560443982E-002  -6.9300758212543778E-003  -4.8599979807273375E-003
   2.7853669294498395E-002  -5.2698557308819005E-003  -9.6374457397399027E-003
   2.7396235560112836E-002  -8.4302718135060850E-003   5.0790827321585130E-003
   2.5425517289949739E-002  -7.8583214938505730E-003   5.8277523994234581E-003
   2.3454799019786532E-002  -7.0949522379865071E-003   5.4110682834442314E-003
   2.1484080749623408E-002  -6.1401640459157469E-003   3.8290303842206386E-003
   1.9513362479460228E-002  -4.9939569176369325E-003   1.0816387017524853E-003
   2.4640463119771500E-002  -7.2237319802592737E-003   1.1107354206941145E-002
   2.1778302287337292E-002  -6.6030892085107706E-003   1.2055044153516159E-002
   1.8916141454902988E-002  -5.9785959719502735E-003   1.2385202758792846E-002
   1.6053980622468704E-002  -5.3502522705771161E-003   1.2097830022772149E-002
   1.3191819790034476E-002  -4.7180581043919645E-003   1.1192925945453291E-002
   2.1712165037256724E-002  -6.0171921470126843E-003   1.7278102369514298E-002
   1.8506384084497840E-002  -5.3478569231712181E-003   1.8237244124003626E-002
   1.5300603131738904E-002  -4.8622397059134848E-003   1.9126676979141555E-002
   1.2094822178980049E-002  -4.5603404952384852E-003   1.9946400934927513E-002
   8.8890412262210838E-003  -4.4421592911469965E-003   2.0696415991362599E-002
   1.8611341312568475E-002  -4.8106523137659840E-003   2.3591327219878444E-002
   1.5609762681431438E-002  -4.0926246378316655E-003   2.4374352310886360E-002
   1.2608184050294347E-002  -3.7458834398761409E-003   2.5635490944489414E-002
   9.6066054191572409E-003  -3.7704287198991604E-003   2.7374743120687134E-002
   6.6050267880202185E-003  -4.1662604779021395E-003   2.9592108839480269E-002
   2.7853669294498395E-002  -5.2698557308819005E-003  -9.6374457397399027E-003
   2.3397324408403031E-002  -4.2215448032827396E-003  -4.1634982058718073E-003
   1.8940979522307555E-002  -4.7760396088368795E-003   2.5905890244785068E-003
   1.4484634636212079E-002  -6.9333401475409062E-003   1.0624815951309374E-002
   1.0028289750116715E-002  -1.0693446419398178E-002   1.9939182574621128E-002
   1.9513362479460228E-002  -4.9939569176369325E-003   1.0816387017524853E-003
   1.6262200311284114E-002  -4.7003949497723685E-003   6.7496358875764884E-003
   1.3011038143107945E-002  -6.3035422389478013E-003   1.3547858812757885E-002
   9.7598759749319142E-003  -9.8033987851607607E-003   2.1476307477296674E-002
   6.5087138067556616E-003  -1.5199964588412218E-002   3.0534981881193080E-002
   1.3191819790034476E-002  -4.7180581043919645E-003   1.1192925945453291E-002
   1.0995926382653926E-002  -5.1792450962628855E-003   1.6761069259346006E-002
   8.8000329752732365E-003  -7.8310448690591117E-003   2.3309524355471900E-002
   6.6041395678926029E-003  -1.2673457422780268E-002   3.0838291233831777E-002
   4.4082461605119971E-003  -1.9706482757426702E-002   3.9347369894425333E-002
   8.8890412262210838E-003  -4.4421592911469965E-003   2.0696415991362599E-002
   7.5985026225123542E-003  -5.6580952427529585E-003   2.5870801909437274E-002
   6.3079640188035691E-003  -9.3585474991706719E-003   3.1875585652622065E-002
   5.0174254150946798E-003  -1.5543516060399949E-002   3.8710767220916507E-002
   3.7268868113859571E-003  -2.4213000926441408E-002   4.6376346614320496E-002
   6.6050267880202185E-003  -4.1662604779021395E-003   2.9592108839480269E-002
   6.0699290308594556E-003  -6.1369453892431425E-003   3.4078833837850375E-002
   5.5348312736986927E-003  -1.0886050129282093E-002   3.9246042704207007E-002
   4.9997335165378881E-003  -1.8413574698019540E-002   4.5093735438548527E-002
   4.4646357593771668E-003  -2.8719519095455670E-002   5.1621912040877849E-002
  0.12364600506665369       -3.5329218418250818E-002   4.7338099308479931E-002
  0.10455429015998613       -2.6171473024297787E-002   3.9191160216538290E-002
   8.5462575253318518E-002  -2.0272409565357294E-002   3.1413731634701042E-002
   6.6370860346650934E-002  -1.7632028041429448E-002   2.4005813562968062E-002
   4.7279145439983350E-002  -1.8250328452514175E-002   1.6967406001339669E-002
  0.11736160941038032       -2.4556824910842878E-002   6.7632315489760730E-002
   9.8941225991398762E-002  -1.9651212291064063E-002   5.4617448145315023E-002
   8.0520842572417123E-002  -1.6606625113094381E-002   4.2575733266137006E-002
   6.2100459153435553E-002  -1.5423063376934006E-002   3.1507170852226457E-002
   4.3680075734453955E-002  -1.6100527082582750E-002   2.1411760903583876E-002
  0.10846731821243205       -1.3784431403434966E-002   8.2975570650265798E-002
   9.1321908236299806E-002  -1.3130951557830339E-002   6.6490431546519180E-002
   7.4176498260167506E-002  -1.2940840660831475E-002   5.1582086863203709E-002
   5.7031088284035233E-002  -1.3214098712438537E-002   3.8250536600319143E-002
   3.9885678307902891E-002  -1.3950725712651435E-002   2.6495780757865559E-002
   9.6963131472808939E-002  -3.0120378960270394E-003   9.3367864789994634E-002
   8.1696336894689289E-002  -6.6106908245966156E-003   7.4810110420150955E-002
   6.6429542316569612E-002  -9.2750562085686210E-003   5.8432792425901305E-002
   5.1162747738449935E-002  -1.1005134047943111E-002   4.4235910807246065E-002
   3.5895953160330292E-002  -1.1800924342720093E-002   3.2219465564184924E-002
   8.2849049191510926E-002   7.7603556113808869E-003   9.8809197908947821E-002
   7.0064511966567211E-002  -9.0430091362891929E-005   7.9576484766209932E-002
   5.7279974741623441E-002  -5.6092717563056282E-003   6.3127849954229542E-002
   4.4495437516679698E-002  -8.7961693834476759E-003   4.9463293473006986E-002
   3.1710900291735955E-002  -9.6511229727887504E-003   3.8582815322541875E-002
   4.7279145439983350E-002  -1.8250328452514175E-002   1.6967406001339669E-002
   5.0167758167717069E-002  -1.9986685257138731E-002   2.0069119898169924E-002
   5.3056370895450788E-002  -2.0700472913830273E-002   2.2911501549203406E-002
   5.5944983623184508E-002  -2.0391691422589068E-002   2.5494550954440018E-002
   5.8833596350918227E-002  -1.9060340783414842E-002   2.7818268113879663E-002
   4.3680075734453955E-002  -1.6100527082582750E-002   2.1411760903583876E-002
   4.6307668712504135E-002  -1.7336275010825006E-002   2.5199972647783467E-002
   4.8935261690554260E-002  -1.7827565942444626E-002   2.8725477138412794E-002
   5.1562854668604462E-002  -1.7574399877441988E-002   3.1988274375471963E-002
   5.4190447646654621E-002  -1.6576776815816763E-002   3.4988364358960855E-002
   3.9885678307902891E-002  -1.3950725712651435E-002   2.6495780757865559E-002
   4.2248876528496120E-002  -1.4685864764511267E-002   3.0692378198124037E-002
   4.4612074749089334E-002  -1.4954658971059083E-002   3.4622893377038950E-002
   4.6975272969682576E-002  -1.4757108332294907E-002   3.8287326294610111E-002
   4.9338471190275776E-002  -1.4093212848218711E-002   4.1685676950837677E-002
   3.5895953160330292E-002  -1.1800924342720093E-002   3.2219465564184924E-002
   3.7991381615693126E-002  -1.2035454518197590E-002   3.6546336549191968E-002
   4.0086810071055953E-002  -1.2081751999673433E-002   4.0603750265081874E-002
   4.2182238526418829E-002  -1.1939816787147908E-002   4.4391706711854634E-002
   4.4277666981781663E-002  -1.1609648880620646E-002   4.7910205889510393E-002
   3.1710900291735955E-002  -9.6511229727887504E-003   3.8582815322541875E-002
   3.3535183974095051E-002  -9.3850442718838301E-003   4.2761847700986677E-002
   3.5359467656454147E-002  -9.2088450282878515E-003   4.6668047802541218E-002
   3.7183751338813242E-002  -9.1225252420007348E-003   5.0301415627205220E-002
   3.9008035021172338E-002  -9.1260849130225807E-003   5.3661951174978795E-002
   5.8833596350918227E-002  -1.9060340783414842E-002   2.7818268113879663E-002
   5.6434296931239858E-002  -1.7369065207870793E-002   2.8228874427587813E-002
   5.4034997511561489E-002  -1.5980508907519939E-002   2.8757716922080429E-002
   5.1635698091883162E-002  -1.4894671882362358E-002   2.9404795597356884E-002
   4.9236398672204751E-002  -1.4111554132397730E-002   3.0170110453417887E-002
   5.4190447646654621E-002  -1.6576776815816763E-002   3.4988364358960855E-002
   5.1927089617960817E-002  -1.5298884009146696E-002   3.4964529739891170E-002
   4.9663731589267082E-002  -1.4204908709009645E-002   3.5094341722006678E-002
   4.7400373560573313E-002  -1.3294850915405262E-002   3.5377800305306850E-002
   4.5137015531879543E-002  -1.2568710628333701E-002   3.5814905489792326E-002
   4.9338471190275776E-002  -1.4093212848218711E-002   4.1685676950837677E-002
   4.7246464972967347E-002  -1.3228702810422793E-002   4.1346203167650572E-002
   4.5154458755658995E-002  -1.2429308510499303E-002   4.1195786406049296E-002
   4.3062452538350587E-002  -1.1695029948448168E-002   4.1234426666033622E-002
   4.0970446321042214E-002  -1.1025867124269562E-002   4.1462123947603846E-002
   4.4277666981781663E-002  -1.1609648880620646E-002   4.7910205889510393E-002
   4.2392422996259421E-002  -1.1158521611698738E-002   4.7373894710866102E-002
   4.0507179010737249E-002  -1.0653708311988901E-002   4.7062050974208604E-002
   3.8621935025215035E-002  -1.0095208981491185E-002   4.6974674679537393E-002
   3.6736691039692841E-002  -9.4830236202055329E-003   4.7111765826852905E-002
   3.9008035021172338E-002  -9.1260849130225807E-003   5.3661951174978795E-002
   3.7364963687837094E-002  -9.0883404129747936E-003   5.3047604369537926E-002
   3.5721892354501822E-002  -8.8781081134786666E-003   5.2693135426484350E-002
   3.4078821021166564E-002  -8.4953880145340888E-003   5.2598544345818093E-002
   3.2435749687831306E-002  -7.9401801161412822E-003   5.2763831127539240E-002
   4.9236398672204751E-002  -1.4111554132397730E-002   3.0170110453417887E-002
   4.5998163735177511E-002  -1.3450938804770551E-002   2.8881632866017637E-002
   4.2759928798150271E-002  -1.2732609046624377E-002   2.7802540736503289E-002
   3.9521693861123031E-002  -1.1956564857959248E-002   2.6932834064874955E-002
   3.6283458924095791E-002  -1.1122806238775484E-002   2.6272512851132412E-002
   4.5137015531879543E-002  -1.2568710628333701E-002   3.5814905489792326E-002
   4.2116028433691388E-002  -1.1924595323438703E-002   3.4505895199182512E-002
   3.9095041335503261E-002  -1.1260612476363632E-002   3.3421995128365078E-002
   3.6074054237315176E-002  -1.0576762087108855E-002   3.2563205277339941E-002
   3.3053067139126951E-002  -9.8730441556741377E-003   3.1929525646107071E-002
   4.0970446321042214E-002  -1.1025867124269562E-002   4.1462123947603846E-002
   3.8182431823599525E-002  -1.0398251842106632E-002   4.0094734065445711E-002
   3.5394417326156863E-002  -9.7886159061028877E-003   3.8968179164986128E-002
   3.2606402828714201E-002  -9.1969593162585725E-003   3.8082459246225123E-002
   2.9818388331271553E-002  -8.6232820725731796E-003   3.7437574309162891E-002
   3.6736691039692841E-002  -9.4830236202055329E-003   4.7111765826852905E-002
   3.4197373904901990E-002  -8.8719083607747828E-003   4.5648149464807108E-002
   3.1658056770111187E-002  -8.3166193358423651E-003   4.4441092846366180E-002
   2.9118739635320409E-002  -7.8171565454081236E-003   4.3490595971530363E-002
   2.6579422500529533E-002  -7.3735199894720271E-003   4.2796658840299789E-002
   3.2435749687831306E-002  -7.9401801161412822E-003   5.2763831127539240E-002
   3.0160854677598742E-002  -7.3455648794427120E-003   5.1166141397266718E-002
   2.7885959667366150E-002  -6.8446227655813985E-003   4.9840736172505840E-002
   2.5611064657133559E-002  -6.4373537745578968E-003   4.8787615453256161E-002
   2.3336169646900995E-002  -6.1237579063709857E-003   4.8006779239517794E-002
   3.6283458924095791E-002  -1.1122806238775484E-002   2.6272512851132412E-002
   3.4309628596212283E-002  -1.0281155495316496E-002   2.6204181529240422E-002
   3.2335798268328858E-002  -9.4814349338255832E-003   2.6206204390875176E-002
   3.0361967940445378E-002  -8.7236445543043273E-003   2.6278581436036785E-002
   2.8388137612561926E-002  -8.0077843567510909E-003   2.6421312664725805E-002
   3.3053067139126951E-002  -9.8730441556741377E-003   3.1929525646107071E-002
   3.1161407287195381E-002  -9.1632319317124789E-003   3.1843919024206080E-002
   2.9269747435263810E-002  -8.4610986648759601E-003   3.1852299170682025E-002
   2.7378087583332308E-002  -7.7666443551649353E-003   3.1954666085534572E-002
   2.5486427731400668E-002  -7.0798690025793976E-003   3.2151019768763889E-002
   2.9818388331271553E-002  -8.6232820725731796E-003   3.7437574309162891E-002
   2.8032531540141653E-002  -8.0453083681086279E-003   3.7368943612096445E-002
   2.6246674749011753E-002  -7.4407623959261149E-003   3.7417932268256335E-002
   2.4460817957881839E-002  -6.8096441560258764E-003   3.7584540277642922E-002
   2.2674961166751939E-002  -6.1519536484079818E-003   3.7868767640255652E-002
   2.6579422500529533E-002  -7.3735199894720271E-003   4.2796658840299789E-002
   2.4923001355051037E-002  -6.9273848045045827E-003   4.2779255292911177E-002
   2.3266580209572497E-002  -6.4204261269762697E-003   4.2903103683598377E-002
   2.1610159064094005E-002  -5.8526439568866509E-003   4.3168204012361898E-002
   1.9953737918615464E-002  -5.2240382942363162E-003   4.3574556279202169E-002
   2.3336169646900995E-002  -6.1237579063709857E-003   4.8006779239517794E-002
   2.1832816731923638E-002  -5.8094612409007595E-003   4.8074854066650019E-002
   2.0329463816946225E-002  -5.4000898580263967E-003   4.8307813416708034E-002
   1.8826110901968868E-002  -4.8956437577474740E-003   4.8705657289692117E-002
   1.7322757986991510E-002  -4.2961229400648726E-003   4.9268385685602212E-002
   2.8388137612561926E-002  -8.0077843567510909E-003   2.6421312664725805E-002
   2.5943938537563604E-002  -7.2867922741377544E-003   2.5803911930898038E-002
   2.3499739462565200E-002  -6.5136062394360594E-003   2.5126447445481093E-002
   2.1055540387566837E-002  -5.6882262526454994E-003   2.4388919208474441E-002
   1.8611341312568475E-002  -4.8106523137659840E-003   2.3591327219878444E-002
   2.5486427731400668E-002  -7.0798690025793976E-003   3.2151019768763889E-002
   2.3023108102139561E-002  -6.3927854990842303E-003   3.1695050154292137E-002
   2.0559788472878524E-002  -5.6974067366442060E-003   3.1260903182884187E-002
   1.8096468843617437E-002  -4.9937327152592137E-003   3.0848578854540176E-002
   1.5633149214356379E-002  -4.2817634349295863E-003   3.0458077169260078E-002
   2.2674961166751939E-002  -6.1519536484079818E-003   3.7868767640255652E-002
   2.0274407377881470E-002  -5.4987787240305952E-003   3.7530330451995886E-002
   1.7873853589010981E-002  -4.8812072338522555E-003   3.7295602301453276E-002
   1.5473299800140474E-002  -4.2992391778730425E-003   3.7164583188627955E-002
   1.3072746011270009E-002  -3.7528745560931331E-003   3.7137273113519775E-002
   1.9953737918615464E-002  -5.2240382942363162E-003   4.3574556279202169E-002
   1.7697836364788937E-002  -4.6047719489772376E-003   4.3309752824010145E-002
   1.5441934810962442E-002  -4.0650077310603536E-003   4.3230544801188903E-002
   1.3186033257135913E-002  -3.6047456404871472E-003   4.3336932210738081E-002
   1.0930131703309424E-002  -3.2239856772566522E-003   4.3628915052657716E-002
   1.7322757986991510E-002  -4.2961229400648726E-003   4.9268385685602212E-002
   1.5293395062862258E-002  -3.7107651739233805E-003   4.9033317270334442E-002
   1.3264032138733006E-002  -3.2488082282685071E-003   4.9065730682090580E-002
   1.1234669214603768E-002  -2.9102521031008771E-003   4.9365625920870793E-002
   9.2053062904745575E-003  -2.6950967984202823E-003   4.9933002986674913E-002
   1.8611341312568475E-002  -4.8106523137659840E-003   2.3591327219878444E-002
   1.5609762681431438E-002  -4.0926246378316655E-003   2.4374352310886360E-002
   1.2608184050294347E-002  -3.7458834398761409E-003   2.5635490944489414E-002
   9.6066054191572409E-003  -3.7704287198991604E-003   2.7374743120687134E-002
   6.6050267880202185E-003  -4.1662604779021395E-003   2.9592108839480269E-002
   1.5633149214356379E-002  -4.2817634349295863E-003   3.0458077169260078E-002
   1.3090620727245761E-002  -3.7808240831734286E-003   3.1239006959789595E-002
   1.0548092240135143E-002  -3.7102398475089837E-003   3.2459923495777199E-002
   8.0055637530245805E-003  -4.0700107279358702E-003   3.4120826777221974E-002
   5.4630352659139070E-003  -4.8601367244551774E-003   3.6221716804125448E-002
   1.3072746011270009E-002  -3.7528745560931331E-003   3.7137273113519775E-002
   1.0951140871048592E-002  -3.4690235285149695E-003   3.7857038965458306E-002
   8.8295357308272315E-003  -3.6745962551414935E-003   3.8978664765717402E-002
   6.7079305906058671E-003  -4.3695927359726910E-003   4.0502150514297258E-002
   4.5863254503844542E-003  -5.5540129710088260E-003   4.2427496211197596E-002
   1.0930131703309424E-002  -3.2239856772566522E-003   4.3628915052657716E-002
   9.1913231128399886E-003  -3.1572229738565105E-003   4.4228448327892404E-002
   7.4525145223706419E-003  -3.6389526627743363E-003   4.5191714754310108E-002
   5.7137059319012909E-003  -4.6691747440094564E-003   4.6518714331911501E-002
   3.9748973414319155E-003  -6.2478892175622802E-003   4.8209447060696180E-002
   9.2053062904745575E-003  -2.6950967984202823E-003   4.9933002986674913E-002
   7.8111674526199215E-003  -2.8454224191982735E-003   5.0353235047092104E-002
   6.4170286147653410E-003  -3.6033090704065684E-003   5.1099073461555677E-002
   5.0228897769107328E-003  -4.9687567520458747E-003   5.2170518230065410E-002
   3.6287509390561246E-003  -6.9417654641157345E-003   5.3567569352621414E-002
   6.6050267880202185E-003  -4.1662604779021395E-003   2.9592108839480269E-002
   6.0699290308594556E-003  -6.1369453892431425E-003   3.4078833837850375E-002
   5.5348312736986927E-003  -1.0886050129282093E-002   3.9246042704207007E-002
   4.9997335165378881E-003  -1.8413574698019540E-002   4.5093735438548527E-002
   4.4646357593771668E-003  -2.8719519095455670E-002   5.1621912040877849E-002
   5.4630352659139070E-003  -4.8601367244551774E-003   3.6221716804125448E-002
   5.5055609177990239E-003  -6.9864772848977075E-003   3.8360616129905878E-002
   5.5480865696841131E-003  -1.1354891857094873E-002   4.0974278405791598E-002
   5.5906122215690912E-003  -1.7965380441046050E-002   4.4062703631783079E-002
   5.6331378734542636E-003  -2.6817943036752112E-002   4.7625891807879794E-002
   4.5863254503844542E-003  -5.5540129710088260E-003   4.2427496211197596E-002
   5.0007535934347147E-003  -7.8360091805527721E-003   4.2754915681331496E-002
   5.4151817364849614E-003  -1.1823733584907334E-002   4.3351377183690712E-002
   5.8296098795353364E-003  -1.7517186184072563E-002   4.4216880718274641E-002
   6.2440380225854131E-003  -2.4916366978048554E-002   4.5351426285082930E-002
   3.9748973414319155E-003  -6.2478892175622802E-003   4.8209447060696180E-002
   4.5555070577666945E-003  -8.6855410762075869E-003   4.7261732492128047E-002
   5.1361167741014683E-003  -1.2292575312719954E-002   4.6377339037903781E-002
   5.7167264904362637E-003  -1.7068991927098966E-002   4.5556266698023984E-002
   6.2973362067710800E-003  -2.3014790919344996E-002   4.4798515472488892E-002
   3.6287509390561246E-003  -6.9417654641157345E-003   5.3567569352621414E-002
   4.1698213107947690E-003  -9.5350729718621796E-003   5.1881066562294742E-002
   4.7108916825334135E-003  -1.2761417040532741E-002   5.0052163968431373E-002
   5.2519620542720025E-003  -1.6620797670125406E-002   4.8080861571031308E-002
   5.7930324260107025E-003  -2.1113214860641438E-002   4.5967159370095434E-002
   8.2849049191510926E-002   7.7603556113808869E-003   9.8809197908947821E-002
   7.0064511966567211E-002  -9.0430091362891929E-005   7.9576484766209932E-002
   5.7279974741623441E-002  -5.6092717563056282E-003   6.3127849954229542E-002
   4.4495437516679698E-002  -8.7961693834476759E-003   4.9463293473006986E-002
   3.1710900291735955E-002  -9.6511229727887504E-003   3.8582815322541875E-002
   6.8692110444732057E-002  -1.8002749353698833E-003   8.8615468196207359E-002
   5.8380575698585901E-002  -4.9615322436201703E-003   7.3207490427228461E-002
   4.8069040952439759E-002  -7.2314763596594556E-003   5.9961439285087154E-002
   3.7757506206293610E-002  -8.6101072834879680E-003   4.8877314769783520E-002
   2.7445971460147434E-002  -9.0974250151057978E-003   3.9955116881317504E-002
   5.7059354308666488E-002  -1.1360905482120681E-002   8.3831582300755186E-002
   4.8598670337397815E-002  -9.8326343958773793E-003   7.0807709059945351E-002
   4.0137986366129280E-002  -8.8536809630132968E-003   5.9323610742053154E-002
   3.1677302394860676E-002  -8.4240451835283746E-003   4.9379287347078450E-002
   2.3216618423592059E-002  -8.5437270574227064E-003   4.0974738875021302E-002
   4.7950780783313995E-002  -2.0921536028871451E-002   8.4457540222591471E-002
   4.0718795883002971E-002  -1.4703736548134665E-002   7.2377140664360823E-002
   3.3486810982691947E-002  -1.0475885566367103E-002   6.1214364325127515E-002
   2.6254826082380948E-002  -8.2379830835688072E-003   5.0969211204891819E-002
   1.9022841182069924E-002  -7.9900290997396567E-003   4.1641681303653783E-002
   4.1366389868674747E-002  -3.0482166575622249E-002   9.0493341961716434E-002
   3.4740952335401309E-002  -1.9574838700391867E-002   7.7915785240474600E-002
   2.8115514802127844E-002  -1.2098090169720910E-002   6.5633700034310405E-002
   2.1490077268854393E-002  -8.0519209836090871E-003   5.3647086343223682E-002
   1.4864639735580956E-002  -7.4363311420566625E-003   4.1955944167214432E-002
   3.1710900291735955E-002  -9.6511229727887504E-003   3.8582815322541875E-002
   3.3535183974095051E-002  -9.3850442718838301E-003   4.2761847700986677E-002
   3.5359467656454147E-002  -9.2088450282878515E-003   4.6668047802541218E-002
   3.7183751338813242E-002  -9.1225252420007348E-003   5.0301415627205220E-002
   3.9008035021172338E-002  -9.1260849130225807E-003   5.3661951174978795E-002
   2.7445971460147434E-002  -9.0974250151057978E-003   3.9955116881317504E-002
   2.9023513881835092E-002  -9.1104595009015993E-003   4.4179502992076417E-002
   3.0601056303522729E-002  -9.0662406872647761E-003   4.8183238858383035E-002
   3.2178598725210381E-002  -8.9647685741951963E-003   5.1966324480237254E-002
   3.3756141146898025E-002  -8.8060431616929780E-003   5.5528759857638943E-002
   2.3216618423592059E-002  -8.5437270574227064E-003   4.0974738875021302E-002
   2.4599601617046316E-002  -8.8358747299193824E-003   4.5391611474836197E-002
   2.5982584810500559E-002  -8.9236363462417492E-003   4.9640015862636548E-002
   2.7365568003954802E-002  -8.8070119063896005E-003   5.3719952038422655E-002
   2.8748551197409059E-002  -8.4860014103632642E-003   5.7631420002194206E-002
   1.9022841182069924E-002  -7.9900290997396567E-003   4.1641681303653783E-002
   2.0263447179728788E-002  -8.5612899589371586E-003   4.6398173149265969E-002
   2.1504053177387631E-002  -8.7810320052185871E-003   5.1038378815301703E-002
   2.2744659175046495E-002  -8.6492552385840603E-003   5.5562298301761195E-002
   2.3985265172705338E-002  -8.1659596590335226E-003   5.9969931608644153E-002
   1.4864639735580956E-002  -7.4363311420566625E-003   4.1955944167214432E-002
   1.6015050569882450E-002  -8.2867051879549625E-003   4.7199188015365712E-002
   1.7165461404183957E-002  -8.6384276641956054E-003   5.2378327716378598E-002
   1.8315872238485464E-002  -8.4914985707784559E-003   5.7493363270253214E-002
   1.9466283072786958E-002  -7.8459179077038921E-003   6.2544294676989354E-002
   3.9008035021172338E-002  -9.1260849130225807E-003   5.3661951174978795E-002
   3.7364963687837094E-002  -9.0883404129747936E-003   5.3047604369537926E-002
   3.5721892354501822E-002  -8.8781081134786666E-003   5.2693135426484350E-002
   3.4078821021166564E-002  -8.4953880145340888E-003   5.2598544345818093E-002
   3.2435749687831306E-002  -7.9401801161412822E-003   5.2763831127539240E-002
   3.3756141146898025E-002  -8.8060431616929780E-003   5.5528759857638943E-002
   3.2355172699128354E-002  -8.5666636346381775E-003   5.5279213364721747E-002
   3.0954204251358718E-002  -8.2232291779116284E-003   5.5253994780548432E-002
   2.9553235803589078E-002  -7.7757397915128867E-003   5.5453104105119014E-002
   2.8152267355819438E-002  -7.2241954754420634E-003   5.5876541338433450E-002
   2.8748551197409059E-002  -8.4860014103632642E-003   5.7631420002194206E-002
   2.7554135681561481E-002  -8.0449868563017835E-003   5.7678240952024340E-002
   2.6359720165713925E-002  -7.5683502423445903E-003   5.7913839856955085E-002
   2.5165304649866386E-002  -7.0560915684916847E-003   5.8338216716985900E-002
   2.3970889134018791E-002  -6.5082108347430112E-003   5.8951371532117214E-002
   2.3985265172705338E-002  -8.1659596590335226E-003   5.9969931608644153E-002
   2.2961852635136379E-002  -7.5233100779652229E-003   6.0244687131445679E-002
   2.1938440097567444E-002  -6.9134713067774411E-003   6.0672670655703920E-002
   2.0915027559998481E-002  -6.3364433454703162E-003   6.1253882181418987E-002
   1.9891615022429546E-002  -5.7922261940438202E-003   6.1988321708590977E-002
   1.9466283072786958E-002  -7.8459179077038921E-003   6.2544294676989354E-002
   1.8578323559853102E-002  -7.0016332996287733E-003   6.2978551902985624E-002
   1.7690364046919253E-002  -6.2585923712105002E-003   6.3530487176795075E-002
   1.6802404533985394E-002  -5.6167951224491940E-003   6.4200100498417997E-002
   1.5914445021051549E-002  -5.0762415533447403E-003   6.4987391867854294E-002
   3.2435749687831306E-002  -7.9401801161412822E-003   5.2763831127539240E-002
   3.0160854677598742E-002  -7.3455648794427120E-003   5.1166141397266718E-002
   2.7885959667366150E-002  -6.8446227655813985E-003   4.9840736172505840E-002
   2.5611064657133559E-002  -6.4373537745578968E-003   4.8787615453256161E-002
   2.3336169646900995E-002  -6.1237579063709857E-003   4.8006779239517794E-002
   2.8152267355819438E-002  -7.2241954754420634E-003   5.5876541338433450E-002
   2.6150405804265059E-002  -6.6584294384112730E-003   5.4297062366244708E-002
   2.4148544252710694E-002  -6.1682748891320749E-003   5.2991365805900720E-002
   2.2146682701156314E-002  -5.7537318276046912E-003   5.1959451657401887E-002
   2.0144821149601949E-002  -5.4148002538292328E-003   5.1201319920747945E-002
   2.3970889134018791E-002  -6.5082108347430112E-003   5.8951371532117214E-002
   2.2243558947476282E-002  -5.9712939973796120E-003   5.7408164953097418E-002
   2.0516228760933709E-002  -5.4919270126824182E-003   5.6140238692256303E-002
   1.8788898574391151E-002  -5.0701098806518186E-003   5.5147592749593896E-002
   1.7061568387848627E-002  -4.7058426012873134E-003   5.4430227125109892E-002
   1.9891615022429546E-002  -5.7922261940438202E-003   6.1988321708590977E-002
   1.8440314107232375E-002  -5.2841585563480065E-003   6.0499449157825680E-002
   1.6989013192035229E-002  -4.8155791362329836E-003   5.9287354831572714E-002
   1.5537712276838046E-002  -4.3864879336987239E-003   5.8352038729831870E-002
   1.4086411361640881E-002  -3.9968849487454217E-003   5.7693500852603226E-002
   1.5914445021051549E-002  -5.0762415533447403E-003   6.4987391867854294E-002
   1.4740671283533374E-002  -4.5970231153162899E-003   6.3570914980428994E-002
   1.3566897546015214E-002  -4.1392312597832159E-003   6.2432714223849606E-002
   1.2393123808497060E-002  -3.7028659867458236E-003   6.1572789598116018E-002
   1.1219350070978878E-002  -3.2879272962036410E-003   6.0991141103228119E-002
   2.3336169646900995E-002  -6.1237579063709857E-003   4.8006779239517794E-002
   2.1832816731923638E-002  -5.8094612409007595E-003   4.8074854066650019E-002
   2.0329463816946225E-002  -5.4000898580263967E-003   4.8307813416708034E-002
   1.8826110901968868E-002  -4.8956437577474740E-003   4.8705657289692117E-002
   1.7322757986991510E-002  -4.2961229400648726E-003   4.9268385685602212E-002
   2.0144821149601949E-002  -5.4148002538292328E-003   5.1201319920747945E-002
   1.8807737459289708E-002  -5.0811760787661253E-003   5.1458910889030207E-002
   1.7470653768977495E-002  -4.6825552133769321E-003   5.1884155783716579E-002
   1.6133570078665234E-002  -4.2189376576612717E-003   5.2477054604807200E-002
   1.4796486388353042E-002  -3.6903234116194561E-003   5.3237607352302152E-002
   1.7061568387848627E-002  -4.7058426012873134E-003   5.4430227125109892E-002
   1.5893523325679740E-002  -4.3528909166317131E-003   5.4847256207464140E-002
   1.4725478263510880E-002  -3.9650205687277035E-003   5.5434708619701026E-002
   1.3557433201342006E-002  -3.5422315575751838E-003   5.6192584361820251E-002
   1.2389388139173160E-002  -3.0845238831741506E-003   5.7120883433822073E-002
   1.4086411361640881E-002  -3.9968849487454217E-003   5.7693500852603226E-002
   1.3090174331093692E-002  -3.6246057544974120E-003   5.8239890021951700E-002
   1.2093937300546451E-002  -3.2474859240782458E-003   5.8959471924661222E-002
   1.1097700269999209E-002  -2.8655254574888166E-003   5.9852246560731293E-002
   1.0101463239451994E-002  -2.4787243547286231E-003   6.0918213930162113E-002
   1.1219350070978878E-002  -3.2879272962036410E-003   6.0991141103228119E-002
   1.0397690475531518E-002  -2.8963205923626667E-003   6.1636812332493240E-002
   9.5760308800841715E-003  -2.5299512794290657E-003   6.2458445698597320E-002
   8.7543712846368180E-003  -2.1888193574027964E-003   6.3456041201540414E-002
   7.9327116891894645E-003  -1.8729248262835396E-003   6.4629598841322577E-002
   1.7322757986991510E-002  -4.2961229400648726E-003   4.9268385685602212E-002
   1.5293395062862258E-002  -3.7107651739233805E-003   4.9033317270334442E-002
   1.3264032138733006E-002  -3.2488082282685071E-003   4.9065730682090580E-002
   1.1234669214603768E-002  -2.9102521031008771E-003   4.9365625920870793E-002
   9.2053062904745575E-003  -2.6950967984202823E-003   4.9933002986674913E-002
   1.4796486388353042E-002  -3.6903234116194561E-003   5.3237607352302152E-002
   1.3034534623159511E-002  -3.1911854335546774E-003   5.2997966595020651E-002
   1.1272582857965993E-002  -2.8159966817709048E-003   5.3025666328587101E-002
   9.5106310927724688E-003  -2.5647571562679716E-003   5.3320706553000793E-002
   7.7486793275789445E-003  -2.4374668570457114E-003   5.3883087268262075E-002
   1.2389388139173160E-002  -3.0845238831741506E-003   5.7120883433822073E-002
   1.0894706196738928E-002  -2.6716056931864463E-003   5.6876121928733592E-002
   9.4000242543047161E-003  -2.3831851352731637E-003   5.6898559578315910E-002
   7.9053423118705078E-003  -2.2192622094350592E-003   5.7188196382569265E-002
   6.4106603694362718E-003  -2.1798369156714736E-003   5.7745032341493807E-002
   1.0101463239451994E-002  -2.4787243547286231E-003   6.0918213930162113E-002
   8.8739097836006281E-003  -2.1520259528179236E-003   6.0667783271472209E-002
   7.6463563277492288E-003  -1.9503735887757140E-003   6.0684410431276932E-002
   6.4188028718978650E-003  -1.8737672626017061E-003   6.0968095409576178E-002
   5.1912494160464631E-003  -1.9222069742969583E-003   6.1518838206370177E-002
   7.9327116891894645E-003  -1.8729248262835396E-003   6.4629598841322577E-002
   6.9721453837444658E-003  -1.6324462124494010E-003   6.4372950623237224E-002
   6.0115790782995088E-003  -1.5175620422778202E-003   6.4383218887470228E-002
   5.0510127728545171E-003  -1.5282723157691303E-003   6.4660403634021479E-002
   4.0904464674095531E-003  -1.6645770329226650E-003   6.5204504862890644E-002
   9.2053062904745575E-003  -2.6950967984202823E-003   4.9933002986674913E-002
   7.8111674526199215E-003  -2.8454224191982735E-003   5.0353235047092104E-002
   6.4170286147653410E-003  -3.6033090704065684E-003   5.1099073461555677E-002
   5.0228897769107328E-003  -4.9687567520458747E-003   5.2170518230065410E-002
   3.6287509390561246E-003  -6.9417654641157345E-003   5.3567569352621414E-002
   7.7486793275789445E-003  -2.4374668570457114E-003   5.3883087268262075E-002
   6.6538919460408796E-003  -2.6282318340646316E-003   5.3835811257386956E-002
   5.5591045645028009E-003  -3.3311581372839627E-003   5.4061631805098986E-002
   4.4643171829647083E-003  -4.5462457667044959E-003   5.4560548911397694E-002
   3.3695298014266573E-003  -6.2734947223254123E-003   5.5332562576283273E-002
   6.4106603694362718E-003  -2.1798369156714736E-003   5.7745032341493807E-002
   5.5627146487554277E-003  -2.4110412489308786E-003   5.7325647963556381E-002
   4.7147689280745697E-003  -3.0590072041611627E-003   5.7126850348746178E-002
   3.8668232073937256E-003  -4.1237347813625688E-003   5.7148639497063572E-002
   3.0188774867128398E-003  -5.6052239805347570E-003   5.7391015408508717E-002
   5.1912494160464631E-003  -1.9222069742969583E-003   6.1518838206370177E-002
   4.5376355607635345E-003  -2.1938506637971256E-003   6.0822745165599504E-002
   3.8840217054806232E-003  -2.7868562710382377E-003   6.0294729092497230E-002
   3.2304078501976807E-003  -3.7012237960205828E-003   5.9934789987063281E-002
   2.5767939949147556E-003  -4.9369532387440462E-003   5.9742927849297675E-002
   4.0904464674095531E-003  -1.6645770329226650E-003   6.5204504862890644E-002
   3.5786546820652521E-003  -1.9766600786634281E-003   6.4327102863517172E-002
   3.0668628967209510E-003  -2.5147053379154516E-003   6.3565268036352707E-002
   2.5550711113766500E-003  -3.2787128106791311E-003   6.2919000381397111E-002
   2.0432793260323490E-003  -4.2686824969536685E-003   6.2388299898650801E-002
   3.6287509390561246E-003  -6.9417654641157345E-003   5.3567569352621414E-002
   4.1698213107947690E-003  -9.5350729718621796E-003   5.1881066562294742E-002
   4.7108916825334135E-003  -1.2761417040532741E-002   5.0052163968431373E-002
   5.2519620542720025E-003  -1.6620797670125406E-002   4.8080861571031308E-002
   5.7930324260107025E-003  -2.1113214860641438E-002   4.5967159370095434E-002
   3.3695298014266573E-003  -6.2734947223254123E-003   5.5332562576283273E-002
   3.7853759475150878E-003  -8.5434949061571341E-003   5.2968615341186465E-002
   4.2012220936035460E-003  -1.1386836220209862E-002   5.0496619458325565E-002
   4.6170682396920182E-003  -1.4803518664483650E-002   4.7916574927700656E-002
   5.0329143857804626E-003  -1.8793542238978223E-002   4.5228481749312710E-002
   3.0188774867128398E-003  -5.6052239805347570E-003   5.7391015408508717E-002
   3.3438505629237239E-003  -7.5519168404515336E-003   5.4409319159344049E-002
   3.6688236391346357E-003  -1.0012255399887676E-002   5.1353925418187757E-002
   3.9937967153454781E-003  -1.2986239658842179E-002   4.8224834185040741E-002
   4.3187697915564038E-003  -1.6473869617315451E-002   4.5022045459901738E-002
   2.5767939949147556E-003  -4.9369532387440462E-003   5.9742927849297675E-002
   2.8452451570205890E-003  -6.5603387747463215E-003   5.6203178016767441E-002
   3.1136963191264362E-003  -8.6376745795655879E-003   5.2624081848018235E-002
   3.3821474812322939E-003  -1.1168960653200454E-002   4.9005639343050245E-002
   3.6505986433381168E-003  -1.4154196995652568E-002   4.5347850501863685E-002
   2.0432793260323490E-003  -4.2686824969536685E-003   6.2388299898650801E-002
   2.2895597298057679E-003  -5.5687607090407765E-003   5.8350191913456806E-002
   2.5358401335791869E-003  -7.2630937592427502E-003   5.4307088747816923E-002
   2.7821205373526128E-003  -9.3516816475590417E-003   5.0258990401730624E-002
   3.0284009411259971E-003  -1.1834524373989463E-002   4.6205896875198604E-002
   4.1366389868674747E-002  -3.0482166575622249E-002   9.0493341961716434E-002
   3.4740952335401309E-002  -1.9574838700391867E-002   7.7915785240474600E-002
   2.8115514802127844E-002  -1.2098090169720910E-002   6.5633700034310405E-002
   2.1490077268854393E-002  -8.0519209836090871E-003   5.3647086343223682E-002
   1.4864639735580956E-002  -7.4363311420566625E-003   4.1955944167214432E-002
   3.4789265847415388E-002  -2.2861625285252762E-002  0.10771940712578737     
   2.8799521786373156E-002  -1.4681129263065529E-002   8.9970666595305476E-002
   2.2809777725330861E-002  -9.0735677811993737E-003   7.3197841494208521E-002
   1.6820033664288598E-002  -6.0389408396544601E-003   5.7400931822496282E-002
   1.0830289603246314E-002  -5.5772484384303822E-003   4.2579937580168786E-002
   2.5702493002202717E-002  -1.5241083994883275E-002  0.12178981803469588     
   2.1028886327698837E-002  -9.7874198257391493E-003   9.9727538499212273E-002
   1.6355279653194950E-002  -6.0490453926779486E-003   7.9321618307420794E-002
   1.1681672978691066E-002  -4.0259606956996111E-003   6.0572057459321232E-002
   7.0080663041871896E-003  -3.7181657348041575E-003   4.3478855954913659E-002
   1.4106071333036617E-002  -7.6205427045138163E-003  0.13270457468844227     
   1.1429045959378350E-002  -4.8937103884128044E-003  0.10718640095219513     
   8.7520205857200811E-003  -3.0245230041565235E-003   8.4005030473947306E-002
   6.0749952120618183E-003  -2.0129805517448453E-003   6.3160463253698562E-002
   3.3979698384035469E-003  -1.8590830311778772E-003   4.4652699291449161E-002
   8.3991714971975995E-010  -1.4141443016590927E-009  0.14046367708702640     
   6.8141171177815707E-010  -9.5108643183294816E-010  0.11234725395425399     
   5.2290628077544810E-010  -6.1563500131089910E-010   8.7248077993787948E-002
   3.6440084977273912E-010  -4.0779012458469488E-010   6.5166149205628424E-002
   2.0589541183113624E-010  -3.2755170797926780E-010   4.6101467589775236E-002
   1.4864639735580956E-002  -7.4363311420566625E-003   4.1955944167214432E-002
   1.6015050569882450E-002  -8.2867051879549625E-003   4.7199188015365712E-002
   1.7165461404183957E-002  -8.6384276641956054E-003   5.2378327716378598E-002
   1.8315872238485464E-002  -8.4914985707784559E-003   5.7493363270253214E-002
   1.9466283072786958E-002  -7.8459179077038921E-003   6.2544294676989354E-002
   1.0830289603246314E-002  -5.5772484384303822E-003   4.2579937580168786E-002
   1.1860721649253538E-002  -6.2150289685505428E-003   4.8415753744084786E-002
   1.2891153695260744E-002  -6.4788208210380949E-003   5.4075716478550459E-002
   1.3921585741267955E-002  -6.3686239958929067E-003   5.9559825783565869E-002
   1.4952017787275167E-002  -5.8844384931150961E-003   6.4868081659131049E-002
   7.0080663041871896E-003  -3.7181657348041575E-003   4.3478855954913659E-002
   7.8067702795881905E-003  -4.1433527491463590E-003   4.9782581542569371E-002
   8.6054742549891983E-003  -4.3192139778806884E-003   5.5798704418462956E-002
   9.4041782303902026E-003  -4.2457494210075223E-003   6.1527224582594270E-002
   1.0202882205791210E-002  -3.9229590785264390E-003   6.6968142034963499E-002
   3.3979698384035469E-003  -1.8590830311778772E-003   4.4652699291449161E-002
   3.8531964608864364E-003  -2.0716765297420295E-003   5.1299671410819682E-002
   4.3084230833693275E-003  -2.1596071347232300E-003   5.7547291536115978E-002
   4.7636497058522152E-003  -2.1228748461219723E-003   6.3395559667338244E-002
   5.2188763283351021E-003  -1.9614796639377957E-003   6.8844475804486327E-002
   2.0589541183113624E-010  -3.2755170797926780E-010   4.6101467589775236E-002
   1.9314826821270614E-010  -3.1033781100475721E-010   5.2967023348835379E-002
   1.8040112459427604E-010  -2.9156579928191206E-010   5.9321477831509678E-002
   1.6765397924112246E-010  -2.7123659568362157E-010   6.5164831037797910E-002
   1.5490683735741584E-010  -2.4934904141460379E-010   7.0497082967700131E-002
   1.9466283072786958E-002  -7.8459179077038921E-003   6.2544294676989354E-002
   1.8578323559853102E-002  -7.0016332996287733E-003   6.2978551902985624E-002
   1.7690364046919253E-002  -6.2585923712105002E-003   6.3530487176795075E-002
   1.6802404533985394E-002  -5.6167951224491940E-003   6.4200100498417997E-002
   1.5914445021051549E-002  -5.0762415533447403E-003   6.4987391867854294E-002
   1.4952017787275167E-002  -5.8844384931150961E-003   6.4868081659131049E-002
   1.4207814278987999E-002  -5.2512250321991860E-003   6.5004958325481643E-002
   1.3463610770700827E-002  -4.6939443326401015E-003   6.5311668953312307E-002
   1.2719407262413650E-002  -4.2125963944377627E-003   6.5788213542622986E-002
   1.1975203754126487E-002  -3.8071812175919928E-003   6.6434592093413736E-002
   1.0202882205791210E-002  -3.9229590785264390E-003   6.6968142034963499E-002
   9.6545906158174120E-003  -3.5008167647698207E-003   6.6832949059968796E-002
   9.1062990258436085E-003  -3.1292962940698207E-003   6.6919745960120597E-002
   8.5580074358698015E-003  -2.8083976664262222E-003   6.7228532735419275E-002
   8.0097158458960135E-003  -2.5381208818391343E-003   6.7759309385864552E-002
   5.2188763283351021E-003  -1.9614796639377957E-003   6.8844475804486327E-002
   4.9186525703413505E-003  -1.7504084973404554E-003   6.8462524106446501E-002
   4.6184288123476067E-003  -1.5646482554995920E-003   6.8354718197219833E-002
   4.3182050543538594E-003  -1.4041989384146808E-003   6.8521058076806751E-002
   4.0179812963601035E-003  -1.2690605460863313E-003   6.8961543745206660E-002
   1.5490683735741584E-010  -2.4934904141460379E-010   7.0497082967700131E-002
   1.4255982505595455E-010  -2.2991092363255916E-010   6.9893683464915091E-002
   1.3021281622394021E-010  -2.1692907192782940E-010   6.9616585664610126E-002
   1.1786580912664935E-010  -2.1040334405308947E-010   6.9665789566785222E-002
   1.0551879509046458E-010  -2.1033352837207531E-010   7.0041295171440421E-002
   1.5914445021051549E-002  -5.0762415533447403E-003   6.4987391867854294E-002
   1.4740671283533374E-002  -4.5970231153162899E-003   6.3570914980428994E-002
   1.3566897546015214E-002  -4.1392312597832159E-003   6.2432714223849606E-002
   1.2393123808497060E-002  -3.7028659867458236E-003   6.1572789598116018E-002
   1.1219350070978878E-002  -3.2879272962036410E-003   6.0991141103228119E-002
   1.1975203754126487E-002  -3.8071812175919928E-003   6.6434592093413736E-002
   1.1083497972499315E-002  -3.4477673886851301E-003   6.4976912131220033E-002
   1.0191792190872150E-002  -3.1044234942994298E-003   6.3805091949962478E-002
   9.3000864092449807E-003  -2.7771495344350375E-003   6.2919131549641072E-002
   8.4083806276178119E-003  -2.4659455090917937E-003   6.2319030930256147E-002
   8.0097158458960135E-003  -2.5381208818391343E-003   6.7759309385864552E-002
   7.4076616702502540E-003  -2.2985116620537482E-003   6.6265782996876521E-002
   6.8056074946044980E-003  -2.0696157288155881E-003   6.5065700038915097E-002
   6.2035533189587436E-003  -1.8514330821241404E-003   6.4159060511980309E-002
   5.6014991433129824E-003  -1.6439637219798353E-003   6.3545864416072240E-002
   4.0179812963601035E-003  -1.2690605460863313E-003   6.8961543745206660E-002
   3.7131623767861759E-003  -1.1492559354225884E-003   6.7437527577398709E-002
   3.4083434572122519E-003  -1.0348079633316631E-003   6.6214538490707520E-002
   3.1035245376383300E-003  -9.2571662981329877E-004   6.5292576485133369E-002
   2.7987056180644072E-003  -8.2198193486793247E-004   6.4671641560676410E-002
   1.0551879509046458E-010  -2.1033352837207531E-010   7.0041295171440421E-002
   9.2107110133410330E-011  -2.0879115103511481E-010   6.8492145872786292E-002
   7.8695421706909130E-011  -1.9784787697041395E-010   6.7251607305339689E-002
   6.5283736749854882E-011  -1.7750243636038832E-010   6.6319679469100445E-002
   5.1872048323353681E-011  -1.4775602963368328E-010   6.5696362364068728E-002
   1.1219350070978878E-002  -3.2879272962036410E-003   6.0991141103228119E-002
   1.0397690475531518E-002  -2.8963205923626667E-003   6.1636812332493240E-002
   9.5760308800841715E-003  -2.5299512794290657E-003   6.2458445698597320E-002
   8.7543712846368180E-003  -2.1888193574027964E-003   6.3456041201540414E-002
   7.9327116891894645E-003  -1.8729248262835396E-003   6.4629598841322577E-002
   8.4083806276178119E-003  -2.4659455090917937E-003   6.2319030930256147E-002
   7.7700463587414559E-003  -2.1722404731582268E-003   6.2954070590706679E-002
   7.1317120898651137E-003  -1.8974634815229069E-003   6.3779798767460233E-002
   6.4933778209887438E-003  -1.6416145341859138E-003   6.4796215460516809E-002
   5.8550435521124017E-003  -1.4046936311471470E-003   6.6003320669876353E-002
   5.6014991433129824E-003  -1.6439637219798353E-003   6.3545864416072240E-002
   5.1612165804716496E-003  -1.4481603539535648E-003   6.4176581854317197E-002
   4.7209340176303134E-003  -1.2649756836168591E-003   6.5012714188329268E-002
   4.2806514547889755E-003  -1.0944097109691422E-003   6.6054261418108370E-002
   3.8403688919476306E-003  -9.3646243601069878E-004   6.7301223543654587E-002
   2.7987056180644072E-003  -8.2198193486793247E-004   6.4671641560676410E-002
   2.5712011407220941E-003  -7.2408023474901384E-004   6.5304346123324822E-002
   2.3436966633797887E-003  -6.3248788571064474E-004   6.6157191961204509E-002
   2.1161921860374760E-003  -5.4720488775248169E-004   6.7230179074315138E-002
   1.8886877086951841E-003  -4.6823124087433388E-004   6.8523307462656696E-002
   5.1872048323353681E-011  -1.4775602963368328E-010   6.5696362364068728E-002
   3.9492777104133125E-011  -1.1554457390872130E-010   6.6337363397729776E-002
   2.7113523232147330E-011  -8.7804569171012758E-011   6.7213232086085761E-002
   1.4734257217097202E-011  -6.4535522759090469E-011   6.8323968429136905E-002
   2.3549981409409781E-012  -4.5737857945482574E-011   6.9669572426882875E-002
   7.9327116891894645E-003  -1.8729248262835396E-003   6.4629598841322577E-002
   6.9721453837444658E-003  -1.6324462124494010E-003   6.4372950623237224E-002
   6.0115790782995088E-003  -1.5175620422778202E-003   6.4383218887470228E-002
   5.0510127728545171E-003  -1.5282723157691303E-003   6.4660403634021479E-002
   4.0904464674095531E-003  -1.6645770329226650E-003   6.5204504862890644E-002
   5.8550435521124017E-003  -1.4046936311471470E-003   6.6003320669876353E-002
   5.1547000022984096E-003  -1.2243346669994493E-003   6.5693077063443073E-002
   4.4543564524843968E-003  -1.1381715363363298E-003   6.5636362485953226E-002
   3.7540129026704186E-003  -1.1462042391568172E-003   6.5833176937407395E-002
   3.0536693528564057E-003  -1.2484327754618274E-003   6.6283520417805220E-002
   3.8403688919476306E-003  -9.3646243601069878E-004   6.7301223543654587E-002
   3.3868606443902341E-003  -8.1622312154977505E-004   6.6968783159051359E-002
   2.9333523968328307E-003  -7.5878103039461742E-004   6.6876484350017473E-002
   2.4798441492754255E-003  -7.6413616254483729E-004   6.7024327116553054E-002
   2.0263359017180169E-003  -8.3228851800065673E-004   6.7412311458657920E-002
   1.8886877086951841E-003  -4.6823124087433388E-004   6.8523307462656696E-002
   1.6686273100199791E-003  -4.0811157610001758E-004   6.8200068910062278E-002
   1.4485669113447740E-003  -3.7939052445296051E-004   6.8103584479662943E-002
   1.2285065126695755E-003  -3.8206808593246877E-004   6.8233854171458275E-002
   1.0084461139943639E-003  -4.1614426053937503E-004   6.8590877985449106E-002
   2.3549981409409781E-012  -4.5737857945482574E-011   6.9669572426882875E-002
  -8.1237794269384267E-013  -3.0650260107734084E-011   6.9386934316475801E-002
  -3.9797574957756154E-012  -1.8511331356663163E-011   6.9317662874889274E-002
  -7.1471318446869603E-012  -9.3205790308026337E-012   6.9461758102123378E-002
  -1.0314513132492209E-011  -3.0786484472855591E-012   6.9819219998178084E-002
   4.0904464674095531E-003  -1.6645770329226650E-003   6.5204504862890644E-002
   3.5786546820652521E-003  -1.9766600786634281E-003   6.4327102863517172E-002
   3.0668628967209510E-003  -2.5147053379154516E-003   6.3565268036352707E-002
   2.5550711113766500E-003  -3.2787128106791311E-003   6.2919000381397111E-002
   2.0432793260323490E-003  -4.2686824969536685E-003   6.2388299898650801E-002
   3.0536693528564057E-003  -1.2484327754618274E-003   6.6283520417805220E-002
   2.6605399332962909E-003  -1.4824950585876628E-003   6.5220940338586830E-002
   2.2674105137361761E-003  -1.8860290018723469E-003   6.4280117818727528E-002
   1.8742810941760613E-003  -2.4590346053153939E-003   6.3461052858227660E-002
   1.4811516746159464E-003  -3.2015118689174837E-003   6.2763745457087183E-002
   2.0263359017180169E-003  -8.3228851800065673E-004   6.7412311458657920E-002
   1.7580592350924656E-003  -9.8833003851203638E-004   6.6221043852947414E-002
   1.4897825684669040E-003  -1.2573526658293394E-003   6.5157724193746255E-002
   1.2215059018413459E-003  -1.6393563999525414E-003   6.4222352481054901E-002
   9.5322923521579117E-004  -2.1343412408813545E-003   6.3414928714873392E-002
   1.0084461139943639E-003  -4.1614426053937503E-004   6.8590877985449106E-002
   8.7121258745376587E-004  -4.9416501843667360E-004   6.7327413406598854E-002
   7.3397906091314091E-004  -6.2867632978650528E-004   6.6198087161408722E-002
   5.9674553437252895E-004  -8.1967819458946857E-004   6.5202899249878876E-002
   4.5951200783190399E-004  -1.0671706128450864E-003   6.4341849672009011E-002
  -1.0314513132492209E-011  -3.0786484472855591E-012   6.9819219998178084E-002
  -9.6198049526208251E-012   1.6391332735565811E-012   6.8540048999541248E-002
  -8.9251141199842010E-012   6.2567451220019166E-012   6.7401206721715068E-002
  -8.2304128790067210E-012   1.0773652803219846E-011   6.6402693164699128E-002
  -7.5357151074761930E-012   1.5190848579038629E-011   6.5544508328493900E-002
   2.0432793260323490E-003  -4.2686824969536685E-003   6.2388299898650801E-002
   2.2895597298057679E-003  -5.5687607090407765E-003   5.8350191913456806E-002
   2.5358401335791869E-003  -7.2630937592427502E-003   5.4307088747816923E-002
   2.7821205373526128E-003  -9.3516816475590417E-003   5.0258990401730624E-002
   3.0284009411259971E-003  -1.1834524373989463E-002   4.6205896875198604E-002
   1.4811516746159464E-003  -3.2015118689174837E-003   6.2763745457087183E-002
   1.7082931677746549E-003  -4.1765705268003162E-003   5.8400725970482403E-002
   1.9354346609333495E-003  -5.4473203130869785E-003   5.4004423843094007E-002
   2.1625761540920684E-003  -7.0137612277775402E-003   4.9574839074922494E-002
   2.3897176472507664E-003  -8.8758932708719041E-003   4.5111971665967365E-002
   9.5322923521579117E-004  -2.1343412408813545E-003   6.3414928714873392E-002
   1.1329443574227063E-003  -2.7843803445596893E-003   5.8825561436567420E-002
   1.3126594796296215E-003  -3.6315468669310819E-003   5.4174624057141255E-002
   1.4923746018365314E-003  -4.6758408079961462E-003   4.9462116576594918E-002
   1.6720897240434518E-003  -5.9172621677541226E-003   4.4688038994927903E-002
   4.5951200783190399E-004  -1.0671706128450864E-003   6.4341849672009011E-002
   5.6351329874993264E-004  -1.3921901623189237E-003   5.9624698311712701E-002
   6.6751458966796823E-004  -1.8157734207756918E-003   5.4817689389959193E-002
   7.7151588058600772E-004  -2.3379203882145875E-003   4.9920822906748687E-002
   8.7551717150403247E-004  -2.9586310646365632E-003   4.4934098862079802E-002
  -7.5357151074761930E-012   1.5190848579038629E-011   6.5544508328493900E-002
  -8.2436557580223280E-012   1.9921508886966421E-011   6.0798136595917818E-002
  -8.9515998780154149E-012   2.5380558765775163E-011   5.5933619841547710E-002
  -9.6595214466033141E-012   3.1566853297970709E-011   5.0950958065382607E-002
  -1.0367484648554637E-011   3.8481218211927626E-011   4.5850151267423200E-002
   8.3991714971975995E-010  -1.4141443016590927E-009  0.14046367708702640     
   6.8141171177815707E-010  -9.5108643183294816E-010  0.11234725395425399     
   5.2290628077544810E-010  -6.1563500131089910E-010   8.7248077993787948E-002
   3.6440084977273912E-010  -4.0779012458469488E-010   6.5166149205628424E-002
   2.0589541183113624E-010  -3.2755170797926780E-010   4.6101467589775236E-002
  -1.4106069705250822E-002   7.6205405553864680E-003  0.13270457588728332     
  -1.1429044637408660E-002   4.8937088944782381E-003  0.10718640184115025     
  -8.7520195695664892E-003   3.0245219866600059E-003   8.4005031075405842E-002
  -6.0749945017243186E-003   2.0129798319319728E-003   6.3160463590050203E-002
  -3.3979694338821427E-003   1.8590824302938957E-003   4.4652699385083428E-002
  -2.5702491530562463E-002   1.5241082524917238E-002  0.12178982012322605     
  -2.1028885128290348E-002   9.7874187400427831E-003   9.9727540044428575E-002
  -1.6355278726018250E-002   6.0490445889550479E-003   7.9321619354102535E-002
  -1.1681672323746145E-002   4.0259600716539608E-003   6.0572058052247413E-002
  -7.0080659214740437E-003   3.7181651881394717E-003   4.3478856138863431E-002
  -3.4789264636017718E-002   2.2861624494447993E-002  0.10771940979485391     
  -2.8799520791233359E-002   1.4681128585607404E-002   8.9970668564089140E-002
  -2.2809776946448996E-002   9.0735671912501280E-003   7.3197842829877777E-002
  -1.6820033101664626E-002   6.0389403113759203E-003   5.7400932592219844E-002
  -1.0830289256880270E-002   5.5772479459850338E-003   4.2579937851115378E-002
  -4.1366389021616608E-002   3.0482166463978777E-002   9.0493344902167538E-002
  -3.4740951626237651E-002   1.9574838431172026E-002   7.7915787400131831E-002
  -2.8115514230858719E-002   1.2098089793545125E-002   6.5633701502731789E-002
  -2.1490076835479786E-002   8.0519205510979977E-003   5.3647087209967581E-002
  -1.4864639440100844E-002   7.4363307038306514E-003   4.1955944521839095E-002
   2.0589541183113624E-010  -3.2755170797926780E-010   4.6101467589775236E-002
   1.9314826821270614E-010  -3.1033781100475721E-010   5.2967023348835379E-002
   1.8040112459427604E-010  -2.9156579928191206E-010   5.9321477831509678E-002
   1.6765397924112246E-010  -2.7123659568362157E-010   6.5164831037797910E-002
   1.5490683735741584E-010  -2.4934904141460379E-010   7.0497082967700131E-002
  -3.3979694338821427E-003   1.8590824302938957E-003   4.4652699385083428E-002
  -3.8531960801690222E-003   2.0716759590744122E-003   5.1299671493827845E-002
  -4.3084227264558999E-003   2.1596065956019164E-003   5.7547291611878854E-002
  -4.7636493727427759E-003   2.1228743398760356E-003   6.3395559739236371E-002
  -5.2188760190296571E-003   1.9614791918972641E-003   6.8844475875900313E-002
  -7.0080659214740437E-003   3.7181651881394717E-003   4.3478856138863431E-002
  -7.8067699156081430E-003   4.1433522284864133E-003   4.9782581703481342E-002
  -8.6054739097422492E-003   4.3192134827694656E-003   5.5798704563098156E-002
  -9.4041779038763467E-003   4.2457489509885003E-003   6.1527224717714039E-002
  -1.0202881898010453E-002   3.9229586331437083E-003   6.6968142167328951E-002
  -1.0830289256880270E-002   5.5772479459850338E-003   4.2579937851115378E-002
  -1.1860721313169103E-002   6.2150284978985254E-003   4.8415753977795781E-002
  -1.2891153369457908E-002   6.4788203699372091E-003   5.4075716685167710E-002
  -1.3921585425746726E-002   6.3686235621008818E-003   5.9559825973231284E-002
  -1.4952017482035545E-002   5.8844380743900554E-003   6.4868081841986350E-002
  -1.4864639440100844E-002   7.4363307038306514E-003   4.1955944521839095E-002
  -1.6015050272851862E-002   8.2867047673105820E-003   4.7199188316771279E-002
  -1.7165461105602894E-002   8.6384272571047166E-003   5.2378327978087530E-002
  -1.8315871938353920E-002   8.4914981732133431E-003   5.7493363505787806E-002
  -1.9466282771104938E-002   7.8459175156365135E-003   6.2544294899872122E-002
   1.5490683735741584E-010  -2.4934904141460379E-010   7.0497082967700131E-002
   1.4255982505595455E-010  -2.2991092363255916E-010   6.9893683464915091E-002
   1.3021281622394021E-010  -2.1692907192782940E-010   6.9616585664610126E-002
   1.1786580912664935E-010  -2.1040334405308947E-010   6.9665789566785222E-002
   1.0551879509046458E-010  -2.1033352837207531E-010   7.0041295171440421E-002
  -5.2188760190296571E-003   1.9614791918972641E-003   6.8844475875900313E-002
  -4.9186522861663327E-003   1.7504080566013436E-003   6.8462524166382682E-002
  -4.6184285533030188E-003   1.5646478389244600E-003   6.8354718244805462E-002
  -4.3182048204396988E-003   1.4041985388664607E-003   6.8521058111169028E-002
  -4.0179810875763874E-003   1.2690601564275816E-003   6.8961543765473088E-002
  -1.0202881898010453E-002   3.9229586331437083E-003   6.6968142167328951E-002
  -9.6545903344763123E-003   3.5008163431139161E-003   6.6832949175153755E-002
  -9.1062987709421561E-003   3.1292958947780961E-003   6.6919746056379570E-002
  -8.5580072074080138E-003   2.8083972881362638E-003   6.7228532811006436E-002
  -8.0097156438738593E-003   2.5381205231885806E-003   6.7759309439034437E-002
  -1.4952017482035545E-002   5.8844380743900554E-003   6.4868081841986350E-002
  -1.4207814002370074E-002   5.2512246296263915E-003   6.5004958491228518E-002
  -1.3463610522704606E-002   4.6939439506317356E-003   6.5311669099332309E-002
  -1.2719407043039140E-002   4.2125960374061232E-003   6.5788213666297793E-002
  -1.1975203563373660E-002   3.8071808899495796E-003   6.6434592192124553E-002
  -1.9466282771104938E-002   7.8459175156365135E-003   6.2544294899872122E-002
  -1.8578323289847654E-002   7.0016329161387836E-003   6.2978552114606901E-002
  -1.7690363808590362E-002   6.2585920064853057E-003   6.3530487373663708E-002
  -1.6802404327333060E-002   5.6167947866758265E-003   6.4200100677042557E-002
  -1.5914444846075779E-002   5.0762412567106896E-003   6.4987392024743462E-002
   1.0551879509046458E-010  -2.1033352837207531E-010   7.0041295171440421E-002
   9.2107110133410330E-011  -2.0879115103511481E-010   6.8492145872786292E-002
   7.8695421706909130E-011  -1.9784787697041395E-010   6.7251607305339689E-002
   6.5283736749854882E-011  -1.7750243636038832E-010   6.6319679469100445E-002
   5.1872048323353681E-011  -1.4775602963368328E-010   6.5696362364068728E-002
  -4.0179810875763874E-003   1.2690601564275816E-003   6.8961543765473088E-002
  -3.7131621949212865E-003   1.1492555585409792E-003   6.7437527608919717E-002
  -3.4083433022661751E-003   1.0348076121406424E-003   6.6214538533292538E-002
  -3.1035244096110715E-003   9.2571631722661307E-004   6.5292576538591565E-002
  -2.7987055169559558E-003   8.2198167379865517E-004   6.4671641624816756E-002
  -8.0097156438738593E-003   2.5381205231885806E-003   6.7759309439034437E-002
  -7.4076614954332876E-003   2.2985113258732481E-003   6.6265783066666778E-002
  -6.8056073469927080E-003   2.0696154221288426E-003   6.5065700124943990E-002
  -6.2035531985521284E-003   1.8514328119557770E-003   6.4159060613865976E-002
  -5.6014990501115566E-003   1.6439634953534510E-003   6.3545864533432833E-002
  -1.1975203563373660E-002   3.8071808899495796E-003   6.6434592192124553E-002
  -1.1083497809428919E-002   3.4477670932055587E-003   6.4976912246027391E-002
  -1.0191792055484180E-002   3.1044232321171469E-003   6.3805092080293793E-002
  -9.3000863015394349E-003   2.7771493066847171E-003   6.2919131694923497E-002
  -8.4083805475946936E-003   2.4659453169080248E-003   6.2319031089916870E-002
  -1.5914444846075779E-002   5.0762412567106896E-003   6.4987392024743462E-002
  -1.4740671136908176E-002   4.5970228605378138E-003   6.3570915147001639E-002
  -1.3566897427740584E-002   4.1392310421054790E-003   6.2432714399341893E-002
  -1.2393123718572993E-002   3.7028658014140806E-003   6.1572789781764309E-002
  -1.1219350009405396E-002   3.2879271384629316E-003   6.0991141294269080E-002
   5.1872048323353681E-011  -1.4775602963368328E-010   6.5696362364068728E-002
   3.9492777104133125E-011  -1.1554457390872130E-010   6.6337363397729776E-002
   2.7113523232147330E-011  -8.7804569171012758E-011   6.7213232086085761E-002
   1.4734257217097202E-011  -6.4535522759090469E-011   6.8323968429136905E-002
   2.3549981409409781E-012  -4.5737857945482574E-011   6.9669572426882875E-002
  -2.7987055169559558E-003   8.2198167379865517E-004   6.4671641624816756E-002
  -2.5712010639748449E-003   7.2408002824275730E-004   6.5304346174708816E-002
  -2.3436966109937236E-003   6.3248772694468602E-004   6.6157192000626586E-002
  -2.1161921580126050E-003   5.4720476990499645E-004   6.7230179102570203E-002
  -1.8886877050314915E-003   4.6823115712280039E-004   6.8523307480539308E-002
  -5.6014990501115566E-003   1.6439634953534510E-003   6.3545864533432833E-002
  -5.1612165104393893E-003   1.4481601720301440E-003   6.4176581948285238E-002
  -4.7209339707672280E-003   1.2649755416940661E-003   6.5012714260493945E-002
  -4.2806514310950571E-003   1.0944096043453526E-003   6.6054261470059078E-002
  -3.8403688914228993E-003   9.3646235998368077E-004   6.7301223576980512E-002
  -8.4083805475946936E-003   2.4659453169080248E-003   6.2319031089916870E-002
  -7.7700462999008187E-003   2.1722403158175585E-003   6.2954070718458682E-002
  -7.1317120522069542E-003   1.8974633564434393E-003   6.3779798865687742E-002
  -6.4933778045130914E-003   1.6416144387859568E-003   6.4796215531603793E-002
  -5.8550435568192147E-003   1.4046935628443391E-003   6.6003320716206598E-002
  -1.1219350009405396E-002   3.2879271384629316E-003   6.0991141294269080E-002
  -1.0397690432359170E-002   2.8963204596048620E-003   6.1636812485229786E-002
  -9.5760308553129343E-003   2.5299511711926181E-003   6.2458445816208130E-002
  -8.7543712782667104E-003   2.1888192732261516E-003   6.3456041287204362E-002
  -7.9327117012204795E-003   1.8729247657053305E-003   6.4629598898218066E-002
   2.3549981409409781E-012  -4.5737857945482574E-011   6.9669572426882875E-002
  -8.1237794269384267E-013  -3.0650260107734084E-011   6.9386934316475801E-002
  -3.9797574957756154E-012  -1.8511331356663163E-011   6.9317662874889274E-002
  -7.1471318446869603E-012  -9.3205790308026337E-012   6.9461758102123378E-002
  -1.0314513132492209E-011  -3.0786484472855591E-012   6.9819219998178084E-002
  -1.8886877050314915E-003   4.6823115712280039E-004   6.8523307480539308E-002
  -1.6686273124021135E-003   4.0811152031455800E-004   6.8200068920473700E-002
  -1.4485669197727390E-003   3.7939049119517509E-004   6.8103584483180990E-002
  -1.2285065271433566E-003   3.8206806976495700E-004   6.8233854168661012E-002
  -1.0084461345139864E-003   4.1614425602420901E-004   6.8590877976914211E-002
  -3.8403688914228993E-003   9.3646235998368077E-004   6.7301223576980512E-002
  -3.3868606490445145E-003   8.1622307127909854E-004   6.6968783177894231E-002
  -2.9333524066661159E-003   7.5878100090136236E-004   6.6876484355533075E-002
  -2.4798441642877385E-003   7.6413614885082956E-004   6.7024327109897003E-002
  -2.0263359219093464E-003   8.3228851512695545E-004   6.7412311440986222E-002
  -5.8550435568192147E-003   1.4046935628443391E-003   6.6003320716206598E-002
  -5.1547000107395645E-003   1.2243346222438889E-003   6.5693077088737659E-002
  -4.4543564646599204E-003   1.1381715106074317E-003   6.5636362491945516E-002
  -3.7540129185802702E-003   1.1462042279362008E-003   6.5833176925830988E-002
  -3.0536693725006264E-003   1.2484327742298684E-003   6.6283520390393952E-002
  -7.9327117012204795E-003   1.8729247657053305E-003   6.4629598898218066E-002
  -6.9721453974873060E-003   1.6324461732084572E-003   6.4372950653003524E-002
  -6.0115790937541221E-003   1.5175620203139728E-003   6.4383218892418714E-002
  -5.0510127900209329E-003   1.5282723070221618E-003   6.4660403616463552E-002
  -4.0904464862877646E-003   1.6645770333324483E-003   6.5204504825137954E-002
  -1.0314513132492209E-011  -3.0786484472855591E-012   6.9819219998178084E-002
  -9.6198049526208251E-012   1.6391332735565811E-012   6.8540048999541248E-002
  -8.9251141199842010E-012   6.2567451220019166E-012   6.7401206721715068E-002
  -8.2304128790067210E-012   1.0773652803219846E-011   6.6402693164699128E-002
  -7.5357151074761930E-012   1.5190848579038629E-011   6.5544508328493900E-002
  -1.0084461345139864E-003   4.1614425602420901E-004   6.8590877976914211E-002
  -8.7121260656893018E-004   4.9416502275573260E-004   6.7327413398098945E-002
  -7.3397907862386529E-004   6.2867634274269002E-004   6.6198087152974094E-002
  -5.9674555067879258E-004   8.1967821598592089E-004   6.5202899241539103E-002
  -4.5951202273373029E-004   1.0671706424844052E-003   6.4341849663794637E-002
  -2.0263359219093464E-003   8.3228851512695545E-004   6.7412311440986222E-002
  -1.7580592538342125E-003   9.8833004387222090E-004   6.6221043835348492E-002
  -1.4897825857590787E-003   1.2573526792293149E-003   6.5157724176280671E-002
  -1.2215059176839552E-003   1.6393564211976373E-003   6.4222352463782745E-002
  -9.5322924960882481E-004   2.1343412697777953E-003   6.3414928697854950E-002
  -3.0536693725006264E-003   1.2484327742298684E-003   6.6283520390393952E-002
  -2.6605399514157005E-003   1.4824950649890978E-003   6.5220940311289582E-002
  -2.2674105303307950E-003   1.8860290157158774E-003   6.4280117791635047E-002
  -1.8742811092458827E-003   2.4590346264097406E-003   6.3461052831429887E-002
  -1.4811516881609635E-003   3.2015118970713796E-003   6.2763745430674894E-002
  -4.0904464862877646E-003   1.6645770333324483E-003   6.5204504825137954E-002
  -3.5786546993133647E-003   1.9766600861054195E-003   6.4327102825922911E-002
  -3.0668629123389753E-003   2.5147053522018847E-003   6.3565267999037056E-002
  -2.5550711253645771E-003   3.2787128316215108E-003   6.2919000344480780E-002
  -2.0432793383901859E-003   4.2686825243646309E-003   6.2388299862253471E-002
  -7.5357151074761930E-012   1.5190848579038629E-011   6.5544508328493900E-002
  -8.2436557580223280E-012   1.9921508886966421E-011   6.0798136595917818E-002
  -8.9515998780154149E-012   2.5380558765775163E-011   5.5933619841547710E-002
  -9.6595214466033141E-012   3.1566853297970709E-011   5.0950958065382607E-002
  -1.0367484648554637E-011   3.8481218211927626E-011   4.5850151267423200E-002
  -4.5951202273373029E-004   1.0671706424844052E-003   6.4341849663794637E-002
  -5.6351331506954844E-004   1.3921902008612319E-003   5.9624698305323187E-002
  -6.6751460740535097E-004   1.8157734697399064E-003   5.4817689385390278E-002
  -7.7151589974115958E-004   2.3379204491196723E-003   4.9920822903995882E-002
  -8.7551719207697165E-004   2.9586311390006337E-003   4.4934098861140637E-002
  -9.5322924960882481E-004   2.1343412697777953E-003   6.3414928697854950E-002
  -1.1329443732391795E-003   2.7843803818008994E-003   5.8825561423260925E-002
  -1.3126594968695489E-003   3.6315469140990458E-003   5.4174624047539047E-002
  -1.4923746204999161E-003   4.6758408666721062E-003   4.9462116570689836E-002
  -1.6720897441302729E-003   5.9172622395200491E-003   4.4688038992711676E-002
  -1.4811516881609635E-003   3.2015118970713796E-003   6.2763745430674894E-002
  -1.7082931827525835E-003   4.1765705627403726E-003   5.8400725949732286E-002
  -1.9354346773441829E-003   5.4473203584582894E-003   5.4004423827994918E-002
  -2.1625761719358027E-003   7.0137612842245105E-003   4.9574839065463061E-002
  -2.3897176665274161E-003   8.8758933400393536E-003   4.5111971662136596E-002
  -2.0432793383901859E-003   4.2686825243646309E-003   6.2388299862253471E-002
  -2.2895597436097398E-003   5.5687607436800679E-003   5.8350191884736002E-002
  -2.5358401488292798E-003   7.2630938028177272E-003   5.4307088726756991E-002
  -2.7821205540488232E-003   9.3516817017771856E-003   5.0258990388316466E-002
  -3.0284009592683736E-003   1.1834524440558880E-002   4.6205896869415231E-002
  -4.1366389021616608E-002   3.0482166463978777E-002   9.0493344902167538E-002
  -3.4740951626237651E-002   1.9574838431172026E-002   7.7915787400131831E-002
  -2.8115514230858719E-002   1.2098089793545125E-002   6.5633701502731789E-002
  -2.1490076835479786E-002   8.0519205510979977E-003   5.3647087209967581E-002
  -1.4864639440100844E-002   7.4363307038306514E-003   4.1955944521839095E-002
  -4.7950780262254640E-002   2.0921535629756072E-002   8.4457542572996647E-002
  -4.0718795428015944E-002   1.4703736201423956E-002   7.2377142409460249E-002
  -3.3486810593777311E-002   1.0475885246332223E-002   6.1214365519007607E-002
  -2.6254825759538657E-002   8.2379827644805878E-003   5.0969211901638625E-002
  -1.9022840925299982E-002   7.9900287558693495E-003   4.1641681557353455E-002
  -5.7059353932827191E-002   1.1360904795533311E-002   8.3831584309269874E-002
  -4.8598669991280943E-002   9.8326339716758859E-003   7.0807710562293569E-002
  -4.0137986049734606E-002   8.8536806991191958E-003   5.9323611756848707E-002
  -3.1677302108188303E-002   8.4240449778631744E-003   4.9379287892935643E-002
  -2.3216618166642014E-002   8.5437268079079920E-003   4.0974738970554009E-002
  -6.8692110033334405E-002   1.8002739613106056E-003   8.8615470110987804E-002
  -5.8380575316032517E-002   4.9615317419277882E-003   7.3207491858631762E-002
  -4.8069040598730628E-002   7.2314761519061757E-003   5.9961440216255310E-002
  -3.7757505881428774E-002   8.6101071912458461E-003   4.8877315183858294E-002
  -2.7445971164126854E-002   9.0974248599466900E-003   3.9955116761440951E-002
  -8.2849048563776229E-002  -7.7603568729121553E-003   9.8809199978150020E-002
  -7.0064511402270796E-002   9.0429512179801552E-005   7.9576486298474802E-002
  -5.7279974240765391E-002   5.6092716046932251E-003   6.3127850897227084E-002
  -4.4495437079259972E-002   8.7961694046284102E-003   4.9463293774406794E-002
  -3.1710899917754540E-002   9.6511229119852771E-003   3.8582814930014031E-002
  -1.4864639440100844E-002   7.4363307038306514E-003   4.1955944521839095E-002
  -1.6015050272851862E-002   8.2867047673105820E-003   4.7199188316771279E-002
  -1.7165461105602894E-002   8.6384272571047166E-003   5.2378327978087530E-002
  -1.8315871938353920E-002   8.4914981732133431E-003   5.7493363505787806E-002
  -1.9466282771104938E-002   7.8459175156365135E-003   6.2544294899872122E-002
  -1.9022840925299982E-002   7.9900287558693495E-003   4.1641681557353455E-002
  -2.0263446912137772E-002   8.5612895836760100E-003   4.6398173388626909E-002
  -2.1504052898975556E-002   8.7810316110778081E-003   5.1038379045342752E-002
  -2.2744658885813333E-002   8.6492548380752744E-003   5.5562298527501108E-002
  -2.3985264872651107E-002   8.1659592646680101E-003   5.9969931835101881E-002
  -2.3216618166642014E-002   8.5437268079079920E-003   4.0974738970554009E-002
  -2.4599601348508113E-002   8.8358744000413825E-003   4.5391611611449667E-002
  -2.5982584530374251E-002   8.9236359650510175E-003   4.9640016036846236E-002
  -2.7365567712240392E-002   8.8070115029371520E-003   5.3719952246743571E-002
  -2.8748550894106516E-002   8.4860010136995345E-003   5.7631420241141887E-002
  -2.7445971164126854E-002   9.0974248599466900E-003   3.9955116761440951E-002
  -2.9023513581962916E-002   9.1104592164066717E-003   4.4179502985239788E-002
  -3.0601055999799013E-002   9.0662403190241957E-003   4.8183238952597907E-002
  -3.2178598417635082E-002   8.9647681677989463E-003   5.1966324663515327E-002
  -3.3756140835471168E-002   8.8060427627310728E-003   5.5528760117991932E-002
  -3.1710899917754540E-002   9.6511229119852771E-003   3.8582814930014031E-002
  -3.3535183612502156E-002   9.3850440327721829E-003   4.2761847509997092E-002
  -3.5359467307249794E-002   9.2088446729973322E-003   4.6668047792597783E-002
  -3.7183751001997417E-002   9.1225248326607146E-003   5.0301415777816091E-002
  -3.9008034696745048E-002   9.1260845117625555E-003   5.3661951465652169E-002
  -1.9466282771104938E-002   7.8459175156365135E-003   6.2544294899872122E-002
  -1.8578323289847654E-002   7.0016329161387836E-003   6.2978552114606901E-002
  -1.7690363808590362E-002   6.2585920064853057E-003   6.3530487373663708E-002
  -1.6802404327333060E-002   5.6167947866758265E-003   6.4200100677042557E-002
  -1.5914444846075779E-002   5.0762412567106896E-003   6.4987392024743462E-002
  -2.3985264872651107E-002   8.1659592646680101E-003   5.9969931835101881E-002
  -2.2961852371116819E-002   7.5233097001841109E-003   6.0244687359930188E-002
  -2.1938439869582563E-002   6.9134709539520889E-003   6.0672670880990279E-002
  -2.0915027368048279E-002   6.3364430259712987E-003   6.1253882398282410E-002
  -1.9891614866513994E-002   5.7922259162423995E-003   6.1988321911806421E-002
  -2.8748550894106516E-002   8.4860010136995345E-003   5.7631420241141887E-002
  -2.7554135420385432E-002   8.0449864842296465E-003   5.7678241204470987E-002
  -2.6359719946664327E-002   7.5683499014187125E-003   5.7913840115941938E-002
  -2.5165304472943226E-002   7.0560912652668280E-003   5.8338216975554552E-002
  -2.3970888999222138E-002   6.5082105757738873E-003   5.8951371783309031E-002
  -3.3756140835471168E-002   8.8060427627310728E-003   5.5528760117991932E-002
  -3.2355172437653436E-002   8.5666632682750224E-003   5.5279213648229485E-002
  -3.0954204039835703E-002   8.2232288488853604E-003   5.5253995078518699E-002
  -2.9553235642017971E-002   7.7757395045622733E-003   5.5453104408859394E-002
  -2.8152267244200235E-002   7.2241952353054861E-003   5.5876541639251730E-002
  -3.9008034696745048E-002   9.1260845117625555E-003   5.3661951465652169E-002
  -3.7364963422920838E-002   9.0883400523205093E-003   5.3047604691205619E-002
  -3.5721892149096643E-002   8.8781077963521471E-003   5.2693135768720339E-002
  -3.4078820875272434E-002   8.4953877438577810E-003   5.2598544698196498E-002
  -3.2435749601448238E-002   7.9401798948371960E-003   5.2763831479634149E-002
  -1.5914444846075779E-002   5.0762412567106896E-003   6.4987392024743462E-002
  -1.4740671136908176E-002   4.5970228605378138E-003   6.3570915147001639E-002
  -1.3566897427740584E-002   4.1392310421054790E-003   6.2432714399341893E-002
  -1.2393123718572993E-002   3.7028658014140806E-003   6.1572789781764309E-002
  -1.1219350009405396E-002   3.2879271384629316E-003   6.0991141294269080E-002
  -1.9891614866513994E-002   5.7922259162423995E-003   6.1988321911806421E-002
  -1.8440313980846414E-002   5.2841583222460742E-003   6.0499449363689867E-002
  -1.6989013095178789E-002   4.8155789414645045E-003   5.9287355038491307E-002
  -1.5537712209511187E-002   4.3864877738972047E-003   5.8352038936210396E-002
  -1.4086411323843560E-002   3.9968848195444107E-003   5.7693501056847507E-002
  -2.3970888999222138E-002   6.5082105757738873E-003   5.8951371783309031E-002
  -2.2243558844218907E-002   5.9712937839546398E-003   5.7408165200291794E-002
  -2.0516228689215647E-002   5.4919268408235161E-003   5.6140238933027983E-002
  -1.8788898534212416E-002   5.0701097463807139E-003   5.5147592981517717E-002
  -1.7061568379209156E-002   4.7058425006260007E-003   5.4430227345760751E-002
  -2.8152267244200235E-002   7.2241952353054861E-003   5.5876541639251730E-002
  -2.6150405727025719E-002   6.6584292456630528E-003   5.4297062656807352E-002
  -2.4148544209851158E-002   6.1682747401825347E-003   5.2991366082952213E-002
  -2.2146682692676618E-002   5.7537317188641971E-003   5.1959451917686313E-002
  -2.0144821175502078E-002   5.4148001817076463E-003   5.1201320161009249E-002
  -3.2435749601448238E-002   7.9401798948371960E-003   5.2763831479634149E-002
  -3.0160854629266792E-002   7.3455647073714103E-003   5.1166141733236747E-002
  -2.7885959657085332E-002   6.8446226395414700E-003   4.9840736488263981E-002
  -2.5611064684903886E-002   6.4373536913475485E-003   4.8787615744716101E-002
  -2.3336169712722427E-002   6.1237578627891809E-003   4.8006779502593022E-002
  -1.1219350009405396E-002   3.2879271384629316E-003   6.0991141294269080E-002
  -1.0397690432359170E-002   2.8963204596048620E-003   6.1636812485229786E-002
  -9.5760308553129343E-003   2.5299511711926181E-003   6.2458445816208130E-002
  -8.7543712782667104E-003   2.1888192732261516E-003   6.3456041287204362E-002
  -7.9327117012204795E-003   1.8729247657053305E-003   6.4629598898218066E-002
  -1.4086411323843560E-002   3.9968848195444107E-003   5.7693501056847507E-002
  -1.3090174307635188E-002   3.6246056521422876E-003   5.8239890181591425E-002
  -1.2093937291426817E-002   3.2474858454274447E-003   5.8959472044642303E-002
  -1.1097700275218454E-002   2.8655253993997987E-003   5.9852246645999529E-002
  -1.0101463259010072E-002   2.4787243140589332E-003   6.0918213985663661E-002
  -1.7061568379209156E-002   4.7058425006260007E-003   5.4430227345760751E-002
  -1.5893523325549691E-002   4.3528908446797132E-003   5.4847256374529807E-002
  -1.4725478271890240E-002   3.9650205196621463E-003   5.5434708739894298E-002
  -1.3557433218230778E-002   3.5422315255729427E-003   5.6192584441854425E-002
  -1.2389388164571321E-002   3.0845238624122584E-003   5.7120883480410056E-002
  -2.0144821175502078E-002   5.4148001817076463E-003   5.1201320161009249E-002
  -1.8807737486102656E-002   5.0811760372171388E-003   5.1458911064044738E-002
  -1.7470653796703210E-002   4.6825551938967994E-003   5.1884155901964477E-002
  -1.6133570107303766E-002   4.2189376517463382E-003   5.2477054674768632E-002
  -1.4796486417904339E-002   3.6903234107656668E-003   5.3237607382457523E-002
  -2.3336169712722427E-002   6.1237578627891809E-003   4.8006779502593022E-002
  -2.1832816789294079E-002   5.8094612297544534E-003   4.8074854250136023E-002
  -2.0329463865865718E-002   5.4000898681315634E-003   4.8307813530852395E-002
  -1.8826110942437364E-002   4.8956437779198170E-003   4.8705657344742137E-002
  -1.7322758019009010E-002   4.2961229591191863E-003   4.9268385691805361E-002
  -7.9327117012204795E-003   1.8729247657053305E-003   6.4629598898218066E-002
  -6.9721453974873060E-003   1.6324461732084572E-003   6.4372950653003524E-002
  -6.0115790937541221E-003   1.5175620203139728E-003   6.4383218892418714E-002
  -5.0510127900209329E-003   1.5282723070221618E-003   6.4660403616463552E-002
  -4.0904464862877646E-003   1.6645770333324483E-003   6.5204504825137954E-002
  -1.0101463259010072E-002   2.4787243140589332E-003   6.0918213985663661E-002
  -8.8739098025447175E-003   2.1520259266863406E-003   6.0667783298205935E-002
  -7.6463563460793579E-003   1.9503735745631801E-003   6.0684410431582736E-002
  -6.4188028896139662E-003   1.8737672576895625E-003   6.0968095385794174E-002
  -5.1912494331486439E-003   1.9222069760652660E-003   6.1518838160840583E-002
  -1.2389388164571321E-002   3.0845238624122584E-003   5.7120883480410056E-002
  -1.0894706219168760E-002   2.6716056801641130E-003   5.6876121946355940E-002
  -9.4000242737661832E-003   2.3831851288122624E-003   5.6898559569341742E-002
  -7.9053423283636289E-003   2.2192622083568488E-003   5.7188196349367150E-002
  -6.4106603829610729E-003   2.1798369187979172E-003   5.7745032286432352E-002
  -1.4796486417904339E-002   3.6903234107656668E-003   5.3237607382457523E-002
  -1.3034534647359510E-002   3.1911854336417744E-003   5.2997966597453997E-002
  -1.1272582876814697E-002   2.8159966830612962E-003   5.3025666305695385E-002
  -9.5106311062698474E-003   2.5647571590242477E-003   5.3320706507181494E-002
  -7.7486793357250568E-003   2.4374668615305961E-003   5.3883087201912414E-002
  -1.7322758019009010E-002   4.2961229591191863E-003   4.9268385691805361E-002
  -1.5293395087116926E-002   3.7107651871196579E-003   4.9033317251499842E-002
  -1.3264032155224800E-002   3.2488082373105798E-003   4.9065730640643956E-002
  -1.1234669223332674E-002   2.9102521096915981E-003   4.9365625859237844E-002
  -9.2053062914405903E-003   2.6950968042633860E-003   4.9933002907281754E-002
  -4.0904464862877646E-003   1.6645770333324483E-003   6.5204504825137954E-002
  -3.5786546993133647E-003   1.9766600861054195E-003   6.4327102825922911E-002
  -3.0668629123389753E-003   2.5147053522018847E-003   6.3565267999037056E-002
  -2.5550711253645771E-003   3.2787128316215108E-003   6.2919000344480780E-002
  -2.0432793383901859E-003   4.2686825243646309E-003   6.2388299862253471E-002
  -5.1912494331486439E-003   1.9222069760652660E-003   6.1518838160840583E-002
  -4.5376355763393356E-003   2.1938506710382777E-003   6.0822745121813848E-002
  -3.8840217195300619E-003   2.7868562839564737E-003   6.0294729050127283E-002
  -3.2304078627207692E-003   3.7012238148198262E-003   5.9934789945781414E-002
  -2.5767940059114799E-003   4.9369532636280855E-003   5.9742927808775659E-002
  -6.4106603829610729E-003   2.1798369187979172E-003   5.7745032286432352E-002
  -5.5627146613057704E-003   2.4110412559706362E-003   5.7325647912215588E-002
  -4.7147689396504671E-003   3.0590072157105075E-003   5.7126850300350418E-002
  -3.8668232179951494E-003   4.1237347980173644E-003   5.7148639450836633E-002
  -3.0188774963398612E-003   5.6052240028915956E-003   5.7391015363674663E-002
  -7.7486793357250568E-003   2.4374668615305961E-003   5.3883087201912414E-002
  -6.6538919542126103E-003   2.6282318409028560E-003   5.3835811197127825E-002
  -5.5591045727001794E-003   3.3311581474645968E-003   5.4061631749705963E-002
  -4.4643171911877338E-003   4.5462457812154022E-003   5.4560548859646812E-002
  -3.3695298096753021E-003   6.2734947421550780E-003   5.5332562526950062E-002
  -9.2053062914405903E-003   2.6950968042633860E-003   4.9933002907281754E-002
  -7.8111674550599142E-003   2.8454224258357419E-003   5.0353234976551087E-002
  -6.4170286186792103E-003   3.6033090792188249E-003   5.1099073398194361E-002
  -5.0228897822985341E-003   4.9687567644130307E-003   5.2170518172211383E-002
  -3.6287509459178302E-003   6.9417654814186713E-003   5.3567569298602069E-002
  -2.0432793383901859E-003   4.2686825243646309E-003   6.2388299862253471E-002
  -2.2895597436097398E-003   5.5687607436800679E-003   5.8350191884736002E-002
  -2.5358401488292798E-003   7.2630938028177272E-003   5.4307088726756991E-002
  -2.7821205540488232E-003   9.3516817017771856E-003   5.0258990388316466E-002
  -3.0284009592683736E-003   1.1834524440558880E-002   4.6205896869415231E-002
  -2.5767940059114799E-003   4.9369532636280855E-003   5.9742927808775659E-002
  -2.8452451694429594E-003   6.5603388064016110E-003   5.6203177985404140E-002
  -3.1136963329743798E-003   8.6376746191602349E-003   5.2624081825869640E-002
  -3.3821474965058211E-003   1.1168960701903020E-002   4.9005639330172379E-002
  -3.6505986600373075E-003   1.4154197054631723E-002   4.5347850498313136E-002
  -3.0188774963398612E-003   5.6052240028915956E-003   5.7391015363674663E-002
  -3.3438505738844562E-003   7.5519168691230432E-003   5.4409319124611361E-002
  -3.6688236514290928E-003   1.0012255435502312E-002   5.1353925393684122E-002
  -3.9937967289736852E-003   1.2986239702029414E-002   4.8224834170893634E-002
  -4.3187698065182967E-003   1.6473869668704122E-002   4.5022045456238557E-002
  -3.3695298096753021E-003   6.2734947421550780E-003   5.5332562526950062E-002
  -3.7853759569343335E-003   8.5434949318447528E-003   5.2968615302358461E-002
  -4.2012221041933355E-003   1.1386836251844716E-002   5.0496619430201367E-002
  -4.6170682514523028E-003   1.4803518702155639E-002   4.7916574910479390E-002
  -5.0329143987113412E-003   1.8793542282776854E-002   4.5228481743192744E-002
  -3.6287509459178302E-003   6.9417654814186713E-003   5.3567569298602069E-002
  -4.1698213185925453E-003   9.5350729945660184E-003   5.1881066518644658E-002
  -4.7108916912671911E-003   1.2761417068187092E-002   5.0052163935420724E-002
  -5.2519620639419132E-003   1.6620797702281691E-002   4.8080861548930570E-002
  -5.7930324366165520E-003   2.1113214896849364E-002   4.5967159359174392E-002
  -8.2849048563776229E-002  -7.7603568729121553E-003   9.8809199978150020E-002
  -7.0064511402270796E-002   9.0429512179801552E-005   7.9576486298474802E-002
  -5.7279974240765391E-002   5.6092716046932251E-003   6.3127850897227084E-002
  -4.4495437079259972E-002   8.7961694046284102E-003   4.9463293774406794E-002
  -3.1710899917754540E-002   9.6511229119852771E-003   3.8582814930014031E-002
  -9.6963130767690572E-002   3.0120391879486785E-003   9.3367868446846247E-002
  -8.1696336257929658E-002   6.6106917037637714E-003   7.4810113031239217E-002
  -6.6429541748168758E-002   9.2750567346586293E-003   5.8432794033715763E-002
  -5.1162747238407844E-002   1.1005134280633381E-002   4.4235911454275703E-002
  -3.5895952728646922E-002   1.1800924341687891E-002   3.2219465292919108E-002
 -0.10846731788861531        1.3784435248809457E-002   8.2975574642436448E-002
  -9.1321907890942897E-002   1.3130953895347824E-002   6.6490434298555959E-002
  -7.4176497893270577E-002   1.2940841864624110E-002   5.1582088512414782E-002
  -5.7031087895598229E-002   1.3214099156638267E-002   3.8250537284013120E-002
  -3.9885677897925839E-002   1.3950725771390310E-002   2.6495780613350853E-002
 -0.11736160992655044        2.4556831309670249E-002   6.7632318564921023E-002
  -9.8941226301310609E-002   1.9651216086931891E-002   5.4617450100425027E-002
  -8.0520842676070917E-002   1.6606626994589525E-002   4.2575734333324428E-002
  -6.2100459050831169E-002   1.5423064032643166E-002   3.1507171263619162E-002
  -4.3680075425591401E-002   1.6100527201092771E-002   2.1411760891309296E-002
 -0.12364600688149596        3.5329227370531069E-002   4.7338100214299794E-002
 -0.10455429148903284        2.6171478278515847E-002   3.9191160436846451E-002
  -8.5462576096569737E-002   2.0272412124555023E-002   3.1413731496444275E-002
  -6.6370860704106638E-002   1.7632028908648033E-002   2.4005813393093600E-002
  -4.7279145311643511E-002   1.8250328630795287E-002   1.6967406126794315E-002
  -3.1710899917754540E-002   9.6511229119852771E-003   3.8582814930014031E-002
  -3.3535183612502156E-002   9.3850440327721829E-003   4.2761847509997092E-002
  -3.5359467307249794E-002   9.2088446729973322E-003   4.6668047792597783E-002
  -3.7183751001997417E-002   9.1225248326607146E-003   5.0301415777816091E-002
  -3.9008034696745048E-002   9.1260845117625555E-003   5.3661951465652169E-002
  -3.5895952728646922E-002   1.1800924341687891E-002   3.2219465292919108E-002
  -3.7991381213701755E-002   1.2035454342741669E-002   3.6546336463769313E-002
  -4.0086809698756581E-002   1.2081751708714158E-002   4.0603750351387496E-002
  -4.2182238183811421E-002   1.1939816439605715E-002   4.4391706955773616E-002
  -4.4277666668866254E-002   1.1609648535416017E-002   4.7910206276927658E-002
  -3.9885677897925839E-002   1.3950725771390310E-002   2.6495780613350853E-002
  -4.2248876159137617E-002   1.4685864652711045E-002   3.0692378220548766E-002
  -4.4612074420349292E-002   1.4954658744431089E-002   3.4622893558664956E-002
  -4.6975272681561014E-002   1.4757108046550603E-002   3.8287326627699375E-002
  -4.9338470942772744E-002   1.4093212559069368E-002   4.1685677427652001E-002
  -4.3680075425591401E-002   1.6100527201092771E-002   2.1411760891309296E-002
  -4.6307668448809701E-002   1.7336274962680420E-002   2.5199972780335356E-002
  -4.8935261472028001E-002   1.7827565780148106E-002   2.8725477414430038E-002
  -5.1562854495246328E-002   1.7574399653495436E-002   3.1988274793593258E-002
  -5.4190447518464600E-002   1.6576776582722691E-002   3.4988364917825199E-002
  -4.7279145311643511E-002   1.8250328630795287E-002   1.6967406126794315E-002
  -5.0167758082718089E-002   1.9986685272649962E-002   2.0069120143129254E-002
  -5.3056370853792639E-002   2.0700472815864818E-002   2.2911501918682908E-002
  -5.5944983624867203E-002   2.0391691260440374E-002   2.5494551453455569E-002
  -5.8833596395941795E-002   1.9060340606376180E-002   2.7818268747447084E-002
  -3.9008034696745048E-002   9.1260845117625555E-003   5.3661951465652169E-002
  -3.7364963422920838E-002   9.0883400523205093E-003   5.3047604691205619E-002
  -3.5721892149096643E-002   8.8781077963521471E-003   5.2693135768720339E-002
  -3.4078820875272434E-002   8.4953877438577810E-003   5.2598544698196498E-002
  -3.2435749601448238E-002   7.9401798948371960E-003   5.2763831479634149E-002
  -4.4277666668866254E-002   1.1609648535416017E-002   4.7910206276927658E-002
  -4.2392422748474066E-002   1.1158521303624686E-002   4.7373895086978313E-002
  -4.0507178828081844E-002   1.0653708051711369E-002   4.7062051338203459E-002
  -3.8621934907689663E-002   1.0095208779676117E-002   4.6974675030603222E-002
  -3.6736690987297496E-002   9.4830234875188379E-003   4.7111766164177449E-002
  -4.9338470942772744E-002   1.4093212559069368E-002   4.1685677427652001E-002
  -4.7246464786599433E-002   1.3228702554928917E-002   4.1346203598603942E-002
  -4.5154458630426053E-002   1.2429308307070633E-002   4.1195786799943609E-002
  -4.3062452474252756E-002   1.1695029815494393E-002   4.1234427031670982E-002
  -4.0970446318079418E-002   1.1025867080200313E-002   4.1462124293786234E-002
  -5.4190447518464600E-002   1.6576776582722691E-002   3.4988364917825199E-002
  -5.1927089537296911E-002   1.5298883806233288E-002   3.4964530226082563E-002
  -4.9663731556129215E-002   1.4204908562429820E-002   3.5094342153940833E-002
  -4.7400373574961518E-002   1.3294850851312811E-002   3.5377800701399939E-002
  -4.5137015593793829E-002   1.2568710672881817E-002   3.5814905868460291E-002
  -5.8833596395941795E-002   1.9060340606376180E-002   2.7818268747447084E-002
  -5.6434297000566569E-002   1.7369065057537353E-002   2.8228874969414064E-002
  -5.4034997605191371E-002   1.5980508817789188E-002   2.8757717400195143E-002
  -5.1635698209816130E-002   1.4894671887131106E-002   2.9404796039790113E-002
  -4.9236398814440946E-002   1.4111554265563486E-002   3.0170110888199486E-002
  -3.2435749601448238E-002   7.9401798948371960E-003   5.2763831479634149E-002
  -3.0160854629266792E-002   7.3455647073714103E-003   5.1166141733236747E-002
  -2.7885959657085332E-002   6.8446226395414700E-003   4.9840736488263981E-002
  -2.5611064684903886E-002   6.4373536913475485E-003   4.8787615744716101E-002
  -2.3336169712722427E-002   6.1237578627891809E-003   4.8006779502593022E-002
  -3.6736690987297496E-002   9.4830234875188379E-003   4.7111766164177449E-002
  -3.4197373890421157E-002   8.8719082942195215E-003   4.5648149764854706E-002
  -3.1658056793544866E-002   8.3166193187586557E-003   4.4441093113496893E-002
  -2.9118739696668557E-002   7.8171565611359767E-003   4.3490596210104024E-002
  -2.6579422599792291E-002   7.3735200213516094E-003   4.2796659054676056E-002
  -4.0970446318079418E-002   1.1025867080200313E-002   4.1462124293786234E-002
  -3.8182431849967946E-002   1.0398251881067661E-002   4.0094734339740368E-002
  -3.5394417381856495E-002   9.7886159979756054E-003   3.8968179380199780E-002
  -3.2606402913745058E-002   9.1969594309244569E-003   3.8082459415164478E-002
  -2.9818388445633635E-002   8.6232821799138715E-003   3.7437574444634358E-002
  -4.5137015593793829E-002   1.2568710672881817E-002   3.5814905868460291E-002
  -4.2116028507907050E-002   1.1924595467915675E-002   3.4505895457893829E-002
  -3.9095041422020214E-002   1.1260612677192784E-002   3.3421995288372891E-002
  -3.6074054336133435E-002   1.0576762300712856E-002   3.2563205359897589E-002
  -3.3053067250246600E-002   9.8730443384760502E-003   3.1929525672467846E-002
  -4.9236398814440946E-002   1.4111554265563486E-002   3.0170110888199486E-002
  -4.5998163864238495E-002   1.3450939054763911E-002   2.8881633119315075E-002
  -4.2759928914036030E-002   1.2732609356409755E-002   2.7802540838016226E-002
  -3.9521693963833600E-002   1.1956565170501452E-002   2.6932834044303286E-002
  -3.6283459013631114E-002   1.1122806497038451E-002   2.6272512738176101E-002
  -2.3336169712722427E-002   6.1237578627891809E-003   4.8006779502593022E-002
  -2.1832816789294079E-002   5.8094612297544534E-003   4.8074854250136023E-002
  -2.0329463865865718E-002   5.4000898681315634E-003   4.8307813530852395E-002
  -1.8826110942437364E-002   4.8956437779198170E-003   4.8705657344742137E-002
  -1.7322758019009010E-002   4.2961229591191863E-003   4.9268385691805361E-002
  -2.6579422599792291E-002   7.3735200213516094E-003   4.2796659054676056E-002
  -2.4923001436706310E-002   6.9273848415991601E-003   4.2779255436750430E-002
  -2.3266580273620302E-002   6.4204261640724847E-003   4.2903103764966616E-002
  -2.1610159110534384E-002   5.8526439887713402E-003   4.3168204039324726E-002
  -1.9953737947448369E-002   5.2240383156961778E-003   4.3574556259824482E-002
  -2.9818388445633635E-002   8.6232821799138715E-003   3.7437574444634358E-002
  -2.8032531629921531E-002   8.0453084534437003E-003   3.7368943692054263E-002
  -2.6246674814209479E-002   7.4407624600135169E-003   3.7417932298584367E-002
  -2.4460817998497385E-002   6.8096441996233076E-003   3.7584540264224961E-002
  -2.2674961182785322E-002   6.1519536722730583E-003   3.7868767588975755E-002
  -3.3053067250246600E-002   9.8730443384760502E-003   3.1929525672467846E-002
  -3.1161407368939936E-002   9.1632320652883237E-003   3.1843919016047412E-002
  -2.9269747487633269E-002   8.4610987559545492E-003   3.1852299131705765E-002
  -2.7378087606326641E-002   7.7666444104751639E-003   3.1954666019443002E-002
  -2.5486427725019894E-002   7.0798690288498278E-003   3.2151019679259187E-002
  -3.6283459013631114E-002   1.1122806497038451E-002   2.6272512738176101E-002
  -3.4309628653761387E-002   1.0281155677132781E-002   2.6204181408729876E-002
  -3.2335798293891632E-002   9.4814350518954149E-003   2.6206204264330957E-002
  -3.0361967934021877E-002   8.7236446213269508E-003   2.6278581304979259E-002
  -2.8388137574152150E-002   8.0077843854269304E-003   2.6421312530674923E-002
  -1.7322758019009010E-002   4.2961229591191863E-003   4.9268385691805361E-002
  -1.5293395087116926E-002   3.7107651871196579E-003   4.9033317251499842E-002
  -1.3264032155224800E-002   3.2488082373105798E-003   4.9065730640643956E-002
  -1.1234669223332674E-002   2.9102521096915981E-003   4.9365625859237844E-002
  -9.2053062914405903E-003   2.6950968042633860E-003   4.9933002907281754E-002
  -1.9953737947448369E-002   5.2240383156961778E-003   4.3574556259824482E-002
  -1.7697836384795405E-002   4.6047719593735881E-003   4.3309752790667233E-002
  -1.5441934822142504E-002   4.0650077343309110E-003   4.3230544753581984E-002
  -1.3186033259489589E-002   3.6047456405675013E-003   4.3336932148568541E-002
  -1.0930131696836695E-002   3.2239856780843512E-003   4.3628914975626820E-002
  -2.2674961182785322E-002   6.1519536722730583E-003   3.7868767588975755E-002
  -2.0274407386749568E-002   5.4987787316272407E-003   3.7530330400056405E-002
  -1.7873853590713785E-002   4.8812072313508953E-003   3.7295602245830936E-002
  -1.5473299794678010E-002   4.2992391714434010E-003   3.7164583126299298E-002
  -1.3072745998642187E-002   3.7528745519053164E-003   3.7137273041461388E-002
  -2.5486427725019894E-002   7.0798690288498278E-003   3.2151019679259187E-002
  -2.3023108092979236E-002   6.3927855038811432E-003   3.1695050079666991E-002
  -2.0559788460938602E-002   5.6974067283709975E-003   3.1260903117390951E-002
  -1.8096468828897958E-002   4.9937327023194689E-003   3.0848578792430553E-002
  -1.5633149196857314E-002   4.2817634257261150E-003   3.0458077104786214E-002
  -2.8388137574152150E-002   8.0077843854269304E-003   2.6421312530674923E-002
  -2.5943938503484559E-002   7.2867922761349346E-003   2.5803911829499482E-002
  -2.3499739432816996E-002   6.5136062253911275E-003   2.5126447368262028E-002
  -2.1055540362149378E-002   5.6882262331952385E-003   2.4388919146962423E-002
  -1.8611341291481842E-002   4.8106522995473577E-003   2.3591327165600862E-002
  -9.2053062914405903E-003   2.6950968042633860E-003   4.9933002907281754E-002
  -7.8111674550599142E-003   2.8454224258357419E-003   5.0353234976551087E-002
  -6.4170286186792103E-003   3.6033090792188249E-003   5.1099073398194361E-002
  -5.0228897822985341E-003   4.9687567644130307E-003   5.2170518172211383E-002
  -3.6287509459178302E-003   6.9417654814186713E-003   5.3567569298602069E-002
  -1.0930131696836695E-002   3.2239856780843512E-003   4.3628914975626820E-002
  -9.1913231092975861E-003   3.1572229775866933E-003   4.4228448259522546E-002
  -7.4525145217585465E-003   3.6389526697805374E-003   4.5191714693361251E-002
  -5.7137059342194513E-003   4.6691747546661333E-003   4.6518714277142714E-002
  -3.9748973466803977E-003   6.2478892322431756E-003   4.8209447010867268E-002
  -1.3072745998642187E-002   3.7528745519053164E-003   3.7137273041461388E-002
  -1.0951140862375648E-002   3.4690235293378113E-003   3.7857038900864282E-002
  -8.8295357261091098E-003   3.6745962603422361E-003   3.8978664707779123E-002
  -6.7079305898425749E-003   4.3695927449188994E-003   4.0502150462205934E-002
  -4.5863254535760331E-003   5.5540129830678464E-003   4.2427496164144901E-002
  -1.5633149196857314E-002   4.2817634257261150E-003   3.0458077104786214E-002
  -1.3090620714294095E-002   3.7808240810885685E-003   3.1239006900576627E-002
  -1.0548092231730933E-002   3.7102398509039972E-003   3.2459923441447727E-002
  -8.0055637491677160E-003   4.0700107351719448E-003   3.4120826727400397E-002
  -5.4630352666044987E-003   4.8601367338925450E-003   3.6221716758434240E-002
  -1.8611341291481842E-002   4.8106522995473577E-003   2.3591327165600862E-002
  -1.5609762665052929E-002   4.0926246328398252E-003   2.4374352258659027E-002
  -1.2608184038623987E-002   3.7458834414657305E-003   2.5635490894367507E-002
  -9.6066054121950739E-003   3.7704287254245669E-003   2.7374743072726387E-002
  -6.6050267857661327E-003   4.1662604847170215E-003   2.9592108793735417E-002
  -3.6287509459178302E-003   6.9417654814186713E-003   5.3567569298602069E-002
  -4.1698213185925453E-003   9.5350729945660184E-003   5.1881066518644658E-002
  -4.7108916912671911E-003   1.2761417068187092E-002   5.0052163935420724E-002
  -5.2519620639419132E-003   1.6620797702281691E-002   4.8080861548930570E-002
  -5.7930324366165520E-003   2.1113214896849364E-002   4.5967159359174392E-002
  -3.9748973466803977E-003   6.2478892322431756E-003   4.8209447010867268E-002
  -4.5555070637510603E-003   8.6855410949175926E-003   4.7261732452634986E-002
  -5.1361167808217298E-003   1.2292575335093897E-002   4.6377339008877083E-002
  -5.7167264978924791E-003   1.7068991952773484E-002   4.5556266679593393E-002
  -6.2973362149630618E-003   2.3014790947955222E-002   4.4798515464783861E-002
  -4.5863254535760331E-003   5.5540129830678464E-003   4.2427496164144901E-002
  -5.0007535973021280E-003   7.8360091952687227E-003   4.2754915644666908E-002
  -5.4151817410282264E-003   1.1823733602000938E-002   4.3351377157403795E-002
  -5.8296098847543543E-003   1.7517186203265280E-002   4.4216880702355833E-002
  -6.2440380284804753E-003   2.4916366999060857E-002   4.5351426279522045E-002
  -5.4630352666044987E-003   4.8601367338925450E-003   3.6221716758434240E-002
  -5.5055609192455630E-003   6.9864772956198529E-003   3.8360616094739626E-002
  -5.5480865718865171E-003   1.1354891868907861E-002   4.0974278381000748E-002
  -5.5906122245275407E-003   1.7965380453756521E-002   4.4062703617216988E-002
  -5.6331378771684801E-003   2.6817943050166604E-002   4.7625891803388887E-002
  -6.6050267857661327E-003   4.1662604847170215E-003   2.9592108793735417E-002
  -6.0699290295814778E-003   6.1369453959712050E-003   3.4078833802853703E-002
  -5.5348312733967675E-003   1.0886050135814840E-002   3.9246042679667692E-002
  -4.9997335172120710E-003   1.8413574704248828E-002   4.5093735424178327E-002
  -4.4646357610274023E-003   2.8719519101272351E-002   5.1621912036383666E-002
 -0.12364600688149596        3.5329227370531069E-002   4.7338100214299794E-002
 -0.10455429148903284        2.6171478278515847E-002   3.9191160436846451E-002
  -8.5462576096569737E-002   2.0272412124555023E-002   3.1413731496444275E-002
  -6.6370860704106638E-002   1.7632028908648033E-002   2.4005813393093600E-002
  -4.7279145311643511E-002   1.8250328630795287E-002   1.6967406126794315E-002
 -0.13169588616170380        3.6801554899263456E-002   4.6381473463936396E-002
 -0.11150627262316676        2.8223340041313050E-002   3.5839576547839647E-002
  -9.1316659084629687E-002   2.2421472817004684E-002   2.7123965086839424E-002
  -7.1127045546092574E-002   1.9395953226338580E-002   2.0234639080935854E-002
  -5.0937432007555558E-002   1.9146781269314711E-002   1.5171598530128644E-002
 -0.14588662517542575        3.8273882427995842E-002   4.6245548599843783E-002
 -0.12314233887276949        3.0275201804110141E-002   3.2826359240691660E-002
 -0.10039805257011333        2.4570533509454526E-002   2.2690229954681312E-002
  -7.7653766267457083E-002   2.1159877544029159E-002   1.5837160741812642E-002
  -5.4909479964800931E-002   2.0043233907834107E-002   1.2267151602085788E-002
 -0.16621822392266164        3.9746209956728368E-002   4.6930325622021686E-002
 -0.13946249023784124        3.2327063566907177E-002   3.0151508515402339E-002
 -0.11270675655302070        2.6719594201904388E-002   1.8112526099969908E-002
  -8.5951022868200111E-002   2.2923801861719752E-002   1.0813378375724448E-002
  -5.9195289183379698E-002   2.0939686546353184E-002   8.2540653426657513E-003
 -0.19269068240341181        4.1218537485460671E-002   4.8435804530470250E-002
 -0.16046672671838180        3.4378925329704324E-002   2.7815024371971642E-002
 -0.12824277103335180        2.8868654894354001E-002   1.3390853522705248E-002
  -9.6018815348321684E-002   2.4687726179410237E-002   5.1632919826709173E-003
  -6.3794859663291681E-002   2.1836139184872816E-002   3.1323397518685514E-003
  -4.7279145311643511E-002   1.8250328630795287E-002   1.6967406126794315E-002
  -5.0167758082718089E-002   1.9986685272649962E-002   2.0069120143129254E-002
  -5.3056370853792639E-002   2.0700472815864818E-002   2.2911501918682908E-002
  -5.5944983624867203E-002   2.0391691260440374E-002   2.5494551453455569E-002
  -5.8833596395941795E-002   1.9060340606376180E-002   2.7818268747447084E-002
  -5.0937432007555558E-002   1.9146781269314711E-002   1.5171598530128644E-002
  -5.4091258606201537E-002   2.0009971135261692E-002   1.7166573155169881E-002
  -5.7245085204847508E-002   2.0321537013508341E-002   1.8890452365849630E-002
  -6.0398911803493452E-002   2.0081478904054838E-002   2.0343236162167606E-002
  -6.3552738402139403E-002   1.9289796806900850E-002   2.1524924544123858E-002
  -5.4909479964800931E-002   2.0043233907834107E-002   1.2267151602085788E-002
  -5.8340283564598902E-002   2.0033256997873478E-002   1.3626331946772853E-002
  -6.1771087164396825E-002   1.9942601211151809E-002   1.4702653703517581E-002
  -6.5201890764194761E-002   1.9771266547669249E-002   1.5496116872320116E-002
  -6.8632694363992719E-002   1.9519253007425519E-002   1.6006721453180536E-002
  -5.9195289183379698E-002   2.0939686546353184E-002   8.2540653426657513E-003
  -6.2914832957910088E-002   2.0056542860485346E-002   9.4483965179376645E-003
  -6.6634376732440562E-002   1.9563665408795415E-002   1.0348105931686835E-002
  -7.0353920506971077E-002   1.9461054191283411E-002   1.0953193583913270E-002
  -7.4073464281501480E-002   1.9748709207949994E-002   1.1263659474617053E-002
  -6.3794859663291681E-002   2.1836139184872816E-002   3.1323397518685514E-003
  -6.7814906786135221E-002   2.0079828723096937E-002   4.6327668686645951E-003
  -7.1834953908978816E-002   1.9184729606438605E-002   5.8268090503577619E-003
  -7.5855001031822356E-002   1.9150841834898104E-002   6.7144662969473162E-003
  -7.9875048154665951E-002   1.9978165408474746E-002   7.2957386084332443E-003
  -5.8833596395941795E-002   1.9060340606376180E-002   2.7818268747447084E-002
  -5.6434297000566569E-002   1.7369065057537353E-002   2.8228874969414064E-002
  -5.4034997605191371E-002   1.5980508817789188E-002   2.8757717400195143E-002
  -5.1635698209816130E-002   1.4894671887131106E-002   2.9404796039790113E-002
  -4.9236398814440946E-002   1.4111554265563486E-002   3.0170110888199486E-002
  -6.3552738402139403E-002   1.9289796806900850E-002   2.1524924544123858E-002
  -6.0996609757842934E-002   1.8243889399071817E-002   2.1786256188262493E-002
  -5.8440481113546425E-002   1.7241155357592602E-002   2.2243010121429638E-002
  -5.5884352469249929E-002   1.6281594682463645E-002   2.2895186343625175E-002
  -5.3328223824953447E-002   1.5365207373684631E-002   2.3742784854849319E-002
  -6.8632694363992719E-002   1.9519253007425519E-002   1.6006721453180536E-002
  -6.5842550390560639E-002   1.9118713740606044E-002   1.5859232576750676E-002
  -6.3052406417128434E-002   1.8501801897396287E-002   1.5984352069563536E-002
  -6.0262262443696257E-002   1.7668517477796124E-002   1.6382079931618981E-002
  -5.7472118470264157E-002   1.6618860481805525E-002   1.7052416162917541E-002
  -7.4073464281501480E-002   1.9748709207949994E-002   1.1263659474617053E-002
  -7.0972118898719377E-002   1.9993538082140279E-002   1.0447804134878176E-002
  -6.7870773515937316E-002   1.9762448437199893E-002   9.9817432445963947E-003
  -6.4769428133155213E-002   1.9055440273128579E-002   9.8654768037717382E-003
  -6.1668082750373152E-002   1.7872513589926656E-002   1.0099004812404232E-002
  -7.9875048154665951E-002   1.9978165408474746E-002   7.2957386084332443E-003
  -7.6385315282319621E-002   2.0868362423674736E-002   5.5519708626447506E-003
  -7.2895582409973125E-002   2.1023094977003443E-002   4.2351836465284176E-003
  -6.9405849537626713E-002   2.0442363068461047E-002   3.3453769600830241E-003
  -6.5916116665280300E-002   1.9126166698047786E-002   2.8825508033093472E-003
  -4.9236398814440946E-002   1.4111554265563486E-002   3.0170110888199486E-002
  -4.5998163864238495E-002   1.3450939054763911E-002   2.8881633119315075E-002
  -4.2759928914036030E-002   1.2732609356409755E-002   2.7802540838016226E-002
  -3.9521693963833600E-002   1.1956565170501452E-002   2.6932834044303286E-002
  -3.6283459013631114E-002   1.1122806497038451E-002   2.6272512738176101E-002
  -5.3328223824953447E-002   1.5365207373684631E-002   2.3742784854849319E-002
  -4.9869268670487230E-002   1.4484427872645755E-002   2.2398736048632573E-002
  -4.6410313516020971E-002   1.3631690620737366E-002   2.1286742163357741E-002
  -4.2951358361554733E-002   1.2806995617959265E-002   2.0406803199024715E-002
  -3.9492403207088550E-002   1.2010342864311740E-002   1.9758919155633270E-002
  -5.7472118470264157E-002   1.6618860481805525E-002   1.7052416162917541E-002
  -5.3769773678178180E-002   1.5517916690527933E-002   1.5738553056053622E-002
  -5.0067428886092127E-002   1.4530771885065026E-002   1.4679414303487411E-002
  -4.6365084094006082E-002   1.3657426065417465E-002   1.3874999905218590E-002
  -4.2662739301920050E-002   1.2897879231584752E-002   1.3325309861247941E-002
  -6.1668082750373152E-002   1.7872513589926656E-002   1.0099004812404232E-002
  -5.7699678887311312E-002   1.6551405508409334E-002   8.9010841415774998E-003
  -5.3731275024249521E-002   1.5429853149392162E-002   7.9805572584046598E-003
  -4.9762871161187695E-002   1.4507856512875415E-002   7.3374241628857530E-003
  -4.5794467298125904E-002   1.3785415598857681E-002   6.9716848550205948E-003
  -6.5916116665280300E-002   1.9126166698047786E-002   2.8825508033093472E-003
  -6.1658984297886743E-002   1.7584894326291733E-002   1.8863293052049923E-003
  -5.7401851930493075E-002   1.6328934413720131E-002   1.1901710281102262E-003
  -5.3144719563099435E-002   1.5358286960333326E-002   7.9407597202531960E-004
  -4.8887587195705851E-002   1.4672951966131276E-002   6.9804413695073730E-004
  -3.6283459013631114E-002   1.1122806497038451E-002   2.6272512738176101E-002
  -3.4309628653761387E-002   1.0281155677132781E-002   2.6204181408729876E-002
  -3.2335798293891632E-002   9.4814350518954149E-003   2.6206204264330957E-002
  -3.0361967934021877E-002   8.7236446213269508E-003   2.6278581304979259E-002
  -2.8388137574152150E-002   8.0077843854269304E-003   2.6421312530674923E-002
  -3.9492403207088550E-002   1.2010342864311740E-002   1.9758919155633270E-002
  -3.7459672485116044E-002   1.1234743344013753E-002   1.9745739307987120E-002
  -3.5426941763143552E-002   1.0473208041285167E-002   1.9780005999499084E-002
  -3.3394211041171011E-002   9.7257369561256392E-003   1.9861719230169203E-002
  -3.1361480319198554E-002   8.9923300885350610E-003   1.9990878999997519E-002
  -4.2662739301920050E-002   1.2897879231584752E-002   1.3325309861247941E-002
  -4.0594015863734019E-002   1.2188331010895365E-002   1.3339415518302380E-002
  -3.8525292425547933E-002   1.1464981030674920E-002   1.3378060068625894E-002
  -3.6456568987361847E-002   1.0727829290924494E-002   1.3441243512218190E-002
  -3.4387845549175761E-002   9.9768757916434136E-003   1.3528965849079921E-002
  -4.5794467298125904E-002   1.3785415598857681E-002   6.9716848550205948E-003
  -4.3712658789615402E-002   1.3141918677776379E-002   6.9852100396759383E-003
  -4.1630850281104817E-002   1.2456754020064340E-002   7.0003664717116082E-003
  -3.9549041772594308E-002   1.1729921625722933E-002   7.0171541511270287E-003
  -3.7467233264083737E-002   1.0961421494751655E-002   7.0355730779222275E-003
  -4.8887587195705851E-002   1.4672951966131276E-002   6.9804413695073730E-004
  -4.6815601262760076E-002   1.4095506344657727E-002   6.8312287210803291E-004
  -4.4743615329814190E-002   1.3448527009454259E-002   6.4692520875614390E-004
  -4.2671629396868360E-002   1.2732013960521940E-002   5.8945114689455680E-004
  -4.0599643463922530E-002   1.1945967197860119E-002   5.1070068652414591E-004
  -2.8388137574152150E-002   8.0077843854269304E-003   2.6421312530674923E-002
  -2.5943938503484559E-002   7.2867922761349346E-003   2.5803911829499482E-002
  -2.3499739432816996E-002   6.5136062253911275E-003   2.5126447368262028E-002
  -2.1055540362149378E-002   5.6882262331952385E-003   2.4388919146962423E-002
  -1.8611341291481842E-002   4.8106522995473577E-003   2.3591327165600862E-002
  -3.1361480319198554E-002   8.9923300885350610E-003   1.9990878999997519E-002
  -2.8949151492782876E-002   8.2616028972521405E-003   1.9318199926498247E-002
  -2.6536822666367185E-002   7.5221708410151411E-003   1.8641844124557411E-002
  -2.4124493839951466E-002   6.7740339198234245E-003   1.7961811594175023E-002
  -2.1712165013535817E-002   6.0171921336780176E-003   1.7278102335350654E-002
  -3.4387845549175761E-002   9.9768757916434136E-003   1.3528965849079921E-002
  -3.1950999935391612E-002   9.2364135183690688E-003   1.2844497479754802E-002
  -2.9514154321607373E-002   8.5307354566388077E-003   1.2212739413608509E-002
  -2.7077308707823149E-002   7.8598416064518291E-003   1.1633691650640925E-002
  -2.4640463094038931E-002   7.2237319678086220E-003   1.1107354190852070E-002
  -3.7467233264083737E-002   1.0961421494751655E-002   7.0355730779222275E-003
  -3.4949483831310614E-002   1.0211224139486080E-002   6.3828044892693669E-003
  -3.2431734398537554E-002   9.5393000722625368E-003   5.8391332354154578E-003
  -2.9913984965764417E-002   8.9456492930800133E-003   5.4045593163603942E-003
  -2.7396235532991364E-002   8.4302718019396983E-003   5.0790827321048268E-003
  -4.0599643463922530E-002   1.1945967197860119E-002   5.1070068652414591E-004
  -3.7944603180540160E-002   1.1186034760603314E-002  -6.6879044958834122E-005
  -3.5289562897157734E-002   1.0547864687886543E-002  -4.7897441002239804E-004
  -3.2634522613775335E-002   1.0031456979708434E-002  -7.2558540866667770E-004
  -2.9979482330392937E-002   9.6368116360701084E-003  -8.0671204089122206E-004
  -1.8611341291481842E-002   4.8106522995473577E-003   2.3591327165600862E-002
  -1.5609762665052929E-002   4.0926246328398252E-003   2.4374352258659027E-002
  -1.2608184038623987E-002   3.7458834414657305E-003   2.5635490894367507E-002
  -9.6066054121950739E-003   3.7704287254245669E-003   2.7374743072726387E-002
  -6.6050267857661327E-003   4.1662604847170215E-003   2.9592108793735417E-002
  -2.1712165013535817E-002   6.0171921336780176E-003   1.7278102335350654E-002
  -1.8506384065427248E-002   5.3478569173158741E-003   1.8237244088916249E-002
  -1.5300603117318762E-002   4.8622397054750022E-003   1.9126676943190507E-002
  -1.2094822169210220E-002   4.5603404981550827E-003   1.9946400898173663E-002
  -8.8890412211017067E-003   4.4421592953565181E-003   2.0696415953865843E-002
  -2.4640463094038931E-002   7.2237319678086220E-003   1.1107354190852070E-002
  -2.1778302266192262E-002   6.6030892017917286E-003   1.2055044134112708E-002
  -1.8916141438345670E-002   5.9785959694841767E-003   1.2385202736140813E-002
  -1.6053980610498987E-002   5.3502522708856019E-003   1.2097829996935976E-002
  -1.3191819782652298E-002   4.7180581059960147E-003   1.1192925916499119E-002
  -2.7396235532991364E-002   8.4302718019396983E-003   5.0790827321048268E-003
  -2.5425517267347986E-002   7.8583214862675138E-003   5.8277523942486878E-003
  -2.3454799001704697E-002   7.0949522334936774E-003   5.4110682732180330E-003
  -2.1484080736061326E-002   6.1401640436158974E-003   3.8290303690138566E-003
  -1.9513362470418034E-002   4.9939569166357334E-003   1.0816386816353829E-003
  -2.9979482330392937E-002   9.6368116360701084E-003  -8.0671204089122206E-004
  -2.9448029068894321E-002   9.1135537707437431E-003  -4.4463113067655380E-004
  -2.8916575807395817E-002   8.2113084975028450E-003  -1.7957264455773780E-003
  -2.8385122545897312E-002   6.9300758163463039E-003  -4.8599979855938683E-003
  -2.7853669284398697E-002   5.2698557272747859E-003  -9.6374457507253375E-003
  -6.6050267857661327E-003   4.1662604847170215E-003   2.9592108793735417E-002
  -6.0699290295814778E-003   6.1369453959712050E-003   3.4078833802853703E-002
  -5.5348312733967675E-003   1.0886050135814840E-002   3.9246042679667692E-002
  -4.9997335172120710E-003   1.8413574704248828E-002   4.5093735424178327E-002
  -4.4646357610274023E-003   2.8719519101272351E-002   5.1621912036383666E-002
  -8.8890412211017067E-003   4.4421592953565181E-003   2.0696415953865843E-002
  -7.5985026187913862E-003   5.6580952471350088E-003   2.5870801881810346E-002
  -6.3079640164809964E-003   9.3585475035478094E-003   3.1875585634310255E-002
  -5.0174254141705024E-003   1.5543516064592866E-002   3.8710767211365404E-002
  -3.7268868118601750E-003   2.4213000930271900E-002   4.6376346612976516E-002
  -1.3191819782652298E-002   4.7180581059960147E-003   1.1192925916499119E-002
  -1.0995926377356843E-002   5.1792450982991456E-003   1.6761069239313475E-002
  -8.8000329720611808E-003   7.8310448712804182E-003   2.3309524343542831E-002
  -6.6041395667655496E-003   1.2673457424936731E-002   3.0838291229186923E-002
  -4.4082461614700641E-003   1.9706482759271671E-002   3.9347369896246431E-002
  -1.9513362470418034E-002   4.9939569166357334E-003   1.0816386816353829E-003
  -1.6262200305277814E-002   4.7003949494634489E-003   6.7496358753632579E-003
  -1.3011038140137510E-002   6.3035422390123191E-003   1.3547858807365816E-002
  -9.7598759749973757E-003   9.8033987852811262E-003   2.1476307477642096E-002
  -6.5087138098569863E-003   1.5199964588271331E-002   3.0534981886193663E-002
  -2.7853669284398697E-002   5.2698557272747859E-003  -9.6374457507253375E-003
  -2.3397324402554376E-002   4.2215448006273082E-003  -4.1634982100404172E-003
  -1.8940979520709944E-002   4.7760396067456079E-003   2.5905890257782171E-003
  -1.4484634638865512E-002   6.9333401456248694E-003   1.0624815956731141E-002
  -1.0028289757021192E-002   1.0693446417270991E-002   1.9939182582817461E-002
 </DataArray>
 </PointData>
 </Piece>
 </UnstructuredGrid>
 </VTKFile>
