 <VTKFile type="UnstructuredGrid"  version="0.1"   >
 <UnstructuredGrid>
 <Piece  NumberOfPoints="          1600 "  NumberOfCells="         1024 ">
 <Points>
 <DataArray  type="Float64" NumberOfComponents="3"  format="ascii" >
   0.0000000000000000        0.0000000000000000        0.0000000000000000     
   3.1250000000000000E-002   0.0000000000000000        0.0000000000000000     
   6.2500000000000000E-002   0.0000000000000000        0.0000000000000000     
   9.3750000000000000E-002   0.0000000000000000        0.0000000000000000     
  0.12500000000000000        0.0000000000000000        0.0000000000000000     
   0.0000000000000000        3.1250000000000000E-002   0.0000000000000000     
   3.1250000000000000E-002   3.1250000000000000E-002   0.0000000000000000     
   6.2500000000000000E-002   3.1250000000000000E-002   0.0000000000000000     
   9.3750000000000000E-002   3.1250000000000000E-002   0.0000000000000000     
  0.12500000000000000        3.1250000000000000E-002   0.0000000000000000     
   0.0000000000000000        6.2500000000000000E-002   0.0000000000000000     
   3.1250000000000000E-002   6.2500000000000000E-002   0.0000000000000000     
   6.2500000000000000E-002   6.2500000000000000E-002   0.0000000000000000     
   9.3750000000000000E-002   6.2500000000000000E-002   0.0000000000000000     
  0.12500000000000000        6.2500000000000000E-002   0.0000000000000000     
   0.0000000000000000        9.3750000000000000E-002   0.0000000000000000     
   3.1250000000000000E-002   9.3750000000000000E-002   0.0000000000000000     
   6.2500000000000000E-002   9.3750000000000000E-002   0.0000000000000000     
   9.3750000000000000E-002   9.3750000000000000E-002   0.0000000000000000     
  0.12500000000000000        9.3750000000000000E-002   0.0000000000000000     
   0.0000000000000000       0.12500000000000000        0.0000000000000000     
   3.1250000000000000E-002  0.12500000000000000        0.0000000000000000     
   6.2500000000000000E-002  0.12500000000000000        0.0000000000000000     
   9.3750000000000000E-002  0.12500000000000000        0.0000000000000000     
  0.12500000000000000       0.12500000000000000        0.0000000000000000     
  0.12500000000000000        0.0000000000000000        0.0000000000000000     
  0.15625000000000000        0.0000000000000000        0.0000000000000000     
  0.18750000000000000        0.0000000000000000        0.0000000000000000     
  0.21875000000000000        0.0000000000000000        0.0000000000000000     
  0.25000000000000000        0.0000000000000000        0.0000000000000000     
  0.12500000000000000        3.1250000000000000E-002   0.0000000000000000     
  0.15625000000000000        3.1250000000000000E-002   0.0000000000000000     
  0.18750000000000000        3.1250000000000000E-002   0.0000000000000000     
  0.21875000000000000        3.1250000000000000E-002   0.0000000000000000     
  0.25000000000000000        3.1250000000000000E-002   0.0000000000000000     
  0.12500000000000000        6.2500000000000000E-002   0.0000000000000000     
  0.15625000000000000        6.2500000000000000E-002   0.0000000000000000     
  0.18750000000000000        6.2500000000000000E-002   0.0000000000000000     
  0.21875000000000000        6.2500000000000000E-002   0.0000000000000000     
  0.25000000000000000        6.2500000000000000E-002   0.0000000000000000     
  0.12500000000000000        9.3750000000000000E-002   0.0000000000000000     
  0.15625000000000000        9.3750000000000000E-002   0.0000000000000000     
  0.18750000000000000        9.3750000000000000E-002   0.0000000000000000     
  0.21875000000000000        9.3750000000000000E-002   0.0000000000000000     
  0.25000000000000000        9.3750000000000000E-002   0.0000000000000000     
  0.12500000000000000       0.12500000000000000        0.0000000000000000     
  0.15625000000000000       0.12500000000000000        0.0000000000000000     
  0.18750000000000000       0.12500000000000000        0.0000000000000000     
  0.21875000000000000       0.12500000000000000        0.0000000000000000     
  0.25000000000000000       0.12500000000000000        0.0000000000000000     
  0.25000000000000000        0.0000000000000000        0.0000000000000000     
  0.28125000000000000        0.0000000000000000        0.0000000000000000     
  0.31250000000000000        0.0000000000000000        0.0000000000000000     
  0.34375000000000000        0.0000000000000000        0.0000000000000000     
  0.37500000000000000        0.0000000000000000        0.0000000000000000     
  0.25000000000000000        3.1250000000000000E-002   0.0000000000000000     
  0.28125000000000000        3.1250000000000000E-002   0.0000000000000000     
  0.31250000000000000        3.1250000000000000E-002   0.0000000000000000     
  0.34375000000000000        3.1250000000000000E-002   0.0000000000000000     
  0.37500000000000000        3.1250000000000000E-002   0.0000000000000000     
  0.25000000000000000        6.2500000000000000E-002   0.0000000000000000     
  0.28125000000000000        6.2500000000000000E-002   0.0000000000000000     
  0.31250000000000000        6.2500000000000000E-002   0.0000000000000000     
  0.34375000000000000        6.2500000000000000E-002   0.0000000000000000     
  0.37500000000000000        6.2500000000000000E-002   0.0000000000000000     
  0.25000000000000000        9.3750000000000000E-002   0.0000000000000000     
  0.28125000000000000        9.3750000000000000E-002   0.0000000000000000     
  0.31250000000000000        9.3750000000000000E-002   0.0000000000000000     
  0.34375000000000000        9.3750000000000000E-002   0.0000000000000000     
  0.37500000000000000        9.3750000000000000E-002   0.0000000000000000     
  0.25000000000000000       0.12500000000000000        0.0000000000000000     
  0.28125000000000000       0.12500000000000000        0.0000000000000000     
  0.31250000000000000       0.12500000000000000        0.0000000000000000     
  0.34375000000000000       0.12500000000000000        0.0000000000000000     
  0.37500000000000000       0.12500000000000000        0.0000000000000000     
  0.37500000000000000        0.0000000000000000        0.0000000000000000     
  0.40625000000000000        0.0000000000000000        0.0000000000000000     
  0.43750000000000000        0.0000000000000000        0.0000000000000000     
  0.46875000000000000        0.0000000000000000        0.0000000000000000     
  0.50000000000000000        0.0000000000000000        0.0000000000000000     
  0.37500000000000000        3.1250000000000000E-002   0.0000000000000000     
  0.40625000000000000        3.1250000000000000E-002   0.0000000000000000     
  0.43750000000000000        3.1250000000000000E-002   0.0000000000000000     
  0.46875000000000000        3.1250000000000000E-002   0.0000000000000000     
  0.50000000000000000        3.1250000000000000E-002   0.0000000000000000     
  0.37500000000000000        6.2500000000000000E-002   0.0000000000000000     
  0.40625000000000000        6.2500000000000000E-002   0.0000000000000000     
  0.43750000000000000        6.2500000000000000E-002   0.0000000000000000     
  0.46875000000000000        6.2500000000000000E-002   0.0000000000000000     
  0.50000000000000000        6.2500000000000000E-002   0.0000000000000000     
  0.37500000000000000        9.3750000000000000E-002   0.0000000000000000     
  0.40625000000000000        9.3750000000000000E-002   0.0000000000000000     
  0.43750000000000000        9.3750000000000000E-002   0.0000000000000000     
  0.46875000000000000        9.3750000000000000E-002   0.0000000000000000     
  0.50000000000000000        9.3750000000000000E-002   0.0000000000000000     
  0.37500000000000000       0.12500000000000000        0.0000000000000000     
  0.40625000000000000       0.12500000000000000        0.0000000000000000     
  0.43750000000000000       0.12500000000000000        0.0000000000000000     
  0.46875000000000000       0.12500000000000000        0.0000000000000000     
  0.50000000000000000       0.12500000000000000        0.0000000000000000     
  0.50000000000000000        0.0000000000000000        0.0000000000000000     
  0.53125000000000000        0.0000000000000000        0.0000000000000000     
  0.56250000000000000        0.0000000000000000        0.0000000000000000     
  0.59375000000000000        0.0000000000000000        0.0000000000000000     
  0.62500000000000000        0.0000000000000000        0.0000000000000000     
  0.50000000000000000        3.1250000000000000E-002   0.0000000000000000     
  0.53125000000000000        3.1250000000000000E-002   0.0000000000000000     
  0.56250000000000000        3.1250000000000000E-002   0.0000000000000000     
  0.59375000000000000        3.1250000000000000E-002   0.0000000000000000     
  0.62500000000000000        3.1250000000000000E-002   0.0000000000000000     
  0.50000000000000000        6.2500000000000000E-002   0.0000000000000000     
  0.53125000000000000        6.2500000000000000E-002   0.0000000000000000     
  0.56250000000000000        6.2500000000000000E-002   0.0000000000000000     
  0.59375000000000000        6.2500000000000000E-002   0.0000000000000000     
  0.62500000000000000        6.2500000000000000E-002   0.0000000000000000     
  0.50000000000000000        9.3750000000000000E-002   0.0000000000000000     
  0.53125000000000000        9.3750000000000000E-002   0.0000000000000000     
  0.56250000000000000        9.3750000000000000E-002   0.0000000000000000     
  0.59375000000000000        9.3750000000000000E-002   0.0000000000000000     
  0.62500000000000000        9.3750000000000000E-002   0.0000000000000000     
  0.50000000000000000       0.12500000000000000        0.0000000000000000     
  0.53125000000000000       0.12500000000000000        0.0000000000000000     
  0.56250000000000000       0.12500000000000000        0.0000000000000000     
  0.59375000000000000       0.12500000000000000        0.0000000000000000     
  0.62500000000000000       0.12500000000000000        0.0000000000000000     
  0.62500000000000000        0.0000000000000000        0.0000000000000000     
  0.65625000000000000        0.0000000000000000        0.0000000000000000     
  0.68750000000000000        0.0000000000000000        0.0000000000000000     
  0.71875000000000000        0.0000000000000000        0.0000000000000000     
  0.75000000000000000        0.0000000000000000        0.0000000000000000     
  0.62500000000000000        3.1250000000000000E-002   0.0000000000000000     
  0.65625000000000000        3.1250000000000000E-002   0.0000000000000000     
  0.68750000000000000        3.1250000000000000E-002   0.0000000000000000     
  0.71875000000000000        3.1250000000000000E-002   0.0000000000000000     
  0.75000000000000000        3.1250000000000000E-002   0.0000000000000000     
  0.62500000000000000        6.2500000000000000E-002   0.0000000000000000     
  0.65625000000000000        6.2500000000000000E-002   0.0000000000000000     
  0.68750000000000000        6.2500000000000000E-002   0.0000000000000000     
  0.71875000000000000        6.2500000000000000E-002   0.0000000000000000     
  0.75000000000000000        6.2500000000000000E-002   0.0000000000000000     
  0.62500000000000000        9.3750000000000000E-002   0.0000000000000000     
  0.65625000000000000        9.3750000000000000E-002   0.0000000000000000     
  0.68750000000000000        9.3750000000000000E-002   0.0000000000000000     
  0.71875000000000000        9.3750000000000000E-002   0.0000000000000000     
  0.75000000000000000        9.3750000000000000E-002   0.0000000000000000     
  0.62500000000000000       0.12500000000000000        0.0000000000000000     
  0.65625000000000000       0.12500000000000000        0.0000000000000000     
  0.68750000000000000       0.12500000000000000        0.0000000000000000     
  0.71875000000000000       0.12500000000000000        0.0000000000000000     
  0.75000000000000000       0.12500000000000000        0.0000000000000000     
  0.75000000000000000        0.0000000000000000        0.0000000000000000     
  0.78125000000000000        0.0000000000000000        0.0000000000000000     
  0.81250000000000000        0.0000000000000000        0.0000000000000000     
  0.84375000000000000        0.0000000000000000        0.0000000000000000     
  0.87500000000000000        0.0000000000000000        0.0000000000000000     
  0.75000000000000000        3.1250000000000000E-002   0.0000000000000000     
  0.78125000000000000        3.1250000000000000E-002   0.0000000000000000     
  0.81250000000000000        3.1250000000000000E-002   0.0000000000000000     
  0.84375000000000000        3.1250000000000000E-002   0.0000000000000000     
  0.87500000000000000        3.1250000000000000E-002   0.0000000000000000     
  0.75000000000000000        6.2500000000000000E-002   0.0000000000000000     
  0.78125000000000000        6.2500000000000000E-002   0.0000000000000000     
  0.81250000000000000        6.2500000000000000E-002   0.0000000000000000     
  0.84375000000000000        6.2500000000000000E-002   0.0000000000000000     
  0.87500000000000000        6.2500000000000000E-002   0.0000000000000000     
  0.75000000000000000        9.3750000000000000E-002   0.0000000000000000     
  0.78125000000000000        9.3750000000000000E-002   0.0000000000000000     
  0.81250000000000000        9.3750000000000000E-002   0.0000000000000000     
  0.84375000000000000        9.3750000000000000E-002   0.0000000000000000     
  0.87500000000000000        9.3750000000000000E-002   0.0000000000000000     
  0.75000000000000000       0.12500000000000000        0.0000000000000000     
  0.78125000000000000       0.12500000000000000        0.0000000000000000     
  0.81250000000000000       0.12500000000000000        0.0000000000000000     
  0.84375000000000000       0.12500000000000000        0.0000000000000000     
  0.87500000000000000       0.12500000000000000        0.0000000000000000     
  0.87500000000000000        0.0000000000000000        0.0000000000000000     
  0.90625000000000000        0.0000000000000000        0.0000000000000000     
  0.93750000000000000        0.0000000000000000        0.0000000000000000     
  0.96875000000000000        0.0000000000000000        0.0000000000000000     
   1.0000000000000000        0.0000000000000000        0.0000000000000000     
  0.87500000000000000        3.1250000000000000E-002   0.0000000000000000     
  0.90625000000000000        3.1250000000000000E-002   0.0000000000000000     
  0.93750000000000000        3.1250000000000000E-002   0.0000000000000000     
  0.96875000000000000        3.1250000000000000E-002   0.0000000000000000     
   1.0000000000000000        3.1250000000000000E-002   0.0000000000000000     
  0.87500000000000000        6.2500000000000000E-002   0.0000000000000000     
  0.90625000000000000        6.2500000000000000E-002   0.0000000000000000     
  0.93750000000000000        6.2500000000000000E-002   0.0000000000000000     
  0.96875000000000000        6.2500000000000000E-002   0.0000000000000000     
   1.0000000000000000        6.2500000000000000E-002   0.0000000000000000     
  0.87500000000000000        9.3750000000000000E-002   0.0000000000000000     
  0.90625000000000000        9.3750000000000000E-002   0.0000000000000000     
  0.93750000000000000        9.3750000000000000E-002   0.0000000000000000     
  0.96875000000000000        9.3750000000000000E-002   0.0000000000000000     
   1.0000000000000000        9.3750000000000000E-002   0.0000000000000000     
  0.87500000000000000       0.12500000000000000        0.0000000000000000     
  0.90625000000000000       0.12500000000000000        0.0000000000000000     
  0.93750000000000000       0.12500000000000000        0.0000000000000000     
  0.96875000000000000       0.12500000000000000        0.0000000000000000     
   1.0000000000000000       0.12500000000000000        0.0000000000000000     
   0.0000000000000000       0.12500000000000000        0.0000000000000000     
   3.1250000000000000E-002  0.12500000000000000        0.0000000000000000     
   6.2500000000000000E-002  0.12500000000000000        0.0000000000000000     
   9.3750000000000000E-002  0.12500000000000000        0.0000000000000000     
  0.12500000000000000       0.12500000000000000        0.0000000000000000     
   0.0000000000000000       0.15625000000000000        0.0000000000000000     
   3.1250000000000000E-002  0.15625000000000000        0.0000000000000000     
   6.2500000000000000E-002  0.15625000000000000        0.0000000000000000     
   9.3750000000000000E-002  0.15625000000000000        0.0000000000000000     
  0.12500000000000000       0.15625000000000000        0.0000000000000000     
   0.0000000000000000       0.18750000000000000        0.0000000000000000     
   3.1250000000000000E-002  0.18750000000000000        0.0000000000000000     
   6.2500000000000000E-002  0.18750000000000000        0.0000000000000000     
   9.3750000000000000E-002  0.18750000000000000        0.0000000000000000     
  0.12500000000000000       0.18750000000000000        0.0000000000000000     
   0.0000000000000000       0.21875000000000000        0.0000000000000000     
   3.1250000000000000E-002  0.21875000000000000        0.0000000000000000     
   6.2500000000000000E-002  0.21875000000000000        0.0000000000000000     
   9.3750000000000000E-002  0.21875000000000000        0.0000000000000000     
  0.12500000000000000       0.21875000000000000        0.0000000000000000     
   0.0000000000000000       0.25000000000000000        0.0000000000000000     
   3.1250000000000000E-002  0.25000000000000000        0.0000000000000000     
   6.2500000000000000E-002  0.25000000000000000        0.0000000000000000     
   9.3750000000000000E-002  0.25000000000000000        0.0000000000000000     
  0.12500000000000000       0.25000000000000000        0.0000000000000000     
  0.12500000000000000       0.12500000000000000        0.0000000000000000     
  0.15625000000000000       0.12500000000000000        0.0000000000000000     
  0.18750000000000000       0.12500000000000000        0.0000000000000000     
  0.21875000000000000       0.12500000000000000        0.0000000000000000     
  0.25000000000000000       0.12500000000000000        0.0000000000000000     
  0.12500000000000000       0.15625000000000000        0.0000000000000000     
  0.15625000000000000       0.15625000000000000        0.0000000000000000     
  0.18750000000000000       0.15625000000000000        0.0000000000000000     
  0.21875000000000000       0.15625000000000000        0.0000000000000000     
  0.25000000000000000       0.15625000000000000        0.0000000000000000     
  0.12500000000000000       0.18750000000000000        0.0000000000000000     
  0.15625000000000000       0.18750000000000000        0.0000000000000000     
  0.18750000000000000       0.18750000000000000        0.0000000000000000     
  0.21875000000000000       0.18750000000000000        0.0000000000000000     
  0.25000000000000000       0.18750000000000000        0.0000000000000000     
  0.12500000000000000       0.21875000000000000        0.0000000000000000     
  0.15625000000000000       0.21875000000000000        0.0000000000000000     
  0.18750000000000000       0.21875000000000000        0.0000000000000000     
  0.21875000000000000       0.21875000000000000        0.0000000000000000     
  0.25000000000000000       0.21875000000000000        0.0000000000000000     
  0.12500000000000000       0.25000000000000000        0.0000000000000000     
  0.15625000000000000       0.25000000000000000        0.0000000000000000     
  0.18750000000000000       0.25000000000000000        0.0000000000000000     
  0.21875000000000000       0.25000000000000000        0.0000000000000000     
  0.25000000000000000       0.25000000000000000        0.0000000000000000     
  0.25000000000000000       0.12500000000000000        0.0000000000000000     
  0.28125000000000000       0.12500000000000000        0.0000000000000000     
  0.31250000000000000       0.12500000000000000        0.0000000000000000     
  0.34375000000000000       0.12500000000000000        0.0000000000000000     
  0.37500000000000000       0.12500000000000000        0.0000000000000000     
  0.25000000000000000       0.15625000000000000        0.0000000000000000     
  0.28125000000000000       0.15625000000000000        0.0000000000000000     
  0.31250000000000000       0.15625000000000000        0.0000000000000000     
  0.34375000000000000       0.15625000000000000        0.0000000000000000     
  0.37500000000000000       0.15625000000000000        0.0000000000000000     
  0.25000000000000000       0.18750000000000000        0.0000000000000000     
  0.28125000000000000       0.18750000000000000        0.0000000000000000     
  0.31250000000000000       0.18750000000000000        0.0000000000000000     
  0.34375000000000000       0.18750000000000000        0.0000000000000000     
  0.37500000000000000       0.18750000000000000        0.0000000000000000     
  0.25000000000000000       0.21875000000000000        0.0000000000000000     
  0.28125000000000000       0.21875000000000000        0.0000000000000000     
  0.31250000000000000       0.21875000000000000        0.0000000000000000     
  0.34375000000000000       0.21875000000000000        0.0000000000000000     
  0.37500000000000000       0.21875000000000000        0.0000000000000000     
  0.25000000000000000       0.25000000000000000        0.0000000000000000     
  0.28125000000000000       0.25000000000000000        0.0000000000000000     
  0.31250000000000000       0.25000000000000000        0.0000000000000000     
  0.34375000000000000       0.25000000000000000        0.0000000000000000     
  0.37500000000000000       0.25000000000000000        0.0000000000000000     
  0.37500000000000000       0.12500000000000000        0.0000000000000000     
  0.40625000000000000       0.12500000000000000        0.0000000000000000     
  0.43750000000000000       0.12500000000000000        0.0000000000000000     
  0.46875000000000000       0.12500000000000000        0.0000000000000000     
  0.50000000000000000       0.12500000000000000        0.0000000000000000     
  0.37500000000000000       0.15625000000000000        0.0000000000000000     
  0.40625000000000000       0.15625000000000000        0.0000000000000000     
  0.43750000000000000       0.15625000000000000        0.0000000000000000     
  0.46875000000000000       0.15625000000000000        0.0000000000000000     
  0.50000000000000000       0.15625000000000000        0.0000000000000000     
  0.37500000000000000       0.18750000000000000        0.0000000000000000     
  0.40625000000000000       0.18750000000000000        0.0000000000000000     
  0.43750000000000000       0.18750000000000000        0.0000000000000000     
  0.46875000000000000       0.18750000000000000        0.0000000000000000     
  0.50000000000000000       0.18750000000000000        0.0000000000000000     
  0.37500000000000000       0.21875000000000000        0.0000000000000000     
  0.40625000000000000       0.21875000000000000        0.0000000000000000     
  0.43750000000000000       0.21875000000000000        0.0000000000000000     
  0.46875000000000000       0.21875000000000000        0.0000000000000000     
  0.50000000000000000       0.21875000000000000        0.0000000000000000     
  0.37500000000000000       0.25000000000000000        0.0000000000000000     
  0.40625000000000000       0.25000000000000000        0.0000000000000000     
  0.43750000000000000       0.25000000000000000        0.0000000000000000     
  0.46875000000000000       0.25000000000000000        0.0000000000000000     
  0.50000000000000000       0.25000000000000000        0.0000000000000000     
  0.50000000000000000       0.12500000000000000        0.0000000000000000     
  0.53125000000000000       0.12500000000000000        0.0000000000000000     
  0.56250000000000000       0.12500000000000000        0.0000000000000000     
  0.59375000000000000       0.12500000000000000        0.0000000000000000     
  0.62500000000000000       0.12500000000000000        0.0000000000000000     
  0.50000000000000000       0.15625000000000000        0.0000000000000000     
  0.53125000000000000       0.15625000000000000        0.0000000000000000     
  0.56250000000000000       0.15625000000000000        0.0000000000000000     
  0.59375000000000000       0.15625000000000000        0.0000000000000000     
  0.62500000000000000       0.15625000000000000        0.0000000000000000     
  0.50000000000000000       0.18750000000000000        0.0000000000000000     
  0.53125000000000000       0.18750000000000000        0.0000000000000000     
  0.56250000000000000       0.18750000000000000        0.0000000000000000     
  0.59375000000000000       0.18750000000000000        0.0000000000000000     
  0.62500000000000000       0.18750000000000000        0.0000000000000000     
  0.50000000000000000       0.21875000000000000        0.0000000000000000     
  0.53125000000000000       0.21875000000000000        0.0000000000000000     
  0.56250000000000000       0.21875000000000000        0.0000000000000000     
  0.59375000000000000       0.21875000000000000        0.0000000000000000     
  0.62500000000000000       0.21875000000000000        0.0000000000000000     
  0.50000000000000000       0.25000000000000000        0.0000000000000000     
  0.53125000000000000       0.25000000000000000        0.0000000000000000     
  0.56250000000000000       0.25000000000000000        0.0000000000000000     
  0.59375000000000000       0.25000000000000000        0.0000000000000000     
  0.62500000000000000       0.25000000000000000        0.0000000000000000     
  0.62500000000000000       0.12500000000000000        0.0000000000000000     
  0.65625000000000000       0.12500000000000000        0.0000000000000000     
  0.68750000000000000       0.12500000000000000        0.0000000000000000     
  0.71875000000000000       0.12500000000000000        0.0000000000000000     
  0.75000000000000000       0.12500000000000000        0.0000000000000000     
  0.62500000000000000       0.15625000000000000        0.0000000000000000     
  0.65625000000000000       0.15625000000000000        0.0000000000000000     
  0.68750000000000000       0.15625000000000000        0.0000000000000000     
  0.71875000000000000       0.15625000000000000        0.0000000000000000     
  0.75000000000000000       0.15625000000000000        0.0000000000000000     
  0.62500000000000000       0.18750000000000000        0.0000000000000000     
  0.65625000000000000       0.18750000000000000        0.0000000000000000     
  0.68750000000000000       0.18750000000000000        0.0000000000000000     
  0.71875000000000000       0.18750000000000000        0.0000000000000000     
  0.75000000000000000       0.18750000000000000        0.0000000000000000     
  0.62500000000000000       0.21875000000000000        0.0000000000000000     
  0.65625000000000000       0.21875000000000000        0.0000000000000000     
  0.68750000000000000       0.21875000000000000        0.0000000000000000     
  0.71875000000000000       0.21875000000000000        0.0000000000000000     
  0.75000000000000000       0.21875000000000000        0.0000000000000000     
  0.62500000000000000       0.25000000000000000        0.0000000000000000     
  0.65625000000000000       0.25000000000000000        0.0000000000000000     
  0.68750000000000000       0.25000000000000000        0.0000000000000000     
  0.71875000000000000       0.25000000000000000        0.0000000000000000     
  0.75000000000000000       0.25000000000000000        0.0000000000000000     
  0.75000000000000000       0.12500000000000000        0.0000000000000000     
  0.78125000000000000       0.12500000000000000        0.0000000000000000     
  0.81250000000000000       0.12500000000000000        0.0000000000000000     
  0.84375000000000000       0.12500000000000000        0.0000000000000000     
  0.87500000000000000       0.12500000000000000        0.0000000000000000     
  0.75000000000000000       0.15625000000000000        0.0000000000000000     
  0.78125000000000000       0.15625000000000000        0.0000000000000000     
  0.81250000000000000       0.15625000000000000        0.0000000000000000     
  0.84375000000000000       0.15625000000000000        0.0000000000000000     
  0.87500000000000000       0.15625000000000000        0.0000000000000000     
  0.75000000000000000       0.18750000000000000        0.0000000000000000     
  0.78125000000000000       0.18750000000000000        0.0000000000000000     
  0.81250000000000000       0.18750000000000000        0.0000000000000000     
  0.84375000000000000       0.18750000000000000        0.0000000000000000     
  0.87500000000000000       0.18750000000000000        0.0000000000000000     
  0.75000000000000000       0.21875000000000000        0.0000000000000000     
  0.78125000000000000       0.21875000000000000        0.0000000000000000     
  0.81250000000000000       0.21875000000000000        0.0000000000000000     
  0.84375000000000000       0.21875000000000000        0.0000000000000000     
  0.87500000000000000       0.21875000000000000        0.0000000000000000     
  0.75000000000000000       0.25000000000000000        0.0000000000000000     
  0.78125000000000000       0.25000000000000000        0.0000000000000000     
  0.81250000000000000       0.25000000000000000        0.0000000000000000     
  0.84375000000000000       0.25000000000000000        0.0000000000000000     
  0.87500000000000000       0.25000000000000000        0.0000000000000000     
  0.87500000000000000       0.12500000000000000        0.0000000000000000     
  0.90625000000000000       0.12500000000000000        0.0000000000000000     
  0.93750000000000000       0.12500000000000000        0.0000000000000000     
  0.96875000000000000       0.12500000000000000        0.0000000000000000     
   1.0000000000000000       0.12500000000000000        0.0000000000000000     
  0.87500000000000000       0.15625000000000000        0.0000000000000000     
  0.90625000000000000       0.15625000000000000        0.0000000000000000     
  0.93750000000000000       0.15625000000000000        0.0000000000000000     
  0.96875000000000000       0.15625000000000000        0.0000000000000000     
   1.0000000000000000       0.15625000000000000        0.0000000000000000     
  0.87500000000000000       0.18750000000000000        0.0000000000000000     
  0.90625000000000000       0.18750000000000000        0.0000000000000000     
  0.93750000000000000       0.18750000000000000        0.0000000000000000     
  0.96875000000000000       0.18750000000000000        0.0000000000000000     
   1.0000000000000000       0.18750000000000000        0.0000000000000000     
  0.87500000000000000       0.21875000000000000        0.0000000000000000     
  0.90625000000000000       0.21875000000000000        0.0000000000000000     
  0.93750000000000000       0.21875000000000000        0.0000000000000000     
  0.96875000000000000       0.21875000000000000        0.0000000000000000     
   1.0000000000000000       0.21875000000000000        0.0000000000000000     
  0.87500000000000000       0.25000000000000000        0.0000000000000000     
  0.90625000000000000       0.25000000000000000        0.0000000000000000     
  0.93750000000000000       0.25000000000000000        0.0000000000000000     
  0.96875000000000000       0.25000000000000000        0.0000000000000000     
   1.0000000000000000       0.25000000000000000        0.0000000000000000     
   0.0000000000000000       0.25000000000000000        0.0000000000000000     
   3.1250000000000000E-002  0.25000000000000000        0.0000000000000000     
   6.2500000000000000E-002  0.25000000000000000        0.0000000000000000     
   9.3750000000000000E-002  0.25000000000000000        0.0000000000000000     
  0.12500000000000000       0.25000000000000000        0.0000000000000000     
   0.0000000000000000       0.28125000000000000        0.0000000000000000     
   3.1250000000000000E-002  0.28125000000000000        0.0000000000000000     
   6.2500000000000000E-002  0.28125000000000000        0.0000000000000000     
   9.3750000000000000E-002  0.28125000000000000        0.0000000000000000     
  0.12500000000000000       0.28125000000000000        0.0000000000000000     
   0.0000000000000000       0.31250000000000000        0.0000000000000000     
   3.1250000000000000E-002  0.31250000000000000        0.0000000000000000     
   6.2500000000000000E-002  0.31250000000000000        0.0000000000000000     
   9.3750000000000000E-002  0.31250000000000000        0.0000000000000000     
  0.12500000000000000       0.31250000000000000        0.0000000000000000     
   0.0000000000000000       0.34375000000000000        0.0000000000000000     
   3.1250000000000000E-002  0.34375000000000000        0.0000000000000000     
   6.2500000000000000E-002  0.34375000000000000        0.0000000000000000     
   9.3750000000000000E-002  0.34375000000000000        0.0000000000000000     
  0.12500000000000000       0.34375000000000000        0.0000000000000000     
   0.0000000000000000       0.37500000000000000        0.0000000000000000     
   3.1250000000000000E-002  0.37500000000000000        0.0000000000000000     
   6.2500000000000000E-002  0.37500000000000000        0.0000000000000000     
   9.3750000000000000E-002  0.37500000000000000        0.0000000000000000     
  0.12500000000000000       0.37500000000000000        0.0000000000000000     
  0.12500000000000000       0.25000000000000000        0.0000000000000000     
  0.15625000000000000       0.25000000000000000        0.0000000000000000     
  0.18750000000000000       0.25000000000000000        0.0000000000000000     
  0.21875000000000000       0.25000000000000000        0.0000000000000000     
  0.25000000000000000       0.25000000000000000        0.0000000000000000     
  0.12500000000000000       0.28125000000000000        0.0000000000000000     
  0.15625000000000000       0.28125000000000000        0.0000000000000000     
  0.18750000000000000       0.28125000000000000        0.0000000000000000     
  0.21875000000000000       0.28125000000000000        0.0000000000000000     
  0.25000000000000000       0.28125000000000000        0.0000000000000000     
  0.12500000000000000       0.31250000000000000        0.0000000000000000     
  0.15625000000000000       0.31250000000000000        0.0000000000000000     
  0.18750000000000000       0.31250000000000000        0.0000000000000000     
  0.21875000000000000       0.31250000000000000        0.0000000000000000     
  0.25000000000000000       0.31250000000000000        0.0000000000000000     
  0.12500000000000000       0.34375000000000000        0.0000000000000000     
  0.15625000000000000       0.34375000000000000        0.0000000000000000     
  0.18750000000000000       0.34375000000000000        0.0000000000000000     
  0.21875000000000000       0.34375000000000000        0.0000000000000000     
  0.25000000000000000       0.34375000000000000        0.0000000000000000     
  0.12500000000000000       0.37500000000000000        0.0000000000000000     
  0.15625000000000000       0.37500000000000000        0.0000000000000000     
  0.18750000000000000       0.37500000000000000        0.0000000000000000     
  0.21875000000000000       0.37500000000000000        0.0000000000000000     
  0.25000000000000000       0.37500000000000000        0.0000000000000000     
  0.25000000000000000       0.25000000000000000        0.0000000000000000     
  0.28125000000000000       0.25000000000000000        0.0000000000000000     
  0.31250000000000000       0.25000000000000000        0.0000000000000000     
  0.34375000000000000       0.25000000000000000        0.0000000000000000     
  0.37500000000000000       0.25000000000000000        0.0000000000000000     
  0.25000000000000000       0.28125000000000000        0.0000000000000000     
  0.28125000000000000       0.28125000000000000        0.0000000000000000     
  0.31250000000000000       0.28125000000000000        0.0000000000000000     
  0.34375000000000000       0.28125000000000000        0.0000000000000000     
  0.37500000000000000       0.28125000000000000        0.0000000000000000     
  0.25000000000000000       0.31250000000000000        0.0000000000000000     
  0.28125000000000000       0.31250000000000000        0.0000000000000000     
  0.31250000000000000       0.31250000000000000        0.0000000000000000     
  0.34375000000000000       0.31250000000000000        0.0000000000000000     
  0.37500000000000000       0.31250000000000000        0.0000000000000000     
  0.25000000000000000       0.34375000000000000        0.0000000000000000     
  0.28125000000000000       0.34375000000000000        0.0000000000000000     
  0.31250000000000000       0.34375000000000000        0.0000000000000000     
  0.34375000000000000       0.34375000000000000        0.0000000000000000     
  0.37500000000000000       0.34375000000000000        0.0000000000000000     
  0.25000000000000000       0.37500000000000000        0.0000000000000000     
  0.28125000000000000       0.37500000000000000        0.0000000000000000     
  0.31250000000000000       0.37500000000000000        0.0000000000000000     
  0.34375000000000000       0.37500000000000000        0.0000000000000000     
  0.37500000000000000       0.37500000000000000        0.0000000000000000     
  0.37500000000000000       0.25000000000000000        0.0000000000000000     
  0.40625000000000000       0.25000000000000000        0.0000000000000000     
  0.43750000000000000       0.25000000000000000        0.0000000000000000     
  0.46875000000000000       0.25000000000000000        0.0000000000000000     
  0.50000000000000000       0.25000000000000000        0.0000000000000000     
  0.37500000000000000       0.28125000000000000        0.0000000000000000     
  0.40625000000000000       0.28125000000000000        0.0000000000000000     
  0.43750000000000000       0.28125000000000000        0.0000000000000000     
  0.46875000000000000       0.28125000000000000        0.0000000000000000     
  0.50000000000000000       0.28125000000000000        0.0000000000000000     
  0.37500000000000000       0.31250000000000000        0.0000000000000000     
  0.40625000000000000       0.31250000000000000        0.0000000000000000     
  0.43750000000000000       0.31250000000000000        0.0000000000000000     
  0.46875000000000000       0.31250000000000000        0.0000000000000000     
  0.50000000000000000       0.31250000000000000        0.0000000000000000     
  0.37500000000000000       0.34375000000000000        0.0000000000000000     
  0.40625000000000000       0.34375000000000000        0.0000000000000000     
  0.43750000000000000       0.34375000000000000        0.0000000000000000     
  0.46875000000000000       0.34375000000000000        0.0000000000000000     
  0.50000000000000000       0.34375000000000000        0.0000000000000000     
  0.37500000000000000       0.37500000000000000        0.0000000000000000     
  0.40625000000000000       0.37500000000000000        0.0000000000000000     
  0.43750000000000000       0.37500000000000000        0.0000000000000000     
  0.46875000000000000       0.37500000000000000        0.0000000000000000     
  0.50000000000000000       0.37500000000000000        0.0000000000000000     
  0.50000000000000000       0.25000000000000000        0.0000000000000000     
  0.53125000000000000       0.25000000000000000        0.0000000000000000     
  0.56250000000000000       0.25000000000000000        0.0000000000000000     
  0.59375000000000000       0.25000000000000000        0.0000000000000000     
  0.62500000000000000       0.25000000000000000        0.0000000000000000     
  0.50000000000000000       0.28125000000000000        0.0000000000000000     
  0.53125000000000000       0.28125000000000000        0.0000000000000000     
  0.56250000000000000       0.28125000000000000        0.0000000000000000     
  0.59375000000000000       0.28125000000000000        0.0000000000000000     
  0.62500000000000000       0.28125000000000000        0.0000000000000000     
  0.50000000000000000       0.31250000000000000        0.0000000000000000     
  0.53125000000000000       0.31250000000000000        0.0000000000000000     
  0.56250000000000000       0.31250000000000000        0.0000000000000000     
  0.59375000000000000       0.31250000000000000        0.0000000000000000     
  0.62500000000000000       0.31250000000000000        0.0000000000000000     
  0.50000000000000000       0.34375000000000000        0.0000000000000000     
  0.53125000000000000       0.34375000000000000        0.0000000000000000     
  0.56250000000000000       0.34375000000000000        0.0000000000000000     
  0.59375000000000000       0.34375000000000000        0.0000000000000000     
  0.62500000000000000       0.34375000000000000        0.0000000000000000     
  0.50000000000000000       0.37500000000000000        0.0000000000000000     
  0.53125000000000000       0.37500000000000000        0.0000000000000000     
  0.56250000000000000       0.37500000000000000        0.0000000000000000     
  0.59375000000000000       0.37500000000000000        0.0000000000000000     
  0.62500000000000000       0.37500000000000000        0.0000000000000000     
  0.62500000000000000       0.25000000000000000        0.0000000000000000     
  0.65625000000000000       0.25000000000000000        0.0000000000000000     
  0.68750000000000000       0.25000000000000000        0.0000000000000000     
  0.71875000000000000       0.25000000000000000        0.0000000000000000     
  0.75000000000000000       0.25000000000000000        0.0000000000000000     
  0.62500000000000000       0.28125000000000000        0.0000000000000000     
  0.65625000000000000       0.28125000000000000        0.0000000000000000     
  0.68750000000000000       0.28125000000000000        0.0000000000000000     
  0.71875000000000000       0.28125000000000000        0.0000000000000000     
  0.75000000000000000       0.28125000000000000        0.0000000000000000     
  0.62500000000000000       0.31250000000000000        0.0000000000000000     
  0.65625000000000000       0.31250000000000000        0.0000000000000000     
  0.68750000000000000       0.31250000000000000        0.0000000000000000     
  0.71875000000000000       0.31250000000000000        0.0000000000000000     
  0.75000000000000000       0.31250000000000000        0.0000000000000000     
  0.62500000000000000       0.34375000000000000        0.0000000000000000     
  0.65625000000000000       0.34375000000000000        0.0000000000000000     
  0.68750000000000000       0.34375000000000000        0.0000000000000000     
  0.71875000000000000       0.34375000000000000        0.0000000000000000     
  0.75000000000000000       0.34375000000000000        0.0000000000000000     
  0.62500000000000000       0.37500000000000000        0.0000000000000000     
  0.65625000000000000       0.37500000000000000        0.0000000000000000     
  0.68750000000000000       0.37500000000000000        0.0000000000000000     
  0.71875000000000000       0.37500000000000000        0.0000000000000000     
  0.75000000000000000       0.37500000000000000        0.0000000000000000     
  0.75000000000000000       0.25000000000000000        0.0000000000000000     
  0.78125000000000000       0.25000000000000000        0.0000000000000000     
  0.81250000000000000       0.25000000000000000        0.0000000000000000     
  0.84375000000000000       0.25000000000000000        0.0000000000000000     
  0.87500000000000000       0.25000000000000000        0.0000000000000000     
  0.75000000000000000       0.28125000000000000        0.0000000000000000     
  0.78125000000000000       0.28125000000000000        0.0000000000000000     
  0.81250000000000000       0.28125000000000000        0.0000000000000000     
  0.84375000000000000       0.28125000000000000        0.0000000000000000     
  0.87500000000000000       0.28125000000000000        0.0000000000000000     
  0.75000000000000000       0.31250000000000000        0.0000000000000000     
  0.78125000000000000       0.31250000000000000        0.0000000000000000     
  0.81250000000000000       0.31250000000000000        0.0000000000000000     
  0.84375000000000000       0.31250000000000000        0.0000000000000000     
  0.87500000000000000       0.31250000000000000        0.0000000000000000     
  0.75000000000000000       0.34375000000000000        0.0000000000000000     
  0.78125000000000000       0.34375000000000000        0.0000000000000000     
  0.81250000000000000       0.34375000000000000        0.0000000000000000     
  0.84375000000000000       0.34375000000000000        0.0000000000000000     
  0.87500000000000000       0.34375000000000000        0.0000000000000000     
  0.75000000000000000       0.37500000000000000        0.0000000000000000     
  0.78125000000000000       0.37500000000000000        0.0000000000000000     
  0.81250000000000000       0.37500000000000000        0.0000000000000000     
  0.84375000000000000       0.37500000000000000        0.0000000000000000     
  0.87500000000000000       0.37500000000000000        0.0000000000000000     
  0.87500000000000000       0.25000000000000000        0.0000000000000000     
  0.90625000000000000       0.25000000000000000        0.0000000000000000     
  0.93750000000000000       0.25000000000000000        0.0000000000000000     
  0.96875000000000000       0.25000000000000000        0.0000000000000000     
   1.0000000000000000       0.25000000000000000        0.0000000000000000     
  0.87500000000000000       0.28125000000000000        0.0000000000000000     
  0.90625000000000000       0.28125000000000000        0.0000000000000000     
  0.93750000000000000       0.28125000000000000        0.0000000000000000     
  0.96875000000000000       0.28125000000000000        0.0000000000000000     
   1.0000000000000000       0.28125000000000000        0.0000000000000000     
  0.87500000000000000       0.31250000000000000        0.0000000000000000     
  0.90625000000000000       0.31250000000000000        0.0000000000000000     
  0.93750000000000000       0.31250000000000000        0.0000000000000000     
  0.96875000000000000       0.31250000000000000        0.0000000000000000     
   1.0000000000000000       0.31250000000000000        0.0000000000000000     
  0.87500000000000000       0.34375000000000000        0.0000000000000000     
  0.90625000000000000       0.34375000000000000        0.0000000000000000     
  0.93750000000000000       0.34375000000000000        0.0000000000000000     
  0.96875000000000000       0.34375000000000000        0.0000000000000000     
   1.0000000000000000       0.34375000000000000        0.0000000000000000     
  0.87500000000000000       0.37500000000000000        0.0000000000000000     
  0.90625000000000000       0.37500000000000000        0.0000000000000000     
  0.93750000000000000       0.37500000000000000        0.0000000000000000     
  0.96875000000000000       0.37500000000000000        0.0000000000000000     
   1.0000000000000000       0.37500000000000000        0.0000000000000000     
   0.0000000000000000       0.37500000000000000        0.0000000000000000     
   3.1250000000000000E-002  0.37500000000000000        0.0000000000000000     
   6.2500000000000000E-002  0.37500000000000000        0.0000000000000000     
   9.3750000000000000E-002  0.37500000000000000        0.0000000000000000     
  0.12500000000000000       0.37500000000000000        0.0000000000000000     
   0.0000000000000000       0.40625000000000000        0.0000000000000000     
   3.1250000000000000E-002  0.40625000000000000        0.0000000000000000     
   6.2500000000000000E-002  0.40625000000000000        0.0000000000000000     
   9.3750000000000000E-002  0.40625000000000000        0.0000000000000000     
  0.12500000000000000       0.40625000000000000        0.0000000000000000     
   0.0000000000000000       0.43750000000000000        0.0000000000000000     
   3.1250000000000000E-002  0.43750000000000000        0.0000000000000000     
   6.2500000000000000E-002  0.43750000000000000        0.0000000000000000     
   9.3750000000000000E-002  0.43750000000000000        0.0000000000000000     
  0.12500000000000000       0.43750000000000000        0.0000000000000000     
   0.0000000000000000       0.46875000000000000        0.0000000000000000     
   3.1250000000000000E-002  0.46875000000000000        0.0000000000000000     
   6.2500000000000000E-002  0.46875000000000000        0.0000000000000000     
   9.3750000000000000E-002  0.46875000000000000        0.0000000000000000     
  0.12500000000000000       0.46875000000000000        0.0000000000000000     
   0.0000000000000000       0.50000000000000000        0.0000000000000000     
   3.1250000000000000E-002  0.50000000000000000        0.0000000000000000     
   6.2500000000000000E-002  0.50000000000000000        0.0000000000000000     
   9.3750000000000000E-002  0.50000000000000000        0.0000000000000000     
  0.12500000000000000       0.50000000000000000        0.0000000000000000     
  0.12500000000000000       0.37500000000000000        0.0000000000000000     
  0.15625000000000000       0.37500000000000000        0.0000000000000000     
  0.18750000000000000       0.37500000000000000        0.0000000000000000     
  0.21875000000000000       0.37500000000000000        0.0000000000000000     
  0.25000000000000000       0.37500000000000000        0.0000000000000000     
  0.12500000000000000       0.40625000000000000        0.0000000000000000     
  0.15625000000000000       0.40625000000000000        0.0000000000000000     
  0.18750000000000000       0.40625000000000000        0.0000000000000000     
  0.21875000000000000       0.40625000000000000        0.0000000000000000     
  0.25000000000000000       0.40625000000000000        0.0000000000000000     
  0.12500000000000000       0.43750000000000000        0.0000000000000000     
  0.15625000000000000       0.43750000000000000        0.0000000000000000     
  0.18750000000000000       0.43750000000000000        0.0000000000000000     
  0.21875000000000000       0.43750000000000000        0.0000000000000000     
  0.25000000000000000       0.43750000000000000        0.0000000000000000     
  0.12500000000000000       0.46875000000000000        0.0000000000000000     
  0.15625000000000000       0.46875000000000000        0.0000000000000000     
  0.18750000000000000       0.46875000000000000        0.0000000000000000     
  0.21875000000000000       0.46875000000000000        0.0000000000000000     
  0.25000000000000000       0.46875000000000000        0.0000000000000000     
  0.12500000000000000       0.50000000000000000        0.0000000000000000     
  0.15625000000000000       0.50000000000000000        0.0000000000000000     
  0.18750000000000000       0.50000000000000000        0.0000000000000000     
  0.21875000000000000       0.50000000000000000        0.0000000000000000     
  0.25000000000000000       0.50000000000000000        0.0000000000000000     
  0.25000000000000000       0.37500000000000000        0.0000000000000000     
  0.28125000000000000       0.37500000000000000        0.0000000000000000     
  0.31250000000000000       0.37500000000000000        0.0000000000000000     
  0.34375000000000000       0.37500000000000000        0.0000000000000000     
  0.37500000000000000       0.37500000000000000        0.0000000000000000     
  0.25000000000000000       0.40625000000000000        0.0000000000000000     
  0.28125000000000000       0.40625000000000000        0.0000000000000000     
  0.31250000000000000       0.40625000000000000        0.0000000000000000     
  0.34375000000000000       0.40625000000000000        0.0000000000000000     
  0.37500000000000000       0.40625000000000000        0.0000000000000000     
  0.25000000000000000       0.43750000000000000        0.0000000000000000     
  0.28125000000000000       0.43750000000000000        0.0000000000000000     
  0.31250000000000000       0.43750000000000000        0.0000000000000000     
  0.34375000000000000       0.43750000000000000        0.0000000000000000     
  0.37500000000000000       0.43750000000000000        0.0000000000000000     
  0.25000000000000000       0.46875000000000000        0.0000000000000000     
  0.28125000000000000       0.46875000000000000        0.0000000000000000     
  0.31250000000000000       0.46875000000000000        0.0000000000000000     
  0.34375000000000000       0.46875000000000000        0.0000000000000000     
  0.37500000000000000       0.46875000000000000        0.0000000000000000     
  0.25000000000000000       0.50000000000000000        0.0000000000000000     
  0.28125000000000000       0.50000000000000000        0.0000000000000000     
  0.31250000000000000       0.50000000000000000        0.0000000000000000     
  0.34375000000000000       0.50000000000000000        0.0000000000000000     
  0.37500000000000000       0.50000000000000000        0.0000000000000000     
  0.37500000000000000       0.37500000000000000        0.0000000000000000     
  0.40625000000000000       0.37500000000000000        0.0000000000000000     
  0.43750000000000000       0.37500000000000000        0.0000000000000000     
  0.46875000000000000       0.37500000000000000        0.0000000000000000     
  0.50000000000000000       0.37500000000000000        0.0000000000000000     
  0.37500000000000000       0.40625000000000000        0.0000000000000000     
  0.40625000000000000       0.40625000000000000        0.0000000000000000     
  0.43750000000000000       0.40625000000000000        0.0000000000000000     
  0.46875000000000000       0.40625000000000000        0.0000000000000000     
  0.50000000000000000       0.40625000000000000        0.0000000000000000     
  0.37500000000000000       0.43750000000000000        0.0000000000000000     
  0.40625000000000000       0.43750000000000000        0.0000000000000000     
  0.43750000000000000       0.43750000000000000        0.0000000000000000     
  0.46875000000000000       0.43750000000000000        0.0000000000000000     
  0.50000000000000000       0.43750000000000000        0.0000000000000000     
  0.37500000000000000       0.46875000000000000        0.0000000000000000     
  0.40625000000000000       0.46875000000000000        0.0000000000000000     
  0.43750000000000000       0.46875000000000000        0.0000000000000000     
  0.46875000000000000       0.46875000000000000        0.0000000000000000     
  0.50000000000000000       0.46875000000000000        0.0000000000000000     
  0.37500000000000000       0.50000000000000000        0.0000000000000000     
  0.40625000000000000       0.50000000000000000        0.0000000000000000     
  0.43750000000000000       0.50000000000000000        0.0000000000000000     
  0.46875000000000000       0.50000000000000000        0.0000000000000000     
  0.50000000000000000       0.50000000000000000        0.0000000000000000     
  0.50000000000000000       0.37500000000000000        0.0000000000000000     
  0.53125000000000000       0.37500000000000000        0.0000000000000000     
  0.56250000000000000       0.37500000000000000        0.0000000000000000     
  0.59375000000000000       0.37500000000000000        0.0000000000000000     
  0.62500000000000000       0.37500000000000000        0.0000000000000000     
  0.50000000000000000       0.40625000000000000        0.0000000000000000     
  0.53125000000000000       0.40625000000000000        0.0000000000000000     
  0.56250000000000000       0.40625000000000000        0.0000000000000000     
  0.59375000000000000       0.40625000000000000        0.0000000000000000     
  0.62500000000000000       0.40625000000000000        0.0000000000000000     
  0.50000000000000000       0.43750000000000000        0.0000000000000000     
  0.53125000000000000       0.43750000000000000        0.0000000000000000     
  0.56250000000000000       0.43750000000000000        0.0000000000000000     
  0.59375000000000000       0.43750000000000000        0.0000000000000000     
  0.62500000000000000       0.43750000000000000        0.0000000000000000     
  0.50000000000000000       0.46875000000000000        0.0000000000000000     
  0.53125000000000000       0.46875000000000000        0.0000000000000000     
  0.56250000000000000       0.46875000000000000        0.0000000000000000     
  0.59375000000000000       0.46875000000000000        0.0000000000000000     
  0.62500000000000000       0.46875000000000000        0.0000000000000000     
  0.50000000000000000       0.50000000000000000        0.0000000000000000     
  0.53125000000000000       0.50000000000000000        0.0000000000000000     
  0.56250000000000000       0.50000000000000000        0.0000000000000000     
  0.59375000000000000       0.50000000000000000        0.0000000000000000     
  0.62500000000000000       0.50000000000000000        0.0000000000000000     
  0.62500000000000000       0.37500000000000000        0.0000000000000000     
  0.65625000000000000       0.37500000000000000        0.0000000000000000     
  0.68750000000000000       0.37500000000000000        0.0000000000000000     
  0.71875000000000000       0.37500000000000000        0.0000000000000000     
  0.75000000000000000       0.37500000000000000        0.0000000000000000     
  0.62500000000000000       0.40625000000000000        0.0000000000000000     
  0.65625000000000000       0.40625000000000000        0.0000000000000000     
  0.68750000000000000       0.40625000000000000        0.0000000000000000     
  0.71875000000000000       0.40625000000000000        0.0000000000000000     
  0.75000000000000000       0.40625000000000000        0.0000000000000000     
  0.62500000000000000       0.43750000000000000        0.0000000000000000     
  0.65625000000000000       0.43750000000000000        0.0000000000000000     
  0.68750000000000000       0.43750000000000000        0.0000000000000000     
  0.71875000000000000       0.43750000000000000        0.0000000000000000     
  0.75000000000000000       0.43750000000000000        0.0000000000000000     
  0.62500000000000000       0.46875000000000000        0.0000000000000000     
  0.65625000000000000       0.46875000000000000        0.0000000000000000     
  0.68750000000000000       0.46875000000000000        0.0000000000000000     
  0.71875000000000000       0.46875000000000000        0.0000000000000000     
  0.75000000000000000       0.46875000000000000        0.0000000000000000     
  0.62500000000000000       0.50000000000000000        0.0000000000000000     
  0.65625000000000000       0.50000000000000000        0.0000000000000000     
  0.68750000000000000       0.50000000000000000        0.0000000000000000     
  0.71875000000000000       0.50000000000000000        0.0000000000000000     
  0.75000000000000000       0.50000000000000000        0.0000000000000000     
  0.75000000000000000       0.37500000000000000        0.0000000000000000     
  0.78125000000000000       0.37500000000000000        0.0000000000000000     
  0.81250000000000000       0.37500000000000000        0.0000000000000000     
  0.84375000000000000       0.37500000000000000        0.0000000000000000     
  0.87500000000000000       0.37500000000000000        0.0000000000000000     
  0.75000000000000000       0.40625000000000000        0.0000000000000000     
  0.78125000000000000       0.40625000000000000        0.0000000000000000     
  0.81250000000000000       0.40625000000000000        0.0000000000000000     
  0.84375000000000000       0.40625000000000000        0.0000000000000000     
  0.87500000000000000       0.40625000000000000        0.0000000000000000     
  0.75000000000000000       0.43750000000000000        0.0000000000000000     
  0.78125000000000000       0.43750000000000000        0.0000000000000000     
  0.81250000000000000       0.43750000000000000        0.0000000000000000     
  0.84375000000000000       0.43750000000000000        0.0000000000000000     
  0.87500000000000000       0.43750000000000000        0.0000000000000000     
  0.75000000000000000       0.46875000000000000        0.0000000000000000     
  0.78125000000000000       0.46875000000000000        0.0000000000000000     
  0.81250000000000000       0.46875000000000000        0.0000000000000000     
  0.84375000000000000       0.46875000000000000        0.0000000000000000     
  0.87500000000000000       0.46875000000000000        0.0000000000000000     
  0.75000000000000000       0.50000000000000000        0.0000000000000000     
  0.78125000000000000       0.50000000000000000        0.0000000000000000     
  0.81250000000000000       0.50000000000000000        0.0000000000000000     
  0.84375000000000000       0.50000000000000000        0.0000000000000000     
  0.87500000000000000       0.50000000000000000        0.0000000000000000     
  0.87500000000000000       0.37500000000000000        0.0000000000000000     
  0.90625000000000000       0.37500000000000000        0.0000000000000000     
  0.93750000000000000       0.37500000000000000        0.0000000000000000     
  0.96875000000000000       0.37500000000000000        0.0000000000000000     
   1.0000000000000000       0.37500000000000000        0.0000000000000000     
  0.87500000000000000       0.40625000000000000        0.0000000000000000     
  0.90625000000000000       0.40625000000000000        0.0000000000000000     
  0.93750000000000000       0.40625000000000000        0.0000000000000000     
  0.96875000000000000       0.40625000000000000        0.0000000000000000     
   1.0000000000000000       0.40625000000000000        0.0000000000000000     
  0.87500000000000000       0.43750000000000000        0.0000000000000000     
  0.90625000000000000       0.43750000000000000        0.0000000000000000     
  0.93750000000000000       0.43750000000000000        0.0000000000000000     
  0.96875000000000000       0.43750000000000000        0.0000000000000000     
   1.0000000000000000       0.43750000000000000        0.0000000000000000     
  0.87500000000000000       0.46875000000000000        0.0000000000000000     
  0.90625000000000000       0.46875000000000000        0.0000000000000000     
  0.93750000000000000       0.46875000000000000        0.0000000000000000     
  0.96875000000000000       0.46875000000000000        0.0000000000000000     
   1.0000000000000000       0.46875000000000000        0.0000000000000000     
  0.87500000000000000       0.50000000000000000        0.0000000000000000     
  0.90625000000000000       0.50000000000000000        0.0000000000000000     
  0.93750000000000000       0.50000000000000000        0.0000000000000000     
  0.96875000000000000       0.50000000000000000        0.0000000000000000     
   1.0000000000000000       0.50000000000000000        0.0000000000000000     
   0.0000000000000000       0.50000000000000000        0.0000000000000000     
   3.1250000000000000E-002  0.50000000000000000        0.0000000000000000     
   6.2500000000000000E-002  0.50000000000000000        0.0000000000000000     
   9.3750000000000000E-002  0.50000000000000000        0.0000000000000000     
  0.12500000000000000       0.50000000000000000        0.0000000000000000     
   0.0000000000000000       0.53125000000000000        0.0000000000000000     
   3.1250000000000000E-002  0.53125000000000000        0.0000000000000000     
   6.2500000000000000E-002  0.53125000000000000        0.0000000000000000     
   9.3750000000000000E-002  0.53125000000000000        0.0000000000000000     
  0.12500000000000000       0.53125000000000000        0.0000000000000000     
   0.0000000000000000       0.56250000000000000        0.0000000000000000     
   3.1250000000000000E-002  0.56250000000000000        0.0000000000000000     
   6.2500000000000000E-002  0.56250000000000000        0.0000000000000000     
   9.3750000000000000E-002  0.56250000000000000        0.0000000000000000     
  0.12500000000000000       0.56250000000000000        0.0000000000000000     
   0.0000000000000000       0.59375000000000000        0.0000000000000000     
   3.1250000000000000E-002  0.59375000000000000        0.0000000000000000     
   6.2500000000000000E-002  0.59375000000000000        0.0000000000000000     
   9.3750000000000000E-002  0.59375000000000000        0.0000000000000000     
  0.12500000000000000       0.59375000000000000        0.0000000000000000     
   0.0000000000000000       0.62500000000000000        0.0000000000000000     
   3.1250000000000000E-002  0.62500000000000000        0.0000000000000000     
   6.2500000000000000E-002  0.62500000000000000        0.0000000000000000     
   9.3750000000000000E-002  0.62500000000000000        0.0000000000000000     
  0.12500000000000000       0.62500000000000000        0.0000000000000000     
  0.12500000000000000       0.50000000000000000        0.0000000000000000     
  0.15625000000000000       0.50000000000000000        0.0000000000000000     
  0.18750000000000000       0.50000000000000000        0.0000000000000000     
  0.21875000000000000       0.50000000000000000        0.0000000000000000     
  0.25000000000000000       0.50000000000000000        0.0000000000000000     
  0.12500000000000000       0.53125000000000000        0.0000000000000000     
  0.15625000000000000       0.53125000000000000        0.0000000000000000     
  0.18750000000000000       0.53125000000000000        0.0000000000000000     
  0.21875000000000000       0.53125000000000000        0.0000000000000000     
  0.25000000000000000       0.53125000000000000        0.0000000000000000     
  0.12500000000000000       0.56250000000000000        0.0000000000000000     
  0.15625000000000000       0.56250000000000000        0.0000000000000000     
  0.18750000000000000       0.56250000000000000        0.0000000000000000     
  0.21875000000000000       0.56250000000000000        0.0000000000000000     
  0.25000000000000000       0.56250000000000000        0.0000000000000000     
  0.12500000000000000       0.59375000000000000        0.0000000000000000     
  0.15625000000000000       0.59375000000000000        0.0000000000000000     
  0.18750000000000000       0.59375000000000000        0.0000000000000000     
  0.21875000000000000       0.59375000000000000        0.0000000000000000     
  0.25000000000000000       0.59375000000000000        0.0000000000000000     
  0.12500000000000000       0.62500000000000000        0.0000000000000000     
  0.15625000000000000       0.62500000000000000        0.0000000000000000     
  0.18750000000000000       0.62500000000000000        0.0000000000000000     
  0.21875000000000000       0.62500000000000000        0.0000000000000000     
  0.25000000000000000       0.62500000000000000        0.0000000000000000     
  0.25000000000000000       0.50000000000000000        0.0000000000000000     
  0.28125000000000000       0.50000000000000000        0.0000000000000000     
  0.31250000000000000       0.50000000000000000        0.0000000000000000     
  0.34375000000000000       0.50000000000000000        0.0000000000000000     
  0.37500000000000000       0.50000000000000000        0.0000000000000000     
  0.25000000000000000       0.53125000000000000        0.0000000000000000     
  0.28125000000000000       0.53125000000000000        0.0000000000000000     
  0.31250000000000000       0.53125000000000000        0.0000000000000000     
  0.34375000000000000       0.53125000000000000        0.0000000000000000     
  0.37500000000000000       0.53125000000000000        0.0000000000000000     
  0.25000000000000000       0.56250000000000000        0.0000000000000000     
  0.28125000000000000       0.56250000000000000        0.0000000000000000     
  0.31250000000000000       0.56250000000000000        0.0000000000000000     
  0.34375000000000000       0.56250000000000000        0.0000000000000000     
  0.37500000000000000       0.56250000000000000        0.0000000000000000     
  0.25000000000000000       0.59375000000000000        0.0000000000000000     
  0.28125000000000000       0.59375000000000000        0.0000000000000000     
  0.31250000000000000       0.59375000000000000        0.0000000000000000     
  0.34375000000000000       0.59375000000000000        0.0000000000000000     
  0.37500000000000000       0.59375000000000000        0.0000000000000000     
  0.25000000000000000       0.62500000000000000        0.0000000000000000     
  0.28125000000000000       0.62500000000000000        0.0000000000000000     
  0.31250000000000000       0.62500000000000000        0.0000000000000000     
  0.34375000000000000       0.62500000000000000        0.0000000000000000     
  0.37500000000000000       0.62500000000000000        0.0000000000000000     
  0.37500000000000000       0.50000000000000000        0.0000000000000000     
  0.40625000000000000       0.50000000000000000        0.0000000000000000     
  0.43750000000000000       0.50000000000000000        0.0000000000000000     
  0.46875000000000000       0.50000000000000000        0.0000000000000000     
  0.50000000000000000       0.50000000000000000        0.0000000000000000     
  0.37500000000000000       0.53125000000000000        0.0000000000000000     
  0.40625000000000000       0.53125000000000000        0.0000000000000000     
  0.43750000000000000       0.53125000000000000        0.0000000000000000     
  0.46875000000000000       0.53125000000000000        0.0000000000000000     
  0.50000000000000000       0.53125000000000000        0.0000000000000000     
  0.37500000000000000       0.56250000000000000        0.0000000000000000     
  0.40625000000000000       0.56250000000000000        0.0000000000000000     
  0.43750000000000000       0.56250000000000000        0.0000000000000000     
  0.46875000000000000       0.56250000000000000        0.0000000000000000     
  0.50000000000000000       0.56250000000000000        0.0000000000000000     
  0.37500000000000000       0.59375000000000000        0.0000000000000000     
  0.40625000000000000       0.59375000000000000        0.0000000000000000     
  0.43750000000000000       0.59375000000000000        0.0000000000000000     
  0.46875000000000000       0.59375000000000000        0.0000000000000000     
  0.50000000000000000       0.59375000000000000        0.0000000000000000     
  0.37500000000000000       0.62500000000000000        0.0000000000000000     
  0.40625000000000000       0.62500000000000000        0.0000000000000000     
  0.43750000000000000       0.62500000000000000        0.0000000000000000     
  0.46875000000000000       0.62500000000000000        0.0000000000000000     
  0.50000000000000000       0.62500000000000000        0.0000000000000000     
  0.50000000000000000       0.50000000000000000        0.0000000000000000     
  0.53125000000000000       0.50000000000000000        0.0000000000000000     
  0.56250000000000000       0.50000000000000000        0.0000000000000000     
  0.59375000000000000       0.50000000000000000        0.0000000000000000     
  0.62500000000000000       0.50000000000000000        0.0000000000000000     
  0.50000000000000000       0.53125000000000000        0.0000000000000000     
  0.53125000000000000       0.53125000000000000        0.0000000000000000     
  0.56250000000000000       0.53125000000000000        0.0000000000000000     
  0.59375000000000000       0.53125000000000000        0.0000000000000000     
  0.62500000000000000       0.53125000000000000        0.0000000000000000     
  0.50000000000000000       0.56250000000000000        0.0000000000000000     
  0.53125000000000000       0.56250000000000000        0.0000000000000000     
  0.56250000000000000       0.56250000000000000        0.0000000000000000     
  0.59375000000000000       0.56250000000000000        0.0000000000000000     
  0.62500000000000000       0.56250000000000000        0.0000000000000000     
  0.50000000000000000       0.59375000000000000        0.0000000000000000     
  0.53125000000000000       0.59375000000000000        0.0000000000000000     
  0.56250000000000000       0.59375000000000000        0.0000000000000000     
  0.59375000000000000       0.59375000000000000        0.0000000000000000     
  0.62500000000000000       0.59375000000000000        0.0000000000000000     
  0.50000000000000000       0.62500000000000000        0.0000000000000000     
  0.53125000000000000       0.62500000000000000        0.0000000000000000     
  0.56250000000000000       0.62500000000000000        0.0000000000000000     
  0.59375000000000000       0.62500000000000000        0.0000000000000000     
  0.62500000000000000       0.62500000000000000        0.0000000000000000     
  0.62500000000000000       0.50000000000000000        0.0000000000000000     
  0.65625000000000000       0.50000000000000000        0.0000000000000000     
  0.68750000000000000       0.50000000000000000        0.0000000000000000     
  0.71875000000000000       0.50000000000000000        0.0000000000000000     
  0.75000000000000000       0.50000000000000000        0.0000000000000000     
  0.62500000000000000       0.53125000000000000        0.0000000000000000     
  0.65625000000000000       0.53125000000000000        0.0000000000000000     
  0.68750000000000000       0.53125000000000000        0.0000000000000000     
  0.71875000000000000       0.53125000000000000        0.0000000000000000     
  0.75000000000000000       0.53125000000000000        0.0000000000000000     
  0.62500000000000000       0.56250000000000000        0.0000000000000000     
  0.65625000000000000       0.56250000000000000        0.0000000000000000     
  0.68750000000000000       0.56250000000000000        0.0000000000000000     
  0.71875000000000000       0.56250000000000000        0.0000000000000000     
  0.75000000000000000       0.56250000000000000        0.0000000000000000     
  0.62500000000000000       0.59375000000000000        0.0000000000000000     
  0.65625000000000000       0.59375000000000000        0.0000000000000000     
  0.68750000000000000       0.59375000000000000        0.0000000000000000     
  0.71875000000000000       0.59375000000000000        0.0000000000000000     
  0.75000000000000000       0.59375000000000000        0.0000000000000000     
  0.62500000000000000       0.62500000000000000        0.0000000000000000     
  0.65625000000000000       0.62500000000000000        0.0000000000000000     
  0.68750000000000000       0.62500000000000000        0.0000000000000000     
  0.71875000000000000       0.62500000000000000        0.0000000000000000     
  0.75000000000000000       0.62500000000000000        0.0000000000000000     
  0.75000000000000000       0.50000000000000000        0.0000000000000000     
  0.78125000000000000       0.50000000000000000        0.0000000000000000     
  0.81250000000000000       0.50000000000000000        0.0000000000000000     
  0.84375000000000000       0.50000000000000000        0.0000000000000000     
  0.87500000000000000       0.50000000000000000        0.0000000000000000     
  0.75000000000000000       0.53125000000000000        0.0000000000000000     
  0.78125000000000000       0.53125000000000000        0.0000000000000000     
  0.81250000000000000       0.53125000000000000        0.0000000000000000     
  0.84375000000000000       0.53125000000000000        0.0000000000000000     
  0.87500000000000000       0.53125000000000000        0.0000000000000000     
  0.75000000000000000       0.56250000000000000        0.0000000000000000     
  0.78125000000000000       0.56250000000000000        0.0000000000000000     
  0.81250000000000000       0.56250000000000000        0.0000000000000000     
  0.84375000000000000       0.56250000000000000        0.0000000000000000     
  0.87500000000000000       0.56250000000000000        0.0000000000000000     
  0.75000000000000000       0.59375000000000000        0.0000000000000000     
  0.78125000000000000       0.59375000000000000        0.0000000000000000     
  0.81250000000000000       0.59375000000000000        0.0000000000000000     
  0.84375000000000000       0.59375000000000000        0.0000000000000000     
  0.87500000000000000       0.59375000000000000        0.0000000000000000     
  0.75000000000000000       0.62500000000000000        0.0000000000000000     
  0.78125000000000000       0.62500000000000000        0.0000000000000000     
  0.81250000000000000       0.62500000000000000        0.0000000000000000     
  0.84375000000000000       0.62500000000000000        0.0000000000000000     
  0.87500000000000000       0.62500000000000000        0.0000000000000000     
  0.87500000000000000       0.50000000000000000        0.0000000000000000     
  0.90625000000000000       0.50000000000000000        0.0000000000000000     
  0.93750000000000000       0.50000000000000000        0.0000000000000000     
  0.96875000000000000       0.50000000000000000        0.0000000000000000     
   1.0000000000000000       0.50000000000000000        0.0000000000000000     
  0.87500000000000000       0.53125000000000000        0.0000000000000000     
  0.90625000000000000       0.53125000000000000        0.0000000000000000     
  0.93750000000000000       0.53125000000000000        0.0000000000000000     
  0.96875000000000000       0.53125000000000000        0.0000000000000000     
   1.0000000000000000       0.53125000000000000        0.0000000000000000     
  0.87500000000000000       0.56250000000000000        0.0000000000000000     
  0.90625000000000000       0.56250000000000000        0.0000000000000000     
  0.93750000000000000       0.56250000000000000        0.0000000000000000     
  0.96875000000000000       0.56250000000000000        0.0000000000000000     
   1.0000000000000000       0.56250000000000000        0.0000000000000000     
  0.87500000000000000       0.59375000000000000        0.0000000000000000     
  0.90625000000000000       0.59375000000000000        0.0000000000000000     
  0.93750000000000000       0.59375000000000000        0.0000000000000000     
  0.96875000000000000       0.59375000000000000        0.0000000000000000     
   1.0000000000000000       0.59375000000000000        0.0000000000000000     
  0.87500000000000000       0.62500000000000000        0.0000000000000000     
  0.90625000000000000       0.62500000000000000        0.0000000000000000     
  0.93750000000000000       0.62500000000000000        0.0000000000000000     
  0.96875000000000000       0.62500000000000000        0.0000000000000000     
   1.0000000000000000       0.62500000000000000        0.0000000000000000     
   0.0000000000000000       0.62500000000000000        0.0000000000000000     
   3.1250000000000000E-002  0.62500000000000000        0.0000000000000000     
   6.2500000000000000E-002  0.62500000000000000        0.0000000000000000     
   9.3750000000000000E-002  0.62500000000000000        0.0000000000000000     
  0.12500000000000000       0.62500000000000000        0.0000000000000000     
   0.0000000000000000       0.65625000000000000        0.0000000000000000     
   3.1250000000000000E-002  0.65625000000000000        0.0000000000000000     
   6.2500000000000000E-002  0.65625000000000000        0.0000000000000000     
   9.3750000000000000E-002  0.65625000000000000        0.0000000000000000     
  0.12500000000000000       0.65625000000000000        0.0000000000000000     
   0.0000000000000000       0.68750000000000000        0.0000000000000000     
   3.1250000000000000E-002  0.68750000000000000        0.0000000000000000     
   6.2500000000000000E-002  0.68750000000000000        0.0000000000000000     
   9.3750000000000000E-002  0.68750000000000000        0.0000000000000000     
  0.12500000000000000       0.68750000000000000        0.0000000000000000     
   0.0000000000000000       0.71875000000000000        0.0000000000000000     
   3.1250000000000000E-002  0.71875000000000000        0.0000000000000000     
   6.2500000000000000E-002  0.71875000000000000        0.0000000000000000     
   9.3750000000000000E-002  0.71875000000000000        0.0000000000000000     
  0.12500000000000000       0.71875000000000000        0.0000000000000000     
   0.0000000000000000       0.75000000000000000        0.0000000000000000     
   3.1250000000000000E-002  0.75000000000000000        0.0000000000000000     
   6.2500000000000000E-002  0.75000000000000000        0.0000000000000000     
   9.3750000000000000E-002  0.75000000000000000        0.0000000000000000     
  0.12500000000000000       0.75000000000000000        0.0000000000000000     
  0.12500000000000000       0.62500000000000000        0.0000000000000000     
  0.15625000000000000       0.62500000000000000        0.0000000000000000     
  0.18750000000000000       0.62500000000000000        0.0000000000000000     
  0.21875000000000000       0.62500000000000000        0.0000000000000000     
  0.25000000000000000       0.62500000000000000        0.0000000000000000     
  0.12500000000000000       0.65625000000000000        0.0000000000000000     
  0.15625000000000000       0.65625000000000000        0.0000000000000000     
  0.18750000000000000       0.65625000000000000        0.0000000000000000     
  0.21875000000000000       0.65625000000000000        0.0000000000000000     
  0.25000000000000000       0.65625000000000000        0.0000000000000000     
  0.12500000000000000       0.68750000000000000        0.0000000000000000     
  0.15625000000000000       0.68750000000000000        0.0000000000000000     
  0.18750000000000000       0.68750000000000000        0.0000000000000000     
  0.21875000000000000       0.68750000000000000        0.0000000000000000     
  0.25000000000000000       0.68750000000000000        0.0000000000000000     
  0.12500000000000000       0.71875000000000000        0.0000000000000000     
  0.15625000000000000       0.71875000000000000        0.0000000000000000     
  0.18750000000000000       0.71875000000000000        0.0000000000000000     
  0.21875000000000000       0.71875000000000000        0.0000000000000000     
  0.25000000000000000       0.71875000000000000        0.0000000000000000     
  0.12500000000000000       0.75000000000000000        0.0000000000000000     
  0.15625000000000000       0.75000000000000000        0.0000000000000000     
  0.18750000000000000       0.75000000000000000        0.0000000000000000     
  0.21875000000000000       0.75000000000000000        0.0000000000000000     
  0.25000000000000000       0.75000000000000000        0.0000000000000000     
  0.25000000000000000       0.62500000000000000        0.0000000000000000     
  0.28125000000000000       0.62500000000000000        0.0000000000000000     
  0.31250000000000000       0.62500000000000000        0.0000000000000000     
  0.34375000000000000       0.62500000000000000        0.0000000000000000     
  0.37500000000000000       0.62500000000000000        0.0000000000000000     
  0.25000000000000000       0.65625000000000000        0.0000000000000000     
  0.28125000000000000       0.65625000000000000        0.0000000000000000     
  0.31250000000000000       0.65625000000000000        0.0000000000000000     
  0.34375000000000000       0.65625000000000000        0.0000000000000000     
  0.37500000000000000       0.65625000000000000        0.0000000000000000     
  0.25000000000000000       0.68750000000000000        0.0000000000000000     
  0.28125000000000000       0.68750000000000000        0.0000000000000000     
  0.31250000000000000       0.68750000000000000        0.0000000000000000     
  0.34375000000000000       0.68750000000000000        0.0000000000000000     
  0.37500000000000000       0.68750000000000000        0.0000000000000000     
  0.25000000000000000       0.71875000000000000        0.0000000000000000     
  0.28125000000000000       0.71875000000000000        0.0000000000000000     
  0.31250000000000000       0.71875000000000000        0.0000000000000000     
  0.34375000000000000       0.71875000000000000        0.0000000000000000     
  0.37500000000000000       0.71875000000000000        0.0000000000000000     
  0.25000000000000000       0.75000000000000000        0.0000000000000000     
  0.28125000000000000       0.75000000000000000        0.0000000000000000     
  0.31250000000000000       0.75000000000000000        0.0000000000000000     
  0.34375000000000000       0.75000000000000000        0.0000000000000000     
  0.37500000000000000       0.75000000000000000        0.0000000000000000     
  0.37500000000000000       0.62500000000000000        0.0000000000000000     
  0.40625000000000000       0.62500000000000000        0.0000000000000000     
  0.43750000000000000       0.62500000000000000        0.0000000000000000     
  0.46875000000000000       0.62500000000000000        0.0000000000000000     
  0.50000000000000000       0.62500000000000000        0.0000000000000000     
  0.37500000000000000       0.65625000000000000        0.0000000000000000     
  0.40625000000000000       0.65625000000000000        0.0000000000000000     
  0.43750000000000000       0.65625000000000000        0.0000000000000000     
  0.46875000000000000       0.65625000000000000        0.0000000000000000     
  0.50000000000000000       0.65625000000000000        0.0000000000000000     
  0.37500000000000000       0.68750000000000000        0.0000000000000000     
  0.40625000000000000       0.68750000000000000        0.0000000000000000     
  0.43750000000000000       0.68750000000000000        0.0000000000000000     
  0.46875000000000000       0.68750000000000000        0.0000000000000000     
  0.50000000000000000       0.68750000000000000        0.0000000000000000     
  0.37500000000000000       0.71875000000000000        0.0000000000000000     
  0.40625000000000000       0.71875000000000000        0.0000000000000000     
  0.43750000000000000       0.71875000000000000        0.0000000000000000     
  0.46875000000000000       0.71875000000000000        0.0000000000000000     
  0.50000000000000000       0.71875000000000000        0.0000000000000000     
  0.37500000000000000       0.75000000000000000        0.0000000000000000     
  0.40625000000000000       0.75000000000000000        0.0000000000000000     
  0.43750000000000000       0.75000000000000000        0.0000000000000000     
  0.46875000000000000       0.75000000000000000        0.0000000000000000     
  0.50000000000000000       0.75000000000000000        0.0000000000000000     
  0.50000000000000000       0.62500000000000000        0.0000000000000000     
  0.53125000000000000       0.62500000000000000        0.0000000000000000     
  0.56250000000000000       0.62500000000000000        0.0000000000000000     
  0.59375000000000000       0.62500000000000000        0.0000000000000000     
  0.62500000000000000       0.62500000000000000        0.0000000000000000     
  0.50000000000000000       0.65625000000000000        0.0000000000000000     
  0.53125000000000000       0.65625000000000000        0.0000000000000000     
  0.56250000000000000       0.65625000000000000        0.0000000000000000     
  0.59375000000000000       0.65625000000000000        0.0000000000000000     
  0.62500000000000000       0.65625000000000000        0.0000000000000000     
  0.50000000000000000       0.68750000000000000        0.0000000000000000     
  0.53125000000000000       0.68750000000000000        0.0000000000000000     
  0.56250000000000000       0.68750000000000000        0.0000000000000000     
  0.59375000000000000       0.68750000000000000        0.0000000000000000     
  0.62500000000000000       0.68750000000000000        0.0000000000000000     
  0.50000000000000000       0.71875000000000000        0.0000000000000000     
  0.53125000000000000       0.71875000000000000        0.0000000000000000     
  0.56250000000000000       0.71875000000000000        0.0000000000000000     
  0.59375000000000000       0.71875000000000000        0.0000000000000000     
  0.62500000000000000       0.71875000000000000        0.0000000000000000     
  0.50000000000000000       0.75000000000000000        0.0000000000000000     
  0.53125000000000000       0.75000000000000000        0.0000000000000000     
  0.56250000000000000       0.75000000000000000        0.0000000000000000     
  0.59375000000000000       0.75000000000000000        0.0000000000000000     
  0.62500000000000000       0.75000000000000000        0.0000000000000000     
  0.62500000000000000       0.62500000000000000        0.0000000000000000     
  0.65625000000000000       0.62500000000000000        0.0000000000000000     
  0.68750000000000000       0.62500000000000000        0.0000000000000000     
  0.71875000000000000       0.62500000000000000        0.0000000000000000     
  0.75000000000000000       0.62500000000000000        0.0000000000000000     
  0.62500000000000000       0.65625000000000000        0.0000000000000000     
  0.65625000000000000       0.65625000000000000        0.0000000000000000     
  0.68750000000000000       0.65625000000000000        0.0000000000000000     
  0.71875000000000000       0.65625000000000000        0.0000000000000000     
  0.75000000000000000       0.65625000000000000        0.0000000000000000     
  0.62500000000000000       0.68750000000000000        0.0000000000000000     
  0.65625000000000000       0.68750000000000000        0.0000000000000000     
  0.68750000000000000       0.68750000000000000        0.0000000000000000     
  0.71875000000000000       0.68750000000000000        0.0000000000000000     
  0.75000000000000000       0.68750000000000000        0.0000000000000000     
  0.62500000000000000       0.71875000000000000        0.0000000000000000     
  0.65625000000000000       0.71875000000000000        0.0000000000000000     
  0.68750000000000000       0.71875000000000000        0.0000000000000000     
  0.71875000000000000       0.71875000000000000        0.0000000000000000     
  0.75000000000000000       0.71875000000000000        0.0000000000000000     
  0.62500000000000000       0.75000000000000000        0.0000000000000000     
  0.65625000000000000       0.75000000000000000        0.0000000000000000     
  0.68750000000000000       0.75000000000000000        0.0000000000000000     
  0.71875000000000000       0.75000000000000000        0.0000000000000000     
  0.75000000000000000       0.75000000000000000        0.0000000000000000     
  0.75000000000000000       0.62500000000000000        0.0000000000000000     
  0.78125000000000000       0.62500000000000000        0.0000000000000000     
  0.81250000000000000       0.62500000000000000        0.0000000000000000     
  0.84375000000000000       0.62500000000000000        0.0000000000000000     
  0.87500000000000000       0.62500000000000000        0.0000000000000000     
  0.75000000000000000       0.65625000000000000        0.0000000000000000     
  0.78125000000000000       0.65625000000000000        0.0000000000000000     
  0.81250000000000000       0.65625000000000000        0.0000000000000000     
  0.84375000000000000       0.65625000000000000        0.0000000000000000     
  0.87500000000000000       0.65625000000000000        0.0000000000000000     
  0.75000000000000000       0.68750000000000000        0.0000000000000000     
  0.78125000000000000       0.68750000000000000        0.0000000000000000     
  0.81250000000000000       0.68750000000000000        0.0000000000000000     
  0.84375000000000000       0.68750000000000000        0.0000000000000000     
  0.87500000000000000       0.68750000000000000        0.0000000000000000     
  0.75000000000000000       0.71875000000000000        0.0000000000000000     
  0.78125000000000000       0.71875000000000000        0.0000000000000000     
  0.81250000000000000       0.71875000000000000        0.0000000000000000     
  0.84375000000000000       0.71875000000000000        0.0000000000000000     
  0.87500000000000000       0.71875000000000000        0.0000000000000000     
  0.75000000000000000       0.75000000000000000        0.0000000000000000     
  0.78125000000000000       0.75000000000000000        0.0000000000000000     
  0.81250000000000000       0.75000000000000000        0.0000000000000000     
  0.84375000000000000       0.75000000000000000        0.0000000000000000     
  0.87500000000000000       0.75000000000000000        0.0000000000000000     
  0.87500000000000000       0.62500000000000000        0.0000000000000000     
  0.90625000000000000       0.62500000000000000        0.0000000000000000     
  0.93750000000000000       0.62500000000000000        0.0000000000000000     
  0.96875000000000000       0.62500000000000000        0.0000000000000000     
   1.0000000000000000       0.62500000000000000        0.0000000000000000     
  0.87500000000000000       0.65625000000000000        0.0000000000000000     
  0.90625000000000000       0.65625000000000000        0.0000000000000000     
  0.93750000000000000       0.65625000000000000        0.0000000000000000     
  0.96875000000000000       0.65625000000000000        0.0000000000000000     
   1.0000000000000000       0.65625000000000000        0.0000000000000000     
  0.87500000000000000       0.68750000000000000        0.0000000000000000     
  0.90625000000000000       0.68750000000000000        0.0000000000000000     
  0.93750000000000000       0.68750000000000000        0.0000000000000000     
  0.96875000000000000       0.68750000000000000        0.0000000000000000     
   1.0000000000000000       0.68750000000000000        0.0000000000000000     
  0.87500000000000000       0.71875000000000000        0.0000000000000000     
  0.90625000000000000       0.71875000000000000        0.0000000000000000     
  0.93750000000000000       0.71875000000000000        0.0000000000000000     
  0.96875000000000000       0.71875000000000000        0.0000000000000000     
   1.0000000000000000       0.71875000000000000        0.0000000000000000     
  0.87500000000000000       0.75000000000000000        0.0000000000000000     
  0.90625000000000000       0.75000000000000000        0.0000000000000000     
  0.93750000000000000       0.75000000000000000        0.0000000000000000     
  0.96875000000000000       0.75000000000000000        0.0000000000000000     
   1.0000000000000000       0.75000000000000000        0.0000000000000000     
   0.0000000000000000       0.75000000000000000        0.0000000000000000     
   3.1250000000000000E-002  0.75000000000000000        0.0000000000000000     
   6.2500000000000000E-002  0.75000000000000000        0.0000000000000000     
   9.3750000000000000E-002  0.75000000000000000        0.0000000000000000     
  0.12500000000000000       0.75000000000000000        0.0000000000000000     
   0.0000000000000000       0.78125000000000000        0.0000000000000000     
   3.1250000000000000E-002  0.78125000000000000        0.0000000000000000     
   6.2500000000000000E-002  0.78125000000000000        0.0000000000000000     
   9.3750000000000000E-002  0.78125000000000000        0.0000000000000000     
  0.12500000000000000       0.78125000000000000        0.0000000000000000     
   0.0000000000000000       0.81250000000000000        0.0000000000000000     
   3.1250000000000000E-002  0.81250000000000000        0.0000000000000000     
   6.2500000000000000E-002  0.81250000000000000        0.0000000000000000     
   9.3750000000000000E-002  0.81250000000000000        0.0000000000000000     
  0.12500000000000000       0.81250000000000000        0.0000000000000000     
   0.0000000000000000       0.84375000000000000        0.0000000000000000     
   3.1250000000000000E-002  0.84375000000000000        0.0000000000000000     
   6.2500000000000000E-002  0.84375000000000000        0.0000000000000000     
   9.3750000000000000E-002  0.84375000000000000        0.0000000000000000     
  0.12500000000000000       0.84375000000000000        0.0000000000000000     
   0.0000000000000000       0.87500000000000000        0.0000000000000000     
   3.1250000000000000E-002  0.87500000000000000        0.0000000000000000     
   6.2500000000000000E-002  0.87500000000000000        0.0000000000000000     
   9.3750000000000000E-002  0.87500000000000000        0.0000000000000000     
  0.12500000000000000       0.87500000000000000        0.0000000000000000     
  0.12500000000000000       0.75000000000000000        0.0000000000000000     
  0.15625000000000000       0.75000000000000000        0.0000000000000000     
  0.18750000000000000       0.75000000000000000        0.0000000000000000     
  0.21875000000000000       0.75000000000000000        0.0000000000000000     
  0.25000000000000000       0.75000000000000000        0.0000000000000000     
  0.12500000000000000       0.78125000000000000        0.0000000000000000     
  0.15625000000000000       0.78125000000000000        0.0000000000000000     
  0.18750000000000000       0.78125000000000000        0.0000000000000000     
  0.21875000000000000       0.78125000000000000        0.0000000000000000     
  0.25000000000000000       0.78125000000000000        0.0000000000000000     
  0.12500000000000000       0.81250000000000000        0.0000000000000000     
  0.15625000000000000       0.81250000000000000        0.0000000000000000     
  0.18750000000000000       0.81250000000000000        0.0000000000000000     
  0.21875000000000000       0.81250000000000000        0.0000000000000000     
  0.25000000000000000       0.81250000000000000        0.0000000000000000     
  0.12500000000000000       0.84375000000000000        0.0000000000000000     
  0.15625000000000000       0.84375000000000000        0.0000000000000000     
  0.18750000000000000       0.84375000000000000        0.0000000000000000     
  0.21875000000000000       0.84375000000000000        0.0000000000000000     
  0.25000000000000000       0.84375000000000000        0.0000000000000000     
  0.12500000000000000       0.87500000000000000        0.0000000000000000     
  0.15625000000000000       0.87500000000000000        0.0000000000000000     
  0.18750000000000000       0.87500000000000000        0.0000000000000000     
  0.21875000000000000       0.87500000000000000        0.0000000000000000     
  0.25000000000000000       0.87500000000000000        0.0000000000000000     
  0.25000000000000000       0.75000000000000000        0.0000000000000000     
  0.28125000000000000       0.75000000000000000        0.0000000000000000     
  0.31250000000000000       0.75000000000000000        0.0000000000000000     
  0.34375000000000000       0.75000000000000000        0.0000000000000000     
  0.37500000000000000       0.75000000000000000        0.0000000000000000     
  0.25000000000000000       0.78125000000000000        0.0000000000000000     
  0.28125000000000000       0.78125000000000000        0.0000000000000000     
  0.31250000000000000       0.78125000000000000        0.0000000000000000     
  0.34375000000000000       0.78125000000000000        0.0000000000000000     
  0.37500000000000000       0.78125000000000000        0.0000000000000000     
  0.25000000000000000       0.81250000000000000        0.0000000000000000     
  0.28125000000000000       0.81250000000000000        0.0000000000000000     
  0.31250000000000000       0.81250000000000000        0.0000000000000000     
  0.34375000000000000       0.81250000000000000        0.0000000000000000     
  0.37500000000000000       0.81250000000000000        0.0000000000000000     
  0.25000000000000000       0.84375000000000000        0.0000000000000000     
  0.28125000000000000       0.84375000000000000        0.0000000000000000     
  0.31250000000000000       0.84375000000000000        0.0000000000000000     
  0.34375000000000000       0.84375000000000000        0.0000000000000000     
  0.37500000000000000       0.84375000000000000        0.0000000000000000     
  0.25000000000000000       0.87500000000000000        0.0000000000000000     
  0.28125000000000000       0.87500000000000000        0.0000000000000000     
  0.31250000000000000       0.87500000000000000        0.0000000000000000     
  0.34375000000000000       0.87500000000000000        0.0000000000000000     
  0.37500000000000000       0.87500000000000000        0.0000000000000000     
  0.37500000000000000       0.75000000000000000        0.0000000000000000     
  0.40625000000000000       0.75000000000000000        0.0000000000000000     
  0.43750000000000000       0.75000000000000000        0.0000000000000000     
  0.46875000000000000       0.75000000000000000        0.0000000000000000     
  0.50000000000000000       0.75000000000000000        0.0000000000000000     
  0.37500000000000000       0.78125000000000000        0.0000000000000000     
  0.40625000000000000       0.78125000000000000        0.0000000000000000     
  0.43750000000000000       0.78125000000000000        0.0000000000000000     
  0.46875000000000000       0.78125000000000000        0.0000000000000000     
  0.50000000000000000       0.78125000000000000        0.0000000000000000     
  0.37500000000000000       0.81250000000000000        0.0000000000000000     
  0.40625000000000000       0.81250000000000000        0.0000000000000000     
  0.43750000000000000       0.81250000000000000        0.0000000000000000     
  0.46875000000000000       0.81250000000000000        0.0000000000000000     
  0.50000000000000000       0.81250000000000000        0.0000000000000000     
  0.37500000000000000       0.84375000000000000        0.0000000000000000     
  0.40625000000000000       0.84375000000000000        0.0000000000000000     
  0.43750000000000000       0.84375000000000000        0.0000000000000000     
  0.46875000000000000       0.84375000000000000        0.0000000000000000     
  0.50000000000000000       0.84375000000000000        0.0000000000000000     
  0.37500000000000000       0.87500000000000000        0.0000000000000000     
  0.40625000000000000       0.87500000000000000        0.0000000000000000     
  0.43750000000000000       0.87500000000000000        0.0000000000000000     
  0.46875000000000000       0.87500000000000000        0.0000000000000000     
  0.50000000000000000       0.87500000000000000        0.0000000000000000     
  0.50000000000000000       0.75000000000000000        0.0000000000000000     
  0.53125000000000000       0.75000000000000000        0.0000000000000000     
  0.56250000000000000       0.75000000000000000        0.0000000000000000     
  0.59375000000000000       0.75000000000000000        0.0000000000000000     
  0.62500000000000000       0.75000000000000000        0.0000000000000000     
  0.50000000000000000       0.78125000000000000        0.0000000000000000     
  0.53125000000000000       0.78125000000000000        0.0000000000000000     
  0.56250000000000000       0.78125000000000000        0.0000000000000000     
  0.59375000000000000       0.78125000000000000        0.0000000000000000     
  0.62500000000000000       0.78125000000000000        0.0000000000000000     
  0.50000000000000000       0.81250000000000000        0.0000000000000000     
  0.53125000000000000       0.81250000000000000        0.0000000000000000     
  0.56250000000000000       0.81250000000000000        0.0000000000000000     
  0.59375000000000000       0.81250000000000000        0.0000000000000000     
  0.62500000000000000       0.81250000000000000        0.0000000000000000     
  0.50000000000000000       0.84375000000000000        0.0000000000000000     
  0.53125000000000000       0.84375000000000000        0.0000000000000000     
  0.56250000000000000       0.84375000000000000        0.0000000000000000     
  0.59375000000000000       0.84375000000000000        0.0000000000000000     
  0.62500000000000000       0.84375000000000000        0.0000000000000000     
  0.50000000000000000       0.87500000000000000        0.0000000000000000     
  0.53125000000000000       0.87500000000000000        0.0000000000000000     
  0.56250000000000000       0.87500000000000000        0.0000000000000000     
  0.59375000000000000       0.87500000000000000        0.0000000000000000     
  0.62500000000000000       0.87500000000000000        0.0000000000000000     
  0.62500000000000000       0.75000000000000000        0.0000000000000000     
  0.65625000000000000       0.75000000000000000        0.0000000000000000     
  0.68750000000000000       0.75000000000000000        0.0000000000000000     
  0.71875000000000000       0.75000000000000000        0.0000000000000000     
  0.75000000000000000       0.75000000000000000        0.0000000000000000     
  0.62500000000000000       0.78125000000000000        0.0000000000000000     
  0.65625000000000000       0.78125000000000000        0.0000000000000000     
  0.68750000000000000       0.78125000000000000        0.0000000000000000     
  0.71875000000000000       0.78125000000000000        0.0000000000000000     
  0.75000000000000000       0.78125000000000000        0.0000000000000000     
  0.62500000000000000       0.81250000000000000        0.0000000000000000     
  0.65625000000000000       0.81250000000000000        0.0000000000000000     
  0.68750000000000000       0.81250000000000000        0.0000000000000000     
  0.71875000000000000       0.81250000000000000        0.0000000000000000     
  0.75000000000000000       0.81250000000000000        0.0000000000000000     
  0.62500000000000000       0.84375000000000000        0.0000000000000000     
  0.65625000000000000       0.84375000000000000        0.0000000000000000     
  0.68750000000000000       0.84375000000000000        0.0000000000000000     
  0.71875000000000000       0.84375000000000000        0.0000000000000000     
  0.75000000000000000       0.84375000000000000        0.0000000000000000     
  0.62500000000000000       0.87500000000000000        0.0000000000000000     
  0.65625000000000000       0.87500000000000000        0.0000000000000000     
  0.68750000000000000       0.87500000000000000        0.0000000000000000     
  0.71875000000000000       0.87500000000000000        0.0000000000000000     
  0.75000000000000000       0.87500000000000000        0.0000000000000000     
  0.75000000000000000       0.75000000000000000        0.0000000000000000     
  0.78125000000000000       0.75000000000000000        0.0000000000000000     
  0.81250000000000000       0.75000000000000000        0.0000000000000000     
  0.84375000000000000       0.75000000000000000        0.0000000000000000     
  0.87500000000000000       0.75000000000000000        0.0000000000000000     
  0.75000000000000000       0.78125000000000000        0.0000000000000000     
  0.78125000000000000       0.78125000000000000        0.0000000000000000     
  0.81250000000000000       0.78125000000000000        0.0000000000000000     
  0.84375000000000000       0.78125000000000000        0.0000000000000000     
  0.87500000000000000       0.78125000000000000        0.0000000000000000     
  0.75000000000000000       0.81250000000000000        0.0000000000000000     
  0.78125000000000000       0.81250000000000000        0.0000000000000000     
  0.81250000000000000       0.81250000000000000        0.0000000000000000     
  0.84375000000000000       0.81250000000000000        0.0000000000000000     
  0.87500000000000000       0.81250000000000000        0.0000000000000000     
  0.75000000000000000       0.84375000000000000        0.0000000000000000     
  0.78125000000000000       0.84375000000000000        0.0000000000000000     
  0.81250000000000000       0.84375000000000000        0.0000000000000000     
  0.84375000000000000       0.84375000000000000        0.0000000000000000     
  0.87500000000000000       0.84375000000000000        0.0000000000000000     
  0.75000000000000000       0.87500000000000000        0.0000000000000000     
  0.78125000000000000       0.87500000000000000        0.0000000000000000     
  0.81250000000000000       0.87500000000000000        0.0000000000000000     
  0.84375000000000000       0.87500000000000000        0.0000000000000000     
  0.87500000000000000       0.87500000000000000        0.0000000000000000     
  0.87500000000000000       0.75000000000000000        0.0000000000000000     
  0.90625000000000000       0.75000000000000000        0.0000000000000000     
  0.93750000000000000       0.75000000000000000        0.0000000000000000     
  0.96875000000000000       0.75000000000000000        0.0000000000000000     
   1.0000000000000000       0.75000000000000000        0.0000000000000000     
  0.87500000000000000       0.78125000000000000        0.0000000000000000     
  0.90625000000000000       0.78125000000000000        0.0000000000000000     
  0.93750000000000000       0.78125000000000000        0.0000000000000000     
  0.96875000000000000       0.78125000000000000        0.0000000000000000     
   1.0000000000000000       0.78125000000000000        0.0000000000000000     
  0.87500000000000000       0.81250000000000000        0.0000000000000000     
  0.90625000000000000       0.81250000000000000        0.0000000000000000     
  0.93750000000000000       0.81250000000000000        0.0000000000000000     
  0.96875000000000000       0.81250000000000000        0.0000000000000000     
   1.0000000000000000       0.81250000000000000        0.0000000000000000     
  0.87500000000000000       0.84375000000000000        0.0000000000000000     
  0.90625000000000000       0.84375000000000000        0.0000000000000000     
  0.93750000000000000       0.84375000000000000        0.0000000000000000     
  0.96875000000000000       0.84375000000000000        0.0000000000000000     
   1.0000000000000000       0.84375000000000000        0.0000000000000000     
  0.87500000000000000       0.87500000000000000        0.0000000000000000     
  0.90625000000000000       0.87500000000000000        0.0000000000000000     
  0.93750000000000000       0.87500000000000000        0.0000000000000000     
  0.96875000000000000       0.87500000000000000        0.0000000000000000     
   1.0000000000000000       0.87500000000000000        0.0000000000000000     
   0.0000000000000000       0.87500000000000000        0.0000000000000000     
   3.1250000000000000E-002  0.87500000000000000        0.0000000000000000     
   6.2500000000000000E-002  0.87500000000000000        0.0000000000000000     
   9.3750000000000000E-002  0.87500000000000000        0.0000000000000000     
  0.12500000000000000       0.87500000000000000        0.0000000000000000     
   0.0000000000000000       0.90625000000000000        0.0000000000000000     
   3.1250000000000000E-002  0.90625000000000000        0.0000000000000000     
   6.2500000000000000E-002  0.90625000000000000        0.0000000000000000     
   9.3750000000000000E-002  0.90625000000000000        0.0000000000000000     
  0.12500000000000000       0.90625000000000000        0.0000000000000000     
   0.0000000000000000       0.93750000000000000        0.0000000000000000     
   3.1250000000000000E-002  0.93750000000000000        0.0000000000000000     
   6.2500000000000000E-002  0.93750000000000000        0.0000000000000000     
   9.3750000000000000E-002  0.93750000000000000        0.0000000000000000     
  0.12500000000000000       0.93750000000000000        0.0000000000000000     
   0.0000000000000000       0.96875000000000000        0.0000000000000000     
   3.1250000000000000E-002  0.96875000000000000        0.0000000000000000     
   6.2500000000000000E-002  0.96875000000000000        0.0000000000000000     
   9.3750000000000000E-002  0.96875000000000000        0.0000000000000000     
  0.12500000000000000       0.96875000000000000        0.0000000000000000     
   0.0000000000000000        1.0000000000000000        0.0000000000000000     
   3.1250000000000000E-002   1.0000000000000000        0.0000000000000000     
   6.2500000000000000E-002   1.0000000000000000        0.0000000000000000     
   9.3750000000000000E-002   1.0000000000000000        0.0000000000000000     
  0.12500000000000000        1.0000000000000000        0.0000000000000000     
  0.12500000000000000       0.87500000000000000        0.0000000000000000     
  0.15625000000000000       0.87500000000000000        0.0000000000000000     
  0.18750000000000000       0.87500000000000000        0.0000000000000000     
  0.21875000000000000       0.87500000000000000        0.0000000000000000     
  0.25000000000000000       0.87500000000000000        0.0000000000000000     
  0.12500000000000000       0.90625000000000000        0.0000000000000000     
  0.15625000000000000       0.90625000000000000        0.0000000000000000     
  0.18750000000000000       0.90625000000000000        0.0000000000000000     
  0.21875000000000000       0.90625000000000000        0.0000000000000000     
  0.25000000000000000       0.90625000000000000        0.0000000000000000     
  0.12500000000000000       0.93750000000000000        0.0000000000000000     
  0.15625000000000000       0.93750000000000000        0.0000000000000000     
  0.18750000000000000       0.93750000000000000        0.0000000000000000     
  0.21875000000000000       0.93750000000000000        0.0000000000000000     
  0.25000000000000000       0.93750000000000000        0.0000000000000000     
  0.12500000000000000       0.96875000000000000        0.0000000000000000     
  0.15625000000000000       0.96875000000000000        0.0000000000000000     
  0.18750000000000000       0.96875000000000000        0.0000000000000000     
  0.21875000000000000       0.96875000000000000        0.0000000000000000     
  0.25000000000000000       0.96875000000000000        0.0000000000000000     
  0.12500000000000000        1.0000000000000000        0.0000000000000000     
  0.15625000000000000        1.0000000000000000        0.0000000000000000     
  0.18750000000000000        1.0000000000000000        0.0000000000000000     
  0.21875000000000000        1.0000000000000000        0.0000000000000000     
  0.25000000000000000        1.0000000000000000        0.0000000000000000     
  0.25000000000000000       0.87500000000000000        0.0000000000000000     
  0.28125000000000000       0.87500000000000000        0.0000000000000000     
  0.31250000000000000       0.87500000000000000        0.0000000000000000     
  0.34375000000000000       0.87500000000000000        0.0000000000000000     
  0.37500000000000000       0.87500000000000000        0.0000000000000000     
  0.25000000000000000       0.90625000000000000        0.0000000000000000     
  0.28125000000000000       0.90625000000000000        0.0000000000000000     
  0.31250000000000000       0.90625000000000000        0.0000000000000000     
  0.34375000000000000       0.90625000000000000        0.0000000000000000     
  0.37500000000000000       0.90625000000000000        0.0000000000000000     
  0.25000000000000000       0.93750000000000000        0.0000000000000000     
  0.28125000000000000       0.93750000000000000        0.0000000000000000     
  0.31250000000000000       0.93750000000000000        0.0000000000000000     
  0.34375000000000000       0.93750000000000000        0.0000000000000000     
  0.37500000000000000       0.93750000000000000        0.0000000000000000     
  0.25000000000000000       0.96875000000000000        0.0000000000000000     
  0.28125000000000000       0.96875000000000000        0.0000000000000000     
  0.31250000000000000       0.96875000000000000        0.0000000000000000     
  0.34375000000000000       0.96875000000000000        0.0000000000000000     
  0.37500000000000000       0.96875000000000000        0.0000000000000000     
  0.25000000000000000        1.0000000000000000        0.0000000000000000     
  0.28125000000000000        1.0000000000000000        0.0000000000000000     
  0.31250000000000000        1.0000000000000000        0.0000000000000000     
  0.34375000000000000        1.0000000000000000        0.0000000000000000     
  0.37500000000000000        1.0000000000000000        0.0000000000000000     
  0.37500000000000000       0.87500000000000000        0.0000000000000000     
  0.40625000000000000       0.87500000000000000        0.0000000000000000     
  0.43750000000000000       0.87500000000000000        0.0000000000000000     
  0.46875000000000000       0.87500000000000000        0.0000000000000000     
  0.50000000000000000       0.87500000000000000        0.0000000000000000     
  0.37500000000000000       0.90625000000000000        0.0000000000000000     
  0.40625000000000000       0.90625000000000000        0.0000000000000000     
  0.43750000000000000       0.90625000000000000        0.0000000000000000     
  0.46875000000000000       0.90625000000000000        0.0000000000000000     
  0.50000000000000000       0.90625000000000000        0.0000000000000000     
  0.37500000000000000       0.93750000000000000        0.0000000000000000     
  0.40625000000000000       0.93750000000000000        0.0000000000000000     
  0.43750000000000000       0.93750000000000000        0.0000000000000000     
  0.46875000000000000       0.93750000000000000        0.0000000000000000     
  0.50000000000000000       0.93750000000000000        0.0000000000000000     
  0.37500000000000000       0.96875000000000000        0.0000000000000000     
  0.40625000000000000       0.96875000000000000        0.0000000000000000     
  0.43750000000000000       0.96875000000000000        0.0000000000000000     
  0.46875000000000000       0.96875000000000000        0.0000000000000000     
  0.50000000000000000       0.96875000000000000        0.0000000000000000     
  0.37500000000000000        1.0000000000000000        0.0000000000000000     
  0.40625000000000000        1.0000000000000000        0.0000000000000000     
  0.43750000000000000        1.0000000000000000        0.0000000000000000     
  0.46875000000000000        1.0000000000000000        0.0000000000000000     
  0.50000000000000000        1.0000000000000000        0.0000000000000000     
  0.50000000000000000       0.87500000000000000        0.0000000000000000     
  0.53125000000000000       0.87500000000000000        0.0000000000000000     
  0.56250000000000000       0.87500000000000000        0.0000000000000000     
  0.59375000000000000       0.87500000000000000        0.0000000000000000     
  0.62500000000000000       0.87500000000000000        0.0000000000000000     
  0.50000000000000000       0.90625000000000000        0.0000000000000000     
  0.53125000000000000       0.90625000000000000        0.0000000000000000     
  0.56250000000000000       0.90625000000000000        0.0000000000000000     
  0.59375000000000000       0.90625000000000000        0.0000000000000000     
  0.62500000000000000       0.90625000000000000        0.0000000000000000     
  0.50000000000000000       0.93750000000000000        0.0000000000000000     
  0.53125000000000000       0.93750000000000000        0.0000000000000000     
  0.56250000000000000       0.93750000000000000        0.0000000000000000     
  0.59375000000000000       0.93750000000000000        0.0000000000000000     
  0.62500000000000000       0.93750000000000000        0.0000000000000000     
  0.50000000000000000       0.96875000000000000        0.0000000000000000     
  0.53125000000000000       0.96875000000000000        0.0000000000000000     
  0.56250000000000000       0.96875000000000000        0.0000000000000000     
  0.59375000000000000       0.96875000000000000        0.0000000000000000     
  0.62500000000000000       0.96875000000000000        0.0000000000000000     
  0.50000000000000000        1.0000000000000000        0.0000000000000000     
  0.53125000000000000        1.0000000000000000        0.0000000000000000     
  0.56250000000000000        1.0000000000000000        0.0000000000000000     
  0.59375000000000000        1.0000000000000000        0.0000000000000000     
  0.62500000000000000        1.0000000000000000        0.0000000000000000     
  0.62500000000000000       0.87500000000000000        0.0000000000000000     
  0.65625000000000000       0.87500000000000000        0.0000000000000000     
  0.68750000000000000       0.87500000000000000        0.0000000000000000     
  0.71875000000000000       0.87500000000000000        0.0000000000000000     
  0.75000000000000000       0.87500000000000000        0.0000000000000000     
  0.62500000000000000       0.90625000000000000        0.0000000000000000     
  0.65625000000000000       0.90625000000000000        0.0000000000000000     
  0.68750000000000000       0.90625000000000000        0.0000000000000000     
  0.71875000000000000       0.90625000000000000        0.0000000000000000     
  0.75000000000000000       0.90625000000000000        0.0000000000000000     
  0.62500000000000000       0.93750000000000000        0.0000000000000000     
  0.65625000000000000       0.93750000000000000        0.0000000000000000     
  0.68750000000000000       0.93750000000000000        0.0000000000000000     
  0.71875000000000000       0.93750000000000000        0.0000000000000000     
  0.75000000000000000       0.93750000000000000        0.0000000000000000     
  0.62500000000000000       0.96875000000000000        0.0000000000000000     
  0.65625000000000000       0.96875000000000000        0.0000000000000000     
  0.68750000000000000       0.96875000000000000        0.0000000000000000     
  0.71875000000000000       0.96875000000000000        0.0000000000000000     
  0.75000000000000000       0.96875000000000000        0.0000000000000000     
  0.62500000000000000        1.0000000000000000        0.0000000000000000     
  0.65625000000000000        1.0000000000000000        0.0000000000000000     
  0.68750000000000000        1.0000000000000000        0.0000000000000000     
  0.71875000000000000        1.0000000000000000        0.0000000000000000     
  0.75000000000000000        1.0000000000000000        0.0000000000000000     
  0.75000000000000000       0.87500000000000000        0.0000000000000000     
  0.78125000000000000       0.87500000000000000        0.0000000000000000     
  0.81250000000000000       0.87500000000000000        0.0000000000000000     
  0.84375000000000000       0.87500000000000000        0.0000000000000000     
  0.87500000000000000       0.87500000000000000        0.0000000000000000     
  0.75000000000000000       0.90625000000000000        0.0000000000000000     
  0.78125000000000000       0.90625000000000000        0.0000000000000000     
  0.81250000000000000       0.90625000000000000        0.0000000000000000     
  0.84375000000000000       0.90625000000000000        0.0000000000000000     
  0.87500000000000000       0.90625000000000000        0.0000000000000000     
  0.75000000000000000       0.93750000000000000        0.0000000000000000     
  0.78125000000000000       0.93750000000000000        0.0000000000000000     
  0.81250000000000000       0.93750000000000000        0.0000000000000000     
  0.84375000000000000       0.93750000000000000        0.0000000000000000     
  0.87500000000000000       0.93750000000000000        0.0000000000000000     
  0.75000000000000000       0.96875000000000000        0.0000000000000000     
  0.78125000000000000       0.96875000000000000        0.0000000000000000     
  0.81250000000000000       0.96875000000000000        0.0000000000000000     
  0.84375000000000000       0.96875000000000000        0.0000000000000000     
  0.87500000000000000       0.96875000000000000        0.0000000000000000     
  0.75000000000000000        1.0000000000000000        0.0000000000000000     
  0.78125000000000000        1.0000000000000000        0.0000000000000000     
  0.81250000000000000        1.0000000000000000        0.0000000000000000     
  0.84375000000000000        1.0000000000000000        0.0000000000000000     
  0.87500000000000000        1.0000000000000000        0.0000000000000000     
  0.87500000000000000       0.87500000000000000        0.0000000000000000     
  0.90625000000000000       0.87500000000000000        0.0000000000000000     
  0.93750000000000000       0.87500000000000000        0.0000000000000000     
  0.96875000000000000       0.87500000000000000        0.0000000000000000     
   1.0000000000000000       0.87500000000000000        0.0000000000000000     
  0.87500000000000000       0.90625000000000000        0.0000000000000000     
  0.90625000000000000       0.90625000000000000        0.0000000000000000     
  0.93750000000000000       0.90625000000000000        0.0000000000000000     
  0.96875000000000000       0.90625000000000000        0.0000000000000000     
   1.0000000000000000       0.90625000000000000        0.0000000000000000     
  0.87500000000000000       0.93750000000000000        0.0000000000000000     
  0.90625000000000000       0.93750000000000000        0.0000000000000000     
  0.93750000000000000       0.93750000000000000        0.0000000000000000     
  0.96875000000000000       0.93750000000000000        0.0000000000000000     
   1.0000000000000000       0.93750000000000000        0.0000000000000000     
  0.87500000000000000       0.96875000000000000        0.0000000000000000     
  0.90625000000000000       0.96875000000000000        0.0000000000000000     
  0.93750000000000000       0.96875000000000000        0.0000000000000000     
  0.96875000000000000       0.96875000000000000        0.0000000000000000     
   1.0000000000000000       0.96875000000000000        0.0000000000000000     
  0.87500000000000000        1.0000000000000000        0.0000000000000000     
  0.90625000000000000        1.0000000000000000        0.0000000000000000     
  0.93750000000000000        1.0000000000000000        0.0000000000000000     
  0.96875000000000000        1.0000000000000000        0.0000000000000000     
   1.0000000000000000        1.0000000000000000        0.0000000000000000     
 </DataArray>
 </Points>
 <Cells>
 <DataArray  type="Int32"  Name="connectivity"  format="ascii">
           0           1           6           5
           1           2           7           6
           2           3           8           7
           3           4           9           8
           5           6          11          10
           6           7          12          11
           7           8          13          12
           8           9          14          13
          10          11          16          15
          11          12          17          16
          12          13          18          17
          13          14          19          18
          15          16          21          20
          16          17          22          21
          17          18          23          22
          18          19          24          23
          25          26          31          30
          26          27          32          31
          27          28          33          32
          28          29          34          33
          30          31          36          35
          31          32          37          36
          32          33          38          37
          33          34          39          38
          35          36          41          40
          36          37          42          41
          37          38          43          42
          38          39          44          43
          40          41          46          45
          41          42          47          46
          42          43          48          47
          43          44          49          48
          50          51          56          55
          51          52          57          56
          52          53          58          57
          53          54          59          58
          55          56          61          60
          56          57          62          61
          57          58          63          62
          58          59          64          63
          60          61          66          65
          61          62          67          66
          62          63          68          67
          63          64          69          68
          65          66          71          70
          66          67          72          71
          67          68          73          72
          68          69          74          73
          75          76          81          80
          76          77          82          81
          77          78          83          82
          78          79          84          83
          80          81          86          85
          81          82          87          86
          82          83          88          87
          83          84          89          88
          85          86          91          90
          86          87          92          91
          87          88          93          92
          88          89          94          93
          90          91          96          95
          91          92          97          96
          92          93          98          97
          93          94          99          98
         100         101         106         105
         101         102         107         106
         102         103         108         107
         103         104         109         108
         105         106         111         110
         106         107         112         111
         107         108         113         112
         108         109         114         113
         110         111         116         115
         111         112         117         116
         112         113         118         117
         113         114         119         118
         115         116         121         120
         116         117         122         121
         117         118         123         122
         118         119         124         123
         125         126         131         130
         126         127         132         131
         127         128         133         132
         128         129         134         133
         130         131         136         135
         131         132         137         136
         132         133         138         137
         133         134         139         138
         135         136         141         140
         136         137         142         141
         137         138         143         142
         138         139         144         143
         140         141         146         145
         141         142         147         146
         142         143         148         147
         143         144         149         148
         150         151         156         155
         151         152         157         156
         152         153         158         157
         153         154         159         158
         155         156         161         160
         156         157         162         161
         157         158         163         162
         158         159         164         163
         160         161         166         165
         161         162         167         166
         162         163         168         167
         163         164         169         168
         165         166         171         170
         166         167         172         171
         167         168         173         172
         168         169         174         173
         175         176         181         180
         176         177         182         181
         177         178         183         182
         178         179         184         183
         180         181         186         185
         181         182         187         186
         182         183         188         187
         183         184         189         188
         185         186         191         190
         186         187         192         191
         187         188         193         192
         188         189         194         193
         190         191         196         195
         191         192         197         196
         192         193         198         197
         193         194         199         198
         200         201         206         205
         201         202         207         206
         202         203         208         207
         203         204         209         208
         205         206         211         210
         206         207         212         211
         207         208         213         212
         208         209         214         213
         210         211         216         215
         211         212         217         216
         212         213         218         217
         213         214         219         218
         215         216         221         220
         216         217         222         221
         217         218         223         222
         218         219         224         223
         225         226         231         230
         226         227         232         231
         227         228         233         232
         228         229         234         233
         230         231         236         235
         231         232         237         236
         232         233         238         237
         233         234         239         238
         235         236         241         240
         236         237         242         241
         237         238         243         242
         238         239         244         243
         240         241         246         245
         241         242         247         246
         242         243         248         247
         243         244         249         248
         250         251         256         255
         251         252         257         256
         252         253         258         257
         253         254         259         258
         255         256         261         260
         256         257         262         261
         257         258         263         262
         258         259         264         263
         260         261         266         265
         261         262         267         266
         262         263         268         267
         263         264         269         268
         265         266         271         270
         266         267         272         271
         267         268         273         272
         268         269         274         273
         275         276         281         280
         276         277         282         281
         277         278         283         282
         278         279         284         283
         280         281         286         285
         281         282         287         286
         282         283         288         287
         283         284         289         288
         285         286         291         290
         286         287         292         291
         287         288         293         292
         288         289         294         293
         290         291         296         295
         291         292         297         296
         292         293         298         297
         293         294         299         298
         300         301         306         305
         301         302         307         306
         302         303         308         307
         303         304         309         308
         305         306         311         310
         306         307         312         311
         307         308         313         312
         308         309         314         313
         310         311         316         315
         311         312         317         316
         312         313         318         317
         313         314         319         318
         315         316         321         320
         316         317         322         321
         317         318         323         322
         318         319         324         323
         325         326         331         330
         326         327         332         331
         327         328         333         332
         328         329         334         333
         330         331         336         335
         331         332         337         336
         332         333         338         337
         333         334         339         338
         335         336         341         340
         336         337         342         341
         337         338         343         342
         338         339         344         343
         340         341         346         345
         341         342         347         346
         342         343         348         347
         343         344         349         348
         350         351         356         355
         351         352         357         356
         352         353         358         357
         353         354         359         358
         355         356         361         360
         356         357         362         361
         357         358         363         362
         358         359         364         363
         360         361         366         365
         361         362         367         366
         362         363         368         367
         363         364         369         368
         365         366         371         370
         366         367         372         371
         367         368         373         372
         368         369         374         373
         375         376         381         380
         376         377         382         381
         377         378         383         382
         378         379         384         383
         380         381         386         385
         381         382         387         386
         382         383         388         387
         383         384         389         388
         385         386         391         390
         386         387         392         391
         387         388         393         392
         388         389         394         393
         390         391         396         395
         391         392         397         396
         392         393         398         397
         393         394         399         398
         400         401         406         405
         401         402         407         406
         402         403         408         407
         403         404         409         408
         405         406         411         410
         406         407         412         411
         407         408         413         412
         408         409         414         413
         410         411         416         415
         411         412         417         416
         412         413         418         417
         413         414         419         418
         415         416         421         420
         416         417         422         421
         417         418         423         422
         418         419         424         423
         425         426         431         430
         426         427         432         431
         427         428         433         432
         428         429         434         433
         430         431         436         435
         431         432         437         436
         432         433         438         437
         433         434         439         438
         435         436         441         440
         436         437         442         441
         437         438         443         442
         438         439         444         443
         440         441         446         445
         441         442         447         446
         442         443         448         447
         443         444         449         448
         450         451         456         455
         451         452         457         456
         452         453         458         457
         453         454         459         458
         455         456         461         460
         456         457         462         461
         457         458         463         462
         458         459         464         463
         460         461         466         465
         461         462         467         466
         462         463         468         467
         463         464         469         468
         465         466         471         470
         466         467         472         471
         467         468         473         472
         468         469         474         473
         475         476         481         480
         476         477         482         481
         477         478         483         482
         478         479         484         483
         480         481         486         485
         481         482         487         486
         482         483         488         487
         483         484         489         488
         485         486         491         490
         486         487         492         491
         487         488         493         492
         488         489         494         493
         490         491         496         495
         491         492         497         496
         492         493         498         497
         493         494         499         498
         500         501         506         505
         501         502         507         506
         502         503         508         507
         503         504         509         508
         505         506         511         510
         506         507         512         511
         507         508         513         512
         508         509         514         513
         510         511         516         515
         511         512         517         516
         512         513         518         517
         513         514         519         518
         515         516         521         520
         516         517         522         521
         517         518         523         522
         518         519         524         523
         525         526         531         530
         526         527         532         531
         527         528         533         532
         528         529         534         533
         530         531         536         535
         531         532         537         536
         532         533         538         537
         533         534         539         538
         535         536         541         540
         536         537         542         541
         537         538         543         542
         538         539         544         543
         540         541         546         545
         541         542         547         546
         542         543         548         547
         543         544         549         548
         550         551         556         555
         551         552         557         556
         552         553         558         557
         553         554         559         558
         555         556         561         560
         556         557         562         561
         557         558         563         562
         558         559         564         563
         560         561         566         565
         561         562         567         566
         562         563         568         567
         563         564         569         568
         565         566         571         570
         566         567         572         571
         567         568         573         572
         568         569         574         573
         575         576         581         580
         576         577         582         581
         577         578         583         582
         578         579         584         583
         580         581         586         585
         581         582         587         586
         582         583         588         587
         583         584         589         588
         585         586         591         590
         586         587         592         591
         587         588         593         592
         588         589         594         593
         590         591         596         595
         591         592         597         596
         592         593         598         597
         593         594         599         598
         600         601         606         605
         601         602         607         606
         602         603         608         607
         603         604         609         608
         605         606         611         610
         606         607         612         611
         607         608         613         612
         608         609         614         613
         610         611         616         615
         611         612         617         616
         612         613         618         617
         613         614         619         618
         615         616         621         620
         616         617         622         621
         617         618         623         622
         618         619         624         623
         625         626         631         630
         626         627         632         631
         627         628         633         632
         628         629         634         633
         630         631         636         635
         631         632         637         636
         632         633         638         637
         633         634         639         638
         635         636         641         640
         636         637         642         641
         637         638         643         642
         638         639         644         643
         640         641         646         645
         641         642         647         646
         642         643         648         647
         643         644         649         648
         650         651         656         655
         651         652         657         656
         652         653         658         657
         653         654         659         658
         655         656         661         660
         656         657         662         661
         657         658         663         662
         658         659         664         663
         660         661         666         665
         661         662         667         666
         662         663         668         667
         663         664         669         668
         665         666         671         670
         666         667         672         671
         667         668         673         672
         668         669         674         673
         675         676         681         680
         676         677         682         681
         677         678         683         682
         678         679         684         683
         680         681         686         685
         681         682         687         686
         682         683         688         687
         683         684         689         688
         685         686         691         690
         686         687         692         691
         687         688         693         692
         688         689         694         693
         690         691         696         695
         691         692         697         696
         692         693         698         697
         693         694         699         698
         700         701         706         705
         701         702         707         706
         702         703         708         707
         703         704         709         708
         705         706         711         710
         706         707         712         711
         707         708         713         712
         708         709         714         713
         710         711         716         715
         711         712         717         716
         712         713         718         717
         713         714         719         718
         715         716         721         720
         716         717         722         721
         717         718         723         722
         718         719         724         723
         725         726         731         730
         726         727         732         731
         727         728         733         732
         728         729         734         733
         730         731         736         735
         731         732         737         736
         732         733         738         737
         733         734         739         738
         735         736         741         740
         736         737         742         741
         737         738         743         742
         738         739         744         743
         740         741         746         745
         741         742         747         746
         742         743         748         747
         743         744         749         748
         750         751         756         755
         751         752         757         756
         752         753         758         757
         753         754         759         758
         755         756         761         760
         756         757         762         761
         757         758         763         762
         758         759         764         763
         760         761         766         765
         761         762         767         766
         762         763         768         767
         763         764         769         768
         765         766         771         770
         766         767         772         771
         767         768         773         772
         768         769         774         773
         775         776         781         780
         776         777         782         781
         777         778         783         782
         778         779         784         783
         780         781         786         785
         781         782         787         786
         782         783         788         787
         783         784         789         788
         785         786         791         790
         786         787         792         791
         787         788         793         792
         788         789         794         793
         790         791         796         795
         791         792         797         796
         792         793         798         797
         793         794         799         798
         800         801         806         805
         801         802         807         806
         802         803         808         807
         803         804         809         808
         805         806         811         810
         806         807         812         811
         807         808         813         812
         808         809         814         813
         810         811         816         815
         811         812         817         816
         812         813         818         817
         813         814         819         818
         815         816         821         820
         816         817         822         821
         817         818         823         822
         818         819         824         823
         825         826         831         830
         826         827         832         831
         827         828         833         832
         828         829         834         833
         830         831         836         835
         831         832         837         836
         832         833         838         837
         833         834         839         838
         835         836         841         840
         836         837         842         841
         837         838         843         842
         838         839         844         843
         840         841         846         845
         841         842         847         846
         842         843         848         847
         843         844         849         848
         850         851         856         855
         851         852         857         856
         852         853         858         857
         853         854         859         858
         855         856         861         860
         856         857         862         861
         857         858         863         862
         858         859         864         863
         860         861         866         865
         861         862         867         866
         862         863         868         867
         863         864         869         868
         865         866         871         870
         866         867         872         871
         867         868         873         872
         868         869         874         873
         875         876         881         880
         876         877         882         881
         877         878         883         882
         878         879         884         883
         880         881         886         885
         881         882         887         886
         882         883         888         887
         883         884         889         888
         885         886         891         890
         886         887         892         891
         887         888         893         892
         888         889         894         893
         890         891         896         895
         891         892         897         896
         892         893         898         897
         893         894         899         898
         900         901         906         905
         901         902         907         906
         902         903         908         907
         903         904         909         908
         905         906         911         910
         906         907         912         911
         907         908         913         912
         908         909         914         913
         910         911         916         915
         911         912         917         916
         912         913         918         917
         913         914         919         918
         915         916         921         920
         916         917         922         921
         917         918         923         922
         918         919         924         923
         925         926         931         930
         926         927         932         931
         927         928         933         932
         928         929         934         933
         930         931         936         935
         931         932         937         936
         932         933         938         937
         933         934         939         938
         935         936         941         940
         936         937         942         941
         937         938         943         942
         938         939         944         943
         940         941         946         945
         941         942         947         946
         942         943         948         947
         943         944         949         948
         950         951         956         955
         951         952         957         956
         952         953         958         957
         953         954         959         958
         955         956         961         960
         956         957         962         961
         957         958         963         962
         958         959         964         963
         960         961         966         965
         961         962         967         966
         962         963         968         967
         963         964         969         968
         965         966         971         970
         966         967         972         971
         967         968         973         972
         968         969         974         973
         975         976         981         980
         976         977         982         981
         977         978         983         982
         978         979         984         983
         980         981         986         985
         981         982         987         986
         982         983         988         987
         983         984         989         988
         985         986         991         990
         986         987         992         991
         987         988         993         992
         988         989         994         993
         990         991         996         995
         991         992         997         996
         992         993         998         997
         993         994         999         998
        1000        1001        1006        1005
        1001        1002        1007        1006
        1002        1003        1008        1007
        1003        1004        1009        1008
        1005        1006        1011        1010
        1006        1007        1012        1011
        1007        1008        1013        1012
        1008        1009        1014        1013
        1010        1011        1016        1015
        1011        1012        1017        1016
        1012        1013        1018        1017
        1013        1014        1019        1018
        1015        1016        1021        1020
        1016        1017        1022        1021
        1017        1018        1023        1022
        1018        1019        1024        1023
        1025        1026        1031        1030
        1026        1027        1032        1031
        1027        1028        1033        1032
        1028        1029        1034        1033
        1030        1031        1036        1035
        1031        1032        1037        1036
        1032        1033        1038        1037
        1033        1034        1039        1038
        1035        1036        1041        1040
        1036        1037        1042        1041
        1037        1038        1043        1042
        1038        1039        1044        1043
        1040        1041        1046        1045
        1041        1042        1047        1046
        1042        1043        1048        1047
        1043        1044        1049        1048
        1050        1051        1056        1055
        1051        1052        1057        1056
        1052        1053        1058        1057
        1053        1054        1059        1058
        1055        1056        1061        1060
        1056        1057        1062        1061
        1057        1058        1063        1062
        1058        1059        1064        1063
        1060        1061        1066        1065
        1061        1062        1067        1066
        1062        1063        1068        1067
        1063        1064        1069        1068
        1065        1066        1071        1070
        1066        1067        1072        1071
        1067        1068        1073        1072
        1068        1069        1074        1073
        1075        1076        1081        1080
        1076        1077        1082        1081
        1077        1078        1083        1082
        1078        1079        1084        1083
        1080        1081        1086        1085
        1081        1082        1087        1086
        1082        1083        1088        1087
        1083        1084        1089        1088
        1085        1086        1091        1090
        1086        1087        1092        1091
        1087        1088        1093        1092
        1088        1089        1094        1093
        1090        1091        1096        1095
        1091        1092        1097        1096
        1092        1093        1098        1097
        1093        1094        1099        1098
        1100        1101        1106        1105
        1101        1102        1107        1106
        1102        1103        1108        1107
        1103        1104        1109        1108
        1105        1106        1111        1110
        1106        1107        1112        1111
        1107        1108        1113        1112
        1108        1109        1114        1113
        1110        1111        1116        1115
        1111        1112        1117        1116
        1112        1113        1118        1117
        1113        1114        1119        1118
        1115        1116        1121        1120
        1116        1117        1122        1121
        1117        1118        1123        1122
        1118        1119        1124        1123
        1125        1126        1131        1130
        1126        1127        1132        1131
        1127        1128        1133        1132
        1128        1129        1134        1133
        1130        1131        1136        1135
        1131        1132        1137        1136
        1132        1133        1138        1137
        1133        1134        1139        1138
        1135        1136        1141        1140
        1136        1137        1142        1141
        1137        1138        1143        1142
        1138        1139        1144        1143
        1140        1141        1146        1145
        1141        1142        1147        1146
        1142        1143        1148        1147
        1143        1144        1149        1148
        1150        1151        1156        1155
        1151        1152        1157        1156
        1152        1153        1158        1157
        1153        1154        1159        1158
        1155        1156        1161        1160
        1156        1157        1162        1161
        1157        1158        1163        1162
        1158        1159        1164        1163
        1160        1161        1166        1165
        1161        1162        1167        1166
        1162        1163        1168        1167
        1163        1164        1169        1168
        1165        1166        1171        1170
        1166        1167        1172        1171
        1167        1168        1173        1172
        1168        1169        1174        1173
        1175        1176        1181        1180
        1176        1177        1182        1181
        1177        1178        1183        1182
        1178        1179        1184        1183
        1180        1181        1186        1185
        1181        1182        1187        1186
        1182        1183        1188        1187
        1183        1184        1189        1188
        1185        1186        1191        1190
        1186        1187        1192        1191
        1187        1188        1193        1192
        1188        1189        1194        1193
        1190        1191        1196        1195
        1191        1192        1197        1196
        1192        1193        1198        1197
        1193        1194        1199        1198
        1200        1201        1206        1205
        1201        1202        1207        1206
        1202        1203        1208        1207
        1203        1204        1209        1208
        1205        1206        1211        1210
        1206        1207        1212        1211
        1207        1208        1213        1212
        1208        1209        1214        1213
        1210        1211        1216        1215
        1211        1212        1217        1216
        1212        1213        1218        1217
        1213        1214        1219        1218
        1215        1216        1221        1220
        1216        1217        1222        1221
        1217        1218        1223        1222
        1218        1219        1224        1223
        1225        1226        1231        1230
        1226        1227        1232        1231
        1227        1228        1233        1232
        1228        1229        1234        1233
        1230        1231        1236        1235
        1231        1232        1237        1236
        1232        1233        1238        1237
        1233        1234        1239        1238
        1235        1236        1241        1240
        1236        1237        1242        1241
        1237        1238        1243        1242
        1238        1239        1244        1243
        1240        1241        1246        1245
        1241        1242        1247        1246
        1242        1243        1248        1247
        1243        1244        1249        1248
        1250        1251        1256        1255
        1251        1252        1257        1256
        1252        1253        1258        1257
        1253        1254        1259        1258
        1255        1256        1261        1260
        1256        1257        1262        1261
        1257        1258        1263        1262
        1258        1259        1264        1263
        1260        1261        1266        1265
        1261        1262        1267        1266
        1262        1263        1268        1267
        1263        1264        1269        1268
        1265        1266        1271        1270
        1266        1267        1272        1271
        1267        1268        1273        1272
        1268        1269        1274        1273
        1275        1276        1281        1280
        1276        1277        1282        1281
        1277        1278        1283        1282
        1278        1279        1284        1283
        1280        1281        1286        1285
        1281        1282        1287        1286
        1282        1283        1288        1287
        1283        1284        1289        1288
        1285        1286        1291        1290
        1286        1287        1292        1291
        1287        1288        1293        1292
        1288        1289        1294        1293
        1290        1291        1296        1295
        1291        1292        1297        1296
        1292        1293        1298        1297
        1293        1294        1299        1298
        1300        1301        1306        1305
        1301        1302        1307        1306
        1302        1303        1308        1307
        1303        1304        1309        1308
        1305        1306        1311        1310
        1306        1307        1312        1311
        1307        1308        1313        1312
        1308        1309        1314        1313
        1310        1311        1316        1315
        1311        1312        1317        1316
        1312        1313        1318        1317
        1313        1314        1319        1318
        1315        1316        1321        1320
        1316        1317        1322        1321
        1317        1318        1323        1322
        1318        1319        1324        1323
        1325        1326        1331        1330
        1326        1327        1332        1331
        1327        1328        1333        1332
        1328        1329        1334        1333
        1330        1331        1336        1335
        1331        1332        1337        1336
        1332        1333        1338        1337
        1333        1334        1339        1338
        1335        1336        1341        1340
        1336        1337        1342        1341
        1337        1338        1343        1342
        1338        1339        1344        1343
        1340        1341        1346        1345
        1341        1342        1347        1346
        1342        1343        1348        1347
        1343        1344        1349        1348
        1350        1351        1356        1355
        1351        1352        1357        1356
        1352        1353        1358        1357
        1353        1354        1359        1358
        1355        1356        1361        1360
        1356        1357        1362        1361
        1357        1358        1363        1362
        1358        1359        1364        1363
        1360        1361        1366        1365
        1361        1362        1367        1366
        1362        1363        1368        1367
        1363        1364        1369        1368
        1365        1366        1371        1370
        1366        1367        1372        1371
        1367        1368        1373        1372
        1368        1369        1374        1373
        1375        1376        1381        1380
        1376        1377        1382        1381
        1377        1378        1383        1382
        1378        1379        1384        1383
        1380        1381        1386        1385
        1381        1382        1387        1386
        1382        1383        1388        1387
        1383        1384        1389        1388
        1385        1386        1391        1390
        1386        1387        1392        1391
        1387        1388        1393        1392
        1388        1389        1394        1393
        1390        1391        1396        1395
        1391        1392        1397        1396
        1392        1393        1398        1397
        1393        1394        1399        1398
        1400        1401        1406        1405
        1401        1402        1407        1406
        1402        1403        1408        1407
        1403        1404        1409        1408
        1405        1406        1411        1410
        1406        1407        1412        1411
        1407        1408        1413        1412
        1408        1409        1414        1413
        1410        1411        1416        1415
        1411        1412        1417        1416
        1412        1413        1418        1417
        1413        1414        1419        1418
        1415        1416        1421        1420
        1416        1417        1422        1421
        1417        1418        1423        1422
        1418        1419        1424        1423
        1425        1426        1431        1430
        1426        1427        1432        1431
        1427        1428        1433        1432
        1428        1429        1434        1433
        1430        1431        1436        1435
        1431        1432        1437        1436
        1432        1433        1438        1437
        1433        1434        1439        1438
        1435        1436        1441        1440
        1436        1437        1442        1441
        1437        1438        1443        1442
        1438        1439        1444        1443
        1440        1441        1446        1445
        1441        1442        1447        1446
        1442        1443        1448        1447
        1443        1444        1449        1448
        1450        1451        1456        1455
        1451        1452        1457        1456
        1452        1453        1458        1457
        1453        1454        1459        1458
        1455        1456        1461        1460
        1456        1457        1462        1461
        1457        1458        1463        1462
        1458        1459        1464        1463
        1460        1461        1466        1465
        1461        1462        1467        1466
        1462        1463        1468        1467
        1463        1464        1469        1468
        1465        1466        1471        1470
        1466        1467        1472        1471
        1467        1468        1473        1472
        1468        1469        1474        1473
        1475        1476        1481        1480
        1476        1477        1482        1481
        1477        1478        1483        1482
        1478        1479        1484        1483
        1480        1481        1486        1485
        1481        1482        1487        1486
        1482        1483        1488        1487
        1483        1484        1489        1488
        1485        1486        1491        1490
        1486        1487        1492        1491
        1487        1488        1493        1492
        1488        1489        1494        1493
        1490        1491        1496        1495
        1491        1492        1497        1496
        1492        1493        1498        1497
        1493        1494        1499        1498
        1500        1501        1506        1505
        1501        1502        1507        1506
        1502        1503        1508        1507
        1503        1504        1509        1508
        1505        1506        1511        1510
        1506        1507        1512        1511
        1507        1508        1513        1512
        1508        1509        1514        1513
        1510        1511        1516        1515
        1511        1512        1517        1516
        1512        1513        1518        1517
        1513        1514        1519        1518
        1515        1516        1521        1520
        1516        1517        1522        1521
        1517        1518        1523        1522
        1518        1519        1524        1523
        1525        1526        1531        1530
        1526        1527        1532        1531
        1527        1528        1533        1532
        1528        1529        1534        1533
        1530        1531        1536        1535
        1531        1532        1537        1536
        1532        1533        1538        1537
        1533        1534        1539        1538
        1535        1536        1541        1540
        1536        1537        1542        1541
        1537        1538        1543        1542
        1538        1539        1544        1543
        1540        1541        1546        1545
        1541        1542        1547        1546
        1542        1543        1548        1547
        1543        1544        1549        1548
        1550        1551        1556        1555
        1551        1552        1557        1556
        1552        1553        1558        1557
        1553        1554        1559        1558
        1555        1556        1561        1560
        1556        1557        1562        1561
        1557        1558        1563        1562
        1558        1559        1564        1563
        1560        1561        1566        1565
        1561        1562        1567        1566
        1562        1563        1568        1567
        1563        1564        1569        1568
        1565        1566        1571        1570
        1566        1567        1572        1571
        1567        1568        1573        1572
        1568        1569        1574        1573
        1575        1576        1581        1580
        1576        1577        1582        1581
        1577        1578        1583        1582
        1578        1579        1584        1583
        1580        1581        1586        1585
        1581        1582        1587        1586
        1582        1583        1588        1587
        1583        1584        1589        1588
        1585        1586        1591        1590
        1586        1587        1592        1591
        1587        1588        1593        1592
        1588        1589        1594        1593
        1590        1591        1596        1595
        1591        1592        1597        1596
        1592        1593        1598        1597
        1593        1594        1599        1598
 </DataArray>
 <DataArray  type="Int32"  Name="offsets"  format="ascii"> 
           4
           8
          12
          16
          20
          24
          28
          32
          36
          40
          44
          48
          52
          56
          60
          64
          68
          72
          76
          80
          84
          88
          92
          96
         100
         104
         108
         112
         116
         120
         124
         128
         132
         136
         140
         144
         148
         152
         156
         160
         164
         168
         172
         176
         180
         184
         188
         192
         196
         200
         204
         208
         212
         216
         220
         224
         228
         232
         236
         240
         244
         248
         252
         256
         260
         264
         268
         272
         276
         280
         284
         288
         292
         296
         300
         304
         308
         312
         316
         320
         324
         328
         332
         336
         340
         344
         348
         352
         356
         360
         364
         368
         372
         376
         380
         384
         388
         392
         396
         400
         404
         408
         412
         416
         420
         424
         428
         432
         436
         440
         444
         448
         452
         456
         460
         464
         468
         472
         476
         480
         484
         488
         492
         496
         500
         504
         508
         512
         516
         520
         524
         528
         532
         536
         540
         544
         548
         552
         556
         560
         564
         568
         572
         576
         580
         584
         588
         592
         596
         600
         604
         608
         612
         616
         620
         624
         628
         632
         636
         640
         644
         648
         652
         656
         660
         664
         668
         672
         676
         680
         684
         688
         692
         696
         700
         704
         708
         712
         716
         720
         724
         728
         732
         736
         740
         744
         748
         752
         756
         760
         764
         768
         772
         776
         780
         784
         788
         792
         796
         800
         804
         808
         812
         816
         820
         824
         828
         832
         836
         840
         844
         848
         852
         856
         860
         864
         868
         872
         876
         880
         884
         888
         892
         896
         900
         904
         908
         912
         916
         920
         924
         928
         932
         936
         940
         944
         948
         952
         956
         960
         964
         968
         972
         976
         980
         984
         988
         992
         996
        1000
        1004
        1008
        1012
        1016
        1020
        1024
        1028
        1032
        1036
        1040
        1044
        1048
        1052
        1056
        1060
        1064
        1068
        1072
        1076
        1080
        1084
        1088
        1092
        1096
        1100
        1104
        1108
        1112
        1116
        1120
        1124
        1128
        1132
        1136
        1140
        1144
        1148
        1152
        1156
        1160
        1164
        1168
        1172
        1176
        1180
        1184
        1188
        1192
        1196
        1200
        1204
        1208
        1212
        1216
        1220
        1224
        1228
        1232
        1236
        1240
        1244
        1248
        1252
        1256
        1260
        1264
        1268
        1272
        1276
        1280
        1284
        1288
        1292
        1296
        1300
        1304
        1308
        1312
        1316
        1320
        1324
        1328
        1332
        1336
        1340
        1344
        1348
        1352
        1356
        1360
        1364
        1368
        1372
        1376
        1380
        1384
        1388
        1392
        1396
        1400
        1404
        1408
        1412
        1416
        1420
        1424
        1428
        1432
        1436
        1440
        1444
        1448
        1452
        1456
        1460
        1464
        1468
        1472
        1476
        1480
        1484
        1488
        1492
        1496
        1500
        1504
        1508
        1512
        1516
        1520
        1524
        1528
        1532
        1536
        1540
        1544
        1548
        1552
        1556
        1560
        1564
        1568
        1572
        1576
        1580
        1584
        1588
        1592
        1596
        1600
        1604
        1608
        1612
        1616
        1620
        1624
        1628
        1632
        1636
        1640
        1644
        1648
        1652
        1656
        1660
        1664
        1668
        1672
        1676
        1680
        1684
        1688
        1692
        1696
        1700
        1704
        1708
        1712
        1716
        1720
        1724
        1728
        1732
        1736
        1740
        1744
        1748
        1752
        1756
        1760
        1764
        1768
        1772
        1776
        1780
        1784
        1788
        1792
        1796
        1800
        1804
        1808
        1812
        1816
        1820
        1824
        1828
        1832
        1836
        1840
        1844
        1848
        1852
        1856
        1860
        1864
        1868
        1872
        1876
        1880
        1884
        1888
        1892
        1896
        1900
        1904
        1908
        1912
        1916
        1920
        1924
        1928
        1932
        1936
        1940
        1944
        1948
        1952
        1956
        1960
        1964
        1968
        1972
        1976
        1980
        1984
        1988
        1992
        1996
        2000
        2004
        2008
        2012
        2016
        2020
        2024
        2028
        2032
        2036
        2040
        2044
        2048
        2052
        2056
        2060
        2064
        2068
        2072
        2076
        2080
        2084
        2088
        2092
        2096
        2100
        2104
        2108
        2112
        2116
        2120
        2124
        2128
        2132
        2136
        2140
        2144
        2148
        2152
        2156
        2160
        2164
        2168
        2172
        2176
        2180
        2184
        2188
        2192
        2196
        2200
        2204
        2208
        2212
        2216
        2220
        2224
        2228
        2232
        2236
        2240
        2244
        2248
        2252
        2256
        2260
        2264
        2268
        2272
        2276
        2280
        2284
        2288
        2292
        2296
        2300
        2304
        2308
        2312
        2316
        2320
        2324
        2328
        2332
        2336
        2340
        2344
        2348
        2352
        2356
        2360
        2364
        2368
        2372
        2376
        2380
        2384
        2388
        2392
        2396
        2400
        2404
        2408
        2412
        2416
        2420
        2424
        2428
        2432
        2436
        2440
        2444
        2448
        2452
        2456
        2460
        2464
        2468
        2472
        2476
        2480
        2484
        2488
        2492
        2496
        2500
        2504
        2508
        2512
        2516
        2520
        2524
        2528
        2532
        2536
        2540
        2544
        2548
        2552
        2556
        2560
        2564
        2568
        2572
        2576
        2580
        2584
        2588
        2592
        2596
        2600
        2604
        2608
        2612
        2616
        2620
        2624
        2628
        2632
        2636
        2640
        2644
        2648
        2652
        2656
        2660
        2664
        2668
        2672
        2676
        2680
        2684
        2688
        2692
        2696
        2700
        2704
        2708
        2712
        2716
        2720
        2724
        2728
        2732
        2736
        2740
        2744
        2748
        2752
        2756
        2760
        2764
        2768
        2772
        2776
        2780
        2784
        2788
        2792
        2796
        2800
        2804
        2808
        2812
        2816
        2820
        2824
        2828
        2832
        2836
        2840
        2844
        2848
        2852
        2856
        2860
        2864
        2868
        2872
        2876
        2880
        2884
        2888
        2892
        2896
        2900
        2904
        2908
        2912
        2916
        2920
        2924
        2928
        2932
        2936
        2940
        2944
        2948
        2952
        2956
        2960
        2964
        2968
        2972
        2976
        2980
        2984
        2988
        2992
        2996
        3000
        3004
        3008
        3012
        3016
        3020
        3024
        3028
        3032
        3036
        3040
        3044
        3048
        3052
        3056
        3060
        3064
        3068
        3072
        3076
        3080
        3084
        3088
        3092
        3096
        3100
        3104
        3108
        3112
        3116
        3120
        3124
        3128
        3132
        3136
        3140
        3144
        3148
        3152
        3156
        3160
        3164
        3168
        3172
        3176
        3180
        3184
        3188
        3192
        3196
        3200
        3204
        3208
        3212
        3216
        3220
        3224
        3228
        3232
        3236
        3240
        3244
        3248
        3252
        3256
        3260
        3264
        3268
        3272
        3276
        3280
        3284
        3288
        3292
        3296
        3300
        3304
        3308
        3312
        3316
        3320
        3324
        3328
        3332
        3336
        3340
        3344
        3348
        3352
        3356
        3360
        3364
        3368
        3372
        3376
        3380
        3384
        3388
        3392
        3396
        3400
        3404
        3408
        3412
        3416
        3420
        3424
        3428
        3432
        3436
        3440
        3444
        3448
        3452
        3456
        3460
        3464
        3468
        3472
        3476
        3480
        3484
        3488
        3492
        3496
        3500
        3504
        3508
        3512
        3516
        3520
        3524
        3528
        3532
        3536
        3540
        3544
        3548
        3552
        3556
        3560
        3564
        3568
        3572
        3576
        3580
        3584
        3588
        3592
        3596
        3600
        3604
        3608
        3612
        3616
        3620
        3624
        3628
        3632
        3636
        3640
        3644
        3648
        3652
        3656
        3660
        3664
        3668
        3672
        3676
        3680
        3684
        3688
        3692
        3696
        3700
        3704
        3708
        3712
        3716
        3720
        3724
        3728
        3732
        3736
        3740
        3744
        3748
        3752
        3756
        3760
        3764
        3768
        3772
        3776
        3780
        3784
        3788
        3792
        3796
        3800
        3804
        3808
        3812
        3816
        3820
        3824
        3828
        3832
        3836
        3840
        3844
        3848
        3852
        3856
        3860
        3864
        3868
        3872
        3876
        3880
        3884
        3888
        3892
        3896
        3900
        3904
        3908
        3912
        3916
        3920
        3924
        3928
        3932
        3936
        3940
        3944
        3948
        3952
        3956
        3960
        3964
        3968
        3972
        3976
        3980
        3984
        3988
        3992
        3996
        4000
        4004
        4008
        4012
        4016
        4020
        4024
        4028
        4032
        4036
        4040
        4044
        4048
        4052
        4056
        4060
        4064
        4068
        4072
        4076
        4080
        4084
        4088
        4092
        4096
 </DataArray>
 <DataArray  type="UInt8"  Name="types"  format="ascii">
 9
 9
 9
 9
 9
 9
 9
 9
 9
 9
 9
 9
 9
 9
 9
 9
 9
 9
 9
 9
 9
 9
 9
 9
 9
 9
 9
 9
 9
 9
 9
 9
 9
 9
 9
 9
 9
 9
 9
 9
 9
 9
 9
 9
 9
 9
 9
 9
 9
 9
 9
 9
 9
 9
 9
 9
 9
 9
 9
 9
 9
 9
 9
 9
 9
 9
 9
 9
 9
 9
 9
 9
 9
 9
 9
 9
 9
 9
 9
 9
 9
 9
 9
 9
 9
 9
 9
 9
 9
 9
 9
 9
 9
 9
 9
 9
 9
 9
 9
 9
 9
 9
 9
 9
 9
 9
 9
 9
 9
 9
 9
 9
 9
 9
 9
 9
 9
 9
 9
 9
 9
 9
 9
 9
 9
 9
 9
 9
 9
 9
 9
 9
 9
 9
 9
 9
 9
 9
 9
 9
 9
 9
 9
 9
 9
 9
 9
 9
 9
 9
 9
 9
 9
 9
 9
 9
 9
 9
 9
 9
 9
 9
 9
 9
 9
 9
 9
 9
 9
 9
 9
 9
 9
 9
 9
 9
 9
 9
 9
 9
 9
 9
 9
 9
 9
 9
 9
 9
 9
 9
 9
 9
 9
 9
 9
 9
 9
 9
 9
 9
 9
 9
 9
 9
 9
 9
 9
 9
 9
 9
 9
 9
 9
 9
 9
 9
 9
 9
 9
 9
 9
 9
 9
 9
 9
 9
 9
 9
 9
 9
 9
 9
 9
 9
 9
 9
 9
 9
 9
 9
 9
 9
 9
 9
 9
 9
 9
 9
 9
 9
 9
 9
 9
 9
 9
 9
 9
 9
 9
 9
 9
 9
 9
 9
 9
 9
 9
 9
 9
 9
 9
 9
 9
 9
 9
 9
 9
 9
 9
 9
 9
 9
 9
 9
 9
 9
 9
 9
 9
 9
 9
 9
 9
 9
 9
 9
 9
 9
 9
 9
 9
 9
 9
 9
 9
 9
 9
 9
 9
 9
 9
 9
 9
 9
 9
 9
 9
 9
 9
 9
 9
 9
 9
 9
 9
 9
 9
 9
 9
 9
 9
 9
 9
 9
 9
 9
 9
 9
 9
 9
 9
 9
 9
 9
 9
 9
 9
 9
 9
 9
 9
 9
 9
 9
 9
 9
 9
 9
 9
 9
 9
 9
 9
 9
 9
 9
 9
 9
 9
 9
 9
 9
 9
 9
 9
 9
 9
 9
 9
 9
 9
 9
 9
 9
 9
 9
 9
 9
 9
 9
 9
 9
 9
 9
 9
 9
 9
 9
 9
 9
 9
 9
 9
 9
 9
 9
 9
 9
 9
 9
 9
 9
 9
 9
 9
 9
 9
 9
 9
 9
 9
 9
 9
 9
 9
 9
 9
 9
 9
 9
 9
 9
 9
 9
 9
 9
 9
 9
 9
 9
 9
 9
 9
 9
 9
 9
 9
 9
 9
 9
 9
 9
 9
 9
 9
 9
 9
 9
 9
 9
 9
 9
 9
 9
 9
 9
 9
 9
 9
 9
 9
 9
 9
 9
 9
 9
 9
 9
 9
 9
 9
 9
 9
 9
 9
 9
 9
 9
 9
 9
 9
 9
 9
 9
 9
 9
 9
 9
 9
 9
 9
 9
 9
 9
 9
 9
 9
 9
 9
 9
 9
 9
 9
 9
 9
 9
 9
 9
 9
 9
 9
 9
 9
 9
 9
 9
 9
 9
 9
 9
 9
 9
 9
 9
 9
 9
 9
 9
 9
 9
 9
 9
 9
 9
 9
 9
 9
 9
 9
 9
 9
 9
 9
 9
 9
 9
 9
 9
 9
 9
 9
 9
 9
 9
 9
 9
 9
 9
 9
 9
 9
 9
 9
 9
 9
 9
 9
 9
 9
 9
 9
 9
 9
 9
 9
 9
 9
 9
 9
 9
 9
 9
 9
 9
 9
 9
 9
 9
 9
 9
 9
 9
 9
 9
 9
 9
 9
 9
 9
 9
 9
 9
 9
 9
 9
 9
 9
 9
 9
 9
 9
 9
 9
 9
 9
 9
 9
 9
 9
 9
 9
 9
 9
 9
 9
 9
 9
 9
 9
 9
 9
 9
 9
 9
 9
 9
 9
 9
 9
 9
 9
 9
 9
 9
 9
 9
 9
 9
 9
 9
 9
 9
 9
 9
 9
 9
 9
 9
 9
 9
 9
 9
 9
 9
 9
 9
 9
 9
 9
 9
 9
 9
 9
 9
 9
 9
 9
 9
 9
 9
 9
 9
 9
 9
 9
 9
 9
 9
 9
 9
 9
 9
 9
 9
 9
 9
 9
 9
 9
 9
 9
 9
 9
 9
 9
 9
 9
 9
 9
 9
 9
 9
 9
 9
 9
 9
 9
 9
 9
 9
 9
 9
 9
 9
 9
 9
 9
 9
 9
 9
 9
 9
 9
 9
 9
 9
 9
 9
 9
 9
 9
 9
 9
 9
 9
 9
 9
 9
 9
 9
 9
 9
 9
 9
 9
 9
 9
 9
 9
 9
 9
 9
 9
 9
 9
 9
 9
 9
 9
 9
 9
 9
 9
 9
 9
 9
 9
 9
 9
 9
 9
 9
 9
 9
 9
 9
 9
 9
 9
 9
 9
 9
 9
 9
 9
 9
 9
 9
 9
 9
 9
 9
 9
 9
 9
 9
 9
 9
 9
 9
 9
 9
 9
 9
 9
 9
 9
 9
 9
 9
 9
 9
 9
 9
 9
 9
 9
 9
 9
 9
 9
 9
 9
 9
 9
 9
 9
 9
 9
 9
 9
 9
 9
 9
 9
 9
 9
 9
 9
 9
 9
 9
 9
 9
 9
 9
 9
 9
 9
 9
 9
 9
 9
 9
 9
 9
 9
 9
 9
 9
 9
 9
 9
 9
 9
 9
 9
 9
 9
 9
 9
 9
 9
 9
 9
 9
 9
 9
 9
 9
 9
 9
 9
 9
 9
 9
 9
 9
 9
 9
 9
 9
 9
 9
 9
 9
 9
 9
 9
 9
 9
 9
 9
 9
 9
 9
 9
 9
 9
 9
 9
 9
 9
 9
 9
 9
 9
 9
 9
 9
 9
 9
 9
 9
 9
 9
 9
 9
 9
 9
 9
 9
 9
 9
 9
 9
 9
 9
 9
 9
 9
 9
 9
 9
 9
 9
 9
 9
 9
 9
 9
 9
 9
 9
 9
 9
 9
 9
 9
 9
 9
 9
 9
 9
 9
 9
 9
 9
 9
 9
 9
 9
 9
 9
 9
 9
 9
 9
 9
 9
 9
 9
 9
 9
 9
 9
 9
 9
 9
 9
 9
 9
 9
 9
 9
 9
 9
 9
 9
 9
 9
 9
 9
 9
 </DataArray>
 </Cells> 
 <PointData>
 <DataArray  type="Float64" Name="disp" NumberOfComponents="3" format="ascii">
   0.0000000000000000        0.0000000000000000        0.0000000000000000     
   6.0959886676226222E-003   3.7904868992431318E-003   0.0000000000000000     
   1.1666016262062762E-002   7.3239437454173124E-003   0.0000000000000000     
   1.6710082783320417E-002   1.0600370538522544E-002   0.0000000000000000     
   2.1228188231395589E-002   1.3619767278558821E-002   0.0000000000000000     
   0.0000000000000000        0.0000000000000000        0.0000000000000000     
   4.8911671755320473E-003   3.0221949972796544E-003   0.0000000000000000     
   9.5736310150950597E-003   6.0606341428817408E-003   0.0000000000000000     
   1.4047391518689037E-002   9.1153174368062591E-003   0.0000000000000000     
   1.8312448686313980E-002   1.2186244879053211E-002   0.0000000000000000     
   0.0000000000000000        0.0000000000000000        0.0000000000000000     
   3.9535753497262575E-003   2.4251642861357219E-003   0.0000000000000000     
   7.9106101211617232E-003   5.0629939528008773E-003   0.0000000000000000     
   1.1871104314306396E-002   7.9134889999954664E-003   0.0000000000000000     
   1.5835057929160276E-002   1.0976649427719488E-002   0.0000000000000000     
   0.0000000000000000        0.0000000000000000        0.0000000000000000     
   3.2832131902052536E-003   1.9993947658113352E-003   0.0000000000000000     
   6.6769535802627521E-003   4.3310231751747226E-003   0.0000000000000000     
   1.0181221170172493E-002   6.9948852280901632E-003   0.0000000000000000     
   1.3796015959934479E-002   9.9909809245576579E-003   0.0000000000000000     
   0.0000000000000000        0.0000000000000000        0.0000000000000000     
   2.8800806969690360E-003   1.7448864363064931E-003   0.0000000000000000     
   5.8726613923981465E-003   3.8647218100032769E-003   0.0000000000000000     
   8.9777420862873301E-003   6.3595061210903504E-003   0.0000000000000000     
   1.2195322778636589E-002   9.2292393695677134E-003   0.0000000000000000     
   2.1228188231395589E-002   1.3619767278558821E-002   0.0000000000000000     
   2.5433228729210503E-002   1.6612767930362565E-002   0.0000000000000000     
   2.9538100399687389E-002   1.9810006458770197E-002   0.0000000000000000     
   3.3542803242826248E-002   2.3211482863781701E-002   0.0000000000000000     
   3.7447337258627075E-002   2.6817197145397098E-002   0.0000000000000000     
   1.8312448686313980E-002   1.2186244879053211E-002   0.0000000000000000     
   2.2407048431666882E-002   1.5341774899310138E-002   0.0000000000000000     
   2.6369436668444733E-002   1.8650265927264580E-002   0.0000000000000000     
   3.0199613396647541E-002   2.2111717962916548E-002   0.0000000000000000     
   3.3897578616275299E-002   2.5726131006266029E-002   0.0000000000000000     
   1.5835057929160276E-002   1.0976649427719488E-002   0.0000000000000000     
   1.9730732859421455E-002   1.4211291136050694E-002   0.0000000000000000     
   2.3486390998788027E-002   1.7576230025066836E-002   0.0000000000000000     
   2.7102032347259997E-002   2.1071466094767909E-002   0.0000000000000000     
   3.0577656904837349E-002   2.4696999345153924E-002   0.0000000000000000     
   1.3796015959934479E-002   9.9909809245576579E-003   0.0000000000000000     
   1.7404282012474230E-002   1.3221316640584240E-002   0.0000000000000000     
   2.0888963390717268E-002   1.6587898752176960E-002   0.0000000000000000     
   2.4250060094663611E-002   2.0090727259335809E-002   0.0000000000000000     
   2.7487572124313232E-002   2.3729802162060786E-002   0.0000000000000000     
   1.2195322778636589E-002   9.2292393695677134E-003   0.0000000000000000     
   1.5427695890825207E-002   1.2371851412910776E-002   0.0000000000000000     
   1.8577153844232471E-002   1.5685272108594949E-002   0.0000000000000000     
   2.1643696638858383E-002   1.9169501456620226E-002   0.0000000000000000     
   2.4627324274702940E-002   2.2824539456986617E-002   0.0000000000000000     
   3.7447337258627075E-002   2.6817197145397098E-002   0.0000000000000000     
   4.1255869122115693E-002   3.0622367154828044E-002   0.0000000000000000     
   4.4972565508317901E-002   3.4622210743286218E-002   0.0000000000000000     
   4.8597426417233719E-002   3.8816727910771620E-002   0.0000000000000000     
   5.2130451848863127E-002   4.3205918657284237E-002   0.0000000000000000     
   3.3897578616275299E-002   2.5726131006266029E-002   0.0000000000000000     
   3.7486292598630830E-002   2.9522308283092279E-002   0.0000000000000000     
   4.0988715615016949E-002   3.3529053019174561E-002   0.0000000000000000     
   4.4404847665433650E-002   3.7746365214512884E-002   0.0000000000000000     
   4.7734688749880939E-002   4.2174244869107223E-002   0.0000000000000000     
   3.0577656904837349E-002   2.4696999345153924E-002   0.0000000000000000     
   3.3942483653687287E-002   2.8497414687947323E-002   0.0000000000000000     
   3.7225731575976986E-002   3.2517297034870565E-002   0.0000000000000000     
   4.0427400671706436E-002   3.6756646385923665E-002   0.0000000000000000     
   4.3547490940875649E-002   4.1215462741106608E-002   0.0000000000000000     
   2.7487572124313232E-002   2.3729802162060786E-002   0.0000000000000000     
   3.0624442287285059E-002   2.7547686369393167E-002   0.0000000000000000     
   3.3683613391198006E-002   3.1586942790374231E-002   0.0000000000000000     
   3.6665085436052076E-002   3.5847571425003971E-002   0.0000000000000000     
   3.9568858421847243E-002   4.0329572273282398E-002   0.0000000000000000     
   2.4627324274702940E-002   2.2824539456986617E-002   0.0000000000000000     
   2.7532168499424151E-002   2.6673123327429823E-002   0.0000000000000000     
   3.0362361060680021E-002   3.0737990285685548E-002   0.0000000000000000     
   3.3117901958470551E-002   3.5019140331753788E-002   0.0000000000000000     
   3.5798791192795734E-002   3.9516573465634565E-002   0.0000000000000000     
   5.2130451848863127E-002   4.3205918657284237E-002   0.0000000000000000     
   5.5569498228457234E-002   4.7794964756804351E-002   0.0000000000000000     
   5.8912421981267150E-002   5.2589047983312202E-002   0.0000000000000000     
   6.2159223107292882E-002   5.7588168336807820E-002   0.0000000000000000     
   6.5309901606534410E-002   6.2792325817291161E-002   0.0000000000000000     
   4.7734688749880939E-002   4.2174244869107223E-002   0.0000000000000000     
   5.0974728883811285E-002   4.6806249308098458E-002   0.0000000000000000     
   5.4121458082677154E-002   5.1635935856627416E-002   0.0000000000000000     
   5.7174876346478533E-002   5.6663304514694118E-002   0.0000000000000000     
   6.0134983675215442E-002   6.1888355282298552E-002   0.0000000000000000     
   4.3547490940875649E-002   4.1215462741106608E-002   0.0000000000000000     
   4.6582405449661565E-002   4.5880956194953110E-002   0.0000000000000000     
   4.9528547264241114E-002   5.0740336841996865E-002   0.0000000000000000     
   5.2385916384614289E-002   5.5793604682237867E-002   0.0000000000000000     
   5.5154512810781091E-002   6.1040759715676143E-002   0.0000000000000000     
   3.9568858421847243E-002   4.0329572273282398E-002   0.0000000000000000     
   4.2392527926008061E-002   4.5019085417368314E-002   0.0000000000000000     
   4.5133689525959017E-002   4.9902250939420544E-002   0.0000000000000000     
   4.7792343221700118E-002   5.4979068839439087E-002   0.0000000000000000     
   5.0368489013231363E-002   6.0249539117423964E-002   0.0000000000000000     
   3.5798791192795734E-002   3.9516573465634565E-002   0.0000000000000000     
   3.8405096312850787E-002   4.4220636975344063E-002   0.0000000000000000     
   4.0936884867830883E-002   4.9121678148898451E-002   0.0000000000000000     
   4.3394156857736052E-002   5.4219696986297763E-002   0.0000000000000000     
   4.5776912282566265E-002   5.9514693487541979E-002   0.0000000000000000     
   6.5309901606534410E-002   6.2792325817291161E-002   0.0000000000000000     
   6.8365876070346498E-002   6.8187531854397618E-002   0.0000000000000000     
   7.1328565090083923E-002   7.3759797877762531E-002   0.0000000000000000     
   7.4197968665746655E-002   7.9509123887385902E-002   0.0000000000000000     
   7.6974086797334723E-002   8.5435509883267702E-002   0.0000000000000000     
   6.0134983675215442E-002   6.1888355282298552E-002   0.0000000000000000     
   6.3004328412121058E-002   6.7302455352520760E-002   0.0000000000000000     
   6.5785458900428584E-002   7.2896971918440800E-002   0.0000000000000000     
   6.8478375140138034E-002   7.8671904980058674E-002   0.0000000000000000     
   7.1083077131249395E-002   8.4627254537374394E-002   0.0000000000000000     
   5.5154512810781091E-002   6.1040759715676143E-002   0.0000000000000000     
   5.7837104148707595E-002   6.6475996575749263E-002   0.0000000000000000     
   6.0436458004359844E-002   7.2093509895894831E-002   0.0000000000000000     
   6.2952574377737838E-002   7.7893299676112832E-002   0.0000000000000000     
   6.5385453268841598E-002   8.3875365916403266E-002   0.0000000000000000     
   5.0368489013231363E-002   6.0249539117423964E-002   0.0000000000000000     
   5.2864203280106097E-002   6.5708155524083114E-002   0.0000000000000000     
   5.5281562401877683E-002   7.1349411810124566E-002   0.0000000000000000     
   5.7620566378546074E-002   7.7173307975548305E-002   0.0000000000000000     
   5.9881215210111333E-002   8.3179844020354304E-002   0.0000000000000000     
   4.5776912282566265E-002   5.9514693487541979E-002   0.0000000000000000     
   4.8085625806316590E-002   6.4998932197522327E-002   0.0000000000000000     
   5.0320772092982094E-002   7.0664677661130063E-002   0.0000000000000000     
   5.2482351142562757E-002   7.6511929878365137E-002   0.0000000000000000     
   5.4570362955058599E-002   8.2540688849227578E-002   0.0000000000000000     
   7.6974086797334723E-002   8.5435509883267702E-002   0.0000000000000000     
   7.9654906269647191E-002   9.1530156632702767E-002   0.0000000000000000     
   8.2238413867483123E-002   9.7784264902985835E-002   0.0000000000000000     
   8.4724609590842492E-002  0.10419783469411691        0.0000000000000000     
   8.7113493439725354E-002  0.11077086600609602        0.0000000000000000     
   7.1083077131249395E-002   8.4627254537374394E-002   0.0000000000000000     
   7.3598013939461346E-002   9.0751565778813381E-002   0.0000000000000000     
   7.6021634630472526E-002   9.7033383892801098E-002   0.0000000000000000     
   7.8353939204282977E-002  0.10347270887933757        0.0000000000000000     
   8.0594927660892643E-002  0.11006954073842279        0.0000000000000000     
   6.5385453268841598E-002   8.3875365916403266E-002   0.0000000000000000     
   6.7734033561079876E-002   9.0026783512404104E-002   0.0000000000000000     
   6.9997254137861481E-002   9.6334627359753289E-002   0.0000000000000000     
   7.2175114999186413E-002  0.10279889745845089        0.0000000000000000     
   7.4267616145054671E-002  0.10941959380849683        0.0000000000000000     
   5.9881215210111333E-002   8.3179844020354304E-002   0.0000000000000000     
   6.2062965134502823E-002   8.9355809833474936E-002   0.0000000000000000     
   6.4165272389650016E-002   9.5687995303842435E-002   0.0000000000000000     
   6.6188136975552883E-002  0.10217640043145683        0.0000000000000000     
   6.8131558892211425E-002  0.10882102521631813        0.0000000000000000     
   5.4570362955058599E-002   8.2540688849227578E-002   0.0000000000000000     
   5.6584808659730187E-002   8.8738644742025877E-002   0.0000000000000000     
   5.8525689385838103E-002   9.5093487725068468E-002   0.0000000000000000     
   6.0393005133382346E-002  0.10160521779835541        0.0000000000000000     
   6.2186755902362917E-002  0.10827383496188667        0.0000000000000000     
   8.7113493439725354E-002  0.11077086600609602        0.0000000000000000     
   8.9406770717553652E-002  0.11749007121871874        0.0000000000000000     
   9.1606146727749402E-002  0.12434216271178067        0.0000000000000000     
   9.3711621470312603E-002  0.13132714048528180        0.0000000000000000     
   9.5723194945243256E-002  0.13844500453922212        0.0000000000000000     
   8.0594927660892643E-002  0.11006954073842279        0.0000000000000000     
   8.2745875588927709E-002  0.11681205172162712        0.0000000000000000     
   8.4808058577014248E-002  0.12368841408052089        0.0000000000000000     
   8.6781476625152287E-002  0.13069862781510413        0.0000000000000000     
   8.8666129733341828E-002  0.13784269292537682        0.0000000000000000     
   7.4267616145054671E-002  0.10941959380849683        0.0000000000000000     
   7.6275697582624313E-002  0.11618567718536647        0.0000000000000000     
   7.8200299319053382E-002  0.12308610836453512        0.0000000000000000     
   8.0041421354341918E-002  0.13012088734600277        0.0000000000000000     
   8.1799063688489868E-002  0.13729001412976938        0.0000000000000000     
   6.8131558892211425E-002  0.10882102521631813        0.0000000000000000     
   6.9996236698643480E-002  0.11561094760993677        0.0000000000000000     
   7.1782868953866819E-002  0.12253524556382329        0.0000000000000000     
   7.3491455657881483E-002  0.12959391907797763        0.0000000000000000     
   7.5121996810687403E-002  0.13678696815239982        0.0000000000000000     
   6.2186755902362917E-002  0.10827383496188667        0.0000000000000000     
   6.3907492936985180E-002  0.11508786299533807        0.0000000000000000     
   6.5555767481454530E-002  0.12203582567838545        0.0000000000000000     
   6.7131579535770938E-002  0.12911772301102878        0.0000000000000000     
   6.8634929099934419E-002  0.13633355499326810        0.0000000000000000     
   9.5723194945243256E-002  0.13844500453922212        0.0000000000000000     
   9.7644178256158495E-002  0.14570643288858212        0.0000000000000000     
   9.9477882506675483E-002  0.15312210354834227        0.0000000000000000     
  0.10122430769679421       0.16069201651850254        0.0000000000000000     
  0.10288345382651470       0.16841617179906293        0.0000000000000000     
   8.8666129733341828E-002  0.13784269292537682        0.0000000000000000     
   9.0463111583990313E-002  0.14511457016669232        0.0000000000000000     
   9.2173515859505270E-002  0.15250822029440406        0.0000000000000000     
   9.3797342559886712E-002  0.16002364330851201        0.0000000000000000     
   9.5334591685134584E-002  0.16766083920901614        0.0000000000000000     
   8.1799063688489868E-002  0.13729001412976938        0.0000000000000000     
   8.3472618874426335E-002  0.14457692976455558        0.0000000000000000     
   8.5061479465080345E-002  0.15196507529908188        0.0000000000000000     
   8.6565645460451909E-002  0.15945445073334827        0.0000000000000000     
   8.7985116860541057E-002  0.16704505606735487        0.0000000000000000     
   7.5121996810687403E-002  0.13678696815239982        0.0000000000000000     
   7.6672700127466520E-002  0.14409351168217185        0.0000000000000000     
   7.8141773323400679E-002  0.15149266856237570        0.0000000000000000     
   7.9529216398489894E-002  0.15898443879301141        0.0000000000000000     
   8.0835029352734136E-002  0.16656882237407902        0.0000000000000000     
   6.8634929099934419E-002  0.13633355499326810        0.0000000000000000     
   7.0063355343110909E-002  0.14366431591954110        0.0000000000000000     
   7.1414397434466287E-002  0.15109100008428553        0.0000000000000000     
   7.2688055374000582E-002  0.15861360748750139        0.0000000000000000     
   7.3884329161713808E-002  0.16623213812918863        0.0000000000000000     
   0.0000000000000000        0.0000000000000000        0.0000000000000000     
   2.8800806969690360E-003   1.7448864363064931E-003   0.0000000000000000     
   5.8726613923981465E-003   3.8647218100032769E-003   0.0000000000000000     
   8.9777420862873301E-003   6.3595061210903504E-003   0.0000000000000000     
   1.2195322778636589E-002   9.2292393695677134E-003   0.0000000000000000     
   0.0000000000000000        0.0000000000000000        0.0000000000000000     
   2.6103346450892912E-003   1.5889754017698304E-003   0.0000000000000000     
   5.2897497316301920E-003   3.5567739775537498E-003   0.0000000000000000     
   8.0382452596227030E-003   5.9033957273517575E-003   0.0000000000000000     
   1.0855821229066824E-002   8.6288406511638559E-003   0.0000000000000000     
   0.0000000000000000        0.0000000000000000        0.0000000000000000     
   2.3401318096377055E-003   1.4589977663499801E-003   0.0000000000000000     
   4.7202347720211755E-003   3.2998637980933541E-003   0.0000000000000000     
   7.1403088871504093E-003   5.5225980952301208E-003   0.0000000000000000     
   9.6003541550254059E-003   8.1272006577602814E-003   0.0000000000000000     
   0.0000000000000000        0.0000000000000000        0.0000000000000000     
   2.0694721906142797E-003   1.3549535300469429E-003   0.0000000000000000     
   4.1641165135710943E-003   3.0939912716220893E-003   0.0000000000000000     
   6.2839329688704473E-003   5.2171132247254368E-003   0.0000000000000000     
   8.4289215565123369E-003   7.7243193893569871E-003   0.0000000000000000     
   0.0000000000000000        0.0000000000000000        0.0000000000000000     
   1.7983557880190131E-003   1.2768426928607187E-003   0.0000000000000000     
   3.6213949562799528E-003   2.9391563981399542E-003   0.0000000000000000     
   5.4691175047828187E-003   4.9869411158377066E-003   0.0000000000000000     
   7.3415234335276140E-003   7.4201968459539766E-003   0.0000000000000000     
   1.2195322778636589E-002   9.2292393695677134E-003   0.0000000000000000     
   1.5427695890825207E-002   1.2371851412910776E-002   0.0000000000000000     
   1.8577153844232471E-002   1.5685272108594949E-002   0.0000000000000000     
   2.1643696638858383E-002   1.9169501456620226E-002   0.0000000000000000     
   2.4627324274702940E-002   2.2824539456986617E-002   0.0000000000000000     
   1.0855821229066824E-002   8.6288406511638559E-003   0.0000000000000000     
   1.3689160255988776E-002   1.1650859946780787E-002   0.0000000000000000     
   1.6484944956414779E-002   1.4887204811993298E-002   0.0000000000000000     
   1.9243175330344829E-002   1.8337875246801385E-002   0.0000000000000000     
   2.1963851377778933E-002   2.2002871251205050E-002   0.0000000000000000     
   9.6003541550254059E-003   8.1272006577602814E-003   0.0000000000000000     
   1.2076860869479334E-002   1.1046306735944762E-002   0.0000000000000000     
   1.4546319324345353E-002   1.4212551580044495E-002   0.0000000000000000     
   1.7008729519623466E-002   1.7625935190059474E-002   0.0000000000000000     
   1.9464091455313668E-002   2.1286457565989708E-002   0.0000000000000000     
   8.4289215565123369E-003   7.7243193893569871E-003   0.0000000000000000     
   1.0590797731296880E-002   1.0558191780402702E-002   0.0000000000000000     
   1.2761276948024196E-002   1.3661312412748542E-002   0.0000000000000000     
   1.4940359206694283E-002   1.7033681286394504E-002   0.0000000000000000     
   1.7128044507307143E-002   2.0675298401340594E-002   0.0000000000000000     
   7.3415234335276140E-003   7.4201968459539766E-003   0.0000000000000000     
   9.2309708414414146E-003   1.0186515080154605E-002   0.0000000000000000     
   1.1129817827451307E-002   1.3233487310105436E-002   0.0000000000000000     
   1.3038064391557289E-002   1.6561113535806474E-002   0.0000000000000000     
   1.4955710533759364E-002   2.0169393757257716E-002   0.0000000000000000     
   2.4627324274702940E-002   2.2824539456986617E-002   0.0000000000000000     
   2.7532168499424151E-002   2.6673123327429823E-002   0.0000000000000000     
   3.0362361060680021E-002   3.0737990285685548E-002   0.0000000000000000     
   3.3117901958470551E-002   3.5019140331753788E-002   0.0000000000000000     
   3.5798791192795734E-002   3.9516573465634565E-002   0.0000000000000000     
   2.1963851377778933E-002   2.2002871251205050E-002   0.0000000000000000     
   2.4630453438663467E-002   2.5880173704597460E-002   0.0000000000000000     
   2.7226461852944805E-002   2.9967763486371795E-002   0.0000000000000000     
   2.9751876620622949E-002   3.4265640596528056E-002   0.0000000000000000     
   3.2206697741697904E-002   3.8773805035066236E-002   0.0000000000000000     
   1.9464091455313668E-002   2.1286457565989708E-002   0.0000000000000000     
   2.1884088253561914E-002   2.5175285643436272E-002   0.0000000000000000     
   2.4240403036514140E-002   2.9273586358000259E-002   0.0000000000000000     
   2.6533035804170348E-002   3.3581359709681666E-002   0.0000000000000000     
   2.8761986556530544E-002   3.8098605698480496E-002   0.0000000000000000     
   1.7128044507307143E-002   2.0675298401340594E-002   0.0000000000000000     
   1.9293072944119485E-002   2.4558459143946259E-002   0.0000000000000000     
   2.1404184611388020E-002   2.8655458900570936E-002   0.0000000000000000     
   2.3461379509112743E-002   3.2966297671214624E-002   0.0000000000000000     
   2.5464657637293657E-002   3.7490975455877332E-002   0.0000000000000000     
   1.4955710533759364E-002   2.0169393757257716E-002   0.0000000000000000     
   1.6857407510336191E-002   2.4029694206127414E-002   0.0000000000000000     
   1.8717806577566450E-002   2.8113381114083819E-002   0.0000000000000000     
   2.0536907735450131E-002   3.2420454481126938E-002   0.0000000000000000     
   2.2314710983987240E-002   3.6950914307256763E-002   0.0000000000000000     
   3.5798791192795734E-002   3.9516573465634565E-002   0.0000000000000000     
   3.8405096312850787E-002   4.4220636975344063E-002   0.0000000000000000     
   4.0936884867830883E-002   4.9121678148898451E-002   0.0000000000000000     
   4.3394156857736052E-002   5.4219696986297763E-002   0.0000000000000000     
   4.5776912282566265E-002   5.9514693487541979E-002   0.0000000000000000     
   3.2206697741697904E-002   3.8773805035066236E-002   0.0000000000000000     
   3.4593162044039158E-002   4.3487814019393042E-002   0.0000000000000000     
   3.6913506355516185E-002   4.8403224766915179E-002   0.0000000000000000     
   3.9167730676129012E-002   5.3520037277632659E-002   0.0000000000000000     
   4.1355835005877611E-002   5.8838251551545470E-002   0.0000000000000000     
   2.8761986556530544E-002   3.8098605698480496E-002   0.0000000000000000     
   3.0929776553422599E-002   4.2822819700027957E-002   0.0000000000000000     
   3.3038927054674407E-002   4.7751497089955325E-002   0.0000000000000000     
   3.5089438060285943E-002   5.2884637868262543E-002   0.0000000000000000     
   3.7081309570257230E-002   5.8222242034949662E-002   0.0000000000000000     
   2.5464657637293657E-002   3.7490975455877332E-002   0.0000000000000000     
   2.7414939841001129E-002   4.2225654017248829E-002   0.0000000000000000     
   2.9313146965305535E-002   4.7166495118018847E-002   0.0000000000000000     
   3.1159279010206865E-002   5.2313498758187436E-002   0.0000000000000000     
   3.2953335975705135E-002   5.7666664937754540E-002   0.0000000000000000     
   2.2314710983987240E-002   3.6950914307256763E-002   0.0000000000000000     
   2.4048651906774736E-002   4.1696316971055608E-002   0.0000000000000000     
   2.5736166087409581E-002   4.6648218851105788E-002   0.0000000000000000     
   2.7377253525891775E-002   5.1806619947407297E-002   0.0000000000000000     
   2.8971914222221319E-002   5.7171520259960140E-002   0.0000000000000000     
   4.5776912282566265E-002   5.9514693487541979E-002   0.0000000000000000     
   4.8085625806316590E-002   6.4998932197522327E-002   0.0000000000000000     
   5.0320772092982094E-002   7.0664677661130063E-002   0.0000000000000000     
   5.2482351142562757E-002   7.6511929878365137E-002   0.0000000000000000     
   5.4570362955058599E-002   8.2540688849227578E-002   0.0000000000000000     
   4.1355835005877611E-002   5.8838251551545470E-002   0.0000000000000000     
   4.3476617324055195E-002   6.4347201351848488E-002   0.0000000000000000     
   4.5528875609954937E-002   7.0036220441736588E-002   0.0000000000000000     
   4.7512609863576853E-002   7.5905308821209785E-002   0.0000000000000000     
   4.9427820084920922E-002   8.1954466490268094E-002   0.0000000000000000     
   3.7081309570257230E-002   5.8222242034949662E-002   0.0000000000000000     
   3.9012423430038023E-002   6.3751837742843126E-002   0.0000000000000000     
   4.0880661485078039E-002   6.9460953144769508E-002   0.0000000000000000     
   4.2686023735377311E-002   7.5349588240728765E-002   0.0000000000000000     
   4.4428510180935833E-002   8.1417743030720899E-002   0.0000000000000000     
   3.2953335975705135E-002   5.7666664937754540E-002   0.0000000000000000     
   3.4693044124265084E-002   6.3212841370506298E-002   0.0000000000000000     
   3.6376129718351420E-002   6.8938875770228794E-002   0.0000000000000000     
   3.8002592757964165E-002   7.4844768136922021E-002   0.0000000000000000     
   3.9572433243103312E-002   8.0930518470585980E-002   0.0000000000000000     
   2.8971914222221319E-002   5.7171520259960140E-002   0.0000000000000000     
   3.0518479406736358E-002   6.2730212234837976E-002   0.0000000000000000     
   3.2015280309775046E-002   6.8469988318114447E-002   0.0000000000000000     
   3.3462316931337388E-002   7.4390848509789581E-002   0.0000000000000000     
   3.4859589271423373E-002   8.0492792809863364E-002   0.0000000000000000     
   5.4570362955058599E-002   8.2540688849227578E-002   0.0000000000000000     
   5.6584808659730187E-002   8.8738644742025877E-002   0.0000000000000000     
   5.8525689385838103E-002   9.5093487725068468E-002   0.0000000000000000     
   6.0393005133382346E-002  0.10160521779835541        0.0000000000000000     
   6.2186755902362917E-002  0.10827383496188667        0.0000000000000000     
   4.9427820084920922E-002   8.1954466490268094E-002   0.0000000000000000     
   5.1274900438498805E-002   8.8172568558981507E-002   0.0000000000000000     
   5.3054245088822130E-002   9.4548490137420088E-002   0.0000000000000000     
   5.4765854035890883E-002  0.10108223122558381        0.0000000000000000     
   5.6409727279705071E-002  0.10777379182347271        0.0000000000000000     
   4.4428510180935833E-002   8.1417743030720899E-002   0.0000000000000000     
   4.6108576772545568E-002   8.7654861605266407E-002   0.0000000000000000     
   4.7726679460998490E-002   9.4050388054885872E-002   0.0000000000000000     
   4.9282818246294588E-002  0.10060432237957924        0.0000000000000000     
   5.0776993128433867E-002  0.10731666457934654        0.0000000000000000     
   3.9572433243103312E-002   8.0930518470585980E-002   0.0000000000000000     
   4.1085837661870454E-002   8.7185523880880605E-002   0.0000000000000000     
   4.2542992502367163E-002   9.3599181477465820E-002   0.0000000000000000     
   4.3943897764593447E-002  0.10017149126034167        0.0000000000000000     
   4.5288553448549297E-002  0.10690245322950810        0.0000000000000000     
   3.4859589271423373E-002   8.0492792809863364E-002   0.0000000000000000     
   3.6206683106473486E-002   8.6764555385824074E-002   0.0000000000000000     
   3.7503184212928177E-002   9.3194870405159988E-002   0.0000000000000000     
   3.8749092590787473E-002   9.9783737867871106E-002   0.0000000000000000     
   3.9944408240051354E-002  0.10653115777395744        0.0000000000000000     
   6.2186755902362917E-002  0.10827383496188667        0.0000000000000000     
   6.3907492936985180E-002  0.11508786299533807        0.0000000000000000     
   6.5555767481454530E-002  0.12203582567838545        0.0000000000000000     
   6.7131579535770938E-002  0.12911772301102878        0.0000000000000000     
   6.8634929099934419E-002  0.13633355499326810        0.0000000000000000     
   5.6409727279705071E-002  0.10777379182347271        0.0000000000000000     
   5.7986347805556740E-002  0.11461097981174120        0.0000000000000000     
   5.9496198598737886E-002  0.12158160307104374        0.0000000000000000     
   6.0939279659248530E-002  0.12868566160138029        0.0000000000000000     
   6.2315590987088665E-002  0.13592315540275088        0.0000000000000000     
   5.0776993128433867E-002  0.10731666457934654        0.0000000000000000     
   5.2209682812265408E-002  0.11417485452931712        0.0000000000000000     
   5.3581366002638249E-002  0.12116633210462036        0.0000000000000000     
   5.4892042699552411E-002  0.12829109730525626        0.0000000000000000     
   5.6141712903007866E-002  0.13554915013122484        0.0000000000000000     
   4.5288553448549297E-002  0.10690245322950810        0.0000000000000000     
   4.6577497957111191E-002  0.11377948714806575        0.0000000000000000     
   4.7811269693155613E-002  0.12079001277911529        0.0000000000000000     
   4.8989868656682568E-002  0.12793403012265667        0.0000000000000000     
   5.0113294847692037E-002  0.13521153917868992        0.0000000000000000     
   3.9944408240051354E-002  0.10653115777395744        0.0000000000000000     
   4.1089793240094104E-002  0.11342487766798717        0.0000000000000000     
   4.2185909670289991E-002  0.12045264509452852        0.0000000000000000     
   4.3232757530639009E-002  0.12761446005358154        0.0000000000000000     
   4.4230336821141164E-002  0.13491032254514615        0.0000000000000000     
   6.8634929099934419E-002  0.13633355499326810        0.0000000000000000     
   7.0063355343110909E-002  0.14366431591954110        0.0000000000000000     
   7.1414397434466287E-002  0.15109100008428553        0.0000000000000000     
   7.2688055374000582E-002  0.15861360748750139        0.0000000000000000     
   7.3884329161713808E-002  0.16623213812918863        0.0000000000000000     
   6.2315590987088665E-002  0.13592315540275088        0.0000000000000000     
   6.3622371791460422E-002  0.14327932993026748        0.0000000000000000     
   6.4856861281565911E-002  0.15073943063904199        0.0000000000000000     
   6.6019059457405133E-002  0.15830345752907443        0.0000000000000000     
   6.7108966318978100E-002  0.16597141060036480        0.0000000000000000     
   5.6141712903007866E-002  0.13554915013122484        0.0000000000000000     
   5.7327536742616030E-002  0.14292854116795498        0.0000000000000000     
   5.8446674347988274E-002  0.15041732100087565        0.0000000000000000     
   5.9499125719124593E-002  0.15801548962998682        0.0000000000000000     
   6.0484890856025000E-002  0.16572304705528854        0.0000000000000000     
   5.0113294847692037E-002  0.13521153917868992        0.0000000000000000     
   5.1178850196577745E-002  0.14261194963260365        0.0000000000000000     
   5.2183836633733396E-002  0.15012467116978656        0.0000000000000000     
   5.3128254159158984E-002  0.15774970379023864        0.0000000000000000     
   5.4012102772854509E-002  0.16548704749395984        0.0000000000000000     
   4.4230336821141164E-002  0.13491032254514615        0.0000000000000000     
   4.5176312153345555E-002  0.14232955532421351        0.0000000000000000     
   4.6068348138801264E-002  0.14986148114577474        0.0000000000000000     
   4.6906444777508285E-002  0.15750610000982981        0.0000000000000000     
   4.7690602069466632E-002  0.16526341191637875        0.0000000000000000     
   0.0000000000000000        0.0000000000000000        0.0000000000000000     
   1.7983557880190131E-003   1.2768426928607187E-003   0.0000000000000000     
   3.6213949562799528E-003   2.9391563981399542E-003   0.0000000000000000     
   5.4691175047828187E-003   4.9869411158377066E-003   0.0000000000000000     
   7.3415234335276140E-003   7.4201968459539766E-003   0.0000000000000000     
   0.0000000000000000        0.0000000000000000        0.0000000000000000     
   1.5350547519054347E-003   1.2175551520585228E-003   0.0000000000000000     
   3.0994231257552474E-003   2.8208531847748477E-003   0.0000000000000000     
   4.6931051215494384E-003   4.8098940981489754E-003   0.0000000000000000     
   6.3161007392880074E-003   7.1846778921809042E-003   0.0000000000000000     
   0.0000000000000000        0.0000000000000000        0.0000000000000000     
   1.2878412323270737E-003   1.1699808049075717E-003   0.0000000000000000     
   2.6055540476044802E-003   2.7245756386546673E-003   0.0000000000000000     
   3.9531384458322185E-003   4.6637845012412870E-003   0.0000000000000000     
   5.3305944270102918E-003   6.9876073926674314E-003   0.0000000000000000     
   0.0000000000000000        0.0000000000000000        0.0000000000000000     
   1.0567152292839295E-003   1.1341196514078646E-003   0.0000000000000000     
   2.1397877218276495E-003   2.6503237597794121E-003   0.0000000000000000     
   3.2492174776311616E-003   4.5486123251146432E-003   0.0000000000000000     
   4.3850044966944638E-003   6.8289853474135563E-003   0.0000000000000000     
   0.0000000000000000        0.0000000000000000        0.0000000000000000     
   8.4167674277600289E-004   1.1099716915594022E-003   0.0000000000000000     
   1.7021241484247583E-003   2.5980975481490827E-003   0.0000000000000000     
   2.5813422169462660E-003   4.4643775697690421E-003   0.0000000000000000     
   3.4793309483405264E-003   6.7088117564192791E-003   0.0000000000000000     
   7.3415234335276140E-003   7.4201968459539766E-003   0.0000000000000000     
   9.2309708414414146E-003   1.0186515080154605E-002   0.0000000000000000     
   1.1129817827451307E-002   1.3233487310105436E-002   0.0000000000000000     
   1.3038064391557289E-002   1.6561113535806474E-002   0.0000000000000000     
   1.4955710533759364E-002   2.0169393757257716E-002   0.0000000000000000     
   6.3161007392880074E-003   7.1846778921809042E-003   0.0000000000000000     
   7.9557438164909924E-003   9.8956439166529783E-003   0.0000000000000000     
   9.5993681906784301E-003   1.2893231521347540E-002   0.0000000000000000     
   1.1246973861850317E-002   1.6177440706264590E-002   0.0000000000000000     
   1.2898560830006659E-002   1.9748271471404125E-002   0.0000000000000000     
   5.3305944270102918E-003   6.9876073926674314E-003   0.0000000000000000     
   6.7234802730236623E-003   9.6499455713503265E-003   0.0000000000000000     
   8.1173542657573018E-003   1.2604700295707202E-002   0.0000000000000000     
   9.5122164052112070E-003   1.5851871565738054E-002   0.0000000000000000     
   1.0908066691385375E-002   1.9391459381442881E-002   0.0000000000000000     
   4.3850044966944638E-003   6.8289853474135563E-003   0.0000000000000000     
   5.5341802110394278E-003   9.4494200442466498E-003   0.0000000000000000     
   6.6837760526879232E-003   1.2367893633184419E-002   0.0000000000000000     
   7.8337920216399529E-003   1.5584406114226870E-002   0.0000000000000000     
   8.9842281178955114E-003   1.9098957487373988E-002   0.0000000000000000     
   3.4793309483405264E-003   6.7088117564192791E-003   0.0000000000000000     
   4.3878436305382880E-003   9.2940673353419483E-003   0.0000000000000000     
   5.2986335514702979E-003   1.2182811533779198E-002   0.0000000000000000     
   6.2117007111365590E-003   1.5375044351731032E-002   0.0000000000000000     
   7.1270451095370689E-003   1.8870765789197452E-002   0.0000000000000000     
   1.4955710533759364E-002   2.0169393757257716E-002   0.0000000000000000     
   1.6857407510336191E-002   2.4029694206127414E-002   0.0000000000000000     
   1.8717806577566450E-002   2.8113381114083819E-002   0.0000000000000000     
   2.0536907735450131E-002   3.2420454481126938E-002   0.0000000000000000     
   2.2314710983987240E-002   3.6950914307256763E-002   0.0000000000000000     
   1.2898560830006659E-002   1.9748271471404125E-002   0.0000000000000000     
   1.4537701675757292E-002   2.3579542804531967E-002   0.0000000000000000     
   1.6147968979712046E-002   2.7645073693413930E-002   0.0000000000000000     
   1.7729362741870935E-002   3.1944864138050012E-002   0.0000000000000000     
   1.9281882962233945E-002   3.6478914138440219E-002   0.0000000000000000     
   1.0908066691385375E-002   1.9391459381442881E-002   0.0000000000000000     
   1.2294565163928043E-002   2.3198556913712139E-002   0.0000000000000000     
   1.3661371862487443E-002   2.7248257333436266E-002   0.0000000000000000     
   1.5008486787063569E-002   3.1540560640615271E-002   0.0000000000000000     
   1.6335909937656427E-002   3.6075466835249148E-002   0.0000000000000000     
   8.9842281178955114E-003   1.9098957487373988E-002   0.0000000000000000     
   1.0127997974848455E-002   2.2886736533667934E-002   0.0000000000000000     
   1.1258015225892629E-002   2.6922932034150845E-002   0.0000000000000000     
   1.2374279871028038E-002   3.1207543988822715E-002   0.0000000000000000     
   1.3476791910254676E-002   3.5740572397683551E-002   0.0000000000000000     
   7.1270451095370689E-003   1.8870765789197452E-002   0.0000000000000000     
   8.0380001085185206E-003   2.2644081664399355E-002   0.0000000000000000     
   8.9378990699276097E-003   2.6669097795557650E-002   0.0000000000000000     
   9.8267419937643347E-003   3.0945814182672338E-002   0.0000000000000000     
   1.0704528880028697E-002   3.5474230825743414E-002   0.0000000000000000     
   2.2314710983987240E-002   3.6950914307256763E-002   0.0000000000000000     
   2.4048651906774736E-002   4.1696316971055608E-002   0.0000000000000000     
   2.5736166087409581E-002   4.6648218851105788E-002   0.0000000000000000     
   2.7377253525891775E-002   5.1806619947407297E-002   0.0000000000000000     
   2.8971914222221319E-002   5.7171520259960140E-002   0.0000000000000000     
   1.9281882962233945E-002   3.6478914138440219E-002   0.0000000000000000     
   2.0799448473910756E-002   4.1233365277611046E-002   0.0000000000000000     
   2.2275978110011047E-002   4.6194359138588999E-002   0.0000000000000000     
   2.3711471870534805E-002   5.1361895721374048E-002   0.0000000000000000     
   2.5105929755482037E-002   5.6735975025966223E-002   0.0000000000000000     
   1.6335909937656427E-002   3.6075466835249148E-002   0.0000000000000000     
   1.7635865265576537E-002   4.0835355653077859E-002   0.0000000000000000     
   1.8900576722134427E-002   4.5802606829841323E-002   0.0000000000000000     
   2.0130044307330106E-002   5.0977220365539561E-002   0.0000000000000000     
   2.1324268021163561E-002   5.6359196260172578E-002   0.0000000000000000     
   1.3476791910254676E-002   3.5740572397683551E-002   0.0000000000000000     
   1.4557902281772067E-002   4.0502288097456020E-002   0.0000000000000000     
   1.5609961923779734E-002   4.5472961924862783E-002   0.0000000000000000     
   1.6632970836277666E-002   5.0652593879903833E-002   0.0000000000000000     
   1.7626929019265880E-002   5.6041183962579205E-002   0.0000000000000000     
   1.0704528880028697E-002   3.5474230825743414E-002   0.0000000000000000     
   1.1565559522497351E-002   4.0234162610745548E-002   0.0000000000000000     
   1.2404133714946952E-002   4.5205424423653370E-002   0.0000000000000000     
   1.3220251457377503E-002   5.0388016264466887E-002   0.0000000000000000     
   1.4013912749789002E-002   5.5781938133186111E-002   0.0000000000000000     
   2.8971914222221319E-002   5.7171520259960140E-002   0.0000000000000000     
   3.0518479406736358E-002   6.2730212234837976E-002   0.0000000000000000     
   3.2015280309775046E-002   6.8469988318114447E-002   0.0000000000000000     
   3.3462316931337388E-002   7.4390848509789581E-002   0.0000000000000000     
   3.4859589271423373E-002   8.0492792809863364E-002   0.0000000000000000     
   2.5105929755482037E-002   5.6735975025966223E-002   0.0000000000000000     
   2.6458477356324086E-002   6.2304613538023981E-002   0.0000000000000000     
   2.7768240264532309E-002   6.8055827743205774E-002   0.0000000000000000     
   2.9035218480106689E-002   7.3989617641511601E-002   0.0000000000000000     
   3.0259412003047242E-002   8.0105983232941491E-002   0.0000000000000000     
   2.1324268021163561E-002   5.6359196260172578E-002   0.0000000000000000     
   2.2482786051900478E-002   6.1936708482250143E-002   0.0000000000000000     
   2.3605136587806549E-002   6.7697931000282041E-002   0.0000000000000000     
   2.4691319628881766E-002   7.3642863814268267E-002   0.0000000000000000     
   2.5741335175126133E-002   7.9771506924208826E-002   0.0000000000000000     
   1.7626929019265880E-002   5.6041183962579205E-002   0.0000000000000000     
   1.8591405493465524E-002   6.1626497067516481E-002   0.0000000000000000     
   1.9525969279597776E-002   6.7396298089343262E-002   0.0000000000000000     
   2.0430620377662620E-002   7.3350587028059563E-002   0.0000000000000000     
   2.1305358787660073E-002   7.9489363883665370E-002   0.0000000000000000     
   1.4013912749789002E-002   5.5781938133186111E-002   0.0000000000000000     
   1.4784335681019233E-002   6.1373979293822968E-002   0.0000000000000000     
   1.5530738339905982E-002   6.7150929010389424E-002   0.0000000000000000     
   1.6253120726449251E-002   7.3112787282885477E-002   0.0000000000000000     
   1.6951482840649037E-002   7.9259554111311109E-002   0.0000000000000000     
   3.4859589271423373E-002   8.0492792809863364E-002   0.0000000000000000     
   3.6206683106473486E-002   8.6764555385824074E-002   0.0000000000000000     
   3.7503184212928177E-002   9.3194870405159988E-002   0.0000000000000000     
   3.8749092590787473E-002   9.9783737867871106E-002   0.0000000000000000     
   3.9944408240051354E-002  0.10653115777395744        0.0000000000000000     
   3.0259412003047242E-002   8.0105983232941491E-002   0.0000000000000000     
   3.1439794903259155E-002   8.6392822154953919E-002   0.0000000000000000     
   3.2575341250647635E-002   9.2838032045007374E-002   0.0000000000000000     
   3.3666051045212683E-002   9.9441612903101856E-002   0.0000000000000000     
   3.4711924286954299E-002  0.10620356472923737        0.0000000000000000     
   2.5741335175126133E-002   7.9771506924208826E-002   0.0000000000000000     
   2.6753854849131984E-002   8.6071190223127231E-002   0.0000000000000000     
   2.7727550273491643E-002   9.2529243604047046E-002   0.0000000000000000     
   2.8662421448205098E-002   9.9145667066968202E-002   0.0000000000000000     
   2.9558468373272369E-002  0.10592046061189073        0.0000000000000000     
   2.1305358787660073E-002   7.9489363883665370E-002   0.0000000000000000     
   2.2148862944091977E-002   8.5799659590344066E-002   0.0000000000000000     
   2.2959811281460196E-002   9.2268505082278990E-002   0.0000000000000000     
   2.3738203799764730E-002   9.8895900359470157E-002   0.0000000000000000     
   2.4484040499005582E-002  0.10568184542191755        0.0000000000000000     
   1.6951482840649037E-002   7.9259554111311109E-002   0.0000000000000000     
   1.7624819188139126E-002   8.5578230256604368E-002   0.0000000000000000     
   1.8272124274553301E-002   9.2055816479703220E-002   0.0000000000000000     
   1.8893398099891569E-002   9.8692312780607694E-002   0.0000000000000000     
   1.9488640664153917E-002  0.10548771915931782        0.0000000000000000     
   3.9944408240051354E-002  0.10653115777395744        0.0000000000000000     
   4.1089793240094104E-002  0.11342487766798717        0.0000000000000000     
   4.2185909670289991E-002  0.12045264509452852        0.0000000000000000     
   4.3232757530639009E-002  0.12761446005358154        0.0000000000000000     
   4.4230336821141164E-002  0.13491032254514615        0.0000000000000000     
   3.4711924286954299E-002  0.10620356472923737        0.0000000000000000     
   3.5713690585311944E-002  0.11311205118601450        0.0000000000000000     
   3.6672079549725060E-002  0.12015523593603389        0.0000000000000000     
   3.7587091180193669E-002  0.12733311897929547        0.0000000000000000     
   3.8458725476717748E-002  0.13464570031579931        0.0000000000000000     
   2.9558468373272369E-002  0.10592046061189073        0.0000000000000000     
   3.0416311916862497E-002  0.11284203279908095        0.0000000000000000     
   3.1236572947144523E-002  0.11989879218880507        0.0000000000000000     
   3.2019251464118444E-002  0.12709073878106317        0.0000000000000000     
   3.2764347467784269E-002  0.13441787257585519        0.0000000000000000     
   2.4484040499005582E-002  0.10568184542191755        0.0000000000000000     
   2.5197657234745777E-002  0.11261482250718646        0.0000000000000000     
   2.5879389862548372E-002  0.11968331385284214        0.0000000000000000     
   2.6529238382413358E-002  0.12688731945888454        0.0000000000000000     
   2.7147202794340731E-002  0.13422683932531376        0.0000000000000000     
   1.9488640664153917E-002  0.10548771915931782        0.0000000000000000     
   2.0057726538961790E-002  0.11243042031033107        0.0000000000000000     
   2.0600530295936618E-002  0.11950880092814505        0.0000000000000000     
   2.1117051935078398E-002  0.12672286101275970        0.0000000000000000     
   2.1607291456387130E-002  0.13407260056417505        0.0000000000000000     
   4.4230336821141164E-002  0.13491032254514615        0.0000000000000000     
   4.5176312153345555E-002  0.14232955532421351        0.0000000000000000     
   4.6068348138801264E-002  0.14986148114577474        0.0000000000000000     
   4.6906444777508285E-002  0.15750610000982981        0.0000000000000000     
   4.7690602069466632E-002  0.16526341191637875        0.0000000000000000     
   3.8458725476717748E-002  0.13464570031579931        0.0000000000000000     
   3.9285022481825388E-002  0.14208161052533816        0.0000000000000000     
   4.0064022238044644E-002  0.14962948018770483        0.0000000000000000     
   4.0795724745375531E-002  0.15728930930289931        0.0000000000000000     
   4.1480130003818033E-002  0.16506109787092163        0.0000000000000000     
   3.2764347467784269E-002  0.13441787257585519        0.0000000000000000     
   3.3470081050923167E-002  0.14186836751853130        0.0000000000000000     
   3.4134672306316317E-002  0.14943039755444165        0.0000000000000000     
   3.4758121233963726E-002  0.15710396268358617        0.0000000000000000     
   3.5340427833865373E-002  0.16488906290596494        0.0000000000000000     
   2.7147202794340731E-002  0.13422683932531376        0.0000000000000000     
   2.7731487860638903E-002  0.14168982630379287        0.0000000000000000     
   2.8280298343616280E-002  0.14926423324598506        0.0000000000000000     
   2.8793634243272866E-002  0.15695006015189036        0.0000000000000000     
   2.9271495559608663E-002  0.16474730702150869        0.0000000000000000     
   2.1607291456387130E-002  0.13407260056417505        0.0000000000000000     
   2.2069242910972588E-002  0.14154598688112296        0.0000000000000000     
   2.2500900349944536E-002  0.14913098726233523        0.0000000000000000     
   2.2902263773302966E-002  0.15682760170781188        0.0000000000000000     
   2.3273333181047892E-002  0.16463583021755285        0.0000000000000000     
   0.0000000000000000        0.0000000000000000        0.0000000000000000     
   8.4167674277600289E-004   1.1099716915594022E-003   0.0000000000000000     
   1.7021241484247583E-003   2.5980975481490827E-003   0.0000000000000000     
   2.5813422169462660E-003   4.4643775697690421E-003   0.0000000000000000     
   3.4793309483405264E-003   6.7088117564192791E-003   0.0000000000000000     
   0.0000000000000000        0.0000000000000000        0.0000000000000000     
   6.3382590016991904E-004   1.0939667489153169E-003   0.0000000000000000     
   1.2780322412312619E-003   2.5620358423939665E-003   0.0000000000000000     
   1.9326190231840287E-003   4.4042072804359490E-003   0.0000000000000000     
   2.5975862460282193E-003   6.6204810630412616E-003   0.0000000000000000     
   0.0000000000000000        0.0000000000000000        0.0000000000000000     
   4.2426282883230423E-004   1.0825346470287416E-003   0.0000000000000000     
   8.5298091408261920E-004   2.5362774811443492E-003   0.0000000000000000     
   1.2861542557509452E-003   4.3612285023468238E-003   0.0000000000000000     
   1.7237828538372822E-003   6.5573877106361641E-003   0.0000000000000000     
   0.0000000000000000        0.0000000000000000        0.0000000000000000     
   2.1298752876315811E-004   1.0756753858996763E-003   0.0000000000000000     
   4.2697016697883027E-004   2.5208224644002334E-003   0.0000000000000000     
   6.4194791464701646E-004   4.3354412355016709E-003   0.0000000000000000     
   8.5792077176771655E-004   6.5195316992039893E-003   0.0000000000000000     
   0.0000000000000000        0.0000000000000000        0.0000000000000000     
  -3.7519087229404002E-014   1.0733889655281208E-003   0.0000000000000000     
  -8.0105139101810385E-014   2.5156707921616165E-003   0.0000000000000000     
  -1.2775810140711052E-013   4.3268454799004867E-003   0.0000000000000000     
  -1.8047802835541304E-013   6.5069130287447327E-003   0.0000000000000000     
   3.4793309483405264E-003   6.7088117564192791E-003   0.0000000000000000     
   4.3878436305382880E-003   9.2940673353419483E-003   0.0000000000000000     
   5.2986335514702979E-003   1.2182811533779198E-002   0.0000000000000000     
   6.2117007111365590E-003   1.5375044351731032E-002   0.0000000000000000     
   7.1270451095370689E-003   1.8870765789197452E-002   0.0000000000000000     
   2.5975862460282193E-003   6.6204810630412616E-003   0.0000000000000000     
   3.2699622737950278E-003   9.1778968230164931E-003   0.0000000000000000     
   3.9467754705156503E-003   1.2043494193168225E-002   0.0000000000000000     
   4.6280258361900859E-003   1.5217273173496464E-002   0.0000000000000000     
   5.3137133708183338E-003   1.8699233764001198E-002   0.0000000000000000     
   1.7237828538372822E-003   6.5573877106361641E-003   0.0000000000000000     
   2.1660278830844338E-003   9.0949178856505573E-003   0.0000000000000000     
   2.6130505182352043E-003   1.1943981807028195E-002   0.0000000000000000     
   3.0648507592895930E-003   1.5104579474769071E-002   0.0000000000000000     
   3.5214286062476008E-003   1.8576710888873187E-002   0.0000000000000000     
   8.5792077176771655E-004   6.5195316992039893E-003   0.0000000000000000     
   1.0760404584065064E-003   9.0451305232441496E-003   0.0000000000000000     
   1.2974586946289614E-003   1.1884274375359100E-002   0.0000000000000000     
   1.5221754804350817E-003   1.5036963255548857E-002   0.0000000000000000     
   1.7501908158248669E-003   1.8503197163813410E-002   0.0000000000000000     
  -1.8047802835541304E-013   6.5069130287447327E-003   0.0000000000000000     
  -2.3875478959330121E-013   9.0285347357972542E-003   0.0000000000000000     
  -3.0307844450273846E-013   1.1864371898160950E-002   0.0000000000000000     
  -3.7344886433471683E-013   1.5014424515835819E-002   0.0000000000000000     
  -4.4986605586549988E-013   1.8478692588821864E-002   0.0000000000000000     
   7.1270451095370689E-003   1.8870765789197452E-002   0.0000000000000000     
   8.0380001085185206E-003   2.2644081664399355E-002   0.0000000000000000     
   8.9378990699276097E-003   2.6669097795557650E-002   0.0000000000000000     
   9.8267419937643347E-003   3.0945814182672338E-002   0.0000000000000000     
   1.0704528880028697E-002   3.5474230825743414E-002   0.0000000000000000     
   5.3137133708183338E-003   1.8699233764001198E-002   0.0000000000000000     
   5.9968401979860232E-003   2.2462018564759934E-002   0.0000000000000000     
   6.6704084412787809E-003   2.6478270175850152E-002   0.0000000000000000     
   7.3344181006966044E-003   3.0747988597271854E-002   0.0000000000000000     
   7.9888691762394944E-003   3.5271173829025039E-002   0.0000000000000000     
   3.5214286062476008E-003   1.8576710888873187E-002   0.0000000000000000     
   3.9767868762987432E-003   2.2331973493603208E-002   0.0000000000000000     
   4.4249283866325366E-003   2.6341964733221798E-002   0.0000000000000000     
   4.8658531372489794E-003   3.0606684607728970E-002   0.0000000000000000     
   5.2995611281480750E-003   3.5126133117124710E-002   0.0000000000000000     
   1.7501908158248669E-003   1.8503197163813410E-002   0.0000000000000000     
   1.9778401434566786E-003   2.2253946450929186E-002   0.0000000000000000     
   2.2014589059888771E-003   2.6260181467672609E-002   0.0000000000000000     
   2.4210471034214632E-003   3.0521902214043682E-002   0.0000000000000000     
   2.6366047357544360E-003   3.5039108690042398E-002   0.0000000000000000     
  -4.4986605586549988E-013   1.8478692588821864E-002   0.0000000000000000     
  -5.4016865850062268E-013   2.2227937436737857E-002   0.0000000000000000     
  -6.5219552848605478E-013   2.6232920379202569E-002   0.0000000000000000     
  -7.8594623214092718E-013   3.0493641416215994E-002   0.0000000000000000     
  -9.4142120314610889E-013   3.5010100547778138E-002   0.0000000000000000     
   1.0704528880028697E-002   3.5474230825743414E-002   0.0000000000000000     
   1.1565559522497351E-002   4.0234162610745548E-002   0.0000000000000000     
   1.2404133714946952E-002   4.5205424423653370E-002   0.0000000000000000     
   1.3220251457377503E-002   5.0388016264466887E-002   0.0000000000000000     
   1.4013912749789002E-002   5.5781938133186111E-002   0.0000000000000000     
   7.9888691762394944E-003   3.5271173829025039E-002   0.0000000000000000     
   8.6305625670121990E-003   4.0027964965046119E-002   0.0000000000000000     
   9.2562991721194601E-003   4.4998501099271483E-002   0.0000000000000000     
   9.8660789915612779E-003   5.0182782231701126E-002   0.0000000000000000     
   1.0459902025337656E-002   5.5580808362335060E-002   0.0000000000000000     
   5.2995611281480750E-003   3.5126133117124710E-002   0.0000000000000000     
   5.7246369945764212E-003   3.9880680932457425E-002   0.0000000000000000     
   6.1396653717806201E-003   4.4850698724775505E-002   0.0000000000000000     
   6.5446462597606716E-003   5.0036186494078982E-002   0.0000000000000000     
   6.9395796585165750E-003   5.5437144240367837E-002   0.0000000000000000     
   2.6366047357544360E-003   3.5039108690042398E-002   0.0000000000000000     
   2.8477828051900189E-003   3.9792310512979441E-002   0.0000000000000000     
   3.0542323139304342E-003   4.4762017300165463E-002   0.0000000000000000     
   3.2559532619756810E-003   4.9948229051600450E-002   0.0000000000000000     
   3.4529456493257605E-003   5.5350945767284415E-002   0.0000000000000000     
  -9.4142120314610889E-013   3.5010100547778138E-002   0.0000000000000000     
  -1.1470091369758517E-012   3.9762853706612186E-002   0.0000000000000000     
  -1.4311002469874490E-012   4.4732456825441316E-002   0.0000000000000000     
  -1.7936928526675333E-012   4.9918909904265535E-002   0.0000000000000000     
  -2.2347893934709928E-012   5.5322212943084828E-002   0.0000000000000000     
   1.4013912749789002E-002   5.5781938133186111E-002   0.0000000000000000     
   1.4784335681019233E-002   6.1373979293822968E-002   0.0000000000000000     
   1.5530738339905982E-002   6.7150929010389424E-002   0.0000000000000000     
   1.6253120726449251E-002   7.3112787282885477E-002   0.0000000000000000     
   1.6951482840649037E-002   7.9259554111311109E-002   0.0000000000000000     
   1.0459902025337656E-002   5.5580808362335060E-002   0.0000000000000000     
   1.1036628871206423E-002   6.1178267209822237E-002   0.0000000000000000     
   1.1595120126925410E-002   6.6960846492811657E-002   0.0000000000000000     
   1.2135375792494624E-002   7.2928546211303305E-002   0.0000000000000000     
   1.2657395867914060E-002   7.9081366365297168E-002   0.0000000000000000     
   6.9395796585165750E-003   5.5437144240367837E-002   0.0000000000000000     
   7.3233373206719214E-003   6.1038472864166908E-002   0.0000000000000000     
   7.6947909988503010E-003   6.6825073266001067E-002   0.0000000000000000     
   8.0539406930517140E-003   7.2796945445870329E-002   0.0000000000000000     
   8.4007864032761594E-003   7.8954089403774658E-002   0.0000000000000000     
   3.4529456493257605E-003   5.5350945767284415E-002   0.0000000000000000     
   3.6444610294157301E-003   6.0954596256856952E-002   0.0000000000000000     
   3.8297509556806508E-003   6.6743609329957654E-002   0.0000000000000000     
   4.0088154281205197E-003   7.2717984986586520E-002   0.0000000000000000     
   4.1816544467353379E-003   7.8877723226743524E-002   0.0000000000000000     
  -2.2347893934709928E-012   5.5322212943084828E-002   0.0000000000000000     
  -2.5621515542875728E-012   6.0926637387892404E-002   0.0000000000000000     
  -2.5835400984351720E-012   6.6716454684681417E-002   0.0000000000000000     
  -2.2989598370609307E-012   7.2691664833451908E-002   0.0000000000000000     
  -1.7084059861227630E-012   7.8852267834203821E-002   0.0000000000000000     
   1.6951482840649037E-002   7.9259554111311109E-002   0.0000000000000000     
   1.7624819188139126E-002   8.5578230256604368E-002   0.0000000000000000     
   1.8272124274553301E-002   9.2055816479703220E-002   0.0000000000000000     
   1.8893398099891569E-002   9.8692312780607694E-002   0.0000000000000000     
   1.9488640664153917E-002  0.10548771915931782        0.0000000000000000     
   1.2657395867914060E-002   7.9081366365297168E-002   0.0000000000000000     
   1.3160590727778958E-002   8.5406398907846043E-002   0.0000000000000000     
   1.3644370746684563E-002   9.1890735792002687E-002   0.0000000000000000     
   1.4108735924630869E-002   9.8534377017767141E-002   0.0000000000000000     
   1.4553686261617887E-002  0.10533732258513935        0.0000000000000000     
   8.4007864032761594E-003   7.8954089403774658E-002   0.0000000000000000     
   8.7350447095169963E-003   8.5283662230006996E-002   0.0000000000000000     
   9.0564321917675755E-003   9.1772821014860353E-002   0.0000000000000000     
   9.3649488500279054E-003   9.8421565758334717E-002   0.0000000000000000     
   9.6605946842979774E-003  0.10522989646043007        0.0000000000000000     
   4.1816544467353379E-003   7.8877723226743524E-002   0.0000000000000000     
   4.3481811333532360E-003   8.5210020223087254E-002   0.0000000000000000     
   4.5083086098023448E-003   9.1702072148276234E-002   0.0000000000000000     
   4.6620368760826635E-003   9.8353879002310463E-002   0.0000000000000000     
   4.8093659321941928E-003  0.10516544078518994        0.0000000000000000     
  -1.7084059861227630E-012   7.8852267834203821E-002   0.0000000000000000     
  -7.1231800839732795E-013   8.5185472887086763E-002   0.0000000000000000     
   7.8886734384414625E-013   9.1678489192250273E-002   0.0000000000000000     
   2.7951521576908417E-012   9.8331316749694350E-002   0.0000000000000000     
   5.3065325571199917E-012  0.10514395555941901        0.0000000000000000     
   1.9488640664153917E-002  0.10548771915931782        0.0000000000000000     
   2.0057726538961790E-002  0.11243042031033107        0.0000000000000000     
   2.0600530295936618E-002  0.11950880092814505        0.0000000000000000     
   2.1117051935078398E-002  0.12672286101275970        0.0000000000000000     
   2.1607291456387130E-002  0.13407260056417505        0.0000000000000000     
   1.4553686261617887E-002  0.10533732258513935        0.0000000000000000     
   1.4978692103832045E-002  0.11228779692953691        0.0000000000000000     
   1.5383223797459796E-002  0.11937402448637729        0.0000000000000000     
   1.5767281342501136E-002  0.12659600525566056        0.0000000000000000     
   1.6130864738956065E-002  0.13395373923738668        0.0000000000000000     
   9.6605946842979774E-003  0.10522989646043007        0.0000000000000000     
   9.9427262036780716E-003  0.11218592308582612        0.0000000000000000     
   1.0210699917268459E-002  0.11927775559920245        0.0000000000000000     
   1.0464515825069144E-002  0.12650539400055916        0.0000000000000000     
   1.0704173927080120E-002  0.13386883828989621        0.0000000000000000     
   4.8093659321941928E-003  0.10516544078518994        0.0000000000000000     
   4.9498288384998623E-003  0.11212479877919865        0.0000000000000000     
   5.0829586553626039E-003  0.11921999426662051        0.0000000000000000     
   5.2087553827824167E-003  0.12645102724745552        0.0000000000000000     
   5.3272190207593016E-003  0.13381789772170363        0.0000000000000000     
   5.3065325571199917E-012  0.10514395555941901        0.0000000000000000     
   8.2974222111176221E-012  0.11210442400965459        0.0000000000000000     
   1.1742229909759982E-011  0.11920074048863145        0.0000000000000000     
   1.5640957902766581E-011  0.12643290499634957        0.0000000000000000     
   1.9993602259904542E-011  0.13380091753280901        0.0000000000000000     
   2.1607291456387130E-002  0.13407260056417505        0.0000000000000000     
   2.2069242910972588E-002  0.14154598688112296        0.0000000000000000     
   2.2500900349944536E-002  0.14913098726233523        0.0000000000000000     
   2.2902263773302966E-002  0.15682760170781188        0.0000000000000000     
   2.3273333181047892E-002  0.16463583021755285        0.0000000000000000     
   1.6130864738956065E-002  0.13395373923738668        0.0000000000000000     
   1.6471862108546731E-002  0.14143530942061050        0.0000000000000000     
   1.6788161572995272E-002  0.14902879879438677        0.0000000000000000     
   1.7079763132301692E-002  0.15673420735871565        0.0000000000000000     
   1.7346666786465993E-002  0.16455153511359705        0.0000000000000000     
   1.0704173927080120E-002  0.13386883828989621        0.0000000000000000     
   1.0927861359983828E-002  0.14135625409234437        0.0000000000000000     
   1.1133765260462693E-002  0.14895580703303454        0.0000000000000000     
   1.1321885628516716E-002  0.15666749711196670        0.0000000000000000     
   1.1492222464145902E-002  0.16449132432914082        0.0000000000000000     
   5.3272190207593016E-003  0.13381789772170363        0.0000000000000000     
   5.4372406652838864E-003  0.14130882089632471        0.0000000000000000     
   5.5377114123468007E-003  0.14891201197827850        0.0000000000000000     
   5.6286312619480460E-003  0.15662747096756499        0.0000000000000000     
   5.7100002140876190E-003  0.16445519786418422        0.0000000000000000     
   1.9993602259904542E-011  0.13380091753280901        0.0000000000000000     
   2.4446902618588395E-011  0.14129300983255141        0.0000000000000000     
   2.8647593628902679E-011  0.14889741363011857        0.0000000000000000     
   3.2595674586115980E-011  0.15661412892551052        0.0000000000000000     
   3.6291145436018191E-011  0.16444315571872720        0.0000000000000000     
   0.0000000000000000        0.0000000000000000        0.0000000000000000     
  -3.7519087229404002E-014   1.0733889655281208E-003   0.0000000000000000     
  -8.0105139101810385E-014   2.5156707921616165E-003   0.0000000000000000     
  -1.2775810140711052E-013   4.3268454799004867E-003   0.0000000000000000     
  -1.8047802835541304E-013   6.5069130287447327E-003   0.0000000000000000     
   0.0000000000000000        0.0000000000000000        0.0000000000000000     
  -2.1298752883694465E-004   1.0756753859136297E-003   0.0000000000000000     
  -4.2697016713625854E-004   2.5208224644273072E-003   0.0000000000000000     
  -6.4194791489794129E-004   4.3354412355410335E-003   0.0000000000000000     
  -8.5792077212199370E-004   6.5195316992548063E-003   0.0000000000000000     
   0.0000000000000000        0.0000000000000000        0.0000000000000000     
  -4.2426282890233545E-004   1.0825346470557566E-003   0.0000000000000000     
  -8.5298091423170090E-004   2.5362774811961124E-003   0.0000000000000000     
  -1.2861542559880967E-003   4.3612285024210657E-003   0.0000000000000000     
  -1.7237828541715220E-003   6.5573877107306189E-003   0.0000000000000000     
   0.0000000000000000        0.0000000000000000        0.0000000000000000     
  -6.3382590023369171E-004   1.0939667489545024E-003   0.0000000000000000     
  -1.2780322413664328E-003   2.5620358424680309E-003   0.0000000000000000     
  -1.9326190233982232E-003   4.4042072805405867E-003   0.0000000000000000     
  -2.5975862463290642E-003   6.6204810631721681E-003   0.0000000000000000     
   0.0000000000000000        0.0000000000000000        0.0000000000000000     
  -8.4167674283101325E-004   1.1099716916098663E-003   0.0000000000000000     
  -1.7021241485404540E-003   2.5980975482430644E-003   0.0000000000000000     
  -2.5813422171283226E-003   4.4643775698995939E-003   0.0000000000000000     
  -3.4793309485946179E-003   6.7088117565794556E-003   0.0000000000000000     
  -1.8047802835541304E-013   6.5069130287447327E-003   0.0000000000000000     
  -2.3875478959330121E-013   9.0285347357972542E-003   0.0000000000000000     
  -3.0307844450273846E-013   1.1864371898160950E-002   0.0000000000000000     
  -3.7344886433471683E-013   1.5014424515835819E-002   0.0000000000000000     
  -4.4986605586549988E-013   1.8478692588821864E-002   0.0000000000000000     
  -8.5792077212199370E-004   6.5195316992548063E-003   0.0000000000000000     
  -1.0760404588748107E-003   9.0451305233048736E-003   0.0000000000000000     
  -1.2974586952227878E-003   1.1884274375427476E-002   0.0000000000000000     
  -1.5221754811659252E-003   1.5036963255622616E-002   0.0000000000000000     
  -1.7501908167042231E-003   1.8503197163890289E-002   0.0000000000000000     
  -1.7237828541715220E-003   6.5573877107306189E-003   0.0000000000000000     
  -2.1660278835251216E-003   9.0949178857619942E-003   0.0000000000000000     
  -2.6130505187920397E-003   1.1943981807152419E-002   0.0000000000000000     
  -3.0648507599722744E-003   1.5104579474901890E-002   0.0000000000000000     
  -3.5214286070658282E-003   1.8576710889010414E-002   0.0000000000000000     
  -2.5975862463290642E-003   6.6204810631721681E-003   0.0000000000000000     
  -3.2699622741896891E-003   9.1778968231686180E-003   0.0000000000000000     
  -3.9467754710108332E-003   1.2043494193335780E-002   0.0000000000000000     
  -4.6280258367924982E-003   1.5217273173673655E-002   0.0000000000000000     
  -5.3137133715346818E-003   1.8699233764182241E-002   0.0000000000000000     
  -3.4793309485946179E-003   6.7088117565794556E-003   0.0000000000000000     
  -4.3878436308685109E-003   9.2940673355247465E-003   0.0000000000000000     
  -5.2986335518791687E-003   1.2182811533977560E-002   0.0000000000000000     
  -6.2117007116265933E-003   1.5375044351937898E-002   0.0000000000000000     
  -7.1270451101107836E-003   1.8870765789405761E-002   0.0000000000000000     
  -4.4986605586549988E-013   1.8478692588821864E-002   0.0000000000000000     
  -5.4016865850062268E-013   2.2227937436737857E-002   0.0000000000000000     
  -6.5219552848605478E-013   2.6232920379202569E-002   0.0000000000000000     
  -7.8594623214092718E-013   3.0493641416215994E-002   0.0000000000000000     
  -9.4142120314610889E-013   3.5010100547778138E-002   0.0000000000000000     
  -1.7501908167042231E-003   1.8503197163890289E-002   0.0000000000000000     
  -1.9778401445107387E-003   2.2253946451018553E-002   0.0000000000000000     
  -2.2014589072585290E-003   2.6260181467795449E-002   0.0000000000000000     
  -2.4210471049475927E-003   3.0521902214220985E-002   0.0000000000000000     
  -2.6366047375779313E-003   3.5039108690295161E-002   0.0000000000000000     
  -3.5214286070658282E-003   1.8576710889010414E-002   0.0000000000000000     
  -3.9767868772739691E-003   2.2331973493760593E-002   0.0000000000000000     
  -4.4249283877979663E-003   2.6341964733435037E-002   0.0000000000000000     
  -4.8658531386378207E-003   3.0606684608033743E-002   0.0000000000000000     
  -5.2995611297935313E-003   3.5126133117556718E-002   0.0000000000000000     
  -5.3137133715346818E-003   1.8699233764182241E-002   0.0000000000000000     
  -5.9968401988298621E-003   2.2462018564963979E-002   0.0000000000000000     
  -6.6704084422705111E-003   2.6478270176121317E-002   0.0000000000000000     
  -7.3344181018566296E-003   3.0747988597654263E-002   0.0000000000000000     
  -7.9888691775882193E-003   3.5271173829562817E-002   0.0000000000000000     
  -7.1270451101107836E-003   1.8870765789405761E-002   0.0000000000000000     
  -8.0380001091784146E-003   2.2644081664628710E-002   0.0000000000000000     
  -8.9378990706761603E-003   2.6669097795854309E-002   0.0000000000000000     
  -9.8267419946040189E-003   3.0945814183082551E-002   0.0000000000000000     
  -1.0704528880961996E-002   3.5474230826313444E-002   0.0000000000000000     
  -9.4142120314610889E-013   3.5010100547778138E-002   0.0000000000000000     
  -1.1470091369758517E-012   3.9762853706612186E-002   0.0000000000000000     
  -1.4311002469874490E-012   4.4732456825441316E-002   0.0000000000000000     
  -1.7936928526675333E-012   4.9918909904265535E-002   0.0000000000000000     
  -2.2347893934709928E-012   5.5322212943084828E-002   0.0000000000000000     
  -2.6366047375779313E-003   3.5039108690295161E-002   0.0000000000000000     
  -2.8477828074055626E-003   3.9792310513308192E-002   0.0000000000000000     
  -3.0542323166865026E-003   4.4762017300550287E-002   0.0000000000000000     
  -3.2559532654207498E-003   4.9948229052021446E-002   0.0000000000000000     
  -3.4529456536083062E-003   5.5350945767721697E-002   0.0000000000000000     
  -5.2995611297935313E-003   3.5126133117556718E-002   0.0000000000000000     
  -5.7246369965565412E-003   3.9880680933019975E-002   0.0000000000000000     
  -6.1396653742182917E-003   4.4850698725439557E-002   0.0000000000000000     
  -6.5446462627787878E-003   5.0036186494815442E-002   0.0000000000000000     
  -6.9395796622380226E-003   5.5437144241147644E-002   0.0000000000000000     
  -7.9888691775882193E-003   3.5271173829562817E-002   0.0000000000000000     
  -8.6305625685999462E-003   4.0027964965747564E-002   0.0000000000000000     
  -9.2562991740264729E-003   4.4998501100109112E-002   0.0000000000000000     
  -9.8660789938678044E-003   5.0182782232647494E-002   0.0000000000000000     
  -1.0459902028123939E-002   5.5580808363362669E-002   0.0000000000000000     
  -1.0704528880961996E-002   3.5474230826313444E-002   0.0000000000000000     
  -1.1565559523535772E-002   4.0234162611490938E-002   0.0000000000000000     
  -1.2404133716111041E-002   4.5205424424558986E-002   0.0000000000000000     
  -1.3220251458687804E-002   5.0388016265517602E-002   0.0000000000000000     
  -1.4013912751266054E-002   5.5781938134366778E-002   0.0000000000000000     
  -2.2347893934709928E-012   5.5322212943084828E-002   0.0000000000000000     
  -2.5621515542875728E-012   6.0926637387892404E-002   0.0000000000000000     
  -2.5835400984351720E-012   6.6716454684681417E-002   0.0000000000000000     
  -2.2989598370609307E-012   7.2691664833451908E-002   0.0000000000000000     
  -1.7084059861227630E-012   7.8852267834203821E-002   0.0000000000000000     
  -3.4529456536083062E-003   5.5350945767721697E-002   0.0000000000000000     
  -3.6444610343185973E-003   6.0954596257240957E-002   0.0000000000000000     
  -3.8297509606210504E-003   6.6743609330169193E-002   0.0000000000000000     
  -4.0088154325156654E-003   7.2717984986506431E-002   0.0000000000000000     
  -4.1816544500024432E-003   7.8877723226252625E-002   0.0000000000000000     
  -6.9395796622380226E-003   5.5437144241147644E-002   0.0000000000000000     
  -7.3233373249104840E-003   6.1038472864870359E-002   0.0000000000000000     
  -7.6947910031106596E-003   6.6825073266417845E-002   0.0000000000000000     
  -8.0539406968385442E-003   7.2796945445790046E-002   0.0000000000000000     
  -8.4007864060941396E-003   7.8954089402986996E-002   0.0000000000000000     
  -1.0459902028123939E-002   5.5580808363362669E-002   0.0000000000000000     
  -1.1036628874337814E-002   6.1178267210780624E-002   0.0000000000000000     
  -1.1595120130052365E-002   6.6960846493427303E-002   0.0000000000000000     
  -1.2135375795267593E-002   7.2928546211302764E-002   0.0000000000000000     
  -1.2657395869983500E-002   7.9081366364406963E-002   0.0000000000000000     
  -1.4013912751266054E-002   5.5781938134366778E-002   0.0000000000000000     
  -1.4784335682600579E-002   6.1373979294971723E-002   0.0000000000000000     
  -1.5530738341446169E-002   6.7150929011197666E-002   0.0000000000000000     
  -1.6253120727802814E-002   7.3112787283044572E-002   0.0000000000000000     
  -1.6951482841670518E-002   7.9259554110512484E-002   0.0000000000000000     
  -1.7084059861227630E-012   7.8852267834203821E-002   0.0000000000000000     
  -7.1231800839732795E-013   8.5185472887086763E-002   0.0000000000000000     
   7.8886734384414625E-013   9.1678489192250273E-002   0.0000000000000000     
   2.7951521576908417E-012   9.8331316749694350E-002   0.0000000000000000     
   5.3065325571199917E-012  0.10514395555941901        0.0000000000000000     
  -4.1816544500024432E-003   7.8877723226252625E-002   0.0000000000000000     
  -4.3481811347210481E-003   8.5210020222163119E-002   0.0000000000000000     
  -4.5083086083111479E-003   9.1702072146993219E-002   0.0000000000000000     
  -4.6620368707727469E-003   9.8353879000742925E-002   0.0000000000000000     
  -4.8093659221058391E-003  0.10516544078341224        0.0000000000000000     
  -8.4007864060941396E-003   7.8954089402986996E-002   0.0000000000000000     
  -8.7350447107143285E-003   8.5283662228473847E-002   0.0000000000000000     
  -9.0564321905359946E-003   9.1772821012715736E-002   0.0000000000000000     
  -9.3649488455591397E-003   9.8421565755712634E-002   0.0000000000000000     
  -9.6605946757837621E-003  0.10522989645746461        0.0000000000000000     
  -1.2657395869983500E-002   7.9081366364406963E-002   0.0000000000000000     
  -1.3160590728692164E-002   8.5406398906018949E-002   0.0000000000000000     
  -1.3644370745885674E-002   9.1890735789417810E-002   0.0000000000000000     
  -1.4108735921564029E-002   9.8534377014603547E-002   0.0000000000000000     
  -1.4553686255727227E-002  0.10533732258157617        0.0000000000000000     
  -1.6951482841670518E-002   7.9259554110512484E-002   0.0000000000000000     
  -1.7624819188654554E-002   8.5578230254798437E-002   0.0000000000000000     
  -1.8272124274360185E-002   9.2055816477099470E-002   0.0000000000000000     
  -1.8893398098787414E-002   9.8692312777415622E-002   0.0000000000000000     
  -1.9488640661936243E-002  0.10548771915574690        0.0000000000000000     
   5.3065325571199917E-012  0.10514395555941901        0.0000000000000000     
   8.2974222111176221E-012  0.11210442400965459        0.0000000000000000     
   1.1742229909759982E-011  0.11920074048863145        0.0000000000000000     
   1.5640957902766581E-011  0.12643290499634957        0.0000000000000000     
   1.9993602259904542E-011  0.13380091753280901        0.0000000000000000     
  -4.8093659221058391E-003  0.10516544078341224        0.0000000000000000     
  -4.9498288227216988E-003  0.11212479877749643        0.0000000000000000     
  -5.0829586330315918E-003  0.11921999426549083        0.0000000000000000     
  -5.2087553530355199E-003  0.12645102724739540        0.0000000000000000     
  -5.3272189827334813E-003  0.13381789772321018        0.0000000000000000     
  -9.6605946757837621E-003  0.10522989645746461        0.0000000000000000     
  -9.9427261903499483E-003  0.11218592308302676        0.0000000000000000     
  -1.0210699898397792E-002  0.11927775559745420        0.0000000000000000     
  -1.0464515799927299E-002  0.12650539400074698        0.0000000000000000     
  -1.0704173894938464E-002  0.13386883829290502        0.0000000000000000     
  -1.4553686255727227E-002  0.10533732258157617        0.0000000000000000     
  -1.4978692094587324E-002  0.11228779692624553        0.0000000000000000     
  -1.5383223784356375E-002  0.11937402448452158        0.0000000000000000     
  -1.5767281325034379E-002  0.12659600525640424        0.0000000000000000     
  -1.6130864716621340E-002  0.13395373924189358        0.0000000000000000     
  -1.9488640661936243E-002  0.10548771915574690        0.0000000000000000     
  -2.0057726535433831E-002  0.11243042030715281        0.0000000000000000     
  -2.0600530290907335E-002  0.11950880092669293        0.0000000000000000     
  -2.1117051928356764E-002  0.12672286101436731        0.0000000000000000     
  -2.1607291447782111E-002  0.13407260057017586        0.0000000000000000     
   1.9993602259904542E-011  0.13380091753280901        0.0000000000000000     
   2.4446902618588395E-011  0.14129300983255141        0.0000000000000000     
   2.8647593628902679E-011  0.14889741363011857        0.0000000000000000     
   3.2595674586115980E-011  0.15661412892551052        0.0000000000000000     
   3.6291145436018191E-011  0.16444315571872720        0.0000000000000000     
  -5.3272189827334813E-003  0.13381789772321018        0.0000000000000000     
  -5.4372406187909840E-003  0.14130882090072749        0.0000000000000000     
  -5.5377113578735284E-003  0.14891201198773968        0.0000000000000000     
  -5.6286311999811170E-003  0.15662747098424681        0.0000000000000000     
  -5.7100001451137507E-003  0.16445519789024887        0.0000000000000000     
  -1.0704173894938464E-002  0.13386883829290502        0.0000000000000000     
  -1.0927861320693635E-002  0.14135625410055580        0.0000000000000000     
  -1.1133765214455162E-002  0.14895580705032657        0.0000000000000000     
  -1.1321885576223054E-002  0.15666749714221737        0.0000000000000000     
  -1.1492222405997300E-002  0.16449132437622829        0.0000000000000000     
  -1.6130864716621340E-002  0.13395373924189358        0.0000000000000000     
  -1.6471862081261050E-002  0.14143530943203636        0.0000000000000000     
  -1.6788161541097316E-002  0.14902879881787920        0.0000000000000000     
  -1.7079763096130133E-002  0.15673420739942226        0.0000000000000000     
  -1.7346666746359499E-002  0.16455153517666549        0.0000000000000000     
  -2.1607291447782111E-002  0.13407260057017586        0.0000000000000000     
  -2.2069242900493235E-002  0.14154598689516915        0.0000000000000000     
  -2.2500900337799980E-002  0.14913098729039767        0.0000000000000000     
  -2.2902263759702352E-002  0.15682760175586144        0.0000000000000000     
  -2.3273333166200356E-002  0.16463583029156043        0.0000000000000000     
   0.0000000000000000        0.0000000000000000        0.0000000000000000     
  -8.4167674283101325E-004   1.1099716916098663E-003   0.0000000000000000     
  -1.7021241485404540E-003   2.5980975482430644E-003   0.0000000000000000     
  -2.5813422171283226E-003   4.4643775698995939E-003   0.0000000000000000     
  -3.4793309485946179E-003   6.7088117565794556E-003   0.0000000000000000     
   0.0000000000000000        0.0000000000000000        0.0000000000000000     
  -1.0567152293284297E-003   1.1341196514677936E-003   0.0000000000000000     
  -2.1397877219202113E-003   2.6503237598895393E-003   0.0000000000000000     
  -3.2492174777753458E-003   4.5486123252652371E-003   0.0000000000000000     
  -4.3850044968938321E-003   6.8289853475948879E-003   0.0000000000000000     
   0.0000000000000000        0.0000000000000000        0.0000000000000000     
  -1.2878412323600705E-003   1.1699808049742287E-003   0.0000000000000000     
  -2.6055540476721518E-003   2.7245756387757835E-003   0.0000000000000000     
  -3.9531384459362455E-003   4.6637845014046633E-003   0.0000000000000000     
  -5.3305944271523518E-003   6.9876073928608695E-003   0.0000000000000000     
   0.0000000000000000        0.0000000000000000        0.0000000000000000     
  -1.5350547519259348E-003   1.2175551521291723E-003   0.0000000000000000     
  -3.0994231257962753E-003   2.8208531849017965E-003   0.0000000000000000     
  -4.6931051216110211E-003   4.8098940983178733E-003   0.0000000000000000     
  -6.3161007393701752E-003   7.1846778923774033E-003   0.0000000000000000     
   0.0000000000000000        0.0000000000000000        0.0000000000000000     
  -1.7983557880260233E-003   1.2768426929326234E-003   0.0000000000000000     
  -3.6213949562925816E-003   2.9391563982675787E-003   0.0000000000000000     
  -5.4691175047996751E-003   4.9869411160048662E-003   0.0000000000000000     
  -7.3415234335473048E-003   7.4201968461444856E-003   0.0000000000000000     
  -3.4793309485946179E-003   6.7088117565794556E-003   0.0000000000000000     
  -4.3878436308685109E-003   9.2940673355247465E-003   0.0000000000000000     
  -5.2986335518791687E-003   1.2182811533977560E-002   0.0000000000000000     
  -6.2117007116265933E-003   1.5375044351937898E-002   0.0000000000000000     
  -7.1270451101107836E-003   1.8870765789405761E-002   0.0000000000000000     
  -4.3850044968938321E-003   6.8289853475948879E-003   0.0000000000000000     
  -5.5341802112949248E-003   9.4494200444495552E-003   0.0000000000000000     
  -6.6837760529978776E-003   1.2367893633400301E-002   0.0000000000000000     
  -7.8337920220026887E-003   1.5584406114447120E-002   0.0000000000000000     
  -8.9842281183093627E-003   1.9098957487590027E-002   0.0000000000000000     
  -5.3305944271523518E-003   6.9876073928608695E-003   0.0000000000000000     
  -6.7234802732022668E-003   9.6499455715622229E-003   0.0000000000000000     
  -8.1173542659677880E-003   1.2604700295926542E-002   0.0000000000000000     
  -9.5122164054489144E-003   1.5851871565953825E-002   0.0000000000000000     
  -1.0908066691645651E-002   1.9391459381644077E-002   0.0000000000000000     
  -6.3161007393701752E-003   7.1846778923774033E-003   0.0000000000000000     
  -7.9557438165905325E-003   9.8956439168627515E-003   0.0000000000000000     
  -9.5993681907888973E-003   1.2893231521556286E-002   0.0000000000000000     
  -1.1246973861965269E-002   1.6177440706458004E-002   0.0000000000000000     
  -1.2898560830119643E-002   1.9748271471567911E-002   0.0000000000000000     
  -7.3415234335473048E-003   7.4201968461444856E-003   0.0000000000000000     
  -9.2309708414597298E-003   1.0186515080351139E-002   0.0000000000000000     
  -1.1129817827461209E-002   1.3233487310289531E-002   0.0000000000000000     
  -1.3038064391551750E-002   1.6561113535959661E-002   0.0000000000000000     
  -1.4955710533731346E-002   2.0169393757361525E-002   0.0000000000000000     
  -7.1270451101107836E-003   1.8870765789405761E-002   0.0000000000000000     
  -8.0380001091784146E-003   2.2644081664628710E-002   0.0000000000000000     
  -8.9378990706761603E-003   2.6669097795854309E-002   0.0000000000000000     
  -9.8267419946040189E-003   3.0945814183082551E-002   0.0000000000000000     
  -1.0704528880961996E-002   3.5474230826313444E-002   0.0000000000000000     
  -8.9842281183093627E-003   1.9098957487590027E-002   0.0000000000000000     
  -1.0127997975304837E-002   2.2886736533896872E-002   0.0000000000000000     
  -1.1258015226376041E-002   2.6922932034435527E-002   0.0000000000000000     
  -1.2374279871522982E-002   3.1207543989205982E-002   0.0000000000000000     
  -1.3476791910745658E-002   3.5740572398208249E-002   0.0000000000000000     
  -1.0908066691645651E-002   1.9391459381644077E-002   0.0000000000000000     
  -1.2294565164194327E-002   2.3198556913910554E-002   0.0000000000000000     
  -1.3661371862731276E-002   2.7248257333666506E-002   0.0000000000000000     
  -1.5008486787256504E-002   3.1540560640911944E-002   0.0000000000000000     
  -1.6335909937770000E-002   3.6075466835646858E-002   0.0000000000000000     
  -1.2898560830119643E-002   1.9748271471567911E-002   0.0000000000000000     
  -1.4537701675846892E-002   2.3579542804669746E-002   0.0000000000000000     
  -1.6147968979741870E-002   2.7645073693547250E-002   0.0000000000000000     
  -1.7729362741804582E-002   3.1944864138200434E-002   0.0000000000000000     
  -1.9281882962035032E-002   3.6478914138629283E-002   0.0000000000000000     
  -1.4955710533731346E-002   2.0169393757361525E-002   0.0000000000000000     
  -1.6857407510262525E-002   2.4029694206174457E-002   0.0000000000000000     
  -1.8717806577407820E-002   2.8113381114077764E-002   0.0000000000000000     
  -2.0536907735167222E-002   3.2420454481071455E-002   0.0000000000000000     
  -2.2314710983540743E-002   3.6950914307155532E-002   0.0000000000000000     
  -1.0704528880961996E-002   3.5474230826313444E-002   0.0000000000000000     
  -1.1565559523535772E-002   4.0234162611490938E-002   0.0000000000000000     
  -1.2404133716111041E-002   4.5205424424558986E-002   0.0000000000000000     
  -1.3220251458687804E-002   5.0388016265517602E-002   0.0000000000000000     
  -1.4013912751266054E-002   5.5781938134366778E-002   0.0000000000000000     
  -1.3476791910745658E-002   3.5740572398208249E-002   0.0000000000000000     
  -1.4557902282230790E-002   4.0502288098144316E-002   0.0000000000000000     
  -1.5609961924165104E-002   4.5472961925716197E-002   0.0000000000000000     
  -1.6632970836548605E-002   5.0652593880923899E-002   0.0000000000000000     
  -1.7626929019381281E-002   5.6041183963767414E-002   0.0000000000000000     
  -1.6335909937770000E-002   3.6075466835646858E-002   0.0000000000000000     
  -1.7635865265551762E-002   4.0835355653601919E-002   0.0000000000000000     
  -1.8900576721881772E-002   4.5802606830507804E-002   0.0000000000000000     
  -2.0130044306760030E-002   5.0977220366364505E-002   0.0000000000000000     
  -2.1324268020186540E-002   5.6359196261172022E-002   0.0000000000000000     
  -1.9281882962035032E-002   3.6478914138629283E-002   0.0000000000000000     
  -2.0799448473498693E-002   4.1233365277863761E-002   0.0000000000000000     
  -2.2275978109261046E-002   4.6194359138933813E-002   0.0000000000000000     
  -2.3711471869322095E-002   5.1361895721839419E-002   0.0000000000000000     
  -2.5105929753681828E-002   5.6735975026580593E-002   0.0000000000000000     
  -2.2314710983540743E-002   3.6950914307155532E-002   0.0000000000000000     
  -2.4048651906071573E-002   4.1696316970929834E-002   0.0000000000000000     
  -2.5736166086302917E-002   4.6648218850994211E-002   0.0000000000000000     
  -2.7377253524234771E-002   5.1806619947348649E-002   0.0000000000000000     
  -2.8971914219867140E-002   5.7171520259993169E-002   0.0000000000000000     
  -1.4013912751266054E-002   5.5781938134366778E-002   0.0000000000000000     
  -1.4784335682600579E-002   6.1373979294971723E-002   0.0000000000000000     
  -1.5530738341446169E-002   6.7150929011197666E-002   0.0000000000000000     
  -1.6253120727802814E-002   7.3112787283044572E-002   0.0000000000000000     
  -1.6951482841670518E-002   7.9259554110512484E-002   0.0000000000000000     
  -1.7626929019381281E-002   5.6041183963767414E-002   0.0000000000000000     
  -1.8591405493437921E-002   6.1626497068723869E-002   0.0000000000000000     
  -1.9525969279493290E-002   6.7396298090270410E-002   0.0000000000000000     
  -2.0430620377547393E-002   7.3350587028407022E-002   0.0000000000000000     
  -2.1305358787600228E-002   7.9489363883133712E-002   0.0000000000000000     
  -2.1324268020186540E-002   5.6359196261172022E-002   0.0000000000000000     
  -2.2482786050588961E-002   6.1936708483317254E-002   0.0000000000000000     
  -2.3605136586394952E-002   6.7697931001187123E-002   0.0000000000000000     
  -2.4691319627604517E-002   7.3642863814781620E-002   0.0000000000000000     
  -2.5741335174217644E-002   7.9771506924100774E-002   0.0000000000000000     
  -2.5105929753681828E-002   5.6735975026580593E-002   0.0000000000000000     
  -2.6458477354053704E-002   6.2304613538751892E-002   0.0000000000000000     
  -2.7768240262151151E-002   6.8055827743947833E-002   0.0000000000000000     
  -2.9035218477974165E-002   7.3989617642168409E-002   0.0000000000000000     
  -3.0259412001522767E-002   8.0105983233413627E-002   0.0000000000000000     
  -2.8971914219867140E-002   5.7171520259993169E-002   0.0000000000000000     
  -3.0518479403832149E-002   6.2730212235027782E-002   0.0000000000000000     
  -3.2015280306761887E-002   6.8469988318552513E-002   0.0000000000000000     
  -3.3462316928656373E-002   7.4390848510567362E-002   0.0000000000000000     
  -3.4859589269515608E-002   8.0492792811072342E-002   0.0000000000000000     
  -1.6951482841670518E-002   7.9259554110512484E-002   0.0000000000000000     
  -1.7624819188654554E-002   8.5578230254798437E-002   0.0000000000000000     
  -1.8272124274360185E-002   9.2055816477099470E-002   0.0000000000000000     
  -1.8893398098787414E-002   9.8692312777415622E-002   0.0000000000000000     
  -1.9488640661936243E-002  0.10548771915574690        0.0000000000000000     
  -2.1305358787600228E-002   7.9489363883133712E-002   0.0000000000000000     
  -2.2148862944205212E-002   8.5799659588890242E-002   0.0000000000000000     
  -2.2959811281915765E-002   9.2268505080116331E-002   0.0000000000000000     
  -2.3738203800731876E-002   9.8895900356812047E-002   0.0000000000000000     
  -2.4484040500653555E-002  0.10568184541897734        0.0000000000000000     
  -2.5741335174217644E-002   7.9771506924100774E-002   0.0000000000000000     
  -2.6753854848947854E-002   8.6071190222372307E-002   0.0000000000000000     
  -2.7727550274508628E-002   9.2529243602824024E-002   0.0000000000000000     
  -2.8662421450899984E-002   9.9145667065455967E-002   0.0000000000000000     
  -2.9558468378121913E-002  0.10592046061026807        0.0000000000000000     
  -3.0259412001522767E-002   8.0105983233413627E-002   0.0000000000000000     
  -3.1439794902882470E-002   8.6392822155244645E-002   0.0000000000000000     
  -3.2575341252138797E-002   9.2838032045222549E-002   0.0000000000000000     
  -3.3666051049291733E-002   9.9441612903347354E-002   0.0000000000000000     
  -3.4711924294341306E-002  0.10620356472961907        0.0000000000000000     
  -3.4859589269515608E-002   8.0492792811072342E-002   0.0000000000000000     
  -3.6206683106009073E-002   8.6764555387507242E-002   0.0000000000000000     
  -3.7503184214806251E-002   9.3194870407311892E-002   0.0000000000000000     
  -3.8749092595907142E-002   9.9783737870486264E-002   0.0000000000000000     
  -3.9944408249311752E-002  0.10653115777703039        0.0000000000000000     
  -1.9488640661936243E-002  0.10548771915574690        0.0000000000000000     
  -2.0057726535433831E-002  0.11243042030715281        0.0000000000000000     
  -2.0600530290907335E-002  0.11950880092669293        0.0000000000000000     
  -2.1117051928356764E-002  0.12672286101436731        0.0000000000000000     
  -2.1607291447782111E-002  0.13407260057017586        0.0000000000000000     
  -2.4484040500653555E-002  0.10568184541897734        0.0000000000000000     
  -2.5197657237219447E-002  0.11261482250474496        0.0000000000000000     
  -2.5879389865968213E-002  0.11968331385224767        0.0000000000000000     
  -2.6529238386899839E-002  0.12688731946148551        0.0000000000000000     
  -2.7147202800014345E-002  0.13422683933245841        0.0000000000000000     
  -2.9558468378121913E-002  0.10592046061026807        0.0000000000000000     
  -3.0416311924274176E-002  0.11284203279801845        0.0000000000000000     
  -3.1236572957456552E-002  0.11989879218946521        0.0000000000000000     
  -3.2019251477669028E-002  0.12709073878460833        0.0000000000000000     
  -3.2764347484911617E-002  0.13441787258344784        0.0000000000000000     
  -3.4711924294341306E-002  0.10620356472961907        0.0000000000000000     
  -3.5713690596598013E-002  0.11311205118697328        0.0000000000000000     
  -3.6672079565372349E-002  0.12015523593834553        0.0000000000000000     
  -3.7587091200664315E-002  0.12733311898373584        0.0000000000000000     
  -3.8458725502473909E-002  0.13464570032314421        0.0000000000000000     
  -3.9944408249311752E-002  0.10653115777703039        0.0000000000000000     
  -4.1089793254190939E-002  0.11342487767160943        0.0000000000000000     
  -4.2185909689715591E-002  0.12045264509888862        0.0000000000000000     
  -4.3232757555885688E-002  0.12761446005886798        0.0000000000000000     
  -4.4230336852701245E-002  0.13491032255154745        0.0000000000000000     
  -2.1607291447782111E-002  0.13407260057017586        0.0000000000000000     
  -2.2069242900493235E-002  0.14154598689516915        0.0000000000000000     
  -2.2500900337799980E-002  0.14913098729039767        0.0000000000000000     
  -2.2902263759702352E-002  0.15682760175586144        0.0000000000000000     
  -2.3273333166200356E-002  0.16463583029156043        0.0000000000000000     
  -2.7147202800014345E-002  0.13422683933245841        0.0000000000000000     
  -2.7731487867565838E-002  0.14168982631926377        0.0000000000000000     
  -2.8280298351808442E-002  0.14926423327599894        0.0000000000000000     
  -2.8793634252742152E-002  0.15695006020266386        0.0000000000000000     
  -2.9271495570366984E-002  0.16474730709925861        0.0000000000000000     
  -3.2764347484911617E-002  0.13441787258344784        0.0000000000000000     
  -3.3470081071654521E-002  0.14186836753362975        0.0000000000000000     
  -3.4134672330367974E-002  0.14943039758279997        0.0000000000000000     
  -3.4758121261051968E-002  0.15710396273095856        0.0000000000000000     
  -3.5340427863706510E-002  0.16488906297810549        0.0000000000000000     
  -3.8458725502473909E-002  0.13464570032314421        0.0000000000000000     
  -3.9285022512759296E-002  0.14208161053826707        0.0000000000000000     
  -4.0064022273478592E-002  0.14962948021080086        0.0000000000000000     
  -4.0795724784631796E-002  0.15728930934074553        0.0000000000000000     
  -4.1480130046218935E-002  0.16506109792810111        0.0000000000000000     
  -4.4230336852701245E-002  0.13491032255154745        0.0000000000000000     
  -4.5176312190880148E-002  0.14232955533317573        0.0000000000000000     
  -4.6068348181140285E-002  0.14986148116000150        0.0000000000000000     
  -4.6906444823481649E-002  0.15750610003202475        0.0000000000000000     
  -4.7690602117904254E-002  0.16526341194924543        0.0000000000000000     
   0.0000000000000000        0.0000000000000000        0.0000000000000000     
  -1.7983557880260233E-003   1.2768426929326234E-003   0.0000000000000000     
  -3.6213949562925816E-003   2.9391563982675787E-003   0.0000000000000000     
  -5.4691175047996751E-003   4.9869411160048662E-003   0.0000000000000000     
  -7.3415234335473048E-003   7.4201968461444856E-003   0.0000000000000000     
   0.0000000000000000        0.0000000000000000        0.0000000000000000     
  -2.0694721906070399E-003   1.3549535301179230E-003   0.0000000000000000     
  -4.1641165135540489E-003   3.0939912717463090E-003   0.0000000000000000     
  -6.2839329688410273E-003   5.2171132248851598E-003   0.0000000000000000     
  -8.4289215564679748E-003   7.7243193895344727E-003   0.0000000000000000     
   0.0000000000000000        0.0000000000000000        0.0000000000000000     
  -2.3401318096156879E-003   1.4589977664184106E-003   0.0000000000000000     
  -4.7202347719736545E-003   3.2998637982111674E-003   0.0000000000000000     
  -7.1403088870738976E-003   5.5225980953782687E-003   0.0000000000000000     
  -9.6003541549164219E-003   8.1272006579197163E-003   0.0000000000000000     
   0.0000000000000000        0.0000000000000000        0.0000000000000000     
  -2.6103346450519677E-003   1.5889754018340871E-003   0.0000000000000000     
  -5.2897497315513983E-003   3.5567739776621527E-003   0.0000000000000000     
  -8.0382452594982903E-003   5.9033957274841975E-003   0.0000000000000000     
  -1.0855821228892644E-002   8.6288406513002208E-003   0.0000000000000000     
   0.0000000000000000        0.0000000000000000        0.0000000000000000     
  -2.8800806969158802E-003   1.7448864363649517E-003   0.0000000000000000     
  -5.8726613922872812E-003   3.8647218100992661E-003   0.0000000000000000     
  -8.9777420861142012E-003   6.3595061212029427E-003   0.0000000000000000     
  -1.2195322778396644E-002   9.2292393696759810E-003   0.0000000000000000     
  -7.3415234335473048E-003   7.4201968461444856E-003   0.0000000000000000     
  -9.2309708414597298E-003   1.0186515080351139E-002   0.0000000000000000     
  -1.1129817827461209E-002   1.3233487310289531E-002   0.0000000000000000     
  -1.3038064391551750E-002   1.6561113535959661E-002   0.0000000000000000     
  -1.4955710533731346E-002   2.0169393757361525E-002   0.0000000000000000     
  -8.4289215564679748E-003   7.7243193895344727E-003   0.0000000000000000     
  -1.0590797731232870E-002   1.0558191780578048E-002   0.0000000000000000     
  -1.2761276947933692E-002   1.3661312412899682E-002   0.0000000000000000     
  -1.4940359206570442E-002   1.7033681286499378E-002   0.0000000000000000     
  -1.7128044507143118E-002   2.0675298401377135E-002   0.0000000000000000     
  -9.6003541549164219E-003   8.1272006579197163E-003   0.0000000000000000     
  -1.2076860869332975E-002   1.1046306736094134E-002   0.0000000000000000     
  -1.4546319324155309E-002   1.4212551580160143E-002   0.0000000000000000     
  -1.7008729519383432E-002   1.7625935190117743E-002   0.0000000000000000     
  -1.9464091455017336E-002   2.1286457565966935E-002   0.0000000000000000     
  -1.0855821228892644E-002   8.6288406513002208E-003   0.0000000000000000     
  -1.3689160255760042E-002   1.1650859946899399E-002   0.0000000000000000     
  -1.6484944956126065E-002   1.4887204812070910E-002   0.0000000000000000     
  -1.9243175329990713E-002   1.8337875246814756E-002   0.0000000000000000     
  -2.1963851377353991E-002   2.2002871251130932E-002   0.0000000000000000     
  -1.2195322778396644E-002   9.2292393696759810E-003   0.0000000000000000     
  -1.5427695890514074E-002   1.2371851412993842E-002   0.0000000000000000     
  -1.8577153843845957E-002   1.5685272108631989E-002   0.0000000000000000     
  -2.1643696638392291E-002   1.9169501456590413E-002   0.0000000000000000     
  -2.4627324274153081E-002   2.2824539456869124E-002   0.0000000000000000     
  -1.4955710533731346E-002   2.0169393757361525E-002   0.0000000000000000     
  -1.6857407510262525E-002   2.4029694206174457E-002   0.0000000000000000     
  -1.8717806577407820E-002   2.8113381114077764E-002   0.0000000000000000     
  -2.0536907735167222E-002   3.2420454481071455E-002   0.0000000000000000     
  -2.2314710983540743E-002   3.6950914307155532E-002   0.0000000000000000     
  -1.7128044507143118E-002   2.0675298401377135E-002   0.0000000000000000     
  -1.9293072943893364E-002   2.4558459143894987E-002   0.0000000000000000     
  -2.1404184611062825E-002   2.8655458900414973E-002   0.0000000000000000     
  -2.3461379508651497E-002   3.2966297670937096E-002   0.0000000000000000     
  -2.5464657636659383E-002   3.7490975455461359E-002   0.0000000000000000     
  -1.9464091455017336E-002   2.1286457565966935E-002   0.0000000000000000     
  -2.1884088253191544E-002   2.5175285643301654E-002   0.0000000000000000     
  -2.4240403036040598E-002   2.9273586357715820E-002   0.0000000000000000     
  -2.6533035803564472E-002   3.3581359709209446E-002   0.0000000000000000     
  -2.8761986555763199E-002   3.8098605697782520E-002   0.0000000000000000     
  -2.1963851377353991E-002   2.2002871251130932E-002   0.0000000000000000     
  -2.4630453438157059E-002   2.5880173704394448E-002   0.0000000000000000     
  -2.7226461852341122E-002   2.9967763485980296E-002   0.0000000000000000     
  -2.9751876619906158E-002   3.4265640595888498E-002   0.0000000000000000     
  -3.2206697740852178E-002   3.8773805034119022E-002   0.0000000000000000     
  -2.4627324274153081E-002   2.2824539456869124E-002   0.0000000000000000     
  -2.7532168498789922E-002   2.6673123327173372E-002   0.0000000000000000     
  -3.0362361059964413E-002   3.0737990285208412E-002   0.0000000000000000     
  -3.3117901957676554E-002   3.5019140330974238E-002   0.0000000000000000     
  -3.5798791191926346E-002   3.9516573464470864E-002   0.0000000000000000     
  -2.2314710983540743E-002   3.6950914307155532E-002   0.0000000000000000     
  -2.4048651906071573E-002   4.1696316970929834E-002   0.0000000000000000     
  -2.5736166086302917E-002   4.6648218850994211E-002   0.0000000000000000     
  -2.7377253524234771E-002   5.1806619947348649E-002   0.0000000000000000     
  -2.8971914219867140E-002   5.7171520259993169E-002   0.0000000000000000     
  -2.5464657636659383E-002   3.7490975455461359E-002   0.0000000000000000     
  -2.7414939840096651E-002   4.2225654016707637E-002   0.0000000000000000     
  -2.9313146963973476E-002   4.7166495117395839E-002   0.0000000000000000     
  -3.1159279008289850E-002   5.2313498757525966E-002   0.0000000000000000     
  -3.2953335973045790E-002   5.7666664937098003E-002   0.0000000000000000     
  -2.8761986555763199E-002   3.8098605697782520E-002   0.0000000000000000     
  -3.0929776552400163E-002   4.2822819699104675E-002   0.0000000000000000     
  -3.3038927053238798E-002   4.7751497088845532E-002   0.0000000000000000     
  -3.5089438058279090E-002   5.2884637867005119E-002   0.0000000000000000     
  -3.7081309567521051E-002   5.8222242033583400E-002   0.0000000000000000     
  -3.2206697740852178E-002   3.8773805034119022E-002   0.0000000000000000     
  -3.4593162042982115E-002   4.3487814018120949E-002   0.0000000000000000     
  -3.6913506354098881E-002   4.8403224765343311E-002   0.0000000000000000     
  -3.9167730674202497E-002   5.3520037275786116E-002   0.0000000000000000     
  -4.1355835003292943E-002   5.8838251549449362E-002   0.0000000000000000     
  -3.5798791191926346E-002   3.9516573464470864E-002   0.0000000000000000     
  -3.8405096311842496E-002   4.4220636973756437E-002   0.0000000000000000     
  -4.0936884866553731E-002   4.9121678146889142E-002   0.0000000000000000     
  -4.3394156856060052E-002   5.4219696983868963E-002   0.0000000000000000     
  -4.5776912280361452E-002   5.9514693484695902E-002   0.0000000000000000     
  -2.8971914219867140E-002   5.7171520259993169E-002   0.0000000000000000     
  -3.0518479403832149E-002   6.2730212235027782E-002   0.0000000000000000     
  -3.2015280306761887E-002   6.8469988318552513E-002   0.0000000000000000     
  -3.3462316928656373E-002   7.4390848510567362E-002   0.0000000000000000     
  -3.4859589269515608E-002   8.0492792811072342E-002   0.0000000000000000     
  -3.2953335973045790E-002   5.7666664937098003E-002   0.0000000000000000     
  -3.4693044121025335E-002   6.3212841370033315E-002   0.0000000000000000     
  -3.6376129715012542E-002   6.8938875770253275E-002   0.0000000000000000     
  -3.8002592755007419E-002   7.4844768137757894E-002   0.0000000000000000     
  -3.9572433241009952E-002   8.0930518472547161E-002   0.0000000000000000     
  -3.7081309567521051E-002   5.8222242033583400E-002   0.0000000000000000     
  -3.9012423426734312E-002   6.3751837741656936E-002   0.0000000000000000     
  -4.0880661481688479E-002   6.9460953144302298E-002   0.0000000000000000     
  -4.2686023732383588E-002   7.5349588241519466E-002   0.0000000000000000     
  -4.4428510178819609E-002   8.1417743033308440E-002   0.0000000000000000     
  -4.1355835003292943E-002   5.8838251549449362E-002   0.0000000000000000     
  -4.3476617320959074E-002   6.4347201349898644E-002   0.0000000000000000     
  -4.5528875606789733E-002   7.0036220440699556E-002   0.0000000000000000     
  -4.7512609860784885E-002   7.5905308821852036E-002   0.0000000000000000     
  -4.9427820082944579E-002   8.1954466493356165E-002   0.0000000000000000     
  -4.5776912280361452E-002   5.9514693484695902E-002   0.0000000000000000     
  -4.8085625803699628E-002   6.4998932194758427E-002   0.0000000000000000     
  -5.0320772090316261E-002   7.0664677659445008E-002   0.0000000000000000     
  -5.2482351140211332E-002   7.6511929878755630E-002   0.0000000000000000     
  -5.4570362953384854E-002   8.2540688852690308E-002   0.0000000000000000     
  -3.4859589269515608E-002   8.0492792811072342E-002   0.0000000000000000     
  -3.6206683106009073E-002   8.6764555387507242E-002   0.0000000000000000     
  -3.7503184214806251E-002   9.3194870407311892E-002   0.0000000000000000     
  -3.8749092595907142E-002   9.9783737870486264E-002   0.0000000000000000     
  -3.9944408249311752E-002  0.10653115777703039        0.0000000000000000     
  -3.9572433241009952E-002   8.0930518472547161E-002   0.0000000000000000     
  -4.1085837661383171E-002   8.7185523884058730E-002   0.0000000000000000     
  -4.2542992504490069E-002   9.3599181481730284E-002   0.0000000000000000     
  -4.3943897770330649E-002  0.10017149126556178        0.0000000000000000     
  -4.5288553458904909E-002  0.10690245323555322        0.0000000000000000     
  -4.4428510178819609E-002   8.1417743033308440E-002   0.0000000000000000     
  -4.6108576772060282E-002   8.7654861609797755E-002   0.0000000000000000     
  -4.7726679463169309E-002   9.4050388061115944E-002   0.0000000000000000     
  -4.9282818252146705E-002  0.10060432238726298        0.0000000000000000     
  -5.0776993138992470E-002  0.10731666458823887        0.0000000000000000     
  -4.9427820082944579E-002   8.1954466493356165E-002   0.0000000000000000     
  -5.1274900438040415E-002   8.8172568564724302E-002   0.0000000000000000     
  -5.3054245090843992E-002   9.4548490145468872E-002   0.0000000000000000     
  -5.4765854041355332E-002  0.10108223123558989        0.0000000000000000     
  -5.6409727289574420E-002  0.10777379183508735        0.0000000000000000     
  -5.4570362953384854E-002   8.2540688852690308E-002   0.0000000000000000     
  -5.6584808659323554E-002   8.8738644748838358E-002   0.0000000000000000     
  -5.8525689387514096E-002   9.5093487734789095E-002   0.0000000000000000     
  -6.0393005137956500E-002  0.10160521781054251        0.0000000000000000     
  -6.2186755910650773E-002  0.10827383497609862        0.0000000000000000     
  -3.9944408249311752E-002  0.10653115777703039        0.0000000000000000     
  -4.1089793254190939E-002  0.11342487767160943        0.0000000000000000     
  -4.2185909689715591E-002  0.12045264509888862        0.0000000000000000     
  -4.3232757555885688E-002  0.12761446005886798        0.0000000000000000     
  -4.4230336852701245E-002  0.13491032255154745        0.0000000000000000     
  -4.5288553458904909E-002  0.10690245323555322        0.0000000000000000     
  -4.6577497972821312E-002  0.11377948715461574        0.0000000000000000     
  -4.7811269714688270E-002  0.12079001278566036        0.0000000000000000     
  -4.8989868684505819E-002  0.12793403012868712        0.0000000000000000     
  -5.0113294882273937E-002  0.13521153918369602        0.0000000000000000     
  -5.0776993138992470E-002  0.10731666458823887        0.0000000000000000     
  -5.2209682828257414E-002  0.11417485453868098        0.0000000000000000     
  -5.3581366024492372E-002  0.12116633211322658        0.0000000000000000     
  -5.4892042727697328E-002  0.12829109731187568        0.0000000000000000     
  -5.6141712937872290E-002  0.13554915013462834        0.0000000000000000     
  -5.6409727289574420E-002  0.10777379183508735        0.0000000000000000     
  -5.7986347820499273E-002  0.11461097982380516        0.0000000000000000     
  -5.9496198619127874E-002  0.12158160308158726        0.0000000000000000     
  -6.0939279685460222E-002  0.12868566160843367        0.0000000000000000     
  -6.2315591019496318E-002  0.13592315540434438        0.0000000000000000     
  -6.2186755910650773E-002  0.10827383497609862        0.0000000000000000     
  -6.3907492949546868E-002  0.11508786300998830        0.0000000000000000     
  -6.5555767498594777E-002  0.12203582569074245        0.0000000000000000     
  -6.7131579557794502E-002  0.12911772301836105        0.0000000000000000     
  -6.8634929127146013E-002  0.13633355499284414        0.0000000000000000     
  -4.4230336852701245E-002  0.13491032255154745        0.0000000000000000     
  -4.5176312190880148E-002  0.14232955533317573        0.0000000000000000     
  -4.6068348181140285E-002  0.14986148116000150        0.0000000000000000     
  -4.6906444823481649E-002  0.15750610003202475        0.0000000000000000     
  -4.7690602117904254E-002  0.16526341194924543        0.0000000000000000     
  -5.0113294882273937E-002  0.13521153918369602        0.0000000000000000     
  -5.1178850237350172E-002  0.14261194963661086        0.0000000000000000     
  -5.2183836679092079E-002  0.15012467117335537        0.0000000000000000     
  -5.3128254207499656E-002  0.15774970379392966        0.0000000000000000     
  -5.4012102822572912E-002  0.16548704749833371        0.0000000000000000     
  -5.6141712937872290E-002  0.13554915013462834        0.0000000000000000     
  -5.7327536783502456E-002  0.14292854116682738        0.0000000000000000     
  -5.8446674393073016E-002  0.15041732099381591        0.0000000000000000     
  -5.9499125766583977E-002  0.15801548961559386        0.0000000000000000     
  -6.0484890904035332E-002  0.16572304703216120        0.0000000000000000     
  -6.2315591019496318E-002  0.13592315540434438        0.0000000000000000     
  -6.3622371829336985E-002  0.14327932992382547        0.0000000000000000     
  -6.4856861323083104E-002  0.15073943062138309        0.0000000000000000     
  -6.6019059500734611E-002  0.15830345749701721        0.0000000000000000     
  -6.7108966362291536E-002  0.16597141055072789        0.0000000000000000     
  -6.8634929127146013E-002  0.13633355499284414        0.0000000000000000     
  -7.0063355374853795E-002  0.14366431590760498        0.0000000000000000     
  -7.1414397469122315E-002  0.15109100005605688        0.0000000000000000     
  -7.2688055409951546E-002  0.15861360743819983        0.0000000000000000     
  -7.3884329197341503E-002  0.16623213805403381        0.0000000000000000     
   0.0000000000000000        0.0000000000000000        0.0000000000000000     
  -2.8800806969158802E-003   1.7448864363649517E-003   0.0000000000000000     
  -5.8726613922872812E-003   3.8647218100992661E-003   0.0000000000000000     
  -8.9777420861142012E-003   6.3595061212029427E-003   0.0000000000000000     
  -1.2195322778396644E-002   9.2292393696759810E-003   0.0000000000000000     
   0.0000000000000000        0.0000000000000000        0.0000000000000000     
  -3.2832131901373634E-003   1.9993947658614171E-003   0.0000000000000000     
  -6.6769535801216948E-003   4.3310231752541782E-003   0.0000000000000000     
  -1.0181221169952995E-002   6.9948852281782829E-003   0.0000000000000000     
  -1.3796015959631262E-002   9.9909809246337290E-003   0.0000000000000000     
   0.0000000000000000        0.0000000000000000        0.0000000000000000     
  -3.9535753496463578E-003   2.4251642861738958E-003   0.0000000000000000     
  -7.9106101209950336E-003   5.0629939528585603E-003   0.0000000000000000     
  -1.1871104314046026E-002   7.9134890000539942E-003   0.0000000000000000     
  -1.5835057928799336E-002   1.0976649427760195E-002   0.0000000000000000     
   0.0000000000000000        0.0000000000000000        0.0000000000000000     
  -4.8911671754428643E-003   3.0221949973023880E-003   0.0000000000000000     
  -9.5736310149072985E-003   6.0606341429124133E-003   0.0000000000000000     
  -1.4047391518393298E-002   9.1153174368300786E-003   0.0000000000000000     
  -1.8312448685900866E-002   1.2186244879055379E-002   0.0000000000000000     
   0.0000000000000000        0.0000000000000000        0.0000000000000000     
  -6.0959886675268828E-003   3.7904868992468931E-003   0.0000000000000000     
  -1.1666016261858488E-002   7.3239437454157372E-003   0.0000000000000000     
  -1.6710082782994809E-002   1.0600370538506532E-002   0.0000000000000000     
  -2.1228188230935852E-002   1.3619767278519278E-002   0.0000000000000000     
  -1.2195322778396644E-002   9.2292393696759810E-003   0.0000000000000000     
  -1.5427695890514074E-002   1.2371851412993842E-002   0.0000000000000000     
  -1.8577153843845957E-002   1.5685272108631989E-002   0.0000000000000000     
  -2.1643696638392291E-002   1.9169501456590413E-002   0.0000000000000000     
  -2.4627324274153081E-002   2.2824539456869124E-002   0.0000000000000000     
  -1.3796015959631262E-002   9.9909809246337290E-003   0.0000000000000000     
  -1.7404282012083001E-002   1.3221316640628925E-002   0.0000000000000000     
  -2.0888963390234733E-002   1.6587898752172273E-002   0.0000000000000000     
  -2.4250060094086440E-002   2.0090727259263776E-002   0.0000000000000000     
  -2.7487572123638143E-002   2.3729802161903422E-002   0.0000000000000000     
  -1.5835057928799336E-002   1.0976649427760195E-002   0.0000000000000000     
  -1.9730732858954769E-002   1.4211291136056107E-002   0.0000000000000000     
  -2.3486390998212137E-002   1.7576230025020671E-002   0.0000000000000000     
  -2.7102032346571450E-002   2.1071466094653886E-002   0.0000000000000000     
  -3.0577656904032701E-002   2.4696999344955749E-002   0.0000000000000000     
  -1.8312448685900866E-002   1.2186244879055379E-002   0.0000000000000000     
  -2.2407048431129371E-002   1.5341774899275389E-002   0.0000000000000000     
  -2.6369436667778186E-002   1.8650265927177178E-002   0.0000000000000000     
  -3.0199613395847310E-002   2.2111717962760746E-002   0.0000000000000000     
  -3.3897578615336744E-002   2.5726131006026089E-002   0.0000000000000000     
  -2.1228188230935852E-002   1.3619767278519278E-002   0.0000000000000000     
  -2.5433228728606809E-002   1.6612767930286768E-002   0.0000000000000000     
  -2.9538100398932864E-002   1.9810006458641793E-002   0.0000000000000000     
  -3.3542803241914020E-002   2.3211482863584359E-002   0.0000000000000000     
  -3.7447337257550284E-002   2.6817197145114456E-002   0.0000000000000000     
  -2.4627324274153081E-002   2.2824539456869124E-002   0.0000000000000000     
  -2.7532168498789922E-002   2.6673123327173372E-002   0.0000000000000000     
  -3.0362361059964413E-002   3.0737990285208412E-002   0.0000000000000000     
  -3.3117901957676554E-002   3.5019140330974238E-002   0.0000000000000000     
  -3.5798791191926346E-002   3.9516573464470864E-002   0.0000000000000000     
  -2.7487572123638143E-002   2.3729802161903422E-002   0.0000000000000000     
  -3.0624442286518970E-002   2.7547686369091259E-002   0.0000000000000000     
  -3.3683613390358080E-002   3.1586942789827321E-002   0.0000000000000000     
  -3.6665085435155460E-002   3.5847571424111602E-002   0.0000000000000000     
  -3.9568858420911117E-002   4.0329572271944107E-002   0.0000000000000000     
  -3.0577656904032701E-002   2.4696999344955749E-002   0.0000000000000000     
  -3.3942483652773060E-002   2.8497414687600954E-002   0.0000000000000000     
  -3.7225731574969730E-002   3.2517297034264203E-002   0.0000000000000000     
  -4.0427400670622678E-002   3.6756646384945496E-002   0.0000000000000000     
  -4.3547490939731939E-002   4.1215462739644819E-002   0.0000000000000000     
  -3.3897578615336744E-002   2.5726131006026089E-002   0.0000000000000000     
  -3.7486292597552186E-002   2.9522308282702442E-002   0.0000000000000000     
  -4.0988715613799340E-002   3.3529053018519051E-002   0.0000000000000000     
  -4.4404847664078220E-002   3.7746365213475894E-002   0.0000000000000000     
  -4.7734688748388814E-002   4.2174244867572985E-002   0.0000000000000000     
  -3.7447337257550284E-002   2.6817197145114456E-002   0.0000000000000000     
  -4.1255869120856353E-002   3.0622367154395740E-002   0.0000000000000000     
  -4.4972565506846959E-002   3.4622210742591863E-002   0.0000000000000000     
  -4.8597426415522088E-002   3.8816727909702822E-002   0.0000000000000000     
  -5.2130451846881740E-002   4.3205918655728620E-002   0.0000000000000000     
  -3.5798791191926346E-002   3.9516573464470864E-002   0.0000000000000000     
  -3.8405096311842496E-002   4.4220636973756437E-002   0.0000000000000000     
  -4.0936884866553731E-002   4.9121678146889142E-002   0.0000000000000000     
  -4.3394156856060052E-002   5.4219696983868963E-002   0.0000000000000000     
  -4.5776912280361452E-002   5.9514693484695902E-002   0.0000000000000000     
  -3.9568858420911117E-002   4.0329572271944107E-002   0.0000000000000000     
  -4.2392527924999215E-002   4.5019085415523623E-002   0.0000000000000000     
  -4.5133689524793928E-002   4.9902250937048927E-002   0.0000000000000000     
  -4.7792343220295248E-002   5.4979068836520033E-002   0.0000000000000000     
  -5.0368489011503176E-002   6.0249539113936934E-002   0.0000000000000000     
  -4.3547490939731939E-002   4.1215462739644819E-002   0.0000000000000000     
  -4.6582405448470150E-002   4.5880956192934932E-002   0.0000000000000000     
  -4.9528547263010023E-002   5.0740336839388556E-002   0.0000000000000000     
  -5.2385916383351543E-002   5.5793604679005709E-002   0.0000000000000000     
  -5.5154512809494696E-002   6.1040759711786373E-002   0.0000000000000000     
  -4.7734688748388814E-002   4.2174244867572985E-002   0.0000000000000000     
  -5.0974728882255349E-002   4.6806249305990352E-002   0.0000000000000000     
  -5.4121458081202049E-002   5.1635935853908015E-002   0.0000000000000000     
  -5.7174876345228935E-002   5.6663304511325965E-002   0.0000000000000000     
  -6.0134983674336007E-002   6.1888355278244225E-002   0.0000000000000000     
  -5.2130451846881740E-002   4.3205918655728620E-002   0.0000000000000000     
  -5.5569498226354756E-002   4.7794964754689896E-002   0.0000000000000000     
  -5.8912421979369994E-002   5.2589047980607304E-002   0.0000000000000000     
  -6.2159223105927447E-002   5.7588168333480835E-002   0.0000000000000000     
  -6.5309901606027121E-002   6.2792325813310484E-002   0.0000000000000000     
  -4.5776912280361452E-002   5.9514693484695902E-002   0.0000000000000000     
  -4.8085625803699628E-002   6.4998932194758427E-002   0.0000000000000000     
  -5.0320772090316261E-002   7.0664677659445008E-002   0.0000000000000000     
  -5.2482351140211332E-002   7.6511929878755630E-002   0.0000000000000000     
  -5.4570362953384854E-002   8.2540688852690308E-002   0.0000000000000000     
  -5.0368489011503176E-002   6.0249539113936934E-002   0.0000000000000000     
  -5.2864203278151438E-002   6.5708155520615499E-002   0.0000000000000000     
  -5.5281562399973713E-002   7.1349411807871591E-002   0.0000000000000000     
  -5.7620566376970016E-002   7.7173307975705235E-002   0.0000000000000000     
  -5.9881215209140332E-002   8.3179844024116406E-002   0.0000000000000000     
  -5.5154512809494696E-002   6.1040759711786373E-002   0.0000000000000000     
  -5.7837104147509935E-002   6.6475996571849036E-002   0.0000000000000000     
  -6.0436458003467725E-002   7.2093509893312216E-002   0.0000000000000000     
  -6.2952574377368037E-002   7.7893299676175837E-002   0.0000000000000000     
  -6.5385453269210900E-002   8.3875365920439982E-002   0.0000000000000000     
  -6.0134983674336007E-002   6.1888355278244225E-002   0.0000000000000000     
  -6.3004328411775154E-002   6.7302455348459092E-002   0.0000000000000000     
  -6.5785458900798288E-002   7.2896971915766814E-002   0.0000000000000000     
  -6.8478375141405409E-002   7.8671904980167490E-002   0.0000000000000000     
  -7.1083077133596531E-002   8.4627254541661034E-002   0.0000000000000000     
  -6.5309901606027121E-002   6.2792325813310484E-002   0.0000000000000000     
  -6.8365876070947074E-002   6.8187531850445585E-002   0.0000000000000000     
  -7.1328565091965418E-002   7.3759797875235483E-002   0.0000000000000000     
  -7.4197968669082140E-002   7.9509123887680111E-002   0.0000000000000000     
  -7.6974086802297240E-002   8.5435509887779537E-002   0.0000000000000000     
  -5.4570362953384854E-002   8.2540688852690308E-002   0.0000000000000000     
  -5.6584808659323554E-002   8.8738644748838358E-002   0.0000000000000000     
  -5.8525689387514096E-002   9.5093487734789095E-002   0.0000000000000000     
  -6.0393005137956500E-002  0.10160521781054251        0.0000000000000000     
  -6.2186755910650773E-002  0.10827383497609862        0.0000000000000000     
  -5.9881215209140332E-002   8.3179844024116406E-002   0.0000000000000000     
  -6.2062965134555607E-002   8.9355809841177608E-002   0.0000000000000000     
  -6.4165272391286748E-002   9.5687995314961305E-002   0.0000000000000000     
  -6.6188136979333762E-002  0.10217640044546750        0.0000000000000000     
  -6.8131558898696626E-002  0.10882102523269618        0.0000000000000000     
  -6.5385453269210900E-002   8.3875365920439982E-002   0.0000000000000000     
  -6.7734033562382487E-002   9.0026783520779738E-002   0.0000000000000000     
  -6.9997254140269055E-002   9.6334627371870249E-002   0.0000000000000000     
  -7.2175115002870577E-002  0.10279889747371149        0.0000000000000000     
  -7.4267616150187080E-002  0.10941959382630348        0.0000000000000000     
  -7.1083077133596531E-002   8.4627254541661034E-002   0.0000000000000000     
  -7.3598013942804213E-002   9.0751565787644733E-002   0.0000000000000000     
  -7.6021634634461044E-002   9.7033383905515913E-002   0.0000000000000000     
  -7.8353939208566994E-002  0.10347270889527449        0.0000000000000000     
  -8.0594927665122149E-002  0.11006954075692055        0.0000000000000000     
  -7.6974086802297240E-002   8.5435509887779537E-002   0.0000000000000000     
  -7.9654906275820739E-002   9.1530156641772623E-002   0.0000000000000000     
  -8.2238413873862673E-002   9.7784264915898270E-002   0.0000000000000000     
  -8.4724609596423028E-002  0.10419783471015652        0.0000000000000000     
  -8.7113493443501833E-002  0.11077086602454733        0.0000000000000000     
  -6.2186755910650773E-002  0.10827383497609862        0.0000000000000000     
  -6.3907492949546868E-002  0.11508786300998830        0.0000000000000000     
  -6.5555767498594777E-002  0.12203582569074245        0.0000000000000000     
  -6.7131579557794502E-002  0.12911772301836105        0.0000000000000000     
  -6.8634929127146013E-002  0.13633355499284414        0.0000000000000000     
  -6.8131558898696626E-002  0.10882102523269618        0.0000000000000000     
  -6.9996236708193035E-002  0.11561094762671872        0.0000000000000000     
  -7.1782868966640684E-002  0.12253524557760648        0.0000000000000000     
  -7.3491455674039557E-002  0.12959391908535950        0.0000000000000000     
  -7.5121996830389670E-002  0.13678696814997771        0.0000000000000000     
  -7.4267616150187080E-002  0.10941959382630348        0.0000000000000000     
  -7.6275697589230584E-002  0.11618567720348473        0.0000000000000000     
  -7.8200299327013181E-002  0.12308610837909374        0.0000000000000000     
  -8.0041421363534843E-002  0.13012088735313054        0.0000000000000000     
  -8.1799063698795610E-002  0.13729001412559513        0.0000000000000000     
  -8.0594927665122149E-002  0.11006954075692055        0.0000000000000000     
  -8.2745875592659529E-002  0.11681205174028632        0.0000000000000000     
  -8.4808058579712256E-002  0.12368841409520424        0.0000000000000000     
  -8.6781476626280343E-002  0.13069862782167427        0.0000000000000000     
  -8.8666129732363777E-002  0.13784269291969631        0.0000000000000000     
  -8.7113493443501833E-002  0.11077086602454733        0.0000000000000000     
  -8.9406770718479842E-002  0.11749007123712354        0.0000000000000000     
  -9.1606146724737936E-002  0.12434216272593795        0.0000000000000000     
  -9.3711621462276060E-002  0.13132714049099059        0.0000000000000000     
  -9.5723194931094241E-002  0.13844500453228140        0.0000000000000000     
  -6.8634929127146013E-002  0.13633355499284414        0.0000000000000000     
  -7.0063355374853795E-002  0.14366431590760498        0.0000000000000000     
  -7.1414397469122315E-002  0.15109100005605688        0.0000000000000000     
  -7.2688055409951546E-002  0.15861360743819983        0.0000000000000000     
  -7.3884329197341503E-002  0.16623213805403381        0.0000000000000000     
  -7.5121996830389670E-002  0.13678696814997771        0.0000000000000000     
  -7.6672700150184320E-002  0.14409351166518408        0.0000000000000000     
  -7.8141773347916776E-002  0.15149266852470150        0.0000000000000000     
  -7.9529216423587068E-002  0.15898443872852991        0.0000000000000000     
  -8.0835029377195181E-002  0.16656882227666941        0.0000000000000000     
  -8.1799063698795610E-002  0.13729001412559513        0.0000000000000000     
  -8.3472618885459995E-002  0.14457692974358083        0.0000000000000000     
  -8.5061479476192622E-002  0.15196507525418110        0.0000000000000000     
  -8.6565645470993463E-002  0.15945445065739586        0.0000000000000000     
  -8.7985116869862517E-002  0.16704505595322519        0.0000000000000000     
  -8.8666129732363777E-002  0.13784269291969631        0.0000000000000000     
  -9.0463111580680836E-002  0.14511457014279525        0.0000000000000000     
  -9.2173515853949839E-002  0.15250822024449565        0.0000000000000000     
  -9.3797342552170718E-002  0.16002364322479767        0.0000000000000000     
  -9.5334591675343500E-002  0.16766083908370111        0.0000000000000000     
  -9.5723194931094241E-002  0.13844500453228140        0.0000000000000000     
  -9.7644178235846868E-002  0.14570643286282733        0.0000000000000000     
  -9.9477882481188412E-002  0.15312210349564528        0.0000000000000000     
 -0.10122430766711883       0.16069201643073525        0.0000000000000000     
 -0.10288345379363813       0.16841617166809722        0.0000000000000000     
 </DataArray>
 <DataArray  type="Float64" Name="stress" NumberOfComponents="3" format="ascii">
   13416726233.066614        4025017869.9199843        2894032191.3434639     
   11766501377.025560        1890419218.1510274        1715841635.0589695     
   10313572779.365314        413474760.98477697        810738015.62202144     
   9057940440.0858822       -405815501.57876873        178721333.03261870     
   7999604359.1872616       -567451569.53960705       -180208412.70923769     
   10539995801.705280        3161998740.5115838        2225776927.8413081     
   9667552595.5124416        1589556070.0706196        1446727689.2253697     
   8943760251.8210735        512616274.63454390        863156787.18482506     
   8368618770.6311712       -68820645.796641350        475064221.71967340     
   7942128151.9427357       -154754691.22293854        282449992.82991606     
   8337960029.2676659        2501388008.7802997        1712367947.7201269     
   8021559615.0026140        1424579662.2911973        1275707064.9135082     
   7805164667.3596830        681122871.20916796        956915918.41013002     
   7688775186.3388729        271017635.53420973        755994508.20999432     
   7672391171.9401855        194263955.26632404        672942834.31309950     
   6810618915.7537737        2043185674.7261322        1353805250.9799201     
   6828522435.4960699        1395489994.8127615        1202779762.1233850     
   6897786025.9811440        918994550.70864630        1092015409.2979395     
   7018409687.2089930        613699342.41378593        1021512192.5035825     
   7190393419.1796198        479604369.92818165        991270111.74031532     
   5957972461.1636028        1787391738.3490808        1150088837.6206877     
   6088441056.9928141        1502287067.6353114        1227945780.8550007     
   6221624327.6854563        1226231313.1329806        1268455259.8482502     
   6357522273.2415304        959224474.84208798        1271617274.6004372     
   6496134893.6610365        701266552.76263428        1237431825.1115608     
   7999604359.1872616       -567451569.53960705       -180208412.70923769     
   7917535194.0104942       -199934958.49878263       -78271805.602734730     
   7793953905.1463928        29207906.917589188       -8946679.6254005414     
   7628860492.5949526        119977026.70951653        27766965.222766653     
   7422254956.3561811        72372400.876988888        31869128.941767488     
   7942128151.9427357       -154754691.22293854        282449992.82991606     
   7739651808.8831940        16477820.125562668        281178527.41747361     
   7513774454.3679848        109706959.95517206        265193967.76875550     
   7264496088.3971100        124932728.26589155        234496313.88376254     
   6991816710.9705687        62155125.057723045        189085565.76249343     
   7672391171.9401855        194263955.26632404        672942834.31309950     
   7400645899.2632790        184553841.40212488        589592927.31865752     
   7123610727.3623743        157210730.12459517        509428312.98083323     
   6841285656.2374706        112234621.43373203        432448991.29962659     
   6553670685.8885641        49625515.329537868        358654962.27503508     
   7190393419.1796198        479604369.92818165        991270111.74031532     
   6900517465.1507549        304293105.33090496        846971394.10081971     
   6623462724.1295557        171719217.42585421        723756356.01083374     
   6359229196.1160297        81882706.213032961        621624997.47035754     
   6107816881.1101685        34783571.692438126        540577318.47938991     
   6496134893.6610365        701266552.76263428        1237431825.1115608     
   6239266506.5456161        375695611.91189861        1053313927.7639573     
   6013330444.6695347        153232421.85895181        908178096.85875511     
   5818326708.0327892        33876982.603792429        802024332.39595473     
   5654255296.6353779        17629294.146419525        734852634.37555635     
   7422254956.3561811        72372400.876988888        31869128.941767488     
   7218612758.1596098       -18687871.811955452        14803559.031908784     
   7027244454.0224037       -68835164.302997112        2139734.7990172924     
   6848150043.9445667       -78069476.596145630       -6122343.7569033029     
   6681329527.9261074       -46390808.691372871       -9982676.6358570065     
   6991816710.9705687        62155125.057723045        189085565.76249343     
   6808247481.6816816        2519876.2990074158        180751954.88497135     
   6632524962.7549486       -30959671.252535343        176205415.04480538     
   6464649154.1903610       -38283517.596923113        175445946.24198642     
   6304620055.9879227       -19451662.734145403        178473548.47652248     
   6553670685.8885641        49625515.329537868        358654962.27503508     
   6388418212.2513208        20888426.524249315        353888262.78309304     
   6226585265.2789984        3549759.9353771210        352293959.68888831     
   6068171844.9716015       -2390484.4370777607        353872052.99241495     
   5913177951.3291340        3067693.4068958759        358622542.69367880     
   6107816881.1101685        34783571.692438126        540577318.47938991     
   5959124949.8685093        36417778.863752365        534212482.72626877     
   5809425361.5945511        34693129.260742426        530405368.73126501     
   5658718116.2882996        29609622.883413792        529155976.49437881     
   5507003213.9497499        21167259.731762886        530464306.01560694     
   5654255296.6353779        17629294.146419525        734852634.37555635     
   5520367694.5332546        49107933.317520618        721724614.71449757     
   5381045251.7016087        62470436.723559856        710539642.17193723     
   5236287968.1404457        57716804.364534140        701297716.74787426     
   5086095843.8497667        34847036.240449905        693998838.44230974     
   6681329527.9261074       -46390808.691372871       -9982676.6358570065     
   6508709446.1668539       -6606269.8033833504       -3269639.5422086962     
   6330307167.5166597        13904279.448138952        4882228.6779715009     
   6146122691.9755239        15140839.063192844        14472928.024683263     
   5956156019.5434561       -2896590.9581971169        25502458.497930117     
   6304620055.9879227       -19451662.734145403        178473548.47652248     
   6131938564.4738512        2133349.9649605751        175236261.68290097     
   5955728302.7052078        11955795.148832321        174712796.14878348     
   5775989270.6819925        10015672.817452192        176903151.87416843     
   5592721468.4042034       -3687017.0291595459        181807328.85905543     
   5913177951.3291340        3067693.4068958759        358622542.69367880     
   5744077879.0116005        7546028.6025412083        348063929.75520700     
   5573702463.0758591        7773218.4041562080        341494128.20921665     
   5402051703.5219078        3749262.8117456436        338913138.05570441     
   5229125600.3497515       -4525838.1746835709        340320959.29466617     
   5507003213.9497499        21167259.731762886        530464306.01560694     
   5345127389.7800989        9631766.1093380451        515213364.67472064     
   5184229648.6286087        1356549.2141113281        505226224.85928273     
   5024309990.4952765       -3658390.9539270401        500502886.56929457     
   4865368415.3801022       -5413054.3947658539        501043349.80475891     
   5086095843.8497667        34847036.240449905        693998838.44230974     
   4935087096.7793531        8390562.4853651524        676684566.44143188     
   4787309859.3634624       -7294212.4213044643        665909086.09897673     
   4642764131.6020956       -12207288.479564428        661672397.41494155     
   4501449913.4952517       -6348665.6894102097        663974500.38932979     
   5956156019.5434561       -2896590.9581971169        25502458.497930117     
   5770583488.2374983       -24444853.233448505        18481236.630829565     
   5587609148.5971804       -37332476.623245478        15239763.725915853     
   5407233000.6224957       -41559461.127597094        15778039.783196341     
   5229455044.3134518       -37125806.746468067        20096064.802661743     
   5592721468.4042034       -3687017.0291595459        181807328.85905543     
   5419268193.3559303       -17293409.495641232        177173433.04739165     
   5247465846.2839527       -25396708.707814217        176249553.90049246     
   5077314427.1882715       -27996914.665664434        179035691.41836876     
   4908813936.0688744       -25094027.369215727        185531845.60101986     
   5229125600.3497515       -4525838.1746835709        340320959.29466617     
   5067592346.4236879       -10250131.373034716        336969248.56752992     
   4906762756.7845764       -13628876.948211670        337257822.20774287     
   4746636831.4324074       -14662074.900240421        341186680.21531773     
   4587214570.3671865       -13349725.229106665        348755822.59024328     
   4865368415.3801022       -5413054.3947658539        501043349.80475891     
   4715555947.4407673       -3315018.8656256199        497868683.19124329     
   4565499880.0990400       -2028981.3444685936        498264568.64766812     
   4415200213.3549194       -1554941.8312957287        502231006.17403364     
   4264656947.2083964       -1892900.3261234760        509767995.77033192     
   4501449913.4952517       -6348665.6894102097        663974500.38932979     
   4363158996.4071741        3511928.0265827179        659871736.91853809     
   4223677216.2273550        9402978.1034421921        659269793.22026622     
   4083004572.9557929        11324484.541155100        662168669.29451835     
   3941141066.5924840        9276447.3397200108        668568365.14129126     
   5229455044.3134518       -37125806.746468067        20096064.802661743     
   5043723936.6020699       -33433502.467913151        15529258.169355575     
   4856478985.7864418       -34787341.870181322        15404618.951417955     
   4667720191.8665514       -41187324.953307152        19722147.148845039     
   4477447554.8424349       -52633451.717212439        28481842.761635549     
   4908813936.0688744       -25094027.369215727        185531845.60101986     
   4734114000.6683350       -23003995.286221981        179171684.99424356     
   4558453452.5030661       -24116005.752321005        177224629.25633824     
   4381832291.5730848       -28430058.767465591        179690678.38730741     
   4204250517.8783665       -35946154.331716776        186569832.38714436     
   4587214570.3671865       -13349725.229106665        348755822.59024328     
   4423462771.4303617       -12886876.095796824        341247743.40611154     
   4259303590.0683298       -13781968.379834652        338123706.54435217     
   4094737026.2811003       -16035002.081191778        339383712.00497025     
   3929763080.0686755       -19645977.199887753        345027759.78796232     
   4264656947.2083964       -1892900.3261234760        509767995.77033192     
   4111770248.8881435       -3082144.8966512680        501757433.40495533     
   3959029398.4822206       -3785229.7527637482        498101850.81545138     
   3806434395.9906244       -4002154.8944594860        498801248.00182825     
   3653985241.4133391       -3732920.3217656612        503855624.96408820     
   3941141066.5924840        9276447.3397200108        668568365.14129126     
   3799036433.0416889        6410198.3112316132        660700754.99077451     
   3657630877.7447391        5874210.1288909912        657159062.06963933     
   3516924400.7016354        7668482.7927095890        657943286.37788606     
   3376917001.9123755        11793016.302674770        663053427.91551435     
   4477447554.8424349       -52633451.717212439        28481842.761635549     
   4293993601.6033030       -63178516.332633972        21706828.102219243     
   4111298847.7407408       -71192916.359509468        18669811.317580003     
   3929363293.2547293       -76676651.797875881        19370792.407717824     
   3748186938.1452627       -79629722.647747040        23809771.372619901     
   4204250517.8783665       -35946154.331716776        186569832.38714436     
   4031802415.2431760       -42677547.445225716        180110845.72384906     
   3859816860.1855860       -47867115.300048351        177499822.07298359     
   3688293852.7056074       -51514857.896180630        178736761.43453643     
   3517233392.8032141       -53620775.233683586        183821663.80853829     
   3929763080.0686755       -19645977.199887753        345027759.78796232     
   3768635014.1450005       -22469442.979222059        338538707.35533905     
   3607672843.9999771       -24739922.829710484        336007583.07279927     
   3446876569.6336088       -26457416.751361132        337434386.94034529     
   3286246191.0458951       -27621924.744160891        342819118.95797741     
   3653985241.4133391       -3732920.3217656612        503855624.96408820     
   3504491398.3087726       -2554202.9346389771        496990412.99669313     
   3354866799.1839142       -1811338.9485087395        494193094.31704158     
   3205111444.0387535       -1504328.3633792400        495463668.92512709     
   3055225332.8732948       -1633171.1792426109        500802136.82095104     
   3376917001.9123755        11793016.302674770        663053427.91551435     
   3239371567.7345085        17068172.688533187        655465962.64790833     
   3101398725.7373915        20918636.343551993        652056355.80569685     
   2962998475.9210215        23344407.267733932        652824607.38887930     
   2824170818.2854023        24345485.461088181        657770717.39746642     
   3748186938.1452627       -79629722.647747040        23809771.372619901     
   3569199014.3709373       -117670148.68002272        45929243.881696142     
   3365884494.7917371       -236799227.39520240        68130492.123589754     
   3138243379.4076786       -437016958.79325604        90413516.098304555     
   2886275668.2187343       -718323342.87424815        112778315.80582136     
   3517233392.8032141       -53620775.233683586        183821663.80853829     
   3342630529.0079970       -81533840.363078833        182388179.92434251     
   3151250111.0698171       -165372085.96901345        181908960.08290234     
   2943092138.9886999       -305135512.05144191        182384004.28423318     
   2718156612.7646122       -500824118.61038172        183813312.52830940     
   3286246191.0458951       -27621924.744160891        342819118.95797741     
   3118521210.9724712       -44659781.847960353        326639893.95275301     
   2941567718.4180255       -92459347.221824408        312287421.30023336     
   2755385713.3825502       -171020620.86578202        299761701.00042135     
   2559975195.8660526       -280343602.77984655        289062733.05332637     
   3055225332.8732948       -1633171.1792426109        500802136.82095104     
   2896871060.2643747       -7047973.1345750093        478684385.96694267     
   2736837316.8363538       -18061011.153593302        459265875.77558678     
   2575124102.5892363       -34672285.236270070        442546606.24688441     
   2411731417.5230026       -56881795.382651925        428526577.38083440     
   2824170818.2854023        24345485.461088181        657770717.39746642     
   2677680076.8836989        31301585.777020097        638521655.96690857     
   2537058906.3248162        57822922.235694647        622844323.50895953     
   2402307306.6087508        103909494.83708966        610738720.02360201     
   2273425277.7355022        169561303.58120763        602204845.51085985     
   5957972461.1636028        1787391738.3490808        1150088837.6206877     
   6088441056.9928141        1502287067.6353114        1227945780.8550007     
   6221624327.6854563        1226231313.1329806        1268455259.8482502     
   6357522273.2415304        959224474.84208798        1271617274.6004372     
   6496134893.6610365        701266552.76263428        1237431825.1115608     
   5434643181.0746078        1630392954.3223822        1033524047.8248265     
   5489916269.6895704        1372521757.7486188        1113904648.6975088     
   5547379211.5626574        1121950072.0352716        1167505368.0756762     
   5607032006.6938677        878677897.18234074        1194326205.9593301     
   5668874655.0832052        642705233.18982601        1194367162.3484690     
   4895253591.0642433        1468576077.3192730        936416221.77473259     
   4905524266.0265245        1246996282.9539857        1018708188.4129263     
   4917459972.6416225        1030966594.0980918        1084787856.3031542     
   4931060710.9095402        820487010.75159311        1134655225.4454174     
   4946326480.8302774        615557532.91448879        1168310295.8397141     
   4339803691.1325064        1301941107.3397520        858765359.47040629     
   4335265046.0036745        1125710643.2514110        942356400.00125408     
   4331866610.9223547        953280879.32144272        1020302724.5306846     
   4329608385.8885450        784651815.54984570        1092604333.0586989     
   4328490370.9022474        619823451.93662167        1159261225.5852959     
   3768293481.2794008        1130488044.3838203        800571460.91184759     
   3779138609.6210237        1008664838.6408966        884849283.46249139     
   3790599126.4048514        888892927.70532262        974049972.75826693     
   3802675031.6308832        771172311.57709885        1068173528.7991749     
   3815366325.2991219        655502990.25622523        1167219951.5852139     
   6496134893.6610365        701266552.76263428        1237431825.1115608     
   6239266506.5456161        375695611.91189861        1053313927.7639573     
   6013330444.6695347        153232421.85895181        908178096.85875511     
   5818326708.0327892        33876982.603792429        802024332.39595473     
   5654255296.6353779        17629294.146419525        734852634.37555635     
   5668874655.0832052        642705233.18982601        1194367162.3484690     
   5518903199.2173872        383148069.87784195        1073549220.7323942     
   5393088966.1091003        204114982.42429304        980743672.66466856     
   5291431955.7583447        105605970.82918048        915950518.14529216     
   5213932168.1651182        87621035.092500925        879169757.17426527     
   4946326480.8302774        615557532.91448879        1168310295.8397141     
   4871910033.6596241        412611570.37492442        1102888023.7263942     
   4814875706.7646990        267606008.75444460        1054508472.2673717     
   4775223500.1454964        180540848.05304790        1023171641.4626462     
   4752953413.8020229        151416088.27073383        1008877531.3122183     
   4328490370.9022474        619823451.93662167        1159261225.5852959     
   4298287009.8723288        464086113.40314734        1141330336.7459576     
   4278690666.6363301        343705500.84940565        1129472495.6668653     
   4269701341.1942487        258681614.27539396        1123687702.3480177     
   4271319033.5460877        209014453.68111372        1123975956.7894146     
   3815366325.2991219        655502990.25622523        1167219951.5852139     
   3798034127.8554997        537571698.96251047        1188876159.7910843     
   3784533845.7239914        432413458.70917523        1205635742.8631487     
   3774865478.9045992        340028269.49622154        1217498700.8014052     
   3769029027.3973179        260416131.32364380        1224465033.6058552     
   5654255296.6353779        17629294.146419525        734852634.37555635     
   5520367694.5332546        49107933.317520618        721724614.71449757     
   5381045251.7016087        62470436.723559856        710539642.17193723     
   5236287968.1404457        57716804.364534140        701297716.74787426     
   5086095843.8497667        34847036.240449905        693998838.44230974     
   5213932168.1651182        87621035.092500925        879169757.17426527     
   5077723959.5264778        85393011.224138498        855438272.97397387     
   4939360355.5030136        75980336.073026419        835757120.40543258     
   4798841356.0947256        59383009.639171839        820126299.46864152     
   4656166961.3016167        35601031.922572613        808545810.16360283     
   4752953413.8020229        151416088.27073383        1008877531.3122183     
   4620445411.5218725        117287645.23140574        978368602.14150333     
   4489061459.2015934        86906035.391647577        954017289.11579239     
   4358801556.8411875        60271258.751463413        935823592.23508573     
   4229665704.4406514        37383315.310848713        923787511.49938035     
   4271319033.5460877        209014453.68111372        1123975956.7894146     
   4148532050.5194378        144791835.33932471        1090515602.2170897     
   4030148562.7973518        95247534.679422617        1065320148.3030200     
   3916168570.3798327        60381551.701409101        1048389595.0472071     
   3806592073.2668843        40193886.405286312        1039723942.4496472     
   3769029027.3973179        260416131.32364380        1224465033.6058552     
   3661983876.5191717        167905581.54789591        1191879273.2007313     
   3562621666.2902856        101004833.93634951        1169665697.9671128     
   3470942396.7106624        59713888.489009857        1157824307.9050031     
   3386946067.7803020        44032745.205877423        1156355103.0144033     
   5086095843.8497667        34847036.240449905        693998838.44230974     
   4935087096.7793531        8390562.4853651524        676684566.44143188     
   4787309859.3634624       -7294212.4213044643        665909086.09897673     
   4642764131.6020956       -12207288.479564428        661672397.41494155     
   4501449913.4952517       -6348665.6894102097        663974500.38932979     
   4656166961.3016167        35601031.922572613        808545810.16360283     
   4523038345.0269442        15006919.204637527        795359989.81689823     
   4392278837.1765213        2309834.5675461292        788036472.03069389     
   4263888437.7503591       -2490221.9886996746        786575256.80499089     
   4137867146.7484426        606749.53590106964        790976344.13978529     
   4229665704.4406514        37383315.310848713        923787511.49938035     
   4112484392.9676571        22071715.831842422        913724008.03820395     
   3996809788.6886473        11782473.666116714        908846318.03960443     
   3882641891.6036162        6515588.8136610985        909154441.50358129     
   3769980701.7125745        6271061.2744886875        914648378.43013608     
   3806592073.2668843        40193886.405286312        1039723942.4496472     
   3703425240.6014986        29584952.366986275        1031776621.1053479     
   3600902713.8998332        21123704.874406099        1028338624.1257041     
   3499024493.1618757        14810143.927525043        1029409951.5107127     
   3397790578.3876309        10644269.526356459        1034990603.2603792     
   3386946067.7803020        44032745.205877423        1156355103.0144033     
   3295860887.9284687        37546628.810071111        1149517829.0183330     
   3204557612.8100810        30333528.192412257        1146513390.2889965     
   3113036242.4251337        22393443.352886200        1147341786.8263912     
   3021296776.7736282        13726374.291506767        1152003018.6305158     
   4501449913.4952517       -6348665.6894102097        663974500.38932979     
   4363158996.4071741        3511928.0265827179        659871736.91853809     
   4223677216.2273550        9402978.1034421921        659269793.22026622     
   4083004572.9557929        11324484.541155100        662168669.29451835     
   3941141066.5924840        9276447.3397200108        668568365.14129126     
   4137867146.7484426        606749.53590106964        790976344.13978529     
   4007643710.9523315        5082436.7936673164        784529174.36771393     
   3876791403.5483007        7461885.3583626747        782029610.38421822     
   3745310224.5363464        7745095.2299818993        783477652.18930793     
   3613200173.9164662        5932066.4085111618        788873299.78298318     
   3769980701.7125745        6271061.2744886875        914648378.43013608     
   3649101278.6828876        5744801.5163700581        906512459.08790290     
   3528154975.5291004        4995608.0112407207        902770931.55031085     
   3407141792.2512064        4023480.7590935230        903423795.81736434     
   3286061728.8492107        2828419.7599389553        908471051.88905716     
   3397790578.3876309        10644269.526356459        1034990603.2603792     
   3287531699.5988326        5499022.1946864128        1025821591.0791103     
   3177767932.1697469        2004146.0620687008        1021493756.7185448     
   3068499276.1003776        159641.12850403786        1022007100.1786784     
   2959725731.3907242       -34492.606005072594        1027361621.4595201     
   3021296776.7736282        13726374.291506767        1152003018.6305158     
   2922934973.7001705        4345098.8286259174        1142456570.3413341     
   2825630273.4702435       -1512500.4891440868        1138198085.8889151     
   2729382676.0838532       -3846423.6617949009        1139227565.2732596     
   2634192181.5410004       -2656670.6893234253        1145545008.4943662     
   3941141066.5924840        9276447.3397200108        668568365.14129126     
   3799036433.0416889        6410198.3112316132        660700754.99077451     
   3657630877.7447391        5874210.1288909912        657159062.06963933     
   3516924400.7016354        7668482.7927095890        657943286.37788606     
   3376917001.9123755        11793016.302674770        663053427.91551435     
   3613200173.9164662        5932066.4085111618        788873299.78298318     
   3482679626.7675056        4372076.7411789894        781953880.60334337     
   3352640382.9492297        4416431.5094618797        779317935.42007387     
   3223082442.4616427        6065130.7133693695        780965464.23318374     
   3094005805.3047347        9318174.3528873920        786896467.04267049     
   3286061728.8492107        2828419.7599389553        908471051.88905716     
   3167004001.7220731        2538309.5397608280        902245752.93660176     
   3048209803.0024571        3126627.3446648121        900261484.74751675     
   2929679132.6903629        4593373.1746393442        902518247.32180631     
   2811411990.7858014        6938547.0297087431        909016040.65946627     
   2959725731.3907242       -34492.606005072594        1027361621.4595201     
   2852009557.9053864        908896.70696187019        1021576371.9905635     
   2744339137.9044161        2004797.6344815493        1019989710.0519713     
   2636714471.3878045        3253210.1765369177        1022601635.6437472     
   2529135558.3555565        4654134.3331383467        1029412148.7658913     
   2634192181.5410004       -2656670.6893234253        1145545008.4943662     
   2537696295.3174505       -516161.75720858574        1139945737.7652214     
   2441028387.6551070        1050942.3789170980        1138502611.3334351     
   2344188458.5539584        2044641.7190343142        1141215629.1990089     
   2247176508.0140185        2464936.2631802559        1148084791.3619444     
   3376917001.9123755        11793016.302674770        663053427.91551435     
   3239371567.7345085        17068172.688533187        655465962.64790833     
   3101398725.7373915        20918636.343551993        652056355.80569685     
   2962998475.9210215        23344407.267733932        652824607.38887930     
   2824170818.2854023        24345485.461088181        657770717.39746642     
   3094005805.3047347        9318174.3528873920        786896467.04267049     
   2967105525.3378663        13643530.221235514        779077337.66815078     
   2840000472.8568964        17286311.042578459        775488114.76534319     
   2712690647.8618298        20246516.816925883        776128798.33426070     
   2585176050.3526564        22524147.544261813        780999388.37489688     
   2811411990.7858014        6938547.0297087431        909016040.65946627     
   2695305573.7337108        10358714.991683602        901224988.36736476     
   2579217019.4726682        13838425.590488315        897715890.59331191     
   2463146328.0026760        17377678.826125741        898488747.33729827     
   2347093499.3237286        20976474.698581338        903543558.59932745     
   2529135558.3555565        4654134.3331383467        1029412148.7658913     
   2423971712.9220309        7213726.9998810291        1021908914.7455586     
   2319048365.5846992        10574979.987277746        1018739683.2895942     
   2214365516.3435669        14737893.295330882        1019904454.3979971     
   2109923165.1986332        19702466.924050331        1025403228.0707639     
   2247176508.0140185        2464936.2631802559        1148084791.3619444     
   2153103942.9028301        4208566.2458089590        1141129116.8027265     
   2059494511.1929901        7495974.2329323292        1138559492.8541946     
   1966348212.8845034        12327160.224567890        1140375919.5163529     
   1873665047.9773562        18702124.220668197        1146578396.7891965     
   2824170818.2854023        24345485.461088181        657770717.39746642     
   2677680076.8836989        31301585.777020097        638521655.96690857     
   2537058906.3248162        57822922.235694647        622844323.50895953     
   2402307306.6087508        103909494.83708966        610738720.02360201     
   2273425277.7355022        169561303.58120763        602204845.51085985     
   2585176050.3526564        22524147.544261813        780999388.37489688     
   2448039949.7157698        28068223.392066240        768168603.98630011     
   2315165476.1372390        47817722.767701507        759287819.93684292     
   2186552629.6170540        81772645.671167254        754357036.22652090     
   2062201410.1552181        129932992.10247183        753376252.85534227     
   2347093499.3237286        20976474.698581338        903543558.59932745     
   2220392814.7846327        25432758.678141475        895255116.83747435     
   2096345813.5194104        38734653.570636153        891294946.78129351     
   1974952495.5280633        60882159.376061797        891663048.43079162     
   1856212860.8106115        91875276.094432473        896359421.78596342     
   2109923165.1986332        19702466.924050331        1025403228.0707639     
   1994738672.0902760        23395191.635255218        1019781194.5204372     
   1880599918.4713345        30573714.644495130        1018865704.0423152     
   1767506904.3418038        41238035.951789975        1022656756.6364169     
   1655459629.7016826        55388155.557096660        1031154352.3027264     
   1873665047.9773562        18702124.220668197        1146578396.7891965     
   1771077521.6327124        21955522.263410211        1141746837.0351868     
   1667927790.9930029        23334905.989276350        1142000091.7199173     
   1564215856.0582466        22840275.398301721        1147338160.8434041     
   1459941716.8284299        20471630.490470111        1157761044.4056346     
   3768293481.2794008        1130488044.3838203        800571460.91184759     
   3779138609.6210237        1008664838.6408966        884849283.46249139     
   3790599126.4048514        888892927.70532262        974049972.75826693     
   3802675031.6308832        771172311.57709885        1068173528.7991749     
   3815366325.2991219        655502990.25622523        1167219951.5852139     
   3207872578.6723423        962361773.60170269        756689510.20033610     
   3235901073.6203642        868182909.65108788        853048109.19984317     
   3263658347.3917370        773099975.11164558        951322352.27629995     
   3291144399.9864626        677112969.98337603        1051512239.4297068     
   3318359231.4045391        580221894.26627874        1153617770.6600633     
   2685690600.4787488        805707180.14362466        721974491.43715167     
   2722310397.2669358        736595038.55544865        829379488.99685967     
   2757772363.2596202        663623460.98226786        935692907.96533597     
   2792076498.4568038        586792447.42408192        1040914748.3425801     
   2825222802.8584852        506101997.88089132        1145045010.1285915     
   2201747546.6986217        660524264.00958645        696426404.62229407     
   2238366580.5607371        613901225.35397851        813843422.85354149     
   2272941174.0084996        560463385.31718850        927161639.82537448     
   2305471327.0419064        500210743.89921629        1036381055.5377935     
   2335957039.6609583        433143301.10006148        1141501669.9907985     
   1756043417.3319595        526813025.19958782        680045249.75576341     
   1784069623.5017715        500101470.04667813        806439910.76988769     
   1809164779.6383753        463619748.11640871        925728547.85641599     
   1831328885.7417712        417367859.40877938        1037911161.0153477     
   1850561941.8119593        361345803.92379069        1142987750.2466834     
   3815366325.2991219        655502990.25622523        1167219951.5852139     
   3798034127.8554997        537571698.96251047        1188876159.7910843     
   3784533845.7239914        432413458.70917523        1205635742.8631487     
   3774865478.9045992        340028269.49622154        1217498700.8014052     
   3769029027.3973179        260416131.32364380        1224465033.6058552     
   3318359231.4045391        580221894.26627874        1153617770.6600633     
   3293851356.9221663        473048678.62454200        1181930976.2765102     
   3273066135.6024833        378284306.85843539        1207138422.6157300     
   3256003567.4454899        295928778.96796072        1229240109.6777234     
   3242663652.4511847        225982094.95311594        1248236037.4624884     
   2825222802.8584852        506101997.88089132        1145045010.1285915     
   2798656010.9275894        411221885.76820076        1179887740.6479528     
   2775702610.0099578        328386410.36639190        1213415577.7466662     
   2756362600.1055918        257595571.67546487        1245628521.4247322     
   2740635981.2144890        198849369.69541907        1276526571.6821508     
   2335957039.6609583        433143301.10006148        1141501669.9907985     
   2312448089.8717670        352091320.39348644        1182746452.9054120     
   2292443268.9464159        282719769.23304296        1224467208.2559559     
   2275942576.8849049        225028647.61873311        1266663936.0424337     
   2262946013.6872325        179017955.55055332        1309336636.2648432     
   1850561941.8119593        361345803.92379069        1142987750.2466834     
   1835227593.7547004        295656982.50039732        1190507113.0488856     
   1823288112.4118567        241284383.45838827        1240293314.1436007     
   1814743497.7834280        198228006.79776299        1292346353.5308268     
   1809593749.8694146        166487852.51852125        1346666231.2105651     
   3769029027.3973179        260416131.32364380        1224465033.6058552     
   3661983876.5191717        167905581.54789591        1191879273.2007313     
   3562621666.2902856        101004833.93634951        1169665697.9671128     
   3470942396.7106624        59713888.489009857        1157824307.9050031     
   3386946067.7803020        44032745.205877423        1156355103.0144033     
   3242663652.4511847        225982094.95311594        1248236037.4624884     
   3164905806.0456872        151579941.09504390        1231000569.4529192     
   3093229642.4643998        97450063.317671657        1221742751.4236469     
   3027635161.7073221        63592461.620999455        1220462583.3746707     
   2968122363.7744546        50007136.005027771        1227160065.3059902     
   2740635981.2144890        198849369.69541907        1276526571.6821508     
   2685323910.1638932        140503153.01969969        1272773261.9389117     
   2634492264.1124558        97091686.341174483        1274603066.9847565     
   2588141043.0601773        68614969.659844875        1282015986.8196867     
   2546270247.0070577        55073002.975711226        1295012021.4437015     
   2262946013.6872325        179017955.55055332        1309336636.2648432     
   2223238188.8737917        134675217.32186425        1317197350.6587067     
   2186409531.2344570        99929703.006861806        1328246644.6504419     
   2152460040.7692294        74781412.605551839        1342484518.2400520     
   2121389717.4781089        59230346.117931724        1359910971.4275346     
   1809593749.8694146        166487852.51852125        1346666231.2105651     
   1778648642.1753798        134096134.00153369        1364272835.6123037     
   1748981443.8304019        105964113.31473416        1382673484.4207046     
   1720592154.8344777        82091790.458113968        1401868177.6357656     
   1693480775.1876099        62479165.431682944        1421856915.2574897     
   3386946067.7803020        44032745.205877423        1156355103.0144033     
   3295860887.9284687        37546628.810071111        1149517829.0183330     
   3204557612.8100810        30333528.192412257        1146513390.2889965     
   3113036242.4251337        22393443.352886200        1147341786.8263912     
   3021296776.7736282        13726374.291506767        1152003018.6305158     
   2968122363.7744546        50007136.005027771        1227160065.3059902     
   2886125804.7125497        39314876.155115485        1219443086.3817503     
   2804402416.0823269        29533184.410810947        1215855167.4416664     
   2722952197.8837852        20662060.772111773        1216396308.4857435     
   2641775150.1169271        12701505.239018559        1221066509.5139821     
   2546270247.0070577        55073002.975711226        1295012021.4437015     
   2474208665.0705867        40428506.572345376        1286988480.9059010     
   2402911519.2640395        28332130.602051258        1283390225.0696864     
   2332378809.5874119        18783875.064828038        1284217253.9350595     
   2262610536.0407076        11783739.960678339        1289469567.5020206     
   2121389717.4781089        59230346.117931724        1359910971.4275346     
   2060109469.0025821        40887520.061759830        1352154012.5907860     
   2000084922.3552163        26730366.766129971        1349118563.1730535     
   1941316077.5360126        16758886.231035709        1350804623.1743343     
   1883802934.5449705        10973078.456480145        1357212192.5946324     
   1693480775.1876099        62479165.431682944        1421856915.2574897     
   1643828216.5085361        40691916.623368025        1414939681.4364085     
   1595922625.3558605        24727892.903050125        1413040181.7517681     
   1549764001.7295880        14587094.270737767        1416158416.2035723     
   1505352345.6297150        10269520.726429999        1424294384.7918191     
   3021296776.7736282        13726374.291506767        1152003018.6305158     
   2922934973.7001705        4345098.8286259174        1142456570.3413341     
   2825630273.4702435       -1512500.4891440868        1138198085.8889151     
   2729382676.0838532       -3846423.6617949009        1139227565.2732596     
   2634192181.5410004       -2656670.6893234253        1145545008.4943662     
   2641775150.1169271        12701505.239018559        1221066509.5139821     
   2557460448.2889733        5474532.0023803711        1212612687.6567371     
   2473976891.5335865        1018042.3409646749        1209179217.7916808     
   2391324479.8507652       -667963.74523007870        1210766099.9188085     
   2309503213.2405128        416513.74380409718        1217373334.0381203     
   2262610536.0407076        11783739.960678339        1289469567.5020206     
   2191578330.1880341        6481687.3692117929        1281844754.6772544     
   2121151311.6369596        3196925.7830753326        1278972682.0000961     
   2051329480.3874884        1929455.2022781372        1280853349.4705431     
   1982112836.4396114        2679275.6268041134        1287486757.0885975     
   1883802934.5449705        10973078.456480145        1357212192.5946324     
   1825288619.3973563        7366564.9291253090        1350152771.4028821     
   1767153533.7803724        5024149.8372014761        1347578478.5141590     
   1709397677.6940210        3945833.1807225943        1349489313.9284654     
   1652021051.1383033        4131614.9596872330        1355885277.6458018     
   1505352345.6297150        10269520.726429999        1424294384.7918191     
   1458591315.9169345        8129164.6821097732        1417536737.8336189     
   1411983557.9638186        6499714.5033389330        1414996607.3338726     
   1365529071.7703686        5381170.1901234984        1416673993.2925742     
   1319227857.3365793        4773531.7424389124        1422568895.7097266     
   2634192181.5410004       -2656670.6893234253        1145545008.4943662     
   2537696295.3174505       -516161.75720858574        1139945737.7652214     
   2441028387.6551070        1050942.3789170980        1138502611.3334351     
   2344188458.5539584        2044641.7190343142        1141215629.1990089     
   2247176508.0140185        2464936.2631802559        1148084791.3619444     
   2309503213.2405128        416513.74380409718        1217373334.0381203     
   2223739462.4612031        1491282.5494086742        1210789127.8982306     
   2137917997.3130319        2373670.1254791021        1208550206.2934411     
   2052038817.7959981        3063676.4720034599        1210656569.2237411     
   1966101923.9101076        3561301.5890128613        1217108216.6891351     
   1982112836.4396114        2679275.6268041134        1287486757.0885975     
   1907621621.7837834        2850424.5096709728        1280050973.7862229     
   1833186999.8290317        3210215.7294639349        1277149615.2566824     
   1758808970.5753560        3758649.2861715555        1278782681.4999707     
   1684487534.0227573        4495725.1798074245        1284950172.5160878     
   1652021051.1383033        4131614.9596872330        1355885277.6458018     
   1589342773.2851975        3561264.1235883832        1347731275.4292026     
   1526835395.2031047        3560579.1908705235        1344300838.2231717     
   1464498916.8920271        4129560.1615285873        1345593966.0277045     
   1402333338.3519611        5268207.0355697274        1351610658.8428001     
   1319227857.3365793        4773531.7424389124        1422568895.7097266     
   1268902916.9654400        3623801.3911493421        1413830032.8271654     
   1218863183.4352539        3424760.5097023845        1410003875.1929028     
   1169108656.7460163        4176409.0980849266        1411090422.8069391     
   1119639336.8977308        5878747.1563050747        1417089675.6692743     
   2247176508.0140185        2464936.2631802559        1148084791.3619444     
   2153103942.9028301        4208566.2458089590        1141129116.8027265     
   2059494511.1929901        7495974.2329323292        1138559492.8541946     
   1966348212.8845034        12327160.224567890        1140375919.5163529     
   1873665047.9773562        18702124.220668197        1146578396.7891965     
   1966101923.9101076        3561301.5890128613        1217108216.6891351     
   1883395307.7087219        5487518.1626384258        1210408572.3931923     
   1801049378.2836256        8616023.9905666113        1208023779.7423389     
   1719064135.6348262        12946819.072814822        1209953838.7365620     
   1637439579.7623191        18479903.409371734        1216198749.3758707     
   1684487534.0227573        4495725.1798074245        1284950172.5160878     
   1612943441.1151450        6543500.6596105695        1278387037.4208682     
   1541657588.3587756        9452076.6435481310        1276067555.0051212     
   1470629975.7536411        13221453.131608963        1277991725.2688484     
   1399860603.2997472        17851630.123799920        1284159548.2120519     
   1402333338.3519611        5268207.0355697274        1351610658.8428001     
   1341748343.1221087        7376513.7367566228        1345064511.8857355     
   1281319141.4184358        10004132.191879570        1342690818.6425354     
   1221045733.2409489        13151062.400954545        1344489579.1132016     
   1160928118.5896444        16817304.363969684        1350460793.2977355     
   1119639336.8977308        5878747.1563050747        1417089675.6692743     
   1069810013.7296071        7986557.3940546513        1410440995.7878022     
   1020034037.4626174        10272190.635581493        1407893570.6545863     
   970311408.09674811        12735646.880844295        1409447400.2696285     
   920642125.63201380        15376926.129890978        1415102484.6329279     
   1873665047.9773562        18702124.220668197        1146578396.7891965     
   1771077521.6327124        21955522.263410211        1141746837.0351868     
   1667927790.9930029        23334905.989276350        1142000091.7199173     
   1564215856.0582466        22840275.398301721        1147338160.8434041     
   1459941716.8284299        20471630.490470111        1157761044.4056346     
   1637439579.7623191        18479903.409371734        1216198749.3758707     
   1547541541.5794947        21522169.018908262        1210171853.3476224     
   1457277031.5430779        23342861.783133924        1208870010.4896805     
   1366646049.6530597        23941981.702026606        1212293220.8020616     
   1275648595.9094448        23319528.775594175        1220441484.2847493     
   1399860603.2997472        17851630.123799920        1284159548.2120519     
   1321624163.9403603        20374396.498639643        1277165670.4245980     
   1243216985.1688395        22328031.499691010        1274537084.5390224     
   1164639066.9851758        23712535.126939058        1276273790.5553269     
   1085890409.3893738        24527907.380385816        1282375788.4735057     
   1160928118.5896444        16817304.363969684        1350460793.2977355     
   1093325388.7153108        18512204.702602446        1342728288.2661176     
   1025747651.8702934        20290415.138948977        1339001313.8679409     
   958194908.05459726        22151935.673041463        1339279870.1032071     
   890667157.26821876        24096766.304855615        1343563956.9719172     
   920642125.63201380        15376926.129890978        1415102484.6329279     
   862645215.90433669        15935593.630771130        1406859706.8721805     
   804869031.64744306        17230012.700929880        1402262698.4764416     
   747313572.86132419        19260183.340340644        1401311459.4457009     
   689978839.54598188        22026105.549000829        1404005989.7799747     
   1756043417.3319595        526813025.19958782        680045249.75576341     
   1784069623.5017715        500101470.04667813        806439910.76988769     
   1809164779.6383753        463619748.11640871        925728547.85641599     
   1831328885.7417712        417367859.40877938        1037911161.0153477     
   1850561941.8119593        361345803.92379069        1142987750.2466834     
   1326352203.3741515        397905661.01224548        669722271.97561896     
   1339570420.6122868        375531563.43425190        791860404.35086799     
   1350590350.3254747        345829840.77309847        908712848.18898153     
   1359411992.5137143        308800493.02878535        1020279603.4899598     
   1366035347.1770060        264443520.20131218        1126560670.2538030     
   890447895.82058632        267134368.74617592        662348716.41991997     
   894059082.38550544        250658016.22063658        781085209.74926329     
   896204743.93373656        229296580.30613723        896356349.93193245     
   896884880.46527970        203050061.00267756        1008162136.9679276     
   896099491.98013508        171918458.31025833        1116502570.8572476     
   448330494.67126375        134499148.40137914        657924583.08866644     
   447535608.82142669        125480828.40583211        774114326.96507442     
   446007960.46316141        114019966.71552485        888659053.08526886     
   443747549.59646803        100116563.33045712        1001558761.4492500     
   440754376.22134674        83770618.250629231        1112813452.0570180     
  -7.3815896161079073E-002  -2.2144768848323722E-002   656449871.98185837     
  -7.9949399893460019E-002  -1.0161554519073499E-002   770947755.99830055     
  -8.6251095551429360E-002   1.2611935305630248E-003   885620957.64899063     
  -9.2721051761410295E-002   1.2122986337320368E-002   1000469476.9339281     
  -9.9358828170520497E-002   2.2425205007965951E-002   1115493313.8531132     
   1850561941.8119593        361345803.92379069        1142987750.2466834     
   1835227593.7547004        295656982.50039732        1190507113.0488856     
   1823288112.4118567        241284383.45838827        1240293314.1436007     
   1814743497.7834280        198228006.79776299        1292346353.5308268     
   1809593749.8694146        166487852.51852125        1346666231.2105651     
   1366035347.1770060        264443520.20131218        1126560670.2538030     
   1360292982.4140813        216904423.02049240        1181980572.0639179     
   1357096767.6867759        177852492.62506896        1238323686.3673379     
   1356446702.9950900        147287729.01504278        1295590013.1640649     
   1358342788.3390231        125210132.19041502        1353779552.4540958     
   896099491.98013508        171918458.31025833        1116502570.8572476     
   896110179.65666962        141377406.11554798        1178832842.2166803     
   897818300.69002748        116494465.11024851        1240742700.2702110     
   901223855.08020890        97269635.294360876        1302232145.0178416     
   906326842.82721353        83702916.667883962        1363301176.4595711     
   440754376.22134674        83770618.250629231        1112813452.0570180     
   442679185.48246497        69075931.785566136        1181063923.5071721     
   445452711.42161065        57210300.913928226        1247550355.8522196     
   449074954.03878397        48173725.635715052        1312272749.0921593     
   453545913.33398485        41966205.950927734        1375231103.2269921     
  -9.9358828170520497E-002   2.2425205007965951E-002   1115493313.8531132     
 -0.10853233948007410        3.0546693265513403E-002   1188673815.9353945     
 -0.11847418221603985        3.6106903296006097E-002   1258746653.1133621     
 -0.12918431098489822        3.9106333355870972E-002   1325711825.3870165     
 -0.14066261891529222        3.9544992738269516E-002   1389569332.7563570     
   1809593749.8694146        166487852.51852125        1346666231.2105651     
   1778648642.1753798        134096134.00153369        1364272835.6123037     
   1748981443.8304019        105964113.31473416        1382673484.4207046     
   1720592154.8344777        82091790.458113968        1401868177.6357656     
   1693480775.1876099        62479165.431682944        1421856915.2574897     
   1358342788.3390231        125210132.19041502        1353779552.4540958     
   1332461664.2337785        100114655.30583519        1372734712.4784634     
   1307538972.1422348        78213951.800258517        1393107452.0185287     
   1283574712.0643909        59508021.673680902        1414897771.0742922     
   1260568884.0002484        43996864.926108778        1438105669.6457517     
   906326842.82721353        83702916.667883962        1363301176.4595711     
   887291231.19371700        66438140.080596596        1383232168.5486541     
   868894574.23856711        51303212.421131045        1405204275.2624698     
   851136871.96176231        38298133.689483017        1429217496.6010199     
   834018124.36330426        27422903.885656744        1455271832.5643024     
   453545913.33398485        41966205.950927734        1375231103.2269921     
   443137343.05519658        33066588.325822160        1395765203.8228757     
   433048250.11939913        25231895.177353039        1418963954.1525297     
   423278634.52659363        18462126.505523443        1444827354.2159514     
   413828496.27677912        12757282.310331166        1473355404.0131435     
 -0.14066261891529222        3.9544992738269516E-002   1389569332.7563570     
 -0.18178402922147369        4.1507548314196702E-002   1410333818.3011284     
 -0.21526807351331739        6.8927990604583184E-002   1434386488.6887052     
 -0.24111645029479808       0.12180065792951282        1461727343.9190876     
 -0.25932749537515265       0.20013109759152969        1492356383.9922736     
   1693480775.1876099        62479165.431682944        1421856915.2574897     
   1643828216.5085361        40691916.623368025        1414939681.4364085     
   1595922625.3558605        24727892.903050125        1413040181.7517681     
   1549764001.7295880        14587094.270737767        1416158416.2035723     
   1505352345.6297150        10269520.726429999        1424294384.7918191     
   1260568884.0002484        43996864.926108778        1438105669.6457517     
   1225197882.0854788        28216953.469041526        1434980212.5509565     
   1191137105.8135083        16804460.821305811        1436436525.5958185     
   1158386555.1843398        9759386.9829083085        1442474608.7803369     
   1126946230.1979699        7081731.9538416862        1453094462.1045127     
   834018124.36330426        27422903.885656744        1455271832.5643024     
   811683067.79344988        17276646.354020715        1455428619.9982607     
   790221494.98279607        10042001.353053391        1459731213.5750899     
   769633405.93134141        5718968.8827495277        1468179613.2947881     
   749918800.63908720        4307548.9431144595        1480773819.1573601     
   413828496.27677912        12757282.310331166        1473355404.0131435     
   403283773.63245106        7870995.2783112675        1476284903.7783213     
   393175792.86372364        4440514.4982938319        1482924245.6895828     
   383504553.97059417        2465839.9702682346        1493273429.7469292     
   374270056.95306450        1946971.6942449212        1507332455.9503589     
 -0.25932749537515265       0.20013109759152969        1492356383.9922736     
 -0.39751873953724981       0.24191047516812245        1497549063.8911366     
 -0.54370939984714772       0.25702443836265521        1506015621.9392982     
 -0.69790233573914762       0.24546380267215290        1517756058.1367576     
 -0.86009647206595230       0.20723388664441561        1532770372.4835143     
   1505352345.6297150        10269520.726429999        1424294384.7918191     
   1458591315.9169345        8129164.6821097732        1417536737.8336189     
   1411983557.9638186        6499714.5033389330        1414996607.3338726     
   1365529071.7703686        5381170.1901234984        1416673993.2925742     
   1319227857.3365793        4773531.7424389124        1422568895.7097266     
   1126946230.1979699        7081731.9538416862        1453094462.1045127     
   1091410467.8937361        5336967.8983007669        1447030068.9708154     
   1055989659.3987110        3975383.2067902684        1445291690.0032144     
   1020683804.7128963        2996977.8793149590        1447879325.2017140     
   985492903.83629107        2401751.9158706665        1454792974.5663109     
   749918800.63908720        4307548.9431144595        1480773819.1573601     
   725918299.19381845        3051374.9114720821        1475357975.5726340     
   701994433.60730517        2050653.7423491180        1474376643.8616536     
   678147203.87954831        1305385.4357470274        1477829824.0244179     
   654376610.01054692        815569.99166572094        1485717516.0609293     
   374270056.95306450        1946971.6942449212        1507332455.9503589     
   362114809.81718272        1272385.7216282636        1502520457.6390760     
   349997880.58960342        725526.11002072692        1502251468.9091856     
   337919269.27032697        306392.85942211747        1506525489.7606869     
   325878975.85935020        14985.969823300838        1515342520.1935811     
 -0.86009647206595230       0.20723388664441561        1532770372.4835143     
 -0.23616918860108077       0.32877457624501316        1528517515.1701429     
  0.34560488628441455       0.30980283585754742        1528916165.1458106     
  0.88522696499067732       0.15032600279043495        1533966322.4105206     
   1.3826990834349300      -0.14965208559549237        1543667986.9642692     
   1319227857.3365793        4773531.7424389124        1422568895.7097266     
   1268902916.9654400        3623801.3911493421        1413830032.8271654     
   1218863183.4352539        3424760.5097023845        1410003875.1929028     
   1169108656.7460163        4176409.0980849266        1411090422.8069391     
   1119639336.8977308        5878747.1563050747        1417089675.6692743     
   985492903.83629107        2401751.9158706665        1454792974.5663109     
   947978342.81279659        1608197.3103767037        1447235057.7538707     
   910677686.92647898        1527659.8288065791        1444536379.2499816     
   873590936.17732882        2160139.4711287618        1446696939.0546479     
   836718090.56536019        3505636.2373870611        1453716737.1678574     
   654376610.01054692        815569.99166572094        1485717516.0609293     
   629519665.64969897        332362.32646366954        1479257359.9975405     
   604805324.72224963        324499.43925821781        1477602975.3029544     
   580233587.22820079        791981.33005395532        1480754361.9771693     
   555804453.16755021        1734807.9988438189        1488711520.0201881     
   325878975.85935020        14985.969823300838        1515342520.1935811     
   313526885.47614980       -203703.56058940291        1509896939.5581722     
   301246096.82257628       -184720.65891358256        1509203663.3518183     
   289036609.89862317        71934.674830839038        1513262691.5745180     
   276898424.70429671        566262.44066426158        1522074024.2262673     
   1.3826990834349300      -0.14965208559549237        1543667986.9642692     
   2.2921532803678391      -0.35076337438995120        1539153796.4357693     
   3.2274531490573799      -0.46572450566380819        1539338443.3965759     
   4.1886033561003320      -0.49451680159220879        1544221927.8466859     
   5.1756030779796163      -0.43714404806616769        1553804249.7860978     
   1119639336.8977308        5878747.1563050747        1417089675.6692743     
   1069810013.7296071        7986557.3940546513        1410440995.7878022     
   1020034037.4626174        10272190.635581493        1407893570.6545863     
   970311408.09674811        12735646.880844295        1409447400.2696285     
   920642125.63201380        15376926.129890978        1415102484.6329279     
   836718090.56536019        3505636.2373870611        1453716737.1678574     
   797737179.94593823        4603818.4590103328        1448012885.8907878     
   758796279.54600942        5835368.0789428949        1446785703.6758754     
   719895389.36556411        7200285.0971553028        1450035190.5231235     
   681034509.40461171        8698569.5136748254        1457761346.4325192     
   555804453.16755021        1734807.9988438189        1488711520.0201881     
   528744567.42225385        2145145.9019688368        1483936937.8856099     
   501711355.21480834        2644395.5979291797        1484014439.1270871     
   474704816.54520839        3232557.0867080092        1488944023.7446194     
   447724951.41346246        3909630.3683362305        1498725691.7382054     
   276898424.70429671        566262.44066426158        1522074024.2262673     
   262832176.15855113        610539.72292143106        1518213151.7722688     
   248779264.46901241        699273.19253560901        1519579777.0082245     
   234739689.63568383        832462.84951676428        1526173899.9341326     
   220713451.65856689        1010108.6938695461        1537995520.5499959     
   5.1756030779796163      -0.43714404806616769        1553804249.7860978     
   6.1548297136548982       -7.8134911544510466E-002   1550841527.5507648     
   7.3086236696362121       0.86276668044270588        1553481717.3192859     
   8.6369895210184424        2.3855735495988872        1561724819.0916538     
   10.139926901793999        4.4902862106222088        1575570832.8678803     
   920642125.63201380        15376926.129890978        1415102484.6329279     
   862645215.90433669        15935593.630771130        1406859706.8721805     
   804869031.64744306        17230012.700929880        1402262698.4764416     
   747313572.86132419        19260183.340340644        1401311459.4457009     
   689978839.54598188        22026105.549000829        1404005989.7799747     
   681034509.40461171        8698569.5136748254        1457761346.4325192     
   633364744.51583505        7865946.1273266673        1452434956.0657403     
   585860523.91887081        7585137.0470212996        1451727821.0301583     
   538521847.61372197        7856142.2727603018        1455639941.3257828     
   491348715.60038960        8678961.8045637310        1464171316.9526048     
   447724951.41346246        3909630.3683362305        1498725691.7382054     
   413163719.83842766        2520132.6371988058        1496251310.7232685     
   378712851.37624061        1498511.9488882720        1499369671.0057275     
   344372346.02691102        844768.30343553424        1508080772.5855827     
   310142203.79042906        558901.70080946386        1522384615.4628356     
   220713451.65856689        1010108.6938695461        1537995520.5499959     
   202042141.87212199       -101846.83959271014        1538308770.8447738     
   183426014.01956213       -1029862.5934357271        1545188248.4031458     
   164865068.10088804       -1773938.5676619262        1558633953.2251182     
   146359304.11610445       -2334074.7622506842        1578645885.3106704     
   10.139926901793999        4.4902862106222088        1575570832.8678803     
   10.616913117886474        7.6969414816078299        1578607336.4302485     
   11.848816250503591        13.419985086563466        1589183553.2224128     
   13.835654874530565        21.659483798998910        1607299483.2443590     
   16.577413800652387        32.415379355080852        1632955126.4961016     
  -7.3815896161079073E-002  -2.2144768848323722E-002   656449871.98185837     
  -7.9949399893460019E-002  -1.0161554519073499E-002   770947755.99830055     
  -8.6251095551429360E-002   1.2611935305630248E-003   885620957.64899063     
  -9.2721051761410295E-002   1.2122986337320368E-002   1000469476.9339281     
  -9.9358828170520497E-002   2.2425205007965951E-002   1115493313.8531132     
  -448330494.81654859       -134499148.44496459        657924583.09927797     
  -447535608.97895497       -125480828.42715590        774114326.97691965     
  -446007960.63365084       -114019966.71697941        888659053.09875977     
  -443747549.78063637       -100116563.31443553        1001558761.4647976     
  -440754376.41991180       -83770618.219523802        1112813452.0750344     
  -890447895.95883000       -267134368.78764898        662348716.44070709     
  -894059082.53479278       -250658016.24120000        781085209.77207327     
  -896204744.09516716       -229296580.30945522        896356349.95758820     
  -896884880.63995278       -203050060.99241453        1008162136.9972520     
  -896099492.16914940       -171918458.29007798        1116502570.8910649     
  -1326352203.5006599       -397905661.05019802        669722272.00614583     
  -1339570420.7474637       -375531563.45229405        791860404.38376117     
  -1350590350.4708006       -345829840.77616596        908712848.22547626     
  -1359411992.6706698       -308800493.02181375        1020279603.5312901     
  -1366035347.3470721       -264443520.18923774        1126560670.3012040     
  -1756043417.4420388       -526813025.23261160        680045249.79559422     
  -1784069623.6169670       -500101470.06043768        806439910.81198359     
  -1809164779.7605500       -463619748.11711168        925728547.90242302     
  -1831328885.8727875       -417367859.40263331        1037911161.0669125     
  -1850561941.9536793       -361345803.91700304        1142987750.3054519     
  -9.9358828170520497E-002   2.2425205007965951E-002   1115493313.8531132     
 -0.10853233948007410        3.0546693265513403E-002   1188673815.9353945     
 -0.11847418221603985        3.6106903296006097E-002   1258746653.1133621     
 -0.12918431098489822        3.9106333355870972E-002   1325711825.3870165     
 -0.14066261891529222        3.9544992738269516E-002   1389569332.7563570     
  -440754376.41991180       -83770618.219523802        1112813452.0750344     
  -442679185.69990885       -69075931.743821383        1181063923.5272498     
  -445452711.65926021       -57210300.865967005        1247550355.8752418     
  -449074954.29796594       -48173725.585959852        1312272749.1190112     
  -453545913.61602604       -41966205.903801203        1375231103.2585571     
  -896099492.16914940       -171918458.29007798        1116502570.8910649     
  -896110179.86256886       -141377406.08957431        1178832842.2548640     
  -897818300.91392875       -116494465.08220568        1240742700.3145301     
  -901223855.32322896       -97269635.267971069        1302232145.0700636     
  -906326843.09046936       -83702916.646870941        1363301176.5214643     
  -1366035347.3470721       -264443520.18923774        1126560670.3012040     
  -1360292982.5965123       -216904423.00671259        1181980572.1182363     
  -1357096767.8824792       -177852492.61260894        1238323686.4312267     
  -1356446703.2049730       -147287729.00692672        1295590013.2401741     
  -1358342788.5639925       -125210132.18966484        1353779552.5450797     
  -1850561941.9536793       -361345803.91700304        1142987750.3054519     
  -1835227593.9017398       -295656982.49523526        1190507113.1173675     
  -1823288112.5649128       -241284383.45717716        1240293314.2253311     
  -1814743497.9431984       -198228006.80282551        1292346353.6293428     
  -1809593750.0365956       -166487852.53218269        1346666231.3294024     
 -0.14066261891529222        3.9544992738269516E-002   1389569332.7563570     
 -0.18178402922147369        4.1507548314196702E-002   1410333818.3011284     
 -0.21526807351331739        6.8927990604583184E-002   1434386488.6887052     
 -0.24111645029479808       0.12180065792951282        1461727343.9190876     
 -0.25932749537515265       0.20013109759152969        1492356383.9922736     
  -453545913.61602604       -41966205.903801203        1375231103.2585571     
  -443137343.41712618       -33066588.283311531        1395765203.8786561     
  -433048250.54992175       -25231895.101805389        1418963954.2363067     
  -423278635.01441216       -18462126.359281927        1444827354.3315089     
  -413828496.81059760       -12757282.055743665        1473355404.1642609     
  -906326843.09046936       -83702916.646870941        1363301176.5214643     
  -887291231.52370322       -66438140.069501221        1383232168.6543384     
  -868894574.62796330       -51303212.395553529        1405204275.4195092     
  -851136872.40325022       -38298133.625028074        1429217496.8169768     
  -834018124.84956372       -27422903.757924706        1455271832.8467417     
  -1358342788.5639925       -125210132.18966484        1353779552.5450797     
  -1332461664.5015137       -100114655.31706268        1372734712.6281738     
  -1307538972.4493933       -78213951.812320292        1393107452.2383115     
  -1283574712.4076309       -59508021.675436556        1414897771.3754921     
  -1260568884.3762259       -43996864.906413317        1438105670.0397158     
  -1809593750.0365956       -166487852.53218269        1346666231.3294024     
  -1778648642.3505580       -134096134.02599007        1364272835.8001645     
  -1748981444.0142109       -105964113.35210019        1382673484.6927140     
  -1720592155.0275538       -82091790.510508418        1401868178.0070541     
  -1693480775.3905859       -62479165.501215518        1421856915.7431827     
 -0.25932749537515265       0.20013109759152969        1492356383.9922736     
 -0.39751873953724981       0.24191047516812245        1497549063.8911366     
 -0.54370939984714772       0.25702443836265521        1506015621.9392982     
 -0.69790233573914762       0.24546380267215290        1517756058.1367576     
 -0.86009647206595230       0.20723388664441561        1532770372.4835143     
  -413828496.81059760       -12757282.055743665        1473355404.1642609     
  -403283774.43822128       -7870994.9799807817        1476284903.9429886     
  -393175793.95064491       -4440514.1868840754        1482924245.8803968     
  -383504555.34786516       -2465839.6764441729        1493273429.9764860     
  -374270058.62988609       -1946971.4486706555        1507332456.2312553     
  -834018124.84956372       -27422903.757924706        1455271832.8467417     
  -811683068.51124346       -17276646.211574644        1455428620.3157370     
  -790221495.93451786       -10042001.203873813        1459731213.9527967     
  -769633407.11938739       -5718968.7348233163        1468179613.7579203     
  -749918802.06585181       -4307548.8044221997        1480773819.7311056     
  -1260568884.3762259       -43996864.906413317        1438105670.0397158     
  -1225197882.6165819       -28216953.452860773        1434980213.0093834     
  -1191137106.4953296       -16804460.793947756        1436436526.1564970     
  -1158386556.0124686       -9759386.9296700954        1442474609.4810574     
  -1126946231.1679978       -7081731.8600282073        1453094462.9830647     
  -1693480775.3905859       -62479165.501215518        1421856915.7431827     
  -1643828216.7542377       -40691916.703842640        1414939682.0239258     
  -1595922625.6330771       -24727892.957096756        1413040182.4914982     
  -1549764002.0271072       -14587094.260984063        1416158417.1459012     
  -1505352345.9363229       -10269520.615491331        1424294385.9871309     
 -0.86009647206595230       0.20723388664441561        1532770372.4835143     
 -0.23616918860108077       0.32877457624501316        1528517515.1701429     
  0.34560488628441455       0.30980283585754742        1528916165.1458106     
  0.88522696499067732       0.15032600279043495        1533966322.4105206     
   1.3826990834349300      -0.14965208559549237        1543667986.9642692     
  -374270058.62988609       -1946971.4486706555        1507332456.2312553     
  -362114810.28855062       -1272385.1877194494        1502520457.8827720     
  -349997879.92208576       -725525.50966805220        1502251469.0726197     
  -337919267.53049475       -306392.41453103721        1506525489.8007998     
  -325878973.11377168       -14985.902286574244        1515342520.0673139     
  -749918802.06585181       -4307548.8044221997        1480773819.7311056     
  -725918299.58055854       -3051374.4760922790        1475357976.0926695     
  -701994433.00285530       -2050653.1730640829        1474376644.2418568     
  -678147202.33274341       -1305384.8953377903        1477829824.1786711     
  -654376607.57022071       -815569.64291116595        1485717515.9031081     
  -1126946231.1679978       -7081731.8600282073        1453094462.9830647     
  -1091410468.1121964       -5336967.5363578796        1447030069.7998364     
  -1055989658.8967052       -3975382.6803851128        1445291690.6535261     
  -1020683803.5215218       -2996977.2921076417        1447879325.5441325     
  -985492901.98664832       -2401751.3715294003        1454792974.4716563     
  -1505352345.9363229       -10269520.615491331        1424294385.9871309     
  -1458591315.8834643       -8129164.3685140610        1417536739.0042722     
  -1411983557.6036327       -6499714.0316282511        1414996608.3076231     
  -1365529071.0968299       -5381169.6048386097        1416673993.8971844     
  -1319227856.3630552       -4773531.0881413817        1422568895.7729568     
   1.3826990834349300      -0.14965208559549237        1543667986.9642692     
   2.2921532803678391      -0.35076337438995120        1539153796.4357693     
   3.2274531490573799      -0.46572450566380819        1539338443.3965759     
   4.1886033561003320      -0.49451680159220879        1544221927.8466859     
   5.1756030779796163      -0.43714404806616769        1553804249.7860978     
  -325878973.11377168       -14985.902286574244        1515342520.0673139     
  -313526880.94162667        203703.44910578430        1509896939.3496294     
  -301246090.45668370        184720.50982308388        1509203662.9864397     
  -289036601.65894091       -71934.720125570893        1513262690.9777451     
  -276898414.54839998       -566262.24074795842        1522074023.3235471     
  -654376607.57022071       -815569.64291116595        1485717515.9031081     
  -629519661.66340828       -332361.99741885066        1479257359.6643462     
  -604805319.15684891       -324499.01943743229        1477602974.6452734     
  -580233580.05053651       -791980.70894631743        1480754360.8458858     
  -555804444.34447682       -1734807.0659623742        1488711518.2661860     
  -985492901.98664832       -2401751.3715294003        1454792974.4716563     
  -947978339.87319398       -1608196.6903481483        1447235057.3799286     
  -910677682.87304151       -1527659.0535079837        1444536378.3730783     
  -873590930.98618555       -2160138.4609881639        1446696937.4511037     
  -836718084.21263301       -3505634.9128130674        1453716734.6140113     
  -1319227856.3630552       -4773531.0881413817        1422568895.7729568     
  -1268902915.5709822       -3623800.6296764016        1413830032.4963684     
  -1218863181.6052608       -3424759.5923808217        1410003874.1698520     
  -1169108654.4658883       -4176407.9762487411        1411090420.7934041     
  -1119639334.1528616       -5878745.7812722325        1417089672.3670261     
   5.1756030779796163      -0.43714404806616769        1553804249.7860978     
   6.1548297136548982       -7.8134911544510466E-002   1550841527.5507648     
   7.3086236696362121       0.86276668044270588        1553481717.3192859     
   8.6369895210184424        2.3855735495988872        1561724819.0916538     
   10.139926901793999        4.4902862106222088        1575570832.8678803     
  -276898414.54839998       -566262.24074795842        1522074023.3235471     
  -262832164.12916285       -610538.80146901309        1518213150.8053799     
  -248779250.28605890       -699270.61596849561        1519579775.9109962     
  -234739673.01908541       -832457.68423640728        1526173898.6404014     
  -220713432.32824552       -1010100.0062811971        1537995518.9935884     
  -555804444.34447682       -1734807.0659623742        1488711518.2661860     
  -528744556.99970287       -2145144.3007690609        1483936935.9226952     
  -501711342.98176306       -2644392.6250197291        1484014436.8229291     
  -474704802.29065025       -3232552.0386932194        1488944020.9668818     
  -447724934.92637283       -3909622.5418217480        1498725688.3545578     
  -836718084.21263301       -3505634.9128130674        1453716734.6140113     
  -797737172.45679522       -4603816.5760456026        1448012882.9027171     
  -758796270.77848470       -5835365.1643714011        1446785700.0550795     
  -719895379.17770636       -7200280.6778041422        1450035186.0711024     
  -681034497.65446305       -8698563.1163511872        1457761340.9507778     
  -1119639334.1528616       -5878745.7812722325        1417089672.3670261     
  -1069810010.5004263       -7986555.6272603869        1410440991.7454448     
  -1020034033.6762241       -10272188.234026790        1407893565.6074538     
  -970311403.68024874       -12735643.601550519        1409447393.9530561     
  -920642120.51251483       -15376921.729875684        1415102476.7822502     
   10.139926901793999        4.4902862106222088        1575570832.8678803     
   10.616913117886474        7.6969414816078299        1578607336.4302485     
   11.848816250503591        13.419985086563466        1589183553.2224128     
   13.835654874530565        21.659483798998910        1607299483.2443590     
   16.577413800652387        32.415379355080852        1632955126.4961016     
  -220713432.32824552       -1010100.0062811971        1537995518.9935884     
  -202042121.92218924        101860.70751933753        1538308770.2359357     
  -183425992.22267249        1029885.7328539193        1545188248.7691994     
  -164865043.22970304        1773975.0696981698        1558633954.5933976     
  -146359274.94327563        2334128.7180698887        1578645887.7085066     
  -447724934.92637283       -3909622.5418217480        1498725688.3545578     
  -413163702.98800224       -2520120.8398910016        1496251308.9051597     
  -378712833.21764576       -1498493.0313450843        1499369670.8078177     
  -344372325.61529785       -844739.11615832150        1508080774.0625327     
  -310142180.18095863       -558859.09433762729        1522384618.6693130     
  -681034497.65446305       -8698563.1163511872        1457761340.9507778     
  -633364732.58053720       -7865936.9453305006        1452434952.4379237     
  -585860511.13609004       -7585122.8725741804        1451727819.3382628     
  -538521833.32112455       -7856120.8980844915        1455639941.6517935     
  -491348699.13563138       -8678931.0218420923        1464171319.3785157     
  -920642120.51251483       -15376921.729875684        1415102476.7822502     
  -862645210.69978905       -15935587.608778298        1406859700.8342257     
  -804869025.97801661       -17230003.790861219        1402262694.3605335     
  -747313566.34718454       -19260170.276078969        1401311457.3611681     
  -689978831.80729771       -22026087.064444631        1404005989.8361297     
  -1756043417.4420388       -526813025.23261160        680045249.79559422     
  -1784069623.6169670       -500101470.06043768        806439910.81198359     
  -1809164779.7605500       -463619748.11711168        925728547.90242302     
  -1831328885.8727875       -417367859.40263331        1037911161.0669125     
  -1850561941.9536793       -361345803.91700304        1142987750.3054519     
  -2201747546.7887545       -660524264.03662634        696426404.67014205     
  -2238366580.6532602       -613901225.36619008        813843422.90233195     
  -2272941174.1050730       -560463385.32011187        927161639.87658322     
  -2305471327.1441927       -500210743.89839113        1036381055.5928953     
  -2335957039.7706203       -433143301.10102844        1141501670.0512693     
  -2685690600.5465970       -805707180.16397905        721974491.49087942     
  -2722310397.3349328       -736595038.56555641        829379489.05044127     
  -2757772363.3292294       -663623460.98700190        935692908.02007556     
  -2792076498.5294852       -586792447.42831492        1040914748.3997823     
  -2825222802.9357023       -506101997.88949639        1145045010.1895611     
  -3207872578.7155657       -962361773.61466980        756689510.25780618     
  -3235901073.6619854       -868182909.65853691        853048109.25631130     
  -3263658347.4330187       -773099975.11778212        951322352.33290040     
  -3291144400.0286646       -677112969.99240518        1051512239.4875727     
  -3318359231.4489260       -580221894.28240716        1153617770.7203290     
  -3768293481.2956605       -1130488044.3886981        800571460.97092247     
  -3779138609.6344175       -1008664838.6451311        884849283.51994240     
  -3790599126.4164419       -888892927.71245217        974049972.81505728     
  -3802675031.6417317       -771172311.59066129        1068173528.8562669     
  -3815366325.3102880       -655502990.27975881        1167219951.6435716     
  -1850561941.9536793       -361345803.91700304        1142987750.3054519     
  -1835227593.9017398       -295656982.49523526        1190507113.1173675     
  -1823288112.5649128       -241284383.45717716        1240293314.2253311     
  -1814743497.9431984       -198228006.80282551        1292346353.6293428     
  -1809593750.0365956       -166487852.53218269        1346666231.3294024     
  -2335957039.7706203       -433143301.10102844        1141501670.0512693     
  -2312448089.9792204       -352091320.39778882        1182746452.9741499     
  -2292443269.0529103       -282719769.24485105        1224467208.3356133     
  -2275942576.9916921       -225028647.64221781        1266663936.1356578     
  -2262946013.7955647       -179017955.58988810        1309336636.3742843     
  -2825222802.9357023       -506101997.88949639        1145045010.1895611     
  -2798656010.9976020       -411221885.78261167        1179887740.7150998     
  -2775702610.0745716       -328386410.39262569        1213415577.8217537     
  -2756362600.1666107       -257595571.71953773        1245628521.5095229     
  -2740635981.2737193       -198849369.76334822        1276526571.7784078     
  -3318359231.4489260       -580221894.28240716        1153617770.7203290     
  -3293851356.9568853       -473048678.64970529        1181930976.3402164     
  -3273066135.6298938       -378284306.90049684        1207138422.6837525     
  -3256003567.4679518       -295928779.03478396        1229240109.7509384     
  -3242663652.4710569       -225982095.05256355        1248236037.5417731     
  -3815366325.3102880       -655502990.27975881        1167219951.6435716     
  -3798034127.8570714       -537571698.99906957        1188876159.8494997     
  -3784533845.7188797       -432413458.76846874        1205635742.9216101     
  -3774865478.8957176       -340028269.58795893        1217498700.8599036     
  -3769029027.3875790       -260416131.45753479        1224465033.6643803     
  -1809593750.0365956       -166487852.53218269        1346666231.3294024     
  -1778648642.3505580       -134096134.02599007        1364272835.8001645     
  -1748981444.0142109       -105964113.35210019        1382673484.6927140     
  -1720592155.0275538       -82091790.510508418        1401868178.0070541     
  -1693480775.3905859       -62479165.501215518        1421856915.7431827     
  -2262946013.7955647       -179017955.58988810        1309336636.3742843     
  -2223238188.9569664       -134675217.37652314        1317197350.8293858     
  -2186409531.2961621       -99929703.089139342        1328246644.8937812     
  -2152460040.8131499       -74781412.727727175        1342484518.5674720     
  -2121389717.5079322       -59230346.292297244        1359910971.8504570     
  -2740635981.2737193       -198849369.76334822        1276526571.7784078     
  -2685323910.1754007       -140503153.11066210        1272773262.0850613     
  -2634492264.0829787       -97091686.477633834        1274603067.1885154     
  -2588141042.9964538       -68614969.864260077        1282015987.0887694     
  -2546270246.9158249       -55073003.270541549        1295012021.7858248     
  -3242663652.4710569       -225982095.05256355        1248236037.5417731     
  -3164905806.0058579       -151579941.22840941        1231000569.5671911     
  -3093229642.3746634       -97450063.517592430        1221742751.5769162     
  -3027635161.5774660       -63592461.920103908        1220462583.5709465     
  -2968122363.6142688       -50007136.435951948        1227160065.5492833     
  -3769029027.3875790       -260416131.45753479        1224465033.6643803     
  -3661983876.4483433       -167905581.72976422        1191879273.2757766     
  -3562621666.1712127       -101004834.20900691        1169665698.0589840     
  -3470942396.5561838       -59713888.895260334        1157824308.0140047     
  -3386946067.6032600       -44032745.788525581        1156355103.1408353     
  -1693480775.3905859       -62479165.501215518        1421856915.7431827     
  -1643828216.7542377       -40691916.703842640        1414939682.0239258     
  -1595922625.6330771       -24727892.957096756        1413040182.4914982     
  -1549764002.0271072       -14587094.260984063        1416158417.1459012     
  -1505352345.9363229       -10269520.615491331        1424294385.9871309     
  -2121389717.5079322       -59230346.292297244        1359910971.8504570     
  -2060109468.9612160       -40887520.261813641        1352154013.1047258     
  -2000084922.2327909       -26730366.958968520        1349118563.8186533     
  -1941316077.3226609       -16758886.383769870        1350804623.9922390     
  -1883802934.2308214       -10973078.536212206        1357212193.6254838     
  -2546270246.9158249       -55073003.270541549        1295012021.7858248     
  -2474208664.8220873       -40428506.915954113        1286988481.3266644     
  -2402911518.8497443       -28332130.966014981        1283390225.5999918     
  -2332378808.9987969       -18783875.420732975        1284217254.6058078     
  -2262610535.2692490       -11783740.280105829        1289469568.3441124     
  -2968122363.6142688       -50007136.435951948        1227160065.5492833     
  -2886125804.3368502       -39314876.666257977        1219443086.6897392     
  -2804402415.4839334       -29533184.978233457        1215855167.8355138     
  -2722952197.0555167       -20662061.371874809        1216396308.9866049     
  -2641775149.0515971       -12701505.847179651        1221066510.1430144     
  -3386946067.6032600       -44032745.788525581        1156355103.1408353     
  -3295860887.5055089       -37546629.512736678        1149517829.1939538     
  -3204557612.1353583       -30333528.995617867        1146513390.5252192     
  -3113036241.4928150       -22393444.237182736        1147341787.1346314     
  -3021296775.5778732       -13726375.237428308        1152003019.0221922     
  -1505352345.9363229       -10269520.615491331        1424294385.9871309     
  -1458591315.8834643       -8129164.3685140610        1417536739.0042722     
  -1411983557.6036327       -6499714.0316282511        1414996608.3076231     
  -1365529071.0968299       -5381169.6048386097        1416673993.8971844     
  -1319227856.3630552       -4773531.0881413817        1422568895.7729568     
  -1883802934.2308214       -10973078.536212206        1357212193.6254838     
  -1825288619.1912215       -7366564.9456511736        1350152772.3746276     
  -1767153533.6572773       -5024149.7072813511        1347578479.2865360     
  -1709397677.6289966       -3945832.8211216927        1349489314.3612094     
  -1652021051.1063747       -4131614.2871606350        1355885277.5986478     
  -2262610535.2692490       -11783740.280105829        1289469568.3441124     
  -2191578329.8813210       -6481687.7374893427        1281844755.4705222     
  -2121151311.7316828       -3196925.9891757965        1278972682.6362503     
  -2051329480.8203344       -1929455.0351593494        1280853349.8412995     
  -1982112837.1472766       -2679274.8754496574        1287486757.0856674     
  -2641775149.0515971       -12701505.847179651        1221066510.1430144     
  -2557460447.9537573       -5474532.7440319061        1212612688.2919540     
  -2473976891.8268380       -1018042.8772870302        1209179218.3567693     
  -2391324480.6708431        667963.75304508209        1210766100.3374567     
  -2309503214.4857650       -416512.85301530361        1217373334.2340200     
  -3021296775.5778732       -13726375.237428308        1152003019.0221922     
  -2922934973.4085369       -4345099.9652723074        1142456570.8389254     
  -2825630273.9427509        1512499.6283707619        1138198086.4480886     
  -2729382677.1805182        3846423.5435137749        1139227565.8496809     
  -2634192183.1218386        2656671.7801399231        1145545009.0437038     
  -1319227856.3630552       -4773531.0881413817        1422568895.7729568     
  -1268902915.5709822       -3623800.6296764016        1413830032.4963684     
  -1218863181.6052608       -3424759.5923808217        1410003874.1698520     
  -1169108654.4658883       -4176407.9762487411        1411090420.7934041     
  -1119639334.1528616       -5878745.7812722325        1417089672.3670261     
  -1652021051.1063747       -4131614.2871606350        1355885277.5986478     
  -1589342773.4963007       -3561263.1779639125        1347731275.0852952     
  -1526835395.6669495       -3560578.0045077801        1344300837.3317049     
  -1464498917.6183164       -4129558.7667795420        1345593964.3378766     
  -1402333339.3504026       -5268205.4647899270        1351610656.1038127     
  -1982112837.1472766       -2679274.8754496574        1287486757.0856674     
  -1907621623.2629418       -2850423.2786523104        1280050973.5554512     
  -1833187002.1136904       -3210214.1321467161        1277149614.5946889     
  -1758808973.6995373       -3758647.4359612465        1278782680.2033815     
  -1684487538.0204697       -4495723.1900620461        1284950170.3815300     
  -2309503214.4857650       -416512.85301530361        1217373334.2340200     
  -2223739464.8708987       -1491280.9317284822        1210789127.9068394     
  -2137918000.9454887       -2373667.9752995968        1208550205.9588053     
  -2052038822.7095473       -3063673.9837681055        1210656568.3899198     
  -1966101930.1630640       -3561298.9570957422        1217108215.2001796     
  -2634192183.1218386        2656671.7801399231        1145545009.0437038     
  -2537696298.3201752        516163.86279129982        1139945738.1394579     
  -2441028392.1623416       -1050939.5339764357        1138502611.4240530     
  -2344188464.6483502       -2044638.4102256298        1141215628.8974879     
  -2247176515.7781811       -2464932.7658796310        1148084790.5597656     
  -1119639334.1528616       -5878745.7812722325        1417089672.3670261     
  -1069810010.5004263       -7986555.6272603869        1410440991.7454448     
  -1020034033.6762241       -10272188.234026790        1407893565.6074538     
  -970311403.68024874       -12735643.601550519        1409447393.9530561     
  -920642120.51251483       -15376921.729875684        1415102476.7822502     
  -1402333339.3504026       -5268205.4647899270        1351610656.1038127     
  -1341748344.3217223       -7376512.0654937625        1345064508.7126157     
  -1281319142.8733683       -10004130.600627720        1342690814.8398738     
  -1221045735.0053389       -13151061.070175231        1344489574.4855857     
  -1160928120.7176449       -16817303.474171400        1350460787.6497555     
  -1684487538.0204697       -4495723.1900620461        1284950170.3815300     
  -1612943445.8016479       -6543498.8013125062        1278387035.0099416     
  -1541657593.9152515       -9452075.5206446052        1276067552.1916690     
  -1470629982.3612785       -13221453.348054945        1277991721.9267130     
  -1399860611.1397321       -17851632.283557534        1284159544.2150762     
  -1966101930.1630640       -3561298.9570957422        1217108215.2001796     
  -1883395314.9402092       -5487515.8347203732        1210408570.6374199     
  -1801049386.8018763       -8616022.9940801859        1208023777.6628377     
  -1719064145.7480648       -12946820.435185075        1209953836.2764349     
  -1637439591.7787762       -18479908.158022463        1216198746.4782135     
  -2247176515.7781811       -2464932.7658796310        1148084790.5597656     
  -2153103951.7374043       -4208563.1657234430        1141129115.5950541     
  -2059494521.5332451       -7495973.0209547281        1138559491.2533829     
  -1966348225.1657009       -12327162.331570983        1140375917.5347540     
  -1873665062.6347766       -18702131.097587585        1146578394.4391701     
  -920642120.51251483       -15376921.729875684        1415102476.7822502     
  -862645210.69978905       -15935587.608778298        1406859700.8342257     
  -804869025.97801661       -17230003.790861219        1402262694.3605335     
  -747313566.34718454       -19260170.276078969        1401311457.3611681     
  -689978831.80729771       -22026087.064444631        1404005989.8361297     
  -1160928120.7176449       -16817303.474171400        1350460787.6497555     
  -1093325391.0392120       -18512204.389608324        1342728285.1861713     
  -1025747654.4586933       -20290415.631421387        1339001313.5380075     
  -958194910.97607946       -22151937.199592352        1339279872.7052562     
  -890667160.59138191       -24096769.094140857        1343563962.6879215     
  -1399860611.1397321       -17851632.283557534        1284159544.2150762     
  -1321624172.0496240       -20374401.371721804        1277165669.2278106     
  -1243216994.0643973       -22328040.809486449        1274537086.3970459     
  -1164639077.1840398       -23712550.596827030        1276273795.7227867     
  -1085890421.4085667       -24527930.733767271        1282375797.2050328     
  -1637439591.7787762       -18479908.158022463        1216198746.4782135     
  -1547541553.7310319       -21522178.555140615        1210171852.9591393     
  -1457277044.7951264       -23342879.325060725        1208870012.9376554     
  -1366646064.9710655       -23942010.467797160        1212293226.4137595     
  -1275648614.2588456       -23319571.983321846        1220441493.3874605     
  -1873665062.6347766       -18702131.097587585        1146578394.4391701     
  -1771077536.0834291       -21955535.939859509        1141746836.3801594     
  -1667927806.6508880       -23334931.178154647        1142000093.1598263     
  -1564215874.3371503       -22840316.812462568        1147338164.7781756     
  -1459941739.1422248       -20471692.842806637        1157761051.2351971     
  -3768293481.2956605       -1130488044.3886981        800571460.97092247     
  -3779138609.6344175       -1008664838.6451311        884849283.51994240     
  -3790599126.4164419       -888892927.71245217        974049972.81505728     
  -3802675031.6417317       -771172311.59066129        1068173528.8562669     
  -3815366325.3102880       -655502990.27975881        1167219951.6435716     
  -4339803691.1199408       -1301941107.3359821        858765359.52937198     
  -4335265045.9867916       -1125710643.2496815        942356400.05783784     
  -4331866610.9020596       -953280879.32477283        1020302724.5856603     
  -4329608385.8657455       -784651815.56125569        1092604333.1128392     
  -4328490370.8778477       -619823451.95913112        1159261225.6393743     
  -4895253591.0214663       -1468576077.3064399        936416221.83229876     
  -4905524265.9785194       -1246996282.9460385        1018708188.4675344     
  -4917459972.5891418       -1030966594.0975329        1084787856.3553879     
  -4931060710.8533316       -820487010.76092279        1134655225.4958596     
  -4946326480.7710924       -615557532.93620908        1168310295.8889492     
  -5434643181.0002365       -1630392954.3000710        1033524047.8797029     
  -5489916269.6096029       -1372521757.7342017        1113904648.7490318     
  -5547379211.4776888       -1121950072.0307322        1167505368.1242399     
  -5607032006.6044950       -878677897.18966222        1194326206.0053284     
  -5668874654.9900208       -642705233.21099305        1194367162.3922963     
  -5957972461.0562525       -1787391738.3168757        1150088837.6715844     
  -6088441056.8800411       -1502287067.6141717        1227945780.9023302     
  -6221624327.5677004       -1226231313.1243708        1268455259.8922169     
  -6357522273.1192303       -959224474.84747386        1271617274.6412449     
  -6496134893.5346317       -701266552.78348041        1237431825.1494141     
  -3815366325.3102880       -655502990.27975881        1167219951.6435716     
  -3798034127.8570714       -537571698.99906957        1188876159.8494997     
  -3784533845.7188797       -432413458.76846874        1205635742.9216101     
  -3774865478.8957176       -340028269.58795893        1217498700.8599036     
  -3769029027.3875790       -260416131.45753479        1224465033.6643803     
  -4328490370.8778477       -619823451.95913112        1159261225.6393743     
  -4298287009.8385782       -464086113.43829870        1141330336.7970335     
  -4278690666.5948715       -343705500.90267479        1129472495.7146699     
  -4269701341.1467285       -258681614.35225916        1123687702.3922842     
  -4271319033.4941463       -209014453.78705144        1123975956.8298774     
  -4946326480.7710924       -615557532.93620908        1168310295.8889492     
  -4871910033.5920725       -412611570.40912390        1102888023.7710471     
  -4814875706.6891479       -267606008.80236506        1054508472.3069181     
  -4775223500.0623236       -180540848.11593533        1023171641.4965618     
  -4752953413.7115965       -151416088.34983277        1008877531.3399793     
  -5668874654.9900208       -642705233.21099305        1194367162.3922963     
  -5518903199.1175461       -383148069.91154313        1073549220.7715412     
  -5393088966.0017061       -204114982.46754098        980743672.69835436     
  -5291431955.6425028       -105605970.87898660        915950518.17273557     
  -5213932168.0399313       -87621035.145879269        879169757.19468498     
  -6496134893.5346317       -701266552.78348041        1237431825.1494141     
  -6239266506.4150066       -375695611.94555855        1053313927.7985148     
  -6013330444.5325508       -153232421.89820194        908178096.88897943     
  -5818326707.8872652       -33876982.641412973        802024332.42080522     
  -5654255296.4791489       -17629294.175190926        734852634.39399648     
  -3769029027.3875790       -260416131.45753479        1224465033.6643803     
  -3661983876.4483433       -167905581.72976422        1191879273.2757766     
  -3562621666.1712127       -101004834.20900691        1169665698.0589840     
  -3470942396.5561838       -59713888.895260334        1157824308.0140047     
  -3386946067.6032600       -44032745.788525581        1156355103.1408353     
  -4271319033.4941463       -209014453.78705144        1123975956.8298774     
  -4148532050.4069076       -144791835.47996354        1090515602.2555647     
  -4030148562.6374130       -95247534.898689985        1065320148.3357544     
  -3916168570.1856642       -60381552.043232918        1048389595.0704471     
  -3806592073.0516596       -40193886.913593292        1039723942.4596421     
  -4752953413.7115965       -151416088.34983277        1008877531.3399793     
  -4620445411.3829527       -117287645.33540654        978368602.14837646     
  -4489061459.0276928       -86906035.565598249        954017289.09396696     
  -4358801556.6458178       -60271259.040409088        935823592.17675149     
  -4229665704.2373319       -37383315.759841204        923787511.39672804     
  -5213932168.0399313       -87621035.145879269        879169757.19468498     
  -5077723959.3764782       -85393011.296093941        855438272.95421124     
  -4939360355.3420515       -75980336.209729671        835757120.33362198     
  -4798841355.9366512       -59383009.886788368        820126299.33291578     
  -4656166961.1602812       -35601032.327269554        808545809.95209444     
  -5654255296.4791489       -17629294.175190926        734852634.39399648     
  -5520367694.3874846       -49107933.362025261        721724614.67307043     
  -5381045251.5804892       -62470436.831085443        710539642.05471885     
  -5236287968.0581617       -57716804.582370520        701297716.53894258     
  -5086095843.8205032       -34847036.615885973        693998838.12574017     
  -3386946067.6032600       -44032745.788525581        1156355103.1408353     
  -3295860887.5055089       -37546629.512736678        1149517829.1939538     
  -3204557612.1353583       -30333528.995617867        1146513390.5252192     
  -3113036241.4928150       -22393444.237182736        1147341787.1346314     
  -3021296775.5778732       -13726375.237428308        1152003019.0221922     
  -3806592073.0516596       -40193886.913593292        1039723942.4596421     
  -3703425240.1177740       -29584952.987487555        1031776621.1467922     
  -3600902713.1475720       -21123705.606992722        1028338624.2027489     
  -3499024492.1410561       -14810144.772113800        1029409951.6275102     
  -3397790577.0982213       -10644270.482846260        1034990603.4210787     
  -4229665704.2373319       -37383315.759841204        923787511.39672804     
  -4112484392.4940033       -22071716.391429424        913724007.94248426     
  -3996809787.9504404       -11782474.355563641        908846317.94770360     
  -3882641890.6066403       -6515589.6522424221        909154441.41238868     
  -3769980700.4626031       -6271062.2814667225        914648378.33653593     
  -4656166961.1602812       -35601032.327269554        808545809.95209444     
  -4523038344.6341991       -15006919.724561214        795359989.58103025     
  -4392278836.5439653       -2309835.2413303852        788036471.76008666     
  -4263888436.8895717        2490221.1224219799        786575256.48926687     
  -4137867145.6710215       -606750.63330292702        790976343.76856852     
  -5086095843.8205032       -34847036.615885973        693998838.12574017     
  -4935087096.5383625       -8390562.9868824482        676684566.06242907     
  -4787309858.9281445        7294211.7357044220        665909085.63989508     
  -4642764130.9898481        12207287.551883698        661672396.85814464     
  -4501449912.7234774        6348664.4616532326        663974499.71717453     
  -3021296775.5778732       -13726375.237428308        1152003019.0221922     
  -2922934973.4085369       -4345099.9652723074        1142456570.8389254     
  -2825630273.9427509        1512499.6283707619        1138198086.4480886     
  -2729382677.1805182        3846423.5435137749        1139227565.8496809     
  -2634192183.1218386        2656671.7801399231        1145545009.0437038     
  -3397790577.0982213       -10644270.482846260        1034990603.4210787     
  -3287531699.3174562       -5499023.4312369823        1025821591.4780772     
  -3177767932.7547941       -2004147.1066426039        1021493757.3407947     
  -3068499277.4102335       -159641.50905168056        1022007101.0092325     
  -2959725733.2837725        34493.361529231071        1027361622.4833863     
  -3769980700.4626031       -6271062.2814667225        914648378.33653593     
  -3649101278.4610143       -5744802.8675899506        906512459.36682701     
  -3528154976.1920786       -4995609.2292265892        902770932.21612632     
  -3407141793.6557918       -4023481.3663699627        903423796.88443232     
  -3286061730.8521633       -2828419.2790250778        908471053.37174642     
  -4137867145.6710215       -606750.63330292702        790976343.76856852     
  -4007643710.8392119       -5082438.2743363380        784529174.50517523     
  -3876791404.2546020       -7461886.7393851280        782029611.07407868     
  -3745310225.9171982       -7745096.0284442902        783477653.47527683     
  -3613200175.8269906       -5932066.1415021420        788873301.70877159     
  -4501449912.7234774        6348664.4616532326        663974499.71717453     
  -4363158996.4520445       -3511929.6514706612        659871736.89312124     
  -4223677216.9423661       -9402979.6371068954        659269793.91465437     
  -4083004574.1944456       -11324485.495264053        662168670.78177249     
  -3941141068.2082734       -9276447.2259259224        668568367.49447429     
  -2634192183.1218386        2656671.7801399231        1145545009.0437038     
  -2537696298.3201752        516163.86279129982        1139945738.1394579     
  -2441028392.1623416       -1050939.5339764357        1138502611.4240530     
  -2344188464.6483502       -2044638.4102256298        1141215628.8974879     
  -2247176515.7781811       -2464932.7658796310        1148084790.5597656     
  -2959725733.2837725        34493.361529231071        1027361622.4833863     
  -2852009561.4519100       -908895.03668081760        1021576372.8486978     
  -2744339143.1802363       -2004795.3021852970        1019989710.6978308     
  -2636714478.4687500       -3253207.4349862337        1022601636.0307876     
  -2529135567.3174462       -4654131.4350689650        1029412148.8475645     
  -3286061730.8521633       -2828419.2790250778        908471053.37174642     
  -3167004005.4330044       -2538308.1909714937        902245754.27086270     
  -3048209808.4903898       -3126625.3580579758        900261485.94878638     
  -2929679140.0243192       -4593370.7802976370        902518248.40551150     
  -2811412000.0347924       -6938544.4576812983        909016041.64104235     
  -3613200175.8269906       -5932066.1415021420        788873301.70877159     
  -3482679630.2634487       -4372075.6000583172        781953882.40595126     
  -3352640388.0928078       -4416429.7016170025        779317937.17691576     
  -3223082449.3150649       -6065128.4461685419        780965466.02166712     
  -3094005813.9302201       -9318171.8337154388        786896468.94020391     
  -3941141068.2082734       -9276447.2259259224        668568367.49447429     
  -3799036435.9432526       -6410197.2639596462        660700757.25396478     
  -3657630881.9874926       -5874208.3328552246        657159064.38222277     
  -3516924406.3409820       -7668480.4325857162        657943288.87924445     
  -3376917009.0037274       -11793013.563176870        663053430.74504197     
  -2247176515.7781811       -2464932.7658796310        1148084790.5597656     
  -2153103951.7374043       -4208563.1657234430        1141129115.5950541     
  -2059494521.5332451       -7495973.0209547281        1138559491.2533829     
  -1966348225.1657009       -12327162.331570983        1140375917.5347540     
  -1873665062.6347766       -18702131.097587585        1146578394.4391701     
  -2529135567.3174462       -4654131.4350689650        1029412148.8475645     
  -2423971722.8960714       -7213724.4801440239        1021908914.2303995     
  -2319048377.0195599       -10574979.341435671        1018739682.2010920     
  -2214365529.6879168       -14737896.018952966        1019904452.7596399     
  -2109923180.9011483       -19702474.512716055        1025403225.9060481     
  -2811412000.0347924       -6938544.4576812983        909016041.64104235     
  -2695305583.9047747       -10358712.749576092        901224988.54513061     
  -2579217031.0278702       -13838425.218525529        897715890.00189316     
  -2463146341.4040904       -17377681.864542007        898488746.01132727     
  -2347093515.0334244       -20976482.687615991        903543556.57343590     
  -3094005813.9302201       -9318171.8337154388        786896468.94020391     
  -2967105534.7635155       -13643527.974020839        779077338.53925455     
  -2840000483.5581679       -17286310.652196646        775488114.65579283     
  -2712690660.3141975       -20246519.868294954        776128797.28981853     
  -2585176065.0315967       -22524155.622281671        780999386.44133461     
  -3376917009.0037274       -11793013.563176870        663053430.74504197     
  -3239371575.4722862       -17068170.153474569        655465964.21275914     
  -3101398734.6104641       -20918635.642491221        652056356.16278112     
  -2962998486.4182587       -23344410.030241251        652824606.59511161     
  -2824170830.8956757       -24345493.316732407        657770715.50974321     
  -1873665062.6347766       -18702131.097587585        1146578394.4391701     
  -1771077536.0834291       -21955535.939859509        1141746836.3801594     
  -1667927806.6508880       -23334931.178154647        1142000093.1598263     
  -1564215874.3371503       -22840316.812462568        1147338164.7781756     
  -1459941739.1422248       -20471692.842806637        1157761051.2351971     
  -2109923180.9011483       -19702474.512716055        1025403225.9060481     
  -1994738686.6524618       -23395205.690135241        1019781192.7521498     
  -1880599933.1922569       -30573739.495837092        1018865702.9117950     
  -1767506920.5205317       -41238075.929794908        1022656756.3849742     
  -1655459648.6372907       -55388214.992040098        1031154353.1717012     
  -2347093515.0334244       -20976482.687615991        903543556.57343590     
  -2220392828.8735027       -25432772.936015010        895255114.04336452     
  -2096345827.1717443       -38734678.044938445        891294943.30169678     
  -1974952509.9281442       -60882198.014400125        891663044.34843504     
  -1856212877.1426980       -91875332.844382524        896359417.18356287     
  -2585176065.0315967       -22524155.622281671        780999386.44133461     
  -2448039962.7465601       -28068237.677502394        768168600.25380147     
  -2315165488.5893531       -47817746.825494647        759287814.32952762     
  -2186552642.5599785       -81772683.066260219        754357028.66852021     
  -2062201424.6584425       -129933046.39982617        753376243.27077639     
  -2824170830.8956757       -24345493.316732407        657770715.50974321     
  -2677680088.2716203       -31301599.914580464        638521651.38345826     
  -2537058917.4450765       -57822945.837463498        622844315.99529803     
  -2402307318.4160500       -103909531.08540606        610738709.34526563     
  -2273425291.1845326       -169561355.65836680        602204831.43335140     
  -5957972461.0562525       -1787391738.3168757        1150088837.6715844     
  -6088441056.8800411       -1502287067.6141717        1227945780.9023302     
  -6221624327.5677004       -1226231313.1243708        1268455259.8922169     
  -6357522273.1192303       -959224474.84747386        1271617274.6412449     
  -6496134893.5346317       -701266552.78348041        1237431825.1494141     
  -6810618915.6160975       -2043185674.6848292        1353805251.0245504     
  -6828522435.3536825       -1395489994.7895181        1202779762.1625967     
  -6897786025.8333282       -918994550.70107579        1092015409.3325951     
  -7018409687.0550337       -613699342.41950059        1021512192.5345460     
  -7190393419.0187988       -479604369.94479299        991270111.76844919     
  -8337960029.1063557       -2501388008.7319064        1712367947.7552083     
  -8021559614.8354197       -1424579662.2672939        1275707064.9426677     
  -7805164667.1847353       -681122871.20351386        956915918.43489051     
  -7688775186.1542978       -271017635.54056644        755994508.23187649     
  -7672391171.7441139       -194263955.27845144        672942834.33362544     
  -10539995801.527029       -3161998740.4581084        2225776927.8635588     
  -9667552595.3252544       -1589556070.0474994        1446727689.2425437     
  -8943760251.6219196       -512616274.63168573        863156787.19910336     
  -8368618770.4170246        68820645.789330006        475064221.73323667     
  -7942128151.7105684        154754691.21554852        282449992.84494358     
  -13416726232.878115       -4025017869.8634343        2894032191.3496008     
  -11766501376.823189       -1890419218.1301332        1715841635.0622241     
  -10313572779.144886       -413474760.98559284        810738015.62523234     
  -9057940439.8432140        405815501.57018661        178721333.03862590     
  -7999604358.9181757        567451569.53720331       -180208412.69759619     
  -6496134893.5346317       -701266552.78348041        1237431825.1494141     
  -6239266506.4150066       -375695611.94555855        1053313927.7985148     
  -6013330444.5325508       -153232421.89820194        908178096.88897943     
  -5818326707.8872652       -33876982.641412973        802024332.42080522     
  -5654255296.4791489       -17629294.175190926        734852634.39399648     
  -7190393419.0187988       -479604369.94479299        991270111.76844919     
  -6900517464.9861546       -304293105.35607171        846971394.12843502     
  -6623462723.9597387       -171719217.45478654        723756356.03765893     
  -6359229195.9395542       -81882706.240935802        621624997.49611974     
  -6107816880.9256001       -34783571.714523315        540577318.50381780     
  -7672391171.7441139       -194263955.27845144        672942834.33362544     
  -7400645899.0616646       -184553841.41789579        589592927.34059274     
  -7123610727.1545076       -157210730.14164591        509428313.00467259     
  -6841285656.0226402       -112234621.44969797        432448991.32586217     
  -6553670685.6660681       -49625515.342061758        358654962.30416358     
  -7942128151.7105684        154754691.21554852        282449992.84494358     
  -7739651808.6415358       -16477820.131025791        281178527.43498778     
  -7513774454.1168537       -109706959.95877647        265193967.79001945     
  -7264496088.1365261       -124932728.26770544        234496313.91003475     
  -6991816710.7005491       -62155125.057804108        189085565.79503325     
  -7999604358.9181757        567451569.53720331       -180208412.69759619     
  -7917535193.7257700        199934958.50453377       -78271805.588377550     
  -7793953904.8467827       -29207906.906185627       -8946679.6063034385     
  -7628860492.2812061       -119977026.69494104        27766965.248633731     
  -7422254956.0290422       -72372400.861747265        31869128.976426300     
  -5654255296.4791489       -17629294.175190926        734852634.39399648     
  -5520367694.3874846       -49107933.362025261        721724614.67307043     
  -5381045251.5804892       -62470436.831085443        710539642.05471885     
  -5236287968.0581617       -57716804.582370520        701297716.53894258     
  -5086095843.8205032       -34847036.615885973        693998838.12574017     
  -6107816880.9256001       -34783571.714523315        540577318.50381780     
  -5959124949.7230654       -36417778.906438589        534212482.68581909     
  -5809425361.4977570       -34693129.355767250        530405368.62093687     
  -5658718116.2496672       -29609623.062502146        529155976.30916661     
  -5507003213.9788036       -21167260.026649475        530464305.75051242     
  -6553670685.6660681       -49625515.342061758        358654962.30416358     
  -6388418212.0654068       -20888426.552884102        353888262.74777979     
  -6226585265.1345243       -3549759.9962997437        352293959.59505075     
  -6068171844.8734169        2390484.3276953697        353872052.84597468     
  -5913177951.2820902       -3067693.5809035301        358622542.50055212     
  -6991816710.7005491       -62155125.057804108        189085565.79503325     
  -6808247481.4145069       -2519876.3013596535        180751954.85895252     
  -6632524962.4907990        30959671.247313023        176205414.97706351     
  -6464649153.9294195        38283517.588213921        175445946.14936543     
  -6304620055.7303753        19451662.721338272        178473548.37586471     
  -7422254956.0290422       -72372400.861747265        31869128.976426300     
  -7218612757.7703648        18687871.848145962        14803559.019330384     
  -7027244453.5665712        68835164.375085831        2139734.7669701711     
  -6848150043.4176664        78069476.719061852       -6122343.7806617822     
  -6681329527.3236513        46390808.880083561       -9982676.6235591508     
  -5086095843.8205032       -34847036.615885973        693998838.12574017     
  -4935087096.5383625       -8390562.9868824482        676684566.06242907     
  -4787309858.9281445        7294211.7357044220        665909085.63989508     
  -4642764130.9898481        12207287.551883698        661672396.85814464     
  -4501449912.7234774        6348664.4616532326        663974499.71717453     
  -5507003213.9788036       -21167260.026649475        530464305.75051242     
  -5345127389.6748333       -9631766.4911088943        515213364.36079502     
  -5184229648.4003963       -1356549.7206838131        505226224.44557875     
  -5024309990.1554995        3658390.2846164703        500502886.00486636     
  -4865368414.9401321        5413053.5248057842        501043349.03865081     
  -5913177951.2820902       -3067693.5809035301        358622542.50055212     
  -5744077879.0028057       -7546028.8527820110        348063929.53388423     
  -5573702463.1106691       -7773218.7484841347        341494127.87543762     
  -5402051703.6056795       -3749263.2680065632        338913137.52521288     
  -5229125600.4878321        4525837.5886473656        340320958.48321033     
  -6304620055.7303753        19451662.721338272        178473548.37586471     
  -6131938564.5222893       -2133350.0719144344        175236261.58169758     
  -5955728303.0589581       -11955795.347681522        174712795.92946929     
  -5775989271.3403902       -10015673.105988503        176903151.41919327     
  -5592721469.3665752        3687016.6531865597        181807328.05085087     
  -6681329527.3236513        46390808.880083561       -9982676.6235591508     
  -6508709446.2332764        6606269.8515055180       -3269639.4957676399     
  -6330307168.2452707       -13904279.518298864        4882228.6076809326     
  -6146122693.3596344       -15140839.229334593        14472927.686796013     
  -5956156021.5763693        2896590.7183904648        25502457.741573602     
  -4501449912.7234774        6348664.4616532326        663974499.71717453     
  -4363158996.4520445       -3511929.6514706612        659871736.89312124     
  -4223677216.9423661       -9402979.6371068954        659269793.91465437     
  -4083004574.1944456       -11324485.495264053        662168670.78177249     
  -3941141068.2082734       -9276447.2259259224        668568367.49447429     
  -4865368414.9401321        5413053.5248057842        501043349.03865081     
  -4715555947.6149549        3315017.7225039005        497868683.12283814     
  -4565499880.7825060        2028980.2777621746        498264569.33105499     
  -4415200214.4427948        1554941.1905765533        502231007.66330397     
  -4264656948.5958118        1892900.4609460831        509767998.11958301     
  -5229125600.4878321        4525837.5886473656        340320958.48321033     
  -5067592347.0276365        10250130.621545792        336969248.45616275     
  -4906762757.7911482        13628876.242084503        337257822.83158940     
  -4746636832.7783794        14662074.450232267        341186681.60949337     
  -4587214571.9893074        13349725.246037722        348755824.78987098     
  -5592721469.3665752        3687016.6531865597        181807328.05085087     
  -5419268194.6900873        17293409.045674324        177173432.89309418     
  -5247465847.9682951        25396708.255845070        176249554.41626021     
  -5077314429.2011843        27996914.283740282        179035692.62034127     
  -4908813938.3887634        25094027.129327536        185531847.50534704     
  -5956156021.5763693        2896590.7183904648        25502457.741573602     
  -5770583490.6023283        24444852.994822741        18481236.433635384     
  -5587609151.3139353        37332476.319082499        15239764.085055174     
  -5407233003.7112293        41559460.691059828        15778040.695851630     
  -5229455047.7941790        37125806.110849857        20096066.266006574     
  -3941141068.2082734       -9276447.2259259224        668568367.49447429     
  -3799036435.9432526       -6410197.2639596462        660700757.25396478     
  -3657630881.9874926       -5874208.3328552246        657159064.38222277     
  -3516924406.3409820       -7668480.4325857162        657943288.87924445     
  -3376917009.0037274       -11793013.563176870        663053430.74504197     
  -4264656948.5958118        1892900.4609460831        509767998.11958301     
  -4111770251.1444359        3082145.7204008102        501757435.49019402     
  -3959029401.6567559        3785231.1008667946        498101852.87443137     
  -3806434400.1327596        4002156.6023895741        498801250.27229142     
  -3653985246.5724554        3732922.2249238491        503855627.68377554     
  -4587214571.9893074        13349725.246037722        348755824.78987098     
  -4423462773.2234144        12886876.641429424        341247745.17476505     
  -4259303592.0756550        13781969.309711218        338123708.21813798     
  -4094737028.5460176        16035003.250923872        339383713.91999102     
  -3929763082.6345134        19645978.465027094        345027762.28032249     
  -4908813938.3887634        25094027.129327536        185531847.50534704     
  -4734114002.1801958        23003995.499115467        179171686.30767635     
  -4558453453.2441988        24116006.293667078        177224630.41334426     
  -4381832291.5807629        28430059.513000727        179690679.82234910     
  -4204250517.1898932        35946155.157134533        186569834.53468028     
  -5229455047.7941790        37125806.110849857        20096066.266006574     
  -5043723938.0147800        33433502.293454170        15529258.888927413     
  -4856478985.1623926        34787342.052694798        15404619.460046992     
  -4667720189.2369919        41187325.388648272        19722147.979359224     
  -4477447550.2385960        52633452.301241875        28481844.446856745     
  -3376917009.0037274       -11793013.563176870        663053430.74504197     
  -3239371575.4722862       -17068170.153474569        655465964.21275914     
  -3101398734.6104641       -20918635.642491221        652056356.16278112     
  -2962998486.4182587       -23344410.030241251        652824606.59511161     
  -2824170830.8956757       -24345493.316732407        657770715.50974321     
  -3653985246.5724554        3732922.2249238491        503855627.68377554     
  -3504491403.8454142        2554204.6029500961        496990414.23751390     
  -3354866805.4587822        1811339.1796159744        494193094.23595369     
  -3205111451.4125485        1504325.9549406767        495463667.67908889     
  -3055225341.7067232        1633164.9289106131        500802134.56692743     
  -3929763082.6345134        19645978.465027094        345027762.28032249     
  -3768635016.5336022        22469444.064831257        338538708.30416912     
  -3607672846.4438887        24739922.960673809        336007582.73510110     
  -3446876572.3653579        26457415.152566910        337434385.57314026     
  -3286246194.2980204        27621920.640475273        342819116.81826079     
  -4204250517.1898932        35946155.157134533        186569834.53468028     
  -4031802413.5368495        42677548.232206106        180110846.41271469     
  -3859816857.5657754        47867115.700706959        177499821.66024217     
  -3688293849.2766752        51514857.562624216        178736760.27724603     
  -3517233388.6695509        53620773.817971945        183821662.26375428     
  -4477447550.2385960        52633452.301241875        28481844.446856745     
  -4293993594.8551388        63178517.105077982        21706828.563168470     
  -4111298838.8244476        71192917.399694920        18669811.011364695     
  -3929363282.1464996        76676653.185154915        19370791.791434199     
  -3748186924.8213291        79629724.461380482        23809770.903395243     
  -2824170830.8956757       -24345493.316732407        657770715.50974321     
  -2677680088.2716203       -31301599.914580464        638521651.38345826     
  -2537058917.4450765       -57822945.837463498        622844315.99529803     
  -2402307318.4160500       -103909531.08540606        610738709.34526563     
  -2273425291.1845326       -169561355.65836680        602204831.43335140     
  -3055225341.7067232        1633164.9289106131        500802134.56692743     
  -2896871068.2032728        7047962.0758330822        478684380.59725493     
  -2736837324.6229391        18060992.812359810        459265866.93250394     
  -2575124110.9657211        34672257.138491750        442546593.57268560     
  -2411731427.2316318        56881755.054219484        428526560.51778179     
  -3286246194.2980204        27621920.640475273        342819116.81826079     
  -3118521214.0100260        44659774.303711414        326639888.52532846     
  -2941567721.7707591        92459334.471218348        312287412.10411769     
  -2755385717.5802317        171020601.14293408        299761687.55462736     
  -2559975201.4384170        280343574.31890666        289062714.87687367     
  -3517233388.6695509        53620773.817971945        183821662.26375428     
  -3342630525.6918836        81533836.769064426        182388175.16767967     
  -3151250108.8885403        165372079.13907731        181908951.51012725     
  -2943092138.2595439        305135500.92793107        182383991.29110786     
  -2718156613.8048739        500824102.13569188        183813294.51059547     
  -3748186924.8213291        79629724.461380482        23809770.903395243     
  -3569199003.2488399        117670149.47188091        45929240.524309978     
  -3365884485.9762888        236799226.81593275        68130485.150541320     
  -3138243373.0036821        437016956.49349713        90413504.782100976     
  -2886275664.3310256        718323338.50456262        112778299.41897564     
 </DataArray>
 <DataArray  type="Float64" Name="VM" NumberOfComponents="1" format="ascii">
   12935726334.300385     
   11340765260.429960     
   10210202309.617258     
   9272682881.7269382     
   8303763270.5088024     
   10130377232.981226     
   9322028094.5880051     
   8826325664.9271336     
   8443429883.7583380     
   8035531356.5123129     
   7982396767.2857046     
   7734971281.8003502     
   7669114153.9627600     
   7669517836.4096832     
   7666251489.4131880     
   6491698135.7026043     
   6586881941.2622862     
   6757400997.2070217     
   6961175869.6974373     
   7171546769.8526077     
   5657834154.7951355     
   5890920742.8243923     
   6116374594.2925682     
   6331740800.3832560     
   6536798434.7769299     
   8303763270.5088024     
   8020518002.7918882     
   7779406508.6239500     
   7569737902.7548876     
   7386540930.2723351     
   8035531356.5123129     
   7746749843.8897390     
   7473654550.2599182     
   7214284708.3272038     
   6968647429.0830908     
   7666251489.4131880     
   7381101657.4035406     
   7101351180.1125612     
   6827077949.2378216     
   6558485573.0307913     
   7171546769.8526077     
   6911008415.5799513     
   6658366158.4902687     
   6409761521.5189133     
   6162049721.9211683     
   6536798434.7769299     
   6328818165.7967014     
   6143008089.7932529     
   5965458496.0380316     
   5787163243.2897625     
   7386540930.2723351     
   7228020291.5308847     
   7061914624.1241293     
   6887524795.3394566     
   6704667598.7181377     
   6968647429.0830908     
   6814183589.2290783     
   6655060609.7995882     
   6490992810.3722591     
   6321930574.0463247     
   6558485573.0307913     
   6407385604.4537497     
   6254646823.4246502     
   6100237488.3725643     
   5944188208.8471088     
   6162049721.9211683     
   6012622327.9213743     
   5864560432.4358616     
   5717904605.9136925     
   5572714008.7962494     
   5787163243.2897625     
   5636349570.5806036     
   5489808198.7183571     
   5347455148.8621454     
   5209342861.2297544     
   6704667598.7181377     
   6512017556.7733059     
   6323372147.2581902     
   6138617460.9775925     
   5957768591.7819157     
   6321930574.0463247     
   6138380631.8089991     
   5957450022.6646156     
   5779116379.2946978     
   5603421204.1410732     
   5944188208.8471088     
   5771879082.6140614     
   5601138159.5226793     
   5431989442.0347252     
   5264493923.4186926     
   5572714008.7962494     
   5414363397.5261726     
   5256897073.5736065     
   5100352396.9453878     
   4944826482.0486794     
   5209342861.2297544     
   5068279087.1321135     
   4927840630.8424578     
   4788059569.9283581     
   4649113489.8368130     
   5957768591.7819157     
   5782933259.1974812     
   5606430749.6314297     
   5428200847.5318604     
   5248231862.1463518     
   5603421204.1410732     
   5436603325.0274057     
   5269060910.4500198     
   5100805435.9011440     
   4931889301.0297852     
   5264493923.4186926     
   5106190905.7007875     
   4948192465.8810778     
   4790573742.5664167     
   4633448570.4716578     
   4944826482.0486794     
   4795386399.1162901     
   4647349710.0114470     
   4500840884.9954319     
   4356026315.2907791     
   4649113489.8368130     
   4508673617.4572525     
   4370781678.2874384     
   4235589534.4504232     
   4103299909.6212106     
   5248231862.1463518     
   5060595002.3687611     
   4874038797.5639591     
   4688573981.8087034     
   4504265095.7064695     
   4931889301.0297852     
   4755793894.7551041     
   4580855472.2560244     
   4407119747.5188513     
   4234686067.2460136     
   4633448570.4716578     
   4469177065.8136797     
   4306221258.2729301     
   4144675073.4346232     
   3984690744.6922240     
   4356026315.2907791     
   4204119255.7869987     
   4053792089.2960596     
   3905201764.7360048     
   3758573344.6811419     
   4103299909.6212106     
   3964586081.3241596     
   3827843590.1179843     
   3693306740.0228291     
   3561292324.5071573     
   4504265095.7064695     
   4326092264.3404169     
   4147479678.9537344     
   3968399085.6677132     
   3788853918.7947826     
   4234686067.2460136     
   4065296948.2837343     
   3896120418.3253188     
   3727198377.8510962     
   3558619665.0446639     
   3984690744.6922240     
   3825129964.3803983     
   3666588639.1193624     
   3509193558.0063157     
   3353136485.2685990     
   3758573344.6811419     
   3609905272.8317757     
   3463219855.2109981     
   3318737096.1616278     
   3176759756.1937022     
   3561292324.5071573     
   3424534451.2232728     
   3290861146.6744914     
   3160581495.6337914     
   3034100303.8656635     
   3788853918.7947826     
   3630336696.9328203     
   3492308183.1524506     
   3381648225.3437629     
   3310288762.3089643     
   3558619665.0446639     
   3398846932.2777495     
   3252403204.2304211     
   3122936554.1414895     
   3016932309.6016860     
   3353136485.2685990     
   3191633183.3928819     
   3037419151.9262671     
   2891746442.8717413     
   2756884110.6266923     
   3176759756.1937022     
   3016578344.2893152     
   2858812722.4798417     
   2703570647.2376852     
   2551033646.2869554     
   3034100303.8656635     
   2882752931.8722796     
   2730772121.3298178     
   2579003759.6401696     
   2428925812.6385574     
   5657834154.7951355     
   5890920742.8243923     
   6116374594.2925682     
   6331740800.3832560     
   6536798434.7769299     
   5151450243.5451336     
   5311338606.6507092     
   5467861732.7484016     
   5618127173.4212303     
   5760671247.3620796     
   4643468221.1319389     
   4755554294.5085926     
   4868763890.4160385     
   4980463316.6855841     
   5088728234.8202047     
   4134151875.4343309     
   4224405309.8274751     
   4320576362.8010035     
   4421007221.4429522     
   4524242469.9206400     
   3625020309.3653588     
   3719715569.0853662     
   3825657547.0224276     
   3942779539.7276073     
   4070986069.4235573     
   6536798434.7769299     
   6328818165.7967014     
   6143008089.7932529     
   5965458496.0380316     
   5787163243.2897625     
   5760671247.3620796     
   5652261639.8363609     
   5559841339.2203131     
   5474348729.2830391     
   5390244368.5171223     
   5088728234.8202047     
   5054170081.5271606     
   5030120846.5830421     
   5011374282.3180256     
   4994729321.1412859     
   4524242469.9206400     
   4539138314.6934271     
   4558710577.4465303     
   4580479739.3254185     
   4602722212.8006334     
   4070986069.4235573     
   4112494435.1342816     
   4151369303.2876921     
   4186714331.1752973     
   4217798509.6761065     
   5787163243.2897625     
   5636349570.5806036     
   5489808198.7183571     
   5347455148.8621454     
   5209342861.2297544     
   5390244368.5171223     
   5249027943.6341686     
   5111088863.0616531     
   4976470285.4064579     
   4845269119.2300043     
   4994729321.1412859     
   4867439408.4886923     
   4743368620.8456869     
   4622485323.6571045     
   4504830813.2607079     
   4602722212.8006334     
   4494249894.7261410     
   4389991898.7650661     
   4289629365.9735465     
   4193069837.3491945     
   4217798509.6761065     
   4133422222.4993973     
   4055488458.7211528     
   3983141321.4271193     
   3916079338.8638787     
   5209342861.2297544     
   5068279087.1321135     
   4927840630.8424578     
   4788059569.9283581     
   4649113489.8368130     
   4845269119.2300043     
   4721018613.3301153     
   4598366854.1241684     
   4477440199.8670301     
   4358481957.5490274     
   4504830813.2607079     
   4396239318.4122782     
   4290167816.8810387     
   4186805250.8772817     
   4086428392.3746047     
   4193069837.3491945     
   4098823869.1570587     
   4007907575.9397411     
   3920538895.6836119     
   3836996711.3427243     
   3916079338.8638787     
   3834649135.7405853     
   3757177523.1408973     
   3683878939.3248653     
   3615008166.1168690     
   4649113489.8368130     
   4508673617.4572525     
   4370781678.2874384     
   4235589534.4504232     
   4103299909.6212106     
   4358481957.5490274     
   4229340779.0753093     
   4103090302.1869526     
   3979938765.1824460     
   3860152871.6042342     
   4086428392.3746047     
   3969924973.8143883     
   3856846285.8592310     
   3747458669.0188751     
   3642097511.0780296     
   3836996711.3427243     
   3734534310.3930230     
   3636233328.7737875     
   3542413515.2002616     
   3453475669.3284287     
   3615008166.1168690     
   3527958098.4446692     
   3446004519.0544353     
   3369504605.4315376     
   3298907968.9813571     
   4103299909.6212106     
   3964586081.3241596     
   3827843590.1179843     
   3693306740.0228291     
   3561292324.5071573     
   3860152871.6042342     
   3734729651.4386687     
   3612121214.6084337     
   3492630809.2004857     
   3376647215.1562862     
   3642097511.0780296     
   3530442486.3670158     
   3422495344.8552556     
   3318614375.0527196     
   3219240422.4567866     
   3453475669.3284287     
   3355923421.9227505     
   3262979697.1895700     
   3175033592.9427867     
   3092546768.1103854     
   3298907968.9813571     
   3215531289.0123167     
   3137613727.2896423     
   3065542369.8331060     
   2999760865.7501831     
   3561292324.5071573     
   3424534451.2232728     
   3290861146.6744914     
   3160581495.6337914     
   3034100303.8656635     
   3376647215.1562862     
   3253352739.0535340     
   3133840107.4829741     
   3018493940.7642598     
   2907798788.7196407     
   3219240422.4567866     
   3110221692.3389487     
   3005751335.9268150     
   2906274959.1805506     
   2812334803.4175673     
   3092546768.1103854     
   2998516053.4538207     
   2909822140.4398856     
   2826943941.9762454     
   2750445163.8387427     
   2999760865.7501831     
   2921188080.9082890     
   2848699540.1024990     
   2782770108.5706062     
   2723941083.2355037     
   3034100303.8656635     
   2882752931.8722796     
   2730772121.3298178     
   2579003759.6401696     
   2428925812.6385574     
   2907798788.7196407     
   2774026730.3755808     
   2642182006.6230307     
   2513177786.8976288     
   2388375300.0821576     
   2812334803.4175673     
   2697918741.4010725     
   2588085191.9653406     
   2483766011.5519342     
   2386170115.6859145     
   2750445163.8387427     
   2655696418.1775203     
   2567947789.3319163     
   2488046069.6942830     
   2416973204.7911091     
   2723941083.2355037     
   2647464866.6740899     
   2579941728.8127851     
   2522046860.7010689     
   2474508723.8997612     
   3625020309.3653588     
   3719715569.0853662     
   3825657547.0224276     
   3942779539.7276073     
   4070986069.4235573     
   3138023225.6199203     
   3255536291.1903057     
   3382463280.9089680     
   3518333532.4233265     
   3662687898.0443068     
   2694802285.8908820     
   2830532958.3248987     
   2973574569.3133235     
   3122844486.6203814     
   3277431378.1872554     
   2298848863.2544317     
   2449499342.2392578     
   2604873624.7395468     
   2763049832.5979438     
   2922598579.1446142     
   1955376824.8484771     
   2119392849.2644715     
   2284770444.5391264     
   2448551068.5678654     
   2608777585.2999215     
   4070986069.4235573     
   4112494435.1342816     
   4151369303.2876921     
   4186714331.1752973     
   4217798509.6761065     
   3662687898.0443068     
   3702156436.4454632     
   3740248775.7501526     
   3776066955.8591332     
   3808862187.1128893     
   3277431378.1872554     
   3320710096.6509738     
   3364222300.9691925     
   3407144655.3160744     
   3448798802.5627761     
   2922598579.1446142     
   2975543493.3007898     
   3030687613.3245645     
   3087347211.7667365     
   3144988299.1160517     
   2608777585.2999215     
   2676713858.1232219     
   2749117906.1329713     
   2825479182.6280913     
   2905443543.0936503     
   4217798509.6761065     
   4133422222.4993973     
   4055488458.7211528     
   3983141321.4271193     
   3916079338.8638787     
   3808862187.1128893     
   3755789691.9306526     
   3708651609.8597708     
   3666970227.9962683     
   3630645845.9770012     
   3448798802.5627761     
   3422464680.7774386     
   3401180372.1282310     
   3384714437.7440224     
   3373049490.3886108     
   3144988299.1160517     
   3141104416.3048143     
   3140796519.3217721     
   3143963506.3875189     
   3150591289.0650845     
   2905443543.0936503     
   2920065747.3373079     
   2936016537.7317820     
   2953241117.3325300     
   2971700654.3276496     
   3916079338.8638787     
   3834649135.7405853     
   3757177523.1408973     
   3683878939.3248653     
   3615008166.1168690     
   3630645845.9770012     
   3560747739.4933705     
   3495373163.3657312     
   3434747985.9250941     
   3379140869.0776877     
   3373049490.3886108     
   3315468665.3820634     
   3263124007.0614181     
   3216236076.3981891     
   3175071428.5953364     
   3150591289.0650845     
   3105873704.3903971     
   3067238806.8255353     
   3034876285.4279704     
   3009026020.8971829     
   2971700654.3276496     
   2939914866.6328602     
   2915161120.2100000     
   2897565990.6442471     
   2887312831.0045190     
   3615008166.1168690     
   3527958098.4446692     
   3446004519.0544353     
   3369504605.4315376     
   3298907968.9813571     
   3379140869.0776877     
   3307252879.1721368     
   3241047242.0568242     
   3180863747.2080636     
   3127113178.1410699     
   3175071428.5953364     
   3117407639.2605891     
   3065913454.0595298     
   3020886346.7724814     
   2982672341.5956802     
   3009026020.8971829     
   2964291521.0268755     
   2926069322.0015478     
   2894594136.8784099     
   2870128876.4039111     
   2887312831.0045190     
   2853756960.6572442     
   2826872568.8537364     
   2806821345.9930944     
   2793777789.8838029     
   3298907968.9813571     
   3215531289.0123167     
   3137613727.2896423     
   3065542369.8331060     
   2999760865.7501831     
   3127113178.1410699     
   3056097860.6199369     
   2991221337.3235421     
   2932857633.5415940     
   2881427564.5177813     
   2982672341.5956802     
   2923898481.7985969     
   2871938957.4529910     
   2827130668.3370333     
   2789845212.2561488     
   2870128876.4039111     
   2823030612.0386882     
   2783385854.3823414     
   2751471562.3992467     
   2727587373.9977260     
   2793777789.8838029     
   2757222438.9113736     
   2728698894.8211417     
   2708408824.6889801     
   2696567109.2139335     
   2999760865.7501831     
   2921188080.9082890     
   2848699540.1024990     
   2782770108.5706062     
   2723941083.2355037     
   2881427564.5177813     
   2816405433.9468093     
   2757952061.1320739     
   2706484359.0590754     
   2662462835.9621897     
   2789845212.2561488     
   2737498003.1962595     
   2692075558.1194301     
   2653916354.4988837     
   2623382517.1801319     
   2727587373.9977260     
   2686641253.9720964     
   2652831740.2647953     
   2626409006.5159144     
   2607632316.7667246     
   2696567109.2139335     
   2665341358.8687711     
   2641323511.0956602     
   2624678038.2185230     
   2615570081.9191184     
   2723941083.2355037     
   2647464866.6740899     
   2579941728.8127851     
   2522046860.7010689     
   2474508723.8997612     
   2662462835.9621897     
   2599151653.8971558     
   2544461500.2621179     
   2498907558.9973516     
   2463028190.3010535     
   2623382517.1801319     
   2571698796.7370467     
   2528173800.3532991     
   2493181554.0107670     
   2467101126.5545373     
   2607632316.7667246     
   2565973696.7202454     
   2531902576.3642440     
   2505676361.6838765     
   2487548745.3034172     
   2615570081.9191184     
   2582329694.7756801     
   2556025264.8243113     
   2536824107.7261443     
   2524887494.4469504     
   1955376824.8484771     
   2119392849.2644715     
   2284770444.5391264     
   2448551068.5678654     
   2608777585.2999215     
   1653892317.2271445     
   1820316069.3868804     
   1988440406.1348901     
   2155570231.8088222     
   2319948400.3905454     
   1393738302.5570767     
   1571098444.5871096     
   1749464861.0192692     
   1926834702.2089806     
   2101958178.6690075     
   1207221791.8569930     
   1399155243.0528674     
   1590664822.8620226     
   1780974057.1612291     
   1969624585.3676784     
   1137004530.8946638     
   1335320683.3702700     
   1533940494.8958569     
   1732863965.4714224     
   1932091095.0969677     
   2608777585.2999215     
   2676713858.1232219     
   2749117906.1329713     
   2825479182.6280913     
   2905443543.0936503     
   2319948400.3905454     
   2406995052.0204935     
   2496460846.8364787     
   2587955530.0278935     
   2681203397.2968898     
   2101958178.6690075     
   2205731602.4205303     
   2309412293.9768934     
   2412763929.9705653     
   2515619728.2771049     
   1969624585.3676784     
   2086838240.6460381     
   2201218372.6611886     
   2312689930.0577464     
   2421200780.3124237     
   1932091095.0969677     
   2058843442.8268790     
   2180213157.0496202     
   2296200237.7651925     
   2406804684.9735942     
   2905443543.0936503     
   2920065747.3373079     
   2936016537.7317820     
   2953241117.3325300     
   2971700654.3276496     
   2681203397.2968898     
   2702828123.1270776     
   2726857699.6960373     
   2753276114.3921585     
   2782076977.3166437     
   2515619728.2771049     
   2544158696.4306560     
   2576204550.0076246     
   2611760273.4397292     
   2650832957.4920192     
   2421200780.3124237     
   2455054495.6450691     
   2493514972.2759867     
   2536586146.6419954     
   2584272796.2101412     
   2406804684.9735942     
   2442769828.9301677     
   2484430276.0991578     
   2531786026.4805660     
   2584837080.0743871     
   2971700654.3276496     
   2939914866.6328602     
   2915161120.2100000     
   2897565990.6442471     
   2887312831.0045190     
   2782076977.3166437     
   2764930257.0479078     
   2754836338.8991346     
   2751880903.1508322     
   2756179923.9078417     
   2650832957.4920192     
   2645736594.4984279     
   2647463143.3238888     
   2656053634.1185231     
   2671561296.5265036     
   2584272796.2101412     
   2588006348.7818422     
   2598086598.7908278     
   2614523430.8358097     
   2637329439.2827678     
   2584837080.0743871     
   2593831065.4866595     
   2608495574.1913066     
   2628830606.1883268     
   2654836161.4777198     
   2887312831.0045190     
   2853756960.6572442     
   2826872568.8537364     
   2806821345.9930944     
   2793777789.8838029     
   2756179923.9078417     
   2732593737.0089250     
   2716162036.4858890     
   2706992623.8050256     
   2705199238.3180523     
   2671561296.5265036     
   2656086426.9380808     
   2648154131.9149623     
   2647818546.8429809     
   2655135652.9465132     
   2637329439.2827678     
   2627426722.4058928     
   2625361601.3273196     
   2631148635.9127722     
   2644802655.0272369     
   2654836161.4777198     
   2647469996.5336194     
   2648160478.5459123     
   2656907607.5146031     
   2673711383.4396853     
   2793777789.8838029     
   2757222438.9113736     
   2728698894.8211417     
   2708408824.6889801     
   2696567109.2139335     
   2705199238.3180523     
   2679665823.5113993     
   2662330000.2856421     
   2653313930.1863852     
   2652744480.5468717     
   2655135652.9465132     
   2638312510.4135170     
   2629738577.3106742     
   2629470013.2074561     
   2637563905.4307256     
   2644802655.0272369     
   2633956970.0767384     
   2631328938.7253933     
   2636932554.3926606     
   2650781821.7937355     
   2673711383.4396853     
   2665892576.0892773     
   2666212394.0068579     
   2674670837.1924205     
   2691267905.6459641     
   2696567109.2139335     
   2665341358.8687711     
   2641323511.0956602     
   2624678038.2185230     
   2615570081.9191184     
   2652744480.5468717     
   2631151291.6165295     
   2617430917.3057637     
   2611689860.0251164     
   2614032148.1474843     
   2637563905.4307256     
   2623861218.1004267     
   2618642992.1036291     
   2621961769.2468696     
   2633867607.8135710     
   2650781821.7937355     
   2642694492.1314387     
   2643687905.7141623     
   2653776237.9926090     
   2672972720.9946976     
   2691267905.6459641     
   2686136320.2056537     
   2690709263.0263553     
   2704986734.1080580     
   2728968733.4507809     
   2615570081.9191184     
   2582329694.7756801     
   2556025264.8243113     
   2536824107.7261443     
   2524887494.4469504     
   2614032148.1474843     
   2593247513.1675811     
   2580966341.2150621     
   2577304737.7882285     
   2582368568.6061382     
   2633867607.8135710     
   2624113819.4841437     
   2624344945.8099194     
   2634620458.7048292     
   2654991508.8624449     
   2672972720.9946976     
   2672082191.5114336     
   2682658240.5957179     
   2704717267.7526193     
   2738272557.8344522     
   2728968733.4507809     
   2734228111.8981662     
   2752546656.7340579     
   2783924367.9584312     
   2828361245.5713115     
   1137004530.8946638     
   1335320683.3702700     
   1533940494.8958569     
   1732863965.4714224     
   1932091095.0969677     
   1207221791.9169669     
   1399155243.1143537     
   1590664822.9262273     
   1780974057.2292655     
   1969624585.4405847     
   1393738302.6564877     
   1571098444.6916053     
   1749464861.1304066     
   1926834702.3284190     
   2101958178.7983973     
   1653892317.3443778     
   1820316069.5124240     
   1988440406.2704866     
   2155570231.9564505     
   2319948400.5522232     
   1955376824.9681318     
   2119392849.3933587     
   2284770444.6792603     
   2448551068.7215133     
   2608777585.4693494     
   1932091095.0969677     
   2058843442.8268790     
   2180213157.0496202     
   2296200237.7651925     
   2406804684.9735942     
   1969624585.4405847     
   2086838240.7257009     
   2201218372.7489424     
   2312689930.1548781     
   2421200780.4201951     
   2101958178.7983973     
   2205731602.5624137     
   2309412294.1337595     
   2412763930.1448622     
   2515619728.4712834     
   2319948400.5522232     
   2406995052.1980457     
   2496460847.0334649     
   2587955530.2479000     
   2681203397.5435824     
   2608777585.4693494     
   2676713858.3084898     
   2749117906.3386812     
   2825479182.8590145     
   2905443543.3547564     
   2406804684.9735942     
   2442769828.9301677     
   2484430276.0991578     
   2531786026.4805660     
   2584837080.0743871     
   2421200780.4201951     
   2455054495.8063622     
   2493514972.4973950     
   2536586146.9302225     
   2584272796.5718999     
   2515619728.4712834     
   2544158696.7154555     
   2576204550.3958597     
   2611760273.9444547     
   2650832958.1264319     
   2681203397.5435824     
   2702828123.4798660     
   2726857700.1732206     
   2753276115.0124526     
   2782076978.0991192     
   2905443543.3547564     
   2920065747.6969728     
   2936016538.2124753     
   2953241117.9572673     
   2971700655.1199975     
   2584837080.0743871     
   2593831065.4866595     
   2608495574.1913066     
   2628830606.1883268     
   2654836161.4777198     
   2584272796.5718999     
   2588006349.2103105     
   2598086599.3041525     
   2614523431.4517851     
   2637329440.0189834     
   2650832958.1264319     
   2645736595.2611504     
   2647463144.2526221     
   2656053635.2506256     
   2671561297.8991289     
   2782076978.0991192     
   2764930257.9977212     
   2754836340.0746622     
   2751880904.6108818     
   2756179925.7117114     
   2971700655.1199975     
   2939914867.5954485     
   2915161121.4219413     
   2897565992.1868486     
   2887312832.9612756     
   2654836161.4777198     
   2647469996.5336194     
   2648160478.5459123     
   2656907607.5146031     
   2673711383.4396853     
   2637329440.0189834     
   2627426722.9253564     
   2625361601.5588288     
   2631148635.7868466     
   2644802654.4760742     
   2671561297.8991289     
   2656086427.9691329     
   2648154132.4650202     
   2647818546.7744193     
   2655135652.1233892     
   2756179925.7117114     
   2732593738.4845500     
   2716162037.4307523     
   2706992624.0159707     
   2705199237.5910144     
   2887312832.9612756     
   2853756962.4639168     
   2826872570.2532029     
   2806821346.7227969     
   2793777789.6748853     
   2673711383.4396853     
   2665892576.0892773     
   2666212394.0068579     
   2674670837.1924205     
   2691267905.6459641     
   2644802654.4760742     
   2633956969.1715260     
   2631328937.3591390     
   2636932552.4597182     
   2650781819.1893220     
   2655135652.1233892     
   2638312508.9413772     
   2629738574.9706559     
   2629470009.7818089     
   2637563900.7020330     
   2705199237.5910144     
   2679665821.9757705     
   2662329997.6050591     
   2653313926.0218520     
   2652744474.5559030     
   2793777789.6748853     
   2757222437.9358921     
   2728698892.6226616     
   2708408820.7997198     
   2696567103.1535416     
   2691267905.6459641     
   2686136320.2056537     
   2690709263.0263553     
   2704986734.1080580     
   2728968733.4507809     
   2650781819.1893220     
   2642694489.3156247     
   2643687902.6098828     
   2653776234.5201654     
   2672972717.0709820     
   2637563900.7020330     
   2623861212.8340139     
   2618642986.1304646     
   2621961762.3934078     
   2633867599.9006953     
   2652744474.5559030     
   2631151284.7012916     
   2617430909.1856046     
   2611689850.4124274     
   2614032136.7468543     
   2696567103.1535416     
   2665341351.5093842     
   2641323502.0244069     
   2624678027.0107937     
   2615570068.1383200     
   2728968733.4507809     
   2734228111.8981662     
   2752546656.7340579     
   2783924367.9584312     
   2828361245.5713115     
   2672972717.0709820     
   2672082189.4758968     
   2682658240.5336680     
   2704717269.7303491     
   2738272561.8978348     
   2633867599.9006953     
   2624113814.6465425     
   2624344944.2096357     
   2634620460.4745321     
   2654991514.1023860     
   2614032136.7468543     
   2593247505.2684479     
   2580966337.0443945     
   2577304737.5439310     
   2582368572.4524994     
   2615570068.1383200     
   2582329684.1533270     
   2556025257.6268640     
   2536824104.2025723     
   2524887494.8240194     
   1955376824.9681318     
   2119392849.3933587     
   2284770444.6792603     
   2448551068.7215133     
   2608777585.4693494     
   2298848863.3661146     
   2449499342.3583245     
   2604873624.8674588     
   2763049832.7362304     
   2922598579.2947507     
   2694802285.9874845     
   2830532958.4263186     
   2973574569.4206495     
   3122844486.7346392     
   3277431378.3093796     
   3138023225.6964011     
   3255536291.2687993     
   3382463280.9902811     
   3518333532.5081396     
   3662687898.1331983     
   3625020309.4178510     
   3719715569.1371551     
   3825657547.0740681     
   3942779539.7795238     
   4070986069.4760814     
   2608777585.4693494     
   2676713858.3084898     
   2749117906.3386812     
   2825479182.8590145     
   2905443543.3547564     
   2922598579.2947507     
   2975543493.4587455     
   3030687613.4933367     
   3087347211.9493651     
   3144988299.3156948     
   3277431378.3093796     
   3320710096.7729311     
   3364222301.0923362     
   3407144655.4416327     
   3448798802.6919479     
   3662687898.1331983     
   3702156436.5271711     
   3740248775.8244648     
   3776066955.9255505     
   3808862187.1707349     
   4070986069.4760814     
   4112494435.1741891     
   4151369303.3133821     
   4186714331.1847782     
   4217798509.6671195     
   2905443543.3547564     
   2920065747.6969728     
   2936016538.2124753     
   2953241117.9572673     
   2971700655.1199975     
   3144988299.3156948     
   3141104416.5596204     
   3140796519.6464505     
   3143963506.7975779     
   3150591289.5771074     
   3448798802.6919479     
   3422464680.9173341     
   3401180372.2859430     
   3384714437.9276910     
   3373049490.6080704     
   3808862187.1707349     
   3755789691.9594455     
   3708651609.8594599     
   3666970227.9678650     
   3630645845.9236398     
   4217798509.6671195     
   4133422222.4298296     
   4055488458.5845551     
   3983141321.2178025     
   3916079338.5783434     
   2971700655.1199975     
   2939914867.5954485     
   2915161121.4219413     
   2897565992.1868486     
   2887312832.9612756     
   3150591289.5771074     
   3105873704.9707546     
   3067238807.5369425     
   3034876286.3362117     
   3009026022.0713024     
   3373049490.6080704     
   3315468665.5641031     
   3263124007.2529969     
   3216236076.6495533     
   3175071428.9603624     
   3630645845.9236398     
   3560747739.3058476     
   3495373163.0763211     
   3434747985.5689654     
   3379140868.6932960     
   3916079338.5783434     
   3834649135.2419739     
   3757177522.4483423     
   3683878938.4595942     
   3615008165.1025267     
   2887312832.9612756     
   2853756962.4639168     
   2826872570.2532029     
   2806821346.7227969     
   2793777789.6748853     
   3009026022.0713024     
   2964291522.2229648     
   2926069323.0334578     
   2894594137.5509939     
   2870128876.5113101     
   3175071428.9603624     
   3117407639.8951483     
   3065913454.8500662     
   3020886347.5945020     
   2982672342.3108201     
   3379140868.6932960     
   3307252879.3263798     
   3241047242.7085738     
   3180863748.3056750     
   3127113179.6182704     
   3615008165.1025267     
   3527958098.2171731     
   3446004519.6427755     
   3369504606.8571124     
   3298907971.2529612     
   2793777789.6748853     
   2757222437.9358921     
   2728698892.6226616     
   2708408820.7997198     
   2696567103.1535416     
   2870128876.5113101     
   2823030611.9298506     
   2783385853.6686983     
   2751471560.6751609     
   2727587370.8390694     
   2982672342.3108201     
   2923898482.8601990     
   2871938958.5348759     
   2827130669.0921907     
   2789845212.3147950     
   3127113179.6182704     
   3056097862.9707279     
   2991221340.2794123     
   2932857636.8121953     
   2881427567.7884140     
   3298907971.2529612     
   3215531292.6115222     
   3137613731.9998226     
   3065542375.4175467     
   2999760871.9493012     
   2696567103.1535416     
   2665341351.5093842     
   2641323502.0244069     
   2624678027.0107937     
   2615570068.1383200     
   2727587370.8390694     
   2686641250.2164335     
   2652831735.5690923     
   2626409000.5276713     
   2607632309.1245303     
   2789845212.3147950     
   2737498003.1173353     
   2692075557.6084528     
   2653916353.2568512     
   2623382514.9057856     
   2881427567.7884140     
   2816405437.2857184     
   2757952064.2712173     
   2706484361.7328596     
   2662462837.9125457     
   2999760871.9493012     
   2921188087.1289582     
   2848699546.0799742     
   2782770114.0502305     
   2723941087.9818091     
   2615570068.1383200     
   2582329684.1533270     
   2556025257.6268640     
   2536824104.2025723     
   2524887494.8240194     
   2607632309.1245303     
   2565973692.9314241     
   2531902576.7832403     
   2505676366.6821504     
   2487548755.2667580     
   2623382514.9057856     
   2571698797.8757477     
   2528173805.2916379     
   2493181563.1961260     
   2467101140.4934158     
   2662462837.9125457     
   2599151657.7792816     
   2544461506.4177780     
   2498907567.8781872     
   2463028202.4690275     
   2723941087.9818091     
   2647464870.9726644     
   2579941732.8624220     
   2522046864.8574200     
   2474508728.6807146     
   3625020309.4178510     
   3719715569.1371551     
   3825657547.0740681     
   3942779539.7795238     
   4070986069.4760814     
   4134151875.4606566     
   4224405309.8506923     
   4320576362.8209066     
   4421007221.4592257     
   4524242469.9328537     
   4643468221.1311398     
   4755554294.5024757     
   4868763890.4036665     
   4980463316.6659565     
   5088728234.7922392     
   5151450243.5161810     
   5311338606.6145277     
   5467861732.7033939     
   5618127173.3658495     
   5760671247.2947845     
   5657834154.7368670     
   5890920742.7573490     
   6116374594.2145977     
   6331740800.2924194     
   6536798434.6714659     
   4070986069.4760814     
   4112494435.1741891     
   4151369303.3133821     
   4186714331.1847782     
   4217798509.6671195     
   4524242469.9328537     
   4539138314.6886711     
   4558710577.4237318     
   4580479739.2835579     
   4602722212.7389107     
   5088728234.7922392     
   5054170081.4803429     
   5030120846.5172195     
   5011374282.2333479     
   4994729321.0381927     
   5760671247.2947845     
   5652261639.7503977     
   5559841339.1165504     
   5474348729.1628504     
   5390244368.3820906     
   6536798434.6714659     
   6328818165.6744776     
   6143008089.6560431     
   5965458495.8884010     
   5787163243.1304159     
   4217798509.6671195     
   4133422222.4298296     
   4055488458.5845551     
   3983141321.2178025     
   3916079338.5783434     
   4602722212.7389107     
   4494249894.5917082     
   4389991898.5479136     
   4289629365.6634684     
   4193069836.9364181     
   4994729321.0381927     
   4867439408.3157854     
   4743368620.5904083     
   4622485323.3062601     
   4504830812.8004417     
   5390244368.3820906     
   5249027943.4469881     
   5111088862.8080463     
   4976470285.0714302     
   4845269118.7973413     
   5787163243.1304159     
   5636349570.4011478     
   5489808198.5033388     
   5347455148.5955114     
   5209342860.8939943     
   3916079338.5783434     
   3834649135.2419739     
   3757177522.4483423     
   3683878938.4595942     
   3615008165.1025267     
   4193069836.9364181     
   4098823868.4771972     
   4007907574.9999242     
   3920538894.4927740     
   3836996709.9118886     
   4504830812.8004417     
   4396239317.6517763     
   4290167815.8166595     
   4186805249.5065784     
   4086428390.6965842     
   4845269118.7973413     
   4721018612.5878458     
   4598366853.0595417     
   4477440198.4677019     
   4358481955.8033390     
   5209342860.8939943     
   5068279086.5025101     
   4927840629.8990831     
   4788059568.6509447     
   4649113488.2049809     
   3615008165.1025267     
   3527958098.2171731     
   3446004519.6427755     
   3369504606.8571124     
   3298907971.2529612     
   3836996709.9118886     
   3734534309.9318533     
   3636233329.3534579     
   3542413516.8889098     
   3453475672.1883516     
   4086428390.6965842     
   3969924973.1826229     
   3856846286.3773055     
   3747458670.7914753     
   3642097514.2104907     
   4358481955.8033390     
   4229340778.3449354     
   4103090302.5981936     
   3979938766.8658619     
   3860152874.6962996     
   4649113488.2049809     
   4508673616.7045403     
   4370781678.5541077     
   4235589535.8830080     
   4103299912.3759527     
   3298907971.2529612     
   3215531292.6115222     
   3137613731.9998226     
   3065542375.4175467     
   2999760871.9493012     
   3453475672.1883516     
   3355923426.4292202     
   3262979703.2102299     
   3175033600.3290715     
   3092546776.6950645     
   3642097514.2104907     
   3530442491.3215523     
   3422495351.5713348     
   3318614383.4597869     
   3219240432.4731588     
   3860152874.6962996     
   3734729656.3596044     
   3612121221.3532696     
   3492630817.7609463     
   3376647225.5216856     
   4103299912.3759527     
   3964586085.7337799     
   3827843596.2152133     
   3693306747.8426180     
   3561292334.0898304     
   2999760871.9493012     
   2921188087.1289582     
   2848699546.0799742     
   2782770114.0502305     
   2723941087.9818091     
   3092546776.6950645     
   2998516061.9904399     
   2909822148.6441231     
   2826943949.5684099     
   2750445170.5507674     
   3219240432.4731588     
   3110221702.2547765     
   3005751345.4436312     
   2906274967.9993515     
   2812334811.2430902     
   3376647225.5216856     
   3253352749.2712302     
   3133840117.2447524     
   3018493949.7570119     
   2907798796.6267886     
   3561292334.0898304     
   3424534460.6083012     
   3290861155.5466728     
   3160581503.6696658     
   3034100310.7320833     
   2723941087.9818091     
   2647464870.9726644     
   2579941732.8624220     
   2522046864.8574200     
   2474508728.6807146     
   2750445170.5507674     
   2655696421.8596144     
   2567947789.8754115     
   2488046067.2059531     
   2416973199.6635351     
   2812334811.2430902     
   2697918744.4155889     
   2588085189.7808166     
   2483766004.0145121     
   2386170103.0016894     
   2907798796.6267886     
   2774026732.5495906     
   2642182002.4824347     
   2513177776.0912428     
   2388375282.6531429     
   3034100310.7320833     
   2882752932.9301848     
   2730772115.9382706     
   2579003747.3924332     
   2428925793.5502944     
   5657834154.7368670     
   5890920742.7573490     
   6116374594.2145977     
   6331740800.2924194     
   6536798434.6714659     
   6491698135.6164188     
   6586881941.1583624     
   6757400997.0858231     
   6961175869.5602531     
   7171546769.7011919     
   7982396767.1751699     
   7734971281.6647787     
   7669114153.8041210     
   7669517836.2314157     
   7666251489.2190876     
   10130377232.849380     
   9322028094.4258804     
   8826325664.7365856     
   8443429883.5438213     
   8035531356.2783995     
   12935726334.150051     
   11340765260.245693     
   10210202309.399448     
   9272682881.4803581     
   8303763270.2382994     
   6536798434.6714659     
   6328818165.6744776     
   6143008089.6560431     
   5965458495.8884010     
   5787163243.1304159     
   7171546769.7011919     
   6911008415.4179220     
   6658366158.3186350     
   6409761521.3389654     
   6162049721.7343531     
   7666251489.2190876     
   7381101657.2016573     
   7101351179.9032984     
   6827077949.0215588     
   6558485572.8079157     
   8035531356.2783995     
   7746749843.6477499     
   7473654550.0097876     
   7214284708.0687428     
   6968647428.8159857     
   8303763270.2382994     
   8020518002.5098324     
   7779406508.3299456     
   7569737902.4485750     
   7386540929.9531736     
   5787163243.1304159     
   5636349570.4011478     
   5489808198.5033388     
   5347455148.5955114     
   5209342860.8939943     
   6162049721.7343531     
   6012622327.7459879     
   5864560432.2638245     
   5717904605.7364502     
   5572714008.6046181     
   6558485572.8079157     
   6407385604.2486563     
   6254646823.2347193     
   6100237488.1949453     
   5944188208.6789083     
   6968647428.8159857     
   6814183588.9589405     
   6655060609.5277109     
   6490992810.0997086     
   6321930573.7741356     
   7386540929.9531736     
   7228020291.1597309     
   7061914623.7048531     
   6887524794.8751459     
   6704667598.2109718     
   5209342860.8939943     
   5068279086.5025101     
   4927840629.8990831     
   4788059568.6509447     
   4649113488.2049809     
   5572714008.6046181     
   5414363397.1449652     
   5256897072.9796438     
   5100352396.1142454     
   4944826480.9537144     
   5944188208.6789083     
   5771879082.4410849     
   5601138159.3254013     
   5431989441.7921534     
   5264493923.1069822     
   6321930573.7741356     
   6138380631.7953262     
   5957450022.8996162     
   5779116379.7666979     
   5603421204.8353796     
   6704667598.2109718     
   6512017556.8637562     
   6323372147.9516716     
   6138617462.2765360     
   5957768593.6850719     
   4649113488.2049809     
   4508673616.7045403     
   4370781678.5541077     
   4235589535.8830080     
   4103299912.3759527     
   4944826480.9537144     
   4795386398.7034960     
   4647349710.3784075     
   4500840886.2468557     
   4356026317.5402203     
   5264493923.1069822     
   5106190905.9043159     
   4948192466.6561155     
   4790573743.9756680     
   4633448572.5850515     
   5603421204.8353796     
   5436603326.1186476     
   5269060911.9560385     
   5100805437.8446980     
   4931889303.4390345     
   5957768593.6850719     
   5782933261.4403019     
   5606430752.1974421     
   5428200850.4076777     
   5248231865.3225794     
   4103299912.3759527     
   3964586085.7337799     
   3827843596.2152133     
   3693306747.8426180     
   3561292334.0898304     
   4356026317.5402203     
   4204119259.1446004     
   4053792093.8164010     
   3905201770.4796214     
   3758573351.7200136     
   4633448572.5850515     
   4469177068.2677164     
   4306221261.1187220     
   4144675076.7294078     
   3984690748.5065336     
   4931889303.4390345     
   4755793896.5191689     
   4580855473.4019699     
   4407119748.0774803     
   4234686067.2601609     
   5248231865.3225794     
   5060595003.6999607     
   4874038797.0369844     
   4688573979.4102983     
   4504265091.4322119     
   3561292334.0898304     
   3424534460.6083012     
   3290861155.5466728     
   3160581503.6696658     
   3034100310.7320833     
   3758573351.7200136     
   3609905279.5321631     
   3463219861.3685327     
   3318737101.5624776     
   3176759760.6166282     
   3984690748.5065336     
   3825129967.5338278     
   3666588641.5047221     
   3509193559.5081968     
   3353136485.7682443     
   4234686067.2601609     
   4065296947.0725794     
   3896120415.8608003     
   3727198374.0981183     
   3558619659.9675875     
   4504265091.4322119     
   4326092257.9946232     
   4147479670.5679731     
   3968399075.2660317     
   3788853906.4002004     
   3034100310.7320833     
   2882752932.9301848     
   2730772115.9382706     
   2579003747.3924332     
   2428925793.5502944     
   3176759760.6166282     
   3016578344.0304017     
   2858812716.8016829     
   2703570635.3042397     
   2551033627.1132774     
   3353136485.7682443     
   3191633180.9244571     
   3037419145.8255277     
   2891746432.2513547     
   2756884094.2586865     
   3558619659.9675875     
   3398846926.3574557     
   3252403196.9670520     
   3122936544.8139319     
   3016932297.1755161     
   3788853906.4002004     
   3630336686.1052771     
   3492308173.6307240     
   3381648216.7149305     
   3310288753.9693708     
 </DataArray>
 <DataArray  type="Float64" Name="strain" NumberOfComponents="3" format="ascii">
  0.20348701453484366        0.0000000000000000       0.12540806162488344     
  0.18665626019300419       -2.7325519915944008E-002   7.4353137519222012E-002
  0.16982550585116471       -4.4676617880413633E-002   3.5131980676954264E-002
  0.15299475150932521       -5.2053293893408889E-002   7.7445910980801433E-003
  0.13616399716748573       -4.9455547954929763E-002  -7.8090312174003002E-003
  0.15985660299253007        0.0000000000000000        9.6450333539790017E-002
  0.15317809624152096       -2.1845161809718558E-002   6.2691533199766017E-002
  0.14649958949051184       -3.6175196681862969E-002   3.7403460778009087E-002
  0.13982108273950272       -4.2990104616433211E-002   2.0586116274519180E-002
  0.13314257598849361       -4.2289885613429314E-002   1.2239499689296364E-002
  0.12645906044389293        0.0000000000000000        7.4202611067872168E-002
  0.12656976193858757       -1.6364803703493108E-002   5.5280639479585350E-002
  0.12668046343328221       -2.7673775483312284E-002   4.1466356464438969E-002
  0.12679116492797685       -3.3926915339457540E-002   3.2759762022433088E-002
  0.12690186642267148       -3.5124223271928864E-002   2.9160856153567644E-002
  0.10329438688893224        0.0000000000000000        5.8664894209129875E-002
  0.10683125728420403       -1.0884445597267662E-002   5.2120456358680012E-002
  0.11036812767947583       -1.9172354284761613E-002   4.7320667736244049E-002
  0.11390499807474762       -2.4863726062481866E-002   4.4265528341821909E-002
  0.11744186847001943       -2.7958560930428408E-002   4.2955038175413664E-002
   9.0362582327647975E-002   0.0000000000000000        4.9837182963563140E-002
   9.3962582278370343E-002  -5.4040874910422131E-003   5.3210983837050030E-002
   9.7562582229092712E-002  -1.0670933086210942E-002   5.4966394593424173E-002
  0.10116258217981508       -1.5800536785506188E-002   5.5103415232685610E-002
  0.10476258213053743       -2.0792898588927945E-002   5.3622045754834306E-002
  0.13616399716748573       -4.9455547954929763E-002  -7.8090312174003002E-003
  0.13295859469266882       -4.2919925278365516E-002  -3.3917782427851720E-003
  0.12975319221785192       -3.8482971077105473E-002  -3.8768945043402350E-004
  0.12654778974303496       -3.6144685351149487E-002   1.2032351596532216E-003
  0.12334238726821808       -3.5905068100497761E-002   1.3809955874765911E-003
  0.13314257598849361       -4.2289885613429314E-002   1.2239499689296364E-002
  0.12891180771409208       -3.8423628708989924E-002   1.2184402854757189E-002
  0.12468103943969056       -3.5740422939253724E-002   1.1491738603312738E-002
  0.12045027116528904       -3.4240268304220688E-002   1.0161506934963043E-002
  0.11621950289088753       -3.3923164803890793E-002   8.1937078497080484E-003
  0.12690186642267148       -3.5124223271928864E-002   2.9160856153567644E-002
  0.12242132911404403       -3.3927332139614311E-002   2.5549026850475158E-002
  0.11794079180541660       -3.2997874801401955E-002   2.2075226895836107E-002
  0.11346025449678919       -3.2335851257291819E-002   1.8739456289650486E-002
  0.10897971718816171       -3.1941261507283852E-002   1.5541715031918188E-002
  0.11744186847001943       -2.7958560930428408E-002   4.2955038175413664E-002
  0.11348715889252473       -2.9431035570238691E-002   3.6702093744368856E-002
  0.10953244931503001       -3.0255326663550214E-002   3.1362775427136128E-002
  0.10557773973753533       -3.0431434210362932E-002   2.6937083223715491E-002
  0.10162303016004061       -2.9959358210676870E-002   2.3425017134106899E-002
  0.10476258213053743       -2.0792898588927945E-002   5.3622045754834306E-002
  0.10210929704953411       -2.4934739000863106E-002   4.5643603536438149E-002
   9.9456011968530822E-002  -2.7512778525698476E-002   3.9354384197212725E-002
   9.6802726887527529E-002  -2.8527017163434074E-002   3.4754387737158041E-002
   9.4149441806524209E-002  -2.7977454914069902E-002   3.1843614156274111E-002
  0.12334238726821808       -3.5905068100497761E-002   1.3809955874765911E-003
  0.12040365199505326       -3.6404528320997304E-002   6.4148755804938062E-004
  0.11746491672188837       -3.6283475008495297E-002   9.2721841290749341E-005
  0.11452618144872351       -3.5541908162991930E-002  -2.6530156279914313E-004
  0.11158744617555866       -3.4179827784486749E-002  -4.3258265422047026E-004
  0.11621950289088753       -3.3923164803890793E-002   8.1937078497080484E-003
  0.11345819197986633       -3.3999239470091619E-002   7.8325847116820918E-003
  0.11069688106884516       -3.3678619334650335E-002   7.6355679852748992E-003
  0.10793557015782396       -3.2961304397567184E-002   7.6026576704860786E-003
  0.10517425924680276       -3.1847294658842035E-002   7.7338537673159735E-003
  0.10897971718816171       -3.1941261507283852E-002   1.5541715031918188E-002
  0.10636919473823410       -3.1593950619185782E-002   1.5335158053934032E-002
  0.10375867228830642       -3.1073763660805373E-002   1.5266071586518493E-002
  0.10114814983837875       -3.0380700632142637E-002   1.5334455629671315E-002
   9.8537627388451079E-002  -2.9514761533197403E-002   1.5540310183392747E-002
  0.10162303016004061       -2.9959358210676870E-002   2.3425017134106899E-002
   9.9136660270156385E-002  -2.9188661768280007E-002   2.3149207584804980E-002
   9.6650290380272147E-002  -2.8468907986960383E-002   2.2984232645021484E-002
   9.4163920490387923E-002  -2.7800096866717937E-002   2.2930092314756415E-002
   9.1677550600503685E-002  -2.7182228407552703E-002   2.2986786594009635E-002
   9.4149441806524209E-002  -2.7977454914069902E-002   3.1843614156274111E-002
   9.1760588575633295E-002  -2.6783372917374260E-002   3.1274733304294894E-002
   8.9371735344742353E-002  -2.5864052313115383E-002   3.0790051160783947E-002
   8.6982882113851440E-002  -2.5219493101293334E-002   3.0389567725741220E-002
   8.4594028882960526E-002  -2.4849695281908002E-002   3.0073282999166756E-002
  0.11158744617555866       -3.4179827784486749E-002  -4.3258265422047026E-004
  0.10851152211846449       -3.2653651727557326E-002  -1.4168438016237683E-004
  0.10543559806137029       -3.1419797846780978E-002   2.1156324271209836E-004
  0.10235967400427610       -3.0478266142157741E-002   6.2716021440294145E-004
   9.9283749947181921E-002  -2.9829056613687233E-002   1.1051065349103051E-003
  0.10517425924680276       -3.1847294658842035E-002   7.7338537673159735E-003
  0.10218830932473938       -3.0624136989619910E-002   7.5935713395923754E-003
   9.9202359402675980E-002  -2.9579378261045501E-002   7.5708878331139512E-003
   9.6216409480612608E-002  -2.8713018473119092E-002   7.6658032478806315E-003
   9.3230459558549195E-002  -2.8025057625840344E-002   7.8783175838924024E-003
   9.8537627388451079E-002  -2.9514761533197403E-002   1.5540310183392747E-002
   9.5696901173847299E-002  -2.8594622251682314E-002   1.5082770289392304E-002
   9.2856174959243531E-002  -2.7738958675310024E-002   1.4798078889066056E-002
   9.0015448744639723E-002  -2.6947770804080440E-002   1.4686235982413857E-002
   8.7174722530035942E-002  -2.6221058637993483E-002   1.4747241569435535E-002
   9.1677550600503685E-002  -2.7182228407552703E-002   2.2986786594009635E-002
   8.9037297665788301E-002  -2.6565107513744864E-002   2.2325912469237895E-002
   8.6397044731072917E-002  -2.5898539089574520E-002   2.1893136410568920E-002
   8.3756791796357574E-002  -2.5182523135041830E-002   2.1688458418002765E-002
   8.1116538861642190E-002  -2.4417059650146608E-002   2.1711878491539553E-002
   8.4594028882960526E-002  -2.4849695281908002E-002   3.0073282999166756E-002
   8.2209498800562386E-002  -2.4535592775807344E-002   2.9322997879128718E-002
   7.9824968718164219E-002  -2.4058119503839050E-002   2.8856060397622327E-002
   7.7440438635766079E-002  -2.3417275466003216E-002   2.8672470554647465E-002
   7.5055908553367912E-002  -2.2613060662299761E-002   2.8772228350204293E-002
   9.9283749947181921E-002  -2.9829056613687233E-002   1.1051065349103051E-003
   9.6298615736792215E-002  -2.9260331661744965E-002   8.0085358733594791E-004
   9.3313481526402564E-002  -2.8560253686706658E-002   6.6038976145635364E-004
   9.0328347316012914E-002  -2.7728822688572432E-002   6.8371505727184145E-004
   8.7343213105623208E-002  -2.6766038667341729E-002   8.7082947478200889E-004
   9.3230459558549195E-002  -2.8025057625840344E-002   7.8783175838924024E-003
   9.0407603603410380E-002  -2.7384564458373672E-002   7.6775154320536387E-003
   8.7584747648271621E-002  -2.6660607709883336E-002   7.6374806690213404E-003
   8.4761891693132849E-002  -2.5853187380369100E-002   7.7582132947959792E-003
   8.1939035737993993E-002  -2.4962303469831304E-002   8.0397133093775275E-003
   8.7174722530035942E-002  -2.6221058637993483E-002   1.4747241569435535E-002
   8.4511123097259971E-002  -2.5508797255002352E-002   1.4602000771259629E-002
   8.1847523664484001E-002  -2.4760961733059743E-002   1.4614505629002190E-002
   7.9183924231708003E-002  -2.3977552072166050E-002   1.4784756142663769E-002
   7.6520324798931977E-002  -2.3158568272321045E-002   1.5112752312243877E-002
   8.1116538861642190E-002  -2.4417059650146608E-002   2.1711878491539553E-002
   7.8609174218340933E-002  -2.3633030051630935E-002   2.1574309604953875E-002
   7.6101809575039675E-002  -2.2861315756236341E-002   2.1591464641398952E-002
   7.3594444931738473E-002  -2.2101916763962857E-002   2.1763343600874792E-002
   7.1087080288437215E-002  -2.1354833074810703E-002   2.2089946483381050E-002
   7.5055908553367912E-002  -2.2613060662299761E-002   2.8772228350204293E-002
   7.2701756966653319E-002  -2.1757262848259490E-002   2.8594441933136650E-002
   7.0347605379938699E-002  -2.0961669779412738E-002   2.8568357706211536E-002
   6.7993453793224107E-002  -2.0226281455759713E-002   2.8693975669429127E-002
   6.5639302206509459E-002  -1.9551097877300416E-002   2.8971295822789289E-002
   8.7343213105623208E-002  -2.6766038667341729E-002   8.7082947478200889E-004
   8.4229233122374070E-002  -2.5775844724142238E-002   6.7293452067207493E-004
   8.1115253139124932E-002  -2.4862183960101897E-002   6.6753348789477807E-004
   7.8001273155875739E-002  -2.4025056375221211E-002   8.5462637644995176E-004
   7.4887293172626657E-002  -2.3264461969499051E-002   1.2342131863375405E-003
   8.1939035737993993E-002  -2.4962303469831304E-002   8.0397133093775275E-003
   7.9016919987570017E-002  -2.4053969924778706E-002   7.7641063497505547E-003
   7.6094804237146041E-002  -2.3194200691720679E-002   7.6797339344413240E-003
   7.3172688486722065E-002  -2.2382995770656514E-002   7.7865960634499881E-003
   7.0250572736298034E-002  -2.1620355161587113E-002   8.0846927367762556E-003
   7.6520324798931977E-002  -2.3158568272321045E-002   1.5112752312243877E-002
   7.3788813904318351E-002  -2.2332095125415091E-002   1.4787402214264833E-002
   7.1057303009704670E-002  -2.1526217423338892E-002   1.4652027283588595E-002
   6.8325792115090975E-002  -2.0740935166092034E-002   1.4706627520215378E-002
   6.5594281220477363E-002  -1.9976248353674841E-002   1.4951202924145035E-002
   7.1087080288437215E-002  -2.1354833074810703E-002   2.2089946483381050E-002
   6.8544914872618989E-002  -2.0610220326051573E-002   2.1742822114214730E-002
   6.6002749456800833E-002  -1.9858234154957168E-002   2.1584413535336227E-002
   6.3460584040982704E-002  -1.9098874561527444E-002   2.1614720746745891E-002
   6.0918418625164485E-002  -1.8332141545762792E-002   2.1833743748443823E-002
   6.5639302206509459E-002  -1.9551097877300416E-002   2.8971295822789289E-002
   6.3285222892471987E-002  -1.8888345526687916E-002   2.8630366049600231E-002
   6.0931143578434530E-002  -1.8190250886575512E-002   2.8476892689684369E-002
   5.8577064264397037E-002  -1.7456813956963014E-002   2.8510875743041730E-002
   5.6222984950359545E-002  -1.6688034737850632E-002   2.8732315209672288E-002
   7.4887293172626657E-002  -2.3264461969499051E-002   1.2342131863375405E-003
   7.1882452608384884E-002  -2.2522943280227081E-002   9.4062921776283392E-004
   6.8877612044143222E-002  -2.1743042844695526E-002   8.0902515709513345E-004
   6.5872771479901532E-002  -2.0924760662904912E-002   8.3940100433443909E-004
   6.2867930915659787E-002  -2.0068096734855434E-002   1.0317567594801957E-003
   7.0250572736298034E-002  -2.1620355161587113E-002   8.0846927367762556E-003
   6.7410094657945729E-002  -2.0870304533636308E-002   7.8048033147001261E-003
   6.4569616579593342E-002  -2.0096869555928737E-002   7.6916589564959559E-003
   6.1729138501241024E-002  -1.9300050228464379E-002   7.7452596621632452E-003
   5.8888660422888650E-002  -1.8479846551244128E-002   7.9656054317033265E-003
   6.5594281220477363E-002  -1.9976248353674841E-002   1.4951202924145035E-002
   6.2922930783979453E-002  -1.9217665787045368E-002   1.4670010652064691E-002
   6.0251580347481501E-002  -1.8450696267161726E-002   1.4560328599821301E-002
   5.7580229910983625E-002  -1.7675339794024067E-002   1.4622156767414962E-002
   5.4908879474485722E-002  -1.6891596367632156E-002   1.4855495154845688E-002
   6.0918418625164485E-002  -1.8332141545762792E-002   2.1833743748443823E-002
   5.8420960986486074E-002  -1.7565027040454512E-002   2.1536251229856702E-002
   5.5923503347807782E-002  -1.6804522978394715E-002   2.1415034087071801E-002
   5.3426045709129455E-002  -1.6050629359583422E-002   2.1470092320088840E-002
   5.0928588070451128E-002  -1.5303346184020516E-002   2.1701425928907878E-002
   5.6222984950359545E-002  -1.6688034737850632E-002   2.8732315209672288E-002
   5.3904185265465809E-002  -1.5912388293863655E-002   2.8403525048076028E-002
   5.1585385580572102E-002  -1.5158349689627759E-002   2.8255775418246865E-002
   4.9266585895678353E-002  -1.4425918925142875E-002   2.8289066320184769E-002
   4.6947786210784603E-002  -1.3715096000408877E-002   2.8503397753890214E-002
   6.2867930915659787E-002  -2.0068096734855434E-002   1.0317567594801957E-003
   6.0075000982915738E-002  -1.9807164216521733E-002   1.9902672348734995E-003
   5.7282071050171635E-002  -2.0776076263878729E-002   2.9523213253555558E-003
   5.4489141117427586E-002  -2.2974832876925991E-002   3.9179190309265310E-003
   5.1696211184683483E-002  -2.6403434055664476E-002   4.8870603515855926E-003
   5.8888660422888650E-002  -1.8479846551244128E-002   7.9656054317033265E-003
   5.6118178018615350E-002  -1.8072049984424632E-002   7.9034877967215089E-003
   5.3347695614342022E-002  -1.8512451988165979E-002   7.8827216035924352E-003
   5.0577213210068875E-002  -1.9801052562467530E-002   7.9033068523167715E-003
   4.7806730805795450E-002  -2.1937851707329425E-002   7.9652435428934076E-003
   5.4908879474485722E-002  -1.6891596367632156E-002   1.4855495154845688E-002
   5.2198652425447661E-002  -1.6336935752328363E-002   1.4154395404619297E-002
   4.9488425376409545E-002  -1.6248827712453867E-002   1.3532454923010112E-002
   4.6778198327371415E-002  -1.6627272248009119E-002   1.2989673710018260E-002
   4.4067971278333451E-002  -1.7472269358994374E-002   1.2526051765644142E-002
   5.0928588070451128E-002  -1.5303346184020516E-002   2.1701425928907878E-002
   4.8316424203412450E-002  -1.4601821520231456E-002   2.0742990058567515E-002
   4.5704260336373863E-002  -1.3985203436741658E-002   1.9901521283608760E-002
   4.3092096469335289E-002  -1.3453491933550683E-002   1.9177019604031658E-002
   4.0479932602296639E-002  -1.3006687010659213E-002   1.8569485019836157E-002
   4.6947786210784603E-002  -1.3715096000408877E-002   2.8503397753890214E-002
   4.4471493352509883E-002  -1.2866707288134827E-002   2.7669271758566039E-002
   4.1995200494235135E-002  -1.1721579161029172E-002   2.6989920685388247E-002
   3.9518907635960401E-002  -1.0279711619092260E-002   2.6465344534356089E-002
   3.7042614777685667E-002  -8.5411046623240505E-003   2.6095543305470592E-002
   9.0362582327647975E-002   0.0000000000000000        4.9837182963563140E-002
   9.3962582278370343E-002  -5.4040874910422131E-003   5.3210983837050030E-002
   9.7562582229092712E-002  -1.0670933086210942E-002   5.4966394593424173E-002
  0.10116258217981508       -1.5800536785506188E-002   5.5103415232685610E-002
  0.10476258213053743       -2.0792898588927945E-002   5.3622045754834306E-002
   8.2425421579631550E-002   0.0000000000000000        4.4786042072409146E-002
   8.4635995706083073E-002  -4.5742187193042027E-003   4.8269201443558715E-002
   8.6846569832534595E-002  -9.0377281905587598E-003   5.0591899283279299E-002
   8.9057143958986104E-002  -1.3390528413763663E-002   5.1754135591570972E-002
   9.1267718085437627E-002  -1.7632619388918927E-002   5.1755910368433661E-002
   7.4244679464474356E-002   0.0000000000000000        4.0578036276905080E-002
   7.5523756352338808E-002  -3.7443499475661945E-003   4.4144021497893475E-002
   7.6802833240203247E-002  -7.4045232949065780E-003   4.7007473773136688E-002
   7.8081910128067700E-002  -1.0980520042021146E-002   4.9168393102634760E-002
   7.9360987015932166E-002  -1.4472340188909902E-002   5.0626779486387607E-002
   6.5820355982176351E-002   0.0000000000000000        3.7213165577050941E-002
   6.6625864217137509E-002  -2.9144811758281854E-003   4.0835444000054344E-002
   6.7431372452098695E-002  -5.7713183992543944E-003   4.4213118062996333E-002
   6.8236880687059853E-002  -8.5705116702786306E-003   4.7346187765876950E-002
   6.9042388922021025E-002  -1.1312060988900880E-002   5.0234653108696153E-002
   5.7152451132737578E-002   0.0000000000000000        3.4691429972846730E-002
   5.7942319300479245E-002  -2.0846124040901758E-003   3.8343468950041294E-002
   5.8732187468220912E-002  -4.1381135036022143E-003   4.2208832152858235E-002
   5.9522055635962565E-002  -6.1605032985361033E-003   4.6287519581297579E-002
   6.0311923803704239E-002  -8.1517817888918549E-003   5.0579531235359271E-002
  0.10476258213053743       -2.0792898588927945E-002   5.3622045754834306E-002
  0.10210929704953411       -2.4934739000863106E-002   4.5643603536438149E-002
   9.9456011968530822E-002  -2.7512778525698476E-002   3.9354384197212725E-002
   9.6802726887527529E-002  -2.8527017163434074E-002   3.4754387737158041E-002
   9.4149441806524209E-002  -2.7977454914069902E-002   3.1843614156274111E-002
   9.1267718085437627E-002  -1.7632619388918927E-002   5.1755910368433661E-002
   9.0065979637567253E-002  -2.1208714831456241E-002   4.6520466231737084E-002
   8.8864241189696880E-002  -2.3563528456807287E-002   4.2498892482135640E-002
   8.7662502741826506E-002  -2.4697060264972048E-002   3.9691189119629329E-002
   8.6460764293956133E-002  -2.4609310255950576E-002   3.8097356144218164E-002
   7.9360987015932166E-002  -1.4472340188909902E-002   5.0626779486387607E-002
   7.9135442709119111E-002  -1.7482690662049379E-002   4.7791814361477079E-002
   7.8909898402306097E-002  -1.9614278387916087E-002   4.5695367131586104E-002
   7.8684354095493042E-002  -2.0867103366510022E-002   4.4337437796714674E-002
   7.8458809788680042E-002  -2.1241165597831214E-002   4.3718026356862796E-002
   6.9042388922021025E-002  -1.1312060988900880E-002   5.0234653108696153E-002
   6.9317686264189743E-002  -1.3756666492642521E-002   4.9457647925658162E-002
   6.9592983606358474E-002  -1.5665028319024891E-002   4.8943808145564163E-002
   6.9868280948527178E-002  -1.7037146468048010E-002   4.8693133768414103E-002
   7.0143578290695896E-002  -1.7873020939711878E-002   4.8705624794207973E-002
   6.0311923803704239E-002  -8.1517817888918549E-003   5.0579531235359271E-002
   6.0612710302779114E-002  -1.0030642323235660E-002   5.1517966924280324E-002
   6.0913496801853984E-002  -1.1715778250133705E-002   5.2244215524069777E-002
   6.1214283300928873E-002  -1.3207189569585970E-002   5.2758277034727560E-002
   6.1515069800003742E-002  -1.4504876281592527E-002   5.3060151456253729E-002
   9.4149441806524209E-002  -2.7977454914069902E-002   3.1843614156274111E-002
   9.1760588575633295E-002  -2.6783372917374260E-002   3.1274733304294894E-002
   8.9371735344742353E-002  -2.5864052313115383E-002   3.0790051160783947E-002
   8.6982882113851440E-002  -2.5219493101293334E-002   3.0389567725741220E-002
   8.4594028882960526E-002  -2.4849695281908002E-002   3.0073282999166756E-002
   8.6460764293956133E-002  -2.4609310255950576E-002   3.8097356144218164E-002
   8.4201767602653937E-002  -2.3965402943896746E-002   3.7068991828872203E-002
   8.1942770911351770E-002  -2.3430462842964628E-002   3.6216141884235414E-002
   7.9683774220049575E-002  -2.3004489953154100E-002   3.5538806310307799E-002
   7.7424777528747421E-002  -2.2687484274465208E-002   3.5036985107089455E-002
   7.8458809788680042E-002  -2.1241165597831214E-002   4.3718026356862796E-002
   7.6420985299207517E-002  -2.1147432970419267E-002   4.2395972759465148E-002
   7.4383160809734991E-002  -2.0996873372813842E-002   4.1340749195017672E-002
   7.2345336320262479E-002  -2.0789486805014881E-002   4.0552355663520383E-002
   7.0307511830789940E-002  -2.0525273267022442E-002   4.0030792164973149E-002
   7.0143578290695896E-002  -1.7873020939711878E-002   4.8705624794207973E-002
   6.8418241665294005E-002  -1.8329462996941777E-002   4.7255676096073888E-002
   6.6692905039892086E-002  -1.8563283902663052E-002   4.6163873093130865E-002
   6.4967568414490168E-002  -1.8574483656875678E-002   4.5430215785378973E-002
   6.3242231789088305E-002  -1.8363062259579649E-002   4.5054704172818046E-002
   6.1515069800003742E-002  -1.4504876281592527E-002   5.3060151456253729E-002
   6.0193536700913382E-002  -1.5511493023464260E-002   5.1648101838698356E-002
   5.8872003601823014E-002  -1.6129694432512269E-002   5.0685513578574884E-002
   5.7550470502732654E-002  -1.6359480508736479E-002   5.0172386675883467E-002
   5.6228937403642307E-002  -1.6200851252136883E-002   5.0108721130624145E-002
   8.4594028882960526E-002  -2.4849695281908002E-002   3.0073282999166756E-002
   8.2209498800562386E-002  -2.4535592775807344E-002   2.9322997879128718E-002
   7.9824968718164219E-002  -2.4058119503839050E-002   2.8856060397622327E-002
   7.7440438635766079E-002  -2.3417275466003216E-002   2.8672470554647465E-002
   7.5055908553367912E-002  -2.2613060662299761E-002   2.8772228350204293E-002
   7.7424777528747421E-002  -2.2687484274465208E-002   3.5036985107089455E-002
   7.5308937821092548E-002  -2.2365076405057430E-002   3.4465599558732254E-002
   7.3193098113437632E-002  -2.1922896943090173E-002   3.4148247121330071E-002
   7.1077258405782814E-002  -2.1360945888563455E-002   3.4084927794882938E-002
   6.8961418698127872E-002  -2.0679223241477196E-002   3.4275641579390698E-002
   7.0307511830789940E-002  -2.0525273267022442E-002   4.0030792164973149E-002
   6.8431047970301737E-002  -2.0194560034307578E-002   3.9594707014988836E-002
   6.6554584109813533E-002  -1.9787674382341292E-002   3.9383340448382861E-002
   6.4678120249325302E-002  -1.9304616311123731E-002   3.9396692465155189E-002
   6.2801656388837127E-002  -1.8745385820654728E-002   3.9634763065305896E-002
   6.3242231789088305E-002  -1.8363062259579649E-002   4.5054704172818046E-002
   6.1575829248190050E-002  -1.8024043663557723E-002   4.4710320247898408E-002
   5.9909426707291859E-002  -1.7652451821592398E-002   4.4561340378780512E-002
   5.8243024166393639E-002  -1.7248286733683962E-002   4.4607764565464218E-002
   5.6576621625495399E-002  -1.6811548399832212E-002   4.4849592807949763E-002
   5.6228937403642307E-002  -1.6200851252136883E-002   5.0108721130624145E-002
   5.4743281654757461E-002  -1.5853527292807826E-002   4.9812439257461094E-002
   5.3257625905872623E-002  -1.5517229260843535E-002   4.9682246912523181E-002
   5.1771970156987798E-002  -1.5191957156244232E-002   4.9718144095810282E-002
   5.0286314408102939E-002  -1.4877710979009695E-002   4.9920130807322355E-002
   7.5055908553367912E-002  -2.2613060662299761E-002   2.8772228350204293E-002
   7.2701756966653319E-002  -2.1757262848259490E-002   2.8594441933136650E-002
   7.0347605379938699E-002  -2.0961669779412738E-002   2.8568357706211536E-002
   6.7993453793224107E-002  -2.0226281455759713E-002   2.8693975669429127E-002
   6.5639302206509459E-002  -1.9551097877300416E-002   2.8971295822789289E-002
   6.8961418698127872E-002  -2.0679223241477196E-002   3.4275641579390698E-002
   6.6768649665237198E-002  -1.9953511274867206E-002   3.3996264222600936E-002
   6.4575880632346538E-002  -1.9259592261768793E-002   3.3887949783316121E-002
   6.2383111599455865E-002  -1.8597466202182035E-002   3.3950698261536676E-002
   6.0190342566565219E-002  -1.7967133096107146E-002   3.4184509657262607E-002
   6.2801656388837127E-002  -1.8745385820654728E-002   3.9634763065305896E-002
   6.0789630637132941E-002  -1.8149759701474935E-002   3.9282206560475791E-002
   5.8777604885428804E-002  -1.7557514744124824E-002   3.9120073700513472E-002
   5.6765579133724639E-002  -1.6968650948604471E-002   3.9148364485419120E-002
   5.4753553382020488E-002  -1.6383168314913737E-002   3.9367078915192477E-002
   5.6576621625495399E-002  -1.6811548399832212E-002   4.4849592807949763E-002
   5.4764699882340451E-002  -1.6346008128082727E-002   4.4452268946761443E-002
   5.2952778139185440E-002  -1.5855437226480924E-002   4.4264729457803610E-002
   5.1140856396030443E-002  -1.5339835695026822E-002   4.4286974341076063E-002
   4.9328934652875425E-002  -1.4799203533720370E-002   4.4519003596579204E-002
   5.0286314408102939E-002  -1.4877710979009695E-002   4.9920130807322355E-002
   4.8693857400859714E-002  -1.4542256554690422E-002   4.9506451381457817E-002
   4.7101400393616447E-002  -1.4153359708836952E-002   4.9321917055186321E-002
   4.5508943386373200E-002  -1.3711020441449184E-002   4.9366527828507922E-002
   4.3916486379129954E-002  -1.3215238752527059E-002   4.9640283701422538E-002
   6.5639302206509459E-002  -1.9551097877300416E-002   2.8971295822789289E-002
   6.3285222892471987E-002  -1.8888345526687916E-002   2.8630366049600231E-002
   6.0931143578434530E-002  -1.8190250886575512E-002   2.8476892689684369E-002
   5.8577064264397037E-002  -1.7456813956963014E-002   2.8510875743041730E-002
   5.6222984950359545E-002  -1.6688034737850632E-002   2.8732315209672288E-002
   6.0190342566565219E-002  -1.7967133096107146E-002   3.4184509657262607E-002
   5.8022800062419194E-002  -1.7340530188151210E-002   3.3884668159478215E-002
   5.5855257558273183E-002  -1.6689594722921780E-002   3.3770443868203201E-002
   5.3687715054127200E-002  -1.6014326700418725E-002   3.3841836783437960E-002
   5.1520172549981147E-002  -1.5314726120642219E-002   3.4098846905182389E-002
   5.4753553382020488E-002  -1.6383168314913737E-002   3.9367078915192477E-002
   5.2770708481002411E-002  -1.5792714849614350E-002   3.9097315960586076E-002
   5.0787863579984299E-002  -1.5188938559267874E-002   3.9011331005725729E-002
   4.8805018678966181E-002  -1.4571839443874491E-002   3.9109124050611607E-002
   4.6822173777948145E-002  -1.3941417503433862E-002   3.9390695095243539E-002
   4.9328934652875425E-002  -1.4799203533720370E-002   4.4519003596579204E-002
   4.7528948148221631E-002  -1.4244899511077568E-002   4.4268309452924419E-002
   4.5728961643567864E-002  -1.3688282395614055E-002   4.4199554102252091E-002
   4.3928975138914063E-002  -1.3129352187330075E-002   4.4312737544562379E-002
   4.2128988634260248E-002  -1.2568108886225476E-002   4.4607859779855291E-002
   4.3916486379129954E-002  -1.3215238752527059E-002   4.9640283701422538E-002
   4.2297519064076888E-002  -1.2697084172540729E-002   4.9397648636492930E-002
   4.0678551749023864E-002  -1.2187626231960250E-002   4.9335113157782190E-002
   3.9059584433970805E-002  -1.1686864930785888E-002   4.9452677265290387E-002
   3.7440617118917746E-002  -1.1194800269017091E-002   4.9750340959017592E-002
   5.6222984950359545E-002  -1.6688034737850632E-002   2.8732315209672288E-002
   5.3904185265465809E-002  -1.5912388293863655E-002   2.8403525048076028E-002
   5.1585385580572102E-002  -1.5158349689627759E-002   2.8255775418246865E-002
   4.9266585895678353E-002  -1.4425918925142875E-002   2.8289066320184769E-002
   4.6947786210784603E-002  -1.3715096000408877E-002   2.8503397753890214E-002
   5.1520172549981147E-002  -1.5314726120642219E-002   3.4098846905182389E-002
   4.9383541104524933E-002  -1.4608135456335408E-002   3.3760017965619865E-002
   4.7246909659068720E-002  -1.3911897180241509E-002   3.3604484973164872E-002
   4.5110278213612534E-002  -1.3226011292360385E-002   3.3632247927817965E-002
   4.2973646768156293E-002  -1.2550477792692250E-002   3.3843306829578867E-002
   4.6822173777948145E-002  -1.3941417503433862E-002   3.9390695095243539E-002
   4.4869965987270097E-002  -1.3303882618807161E-002   3.9053082829252475E-002
   4.2917758196592028E-002  -1.2665444670855203E-002   3.8901021925710183E-002
   4.0965550405913972E-002  -1.2026103659577951E-002   3.8934512384616260E-002
   3.9013342615235910E-002  -1.1385859584975622E-002   3.9153554205970859E-002
   4.2128988634260248E-002  -1.2568108886225476E-002   4.4607859779855291E-002
   4.0363459913701105E-002  -1.1999629781278803E-002   4.4282719638974205E-002
   3.8597931193141935E-002  -1.1418992161468869E-002   4.4145386275882416E-002
   3.6832402472582799E-002  -1.0826196026795656E-002   4.4195859690579875E-002
   3.5066873752023636E-002  -1.0221241377258994E-002   4.4434139883066437E-002
   3.7440617118917746E-002  -1.1194800269017091E-002   4.9750340959017592E-002
   3.5864022883818125E-002  -1.0695376943750667E-002   4.9448928394784819E-002
   3.4287428648718504E-002  -1.0172539652082743E-002   4.9337578023681772E-002
   3.2710834413618883E-002  -9.6262883940130516E-003   4.9416289845708630E-002
   3.1134240178519262E-002  -9.0566231695423105E-003   4.9685063860865186E-002
   4.6947786210784603E-002  -1.3715096000408877E-002   2.8503397753890214E-002
   4.4471493352509883E-002  -1.2866707288134827E-002   2.7669271758566039E-002
   4.1995200494235135E-002  -1.1721579161029172E-002   2.6989920685388247E-002
   3.9518907635960401E-002  -1.0279711619092260E-002   2.6465344534356089E-002
   3.7042614777685667E-002  -8.5411046623240505E-003   2.6095543305470592E-002
   4.2973646768156293E-002  -1.2550477792692250E-002   3.3843306829578867E-002
   4.0660324711635831E-002  -1.1772396025377746E-002   3.3287306172739672E-002
   3.8347002655115481E-002  -1.0778865334557838E-002   3.2902472197263194E-002
   3.6033680598595061E-002  -9.5698857202324815E-003   3.2688804903149238E-002
   3.3720358542074613E-002  -8.1454571824015609E-003   3.2646304290398165E-002
   3.9013342615235910E-002  -1.1385859584975622E-002   3.9153554205970859E-002
   3.6879383119686499E-002  -1.0678084762620804E-002   3.8794388396290555E-002
   3.4745423624136997E-002  -9.8361515080864492E-003   3.8622781027189385E-002
   3.2611464128587411E-002  -8.8600598213726192E-003   3.8638732098667639E-002
   3.0477504633038027E-002  -7.7498097024791823E-003   3.8842241610725081E-002
   3.5066873752023636E-002  -1.0221241377258994E-002   4.4434139883066437E-002
   3.3128668576661656E-002  -9.5837734998637930E-003   4.4190518429218950E-002
   3.1190463401299766E-002  -8.8934376816150879E-003   4.4150847175166992E-002
   2.9252258225937782E-002  -8.1502339225125210E-003   4.4315126120911402E-002
   2.7314053050575895E-002  -7.3541622225568037E-003   4.4683355266451480E-002
   3.1134240178519262E-002  -9.0566231695423105E-003   4.9685063860865186E-002
   2.9408181082561491E-002  -8.4894622371067263E-003   4.9475696271524761E-002
   2.7682121986603664E-002  -7.9507238551437404E-003   4.9486670641196412E-002
   2.5956062890645934E-002  -7.4404080236528704E-003   4.9717986969880848E-002
   2.4230003794688149E-002  -6.9585147426343141E-003   5.0169645257577500E-002
   5.7152451132737578E-002   0.0000000000000000        3.4691429972846730E-002
   5.7942319300479245E-002  -2.0846124040901758E-003   3.8343468950041294E-002
   5.8732187468220912E-002  -4.1381135036022143E-003   4.2208832152858235E-002
   5.9522055635962565E-002  -6.1605032985361033E-003   4.6287519581297579E-002
   6.0311923803704239E-002  -8.1517817888918549E-003   5.0579531235359271E-002
   4.8652734109863857E-002   0.0000000000000000        3.2789878775347898E-002
   4.9590770012083958E-002  -1.7097902072503541E-003   3.6965418065326536E-002
   5.0528805914304059E-002  -3.4332921517645932E-003   4.1223968598639665E-002
   5.1466841816524167E-002  -5.1705058335427129E-003   4.5565530375287294E-002
   5.2404877718744261E-002  -6.9214312525847166E-003   4.9990103395269408E-002
   4.0732974107261025E-002   0.0000000000000000        3.1285561295609908E-002
   4.1688864761671683E-002  -1.3349680104105324E-003   3.5939777856530589E-002
   4.2644755416082335E-002  -2.7284707999269721E-003   4.0546692678497892E-002
   4.3600646070492986E-002  -4.1805083685493190E-003   4.5106305761511804E-002
   4.4556536724903631E-002  -5.6910807162775714E-003   4.9618617105572305E-002
   3.3393171124929094E-002   0.0000000000000000        3.0178477533632741E-002
   3.4236603549242392E-002  -9.6014581357071116E-004   3.5266548323653467E-002
   3.5080035973555711E-002  -2.0236494480893544E-003   4.0177004392432894E-002
   3.5923468397869029E-002  -3.1905109035559277E-003   4.4909845739971054E-002
   3.6766900822182334E-002  -4.4607301799704348E-003   4.9465072366267931E-002
   2.6633325162868052E-002   0.0000000000000000        2.9468627489416414E-002
   2.7233986374796133E-002  -5.8532361673088815E-004   3.4945729466695136E-002
   2.7834647586724211E-002  -1.3188280962517316E-003   4.0114903740444692E-002
   2.8435308798652290E-002  -2.2005134385625329E-003   4.4976150310665070E-002
   2.9035970010580371E-002  -3.2303796436632852E-003   4.9529469177356275E-002
   6.0311923803704239E-002  -8.1517817888918549E-003   5.0579531235359271E-002
   6.0612710302779114E-002  -1.0030642323235660E-002   5.1517966924280324E-002
   6.0913496801853984E-002  -1.1715778250133705E-002   5.2244215524069777E-002
   6.1214283300928873E-002  -1.3207189569585970E-002   5.2758277034727560E-002
   6.1515069800003742E-002  -1.4504876281592527E-002   5.3060151456253729E-002
   5.2404877718744261E-002  -6.9214312525847166E-003   4.9990103395269408E-002
   5.2532279222246729E-002  -8.5851121408684651E-003   5.1217008971982114E-002
   5.2659680725749218E-002  -1.0060592230371828E-002   5.2309331646681639E-002
   5.2787082229251700E-002  -1.1347871521094774E-002   5.3267071419368012E-002
   5.2914483732754168E-002  -1.2446950013037326E-002   5.4090228290041162E-002
   4.4556536724903631E-002  -5.6910807162775714E-003   4.9618617105572305E-002
   4.4588157419952153E-002  -7.1395819585012670E-003   5.1128468761411285E-002
   4.4619778115000674E-002  -8.4054062106099243E-003   5.2581341702355532E-002
   4.4651398810049203E-002  -9.4885534726035434E-003   5.3977235928405067E-002
   4.4683019505097718E-002  -1.0389023744482126E-002   5.5316151439559876E-002
   3.6766900822182334E-002  -4.4607301799704348E-003   4.9465072366267931E-002
   3.6780344895895357E-002  -5.6940517761340636E-003   5.1252346292567849E-002
   3.6793788969608388E-002  -6.7502201908480304E-003   5.3060245691091426E-002
   3.6807233043321418E-002  -7.6292354241123059E-003   5.4888770561838801E-002
   3.6820677117034441E-002  -8.3310974759269393E-003   5.6737920904809877E-002
   2.9035970010580371E-002  -3.2303796436632852E-003   4.9529469177356275E-002
   2.9108841650076357E-002  -4.2485215937668802E-003   5.1588641565451711E-002
   2.9181713289572336E-002  -5.0950341710861461E-003   5.3746043612889365E-002
   2.9254584929068315E-002  -5.7699173756210901E-003   5.6001675319669167E-002
   2.9327456568564302E-002  -6.2731712073717180E-003   5.8355536685791153E-002
   6.1515069800003742E-002  -1.4504876281592527E-002   5.3060151456253729E-002
   6.0193536700913382E-002  -1.5511493023464260E-002   5.1648101838698356E-002
   5.8872003601823014E-002  -1.6129694432512269E-002   5.0685513578574884E-002
   5.7550470502732654E-002  -1.6359480508736479E-002   5.0172386675883467E-002
   5.6228937403642307E-002  -1.6200851252136883E-002   5.0108721130624145E-002
   5.2914483732754168E-002  -1.2446950013037326E-002   5.4090228290041162E-002
   5.1990530395286234E-002  -1.3298196678644372E-002   5.3343358009626501E-002
   5.1066577057818308E-002  -1.3841980490360806E-002   5.2942185895024703E-002
   5.0142623720350367E-002  -1.4078301448186619E-002   5.2886711946235732E-002
   4.9218670382882440E-002  -1.4007159552121812E-002   5.3176936163259581E-002
   4.4683019505097718E-002  -1.0389023744482126E-002   5.5316151439559876E-002
   4.4052882737633053E-002  -1.1084900333824470E-002   5.5153508017352838E-002
   4.3422745970168389E-002  -1.1554266548209371E-002   5.5232799569339450E-002
   4.2792609202703731E-002  -1.1797122387636805E-002   5.5554026095519758E-002
   4.2162472435239073E-002  -1.1813467852106768E-002   5.6117187595893736E-002
   3.6820677117034441E-002  -8.3310974759269393E-003   5.6737920904809877E-002
   3.6380593727953874E-002  -8.8716039890045541E-003   5.7078551861877290E-002
   3.5940510338873306E-002  -9.2665526060579217E-003   5.7557354601519145E-002
   3.5500426949792732E-002  -9.5159433270869502E-003   5.8174329123735588E-002
   3.5060343560712158E-002  -9.6197761520916830E-003   5.8929475428526501E-002
   2.9327456568564302E-002  -6.2731712073717180E-003   5.8355536685791153E-002
   2.8973663366248660E-002  -6.6583076441846696E-003   5.9118489543199829E-002
   2.8619870163933026E-002  -6.9788386639064396E-003   5.9915850991563865E-002
   2.8266076961617391E-002  -7.2347642665371564E-003   6.0747621030883180E-002
   2.7912283759301749E-002  -7.4260844520766672E-003   6.1613799661157889E-002
   5.6228937403642307E-002  -1.6200851252136883E-002   5.0108721130624145E-002
   5.4743281654757461E-002  -1.5853527292807826E-002   4.9812439257461094E-002
   5.3257625905872623E-002  -1.5517229260843535E-002   4.9682246912523181E-002
   5.1771970156987798E-002  -1.5191957156244232E-002   4.9718144095810282E-002
   5.0286314408102939E-002  -1.4877710979009695E-002   4.9920130807322355E-002
   4.9218670382882440E-002  -1.4007159552121812E-002   5.3176936163259581E-002
   4.7905522364433586E-002  -1.3775381087644159E-002   5.2842533743209186E-002
   4.6592374345984726E-002  -1.3529792340231453E-002   5.2687057255805546E-002
   4.5279226327535865E-002  -1.3270393309883732E-002   5.2710506701048890E-002
   4.3966078309087026E-002  -1.2997183996600992E-002   5.2912882078939225E-002
   4.2162472435239073E-002  -1.1813467852106768E-002   5.6117187595893736E-002
   4.1034668551648057E-002  -1.1697234882480513E-002   5.5769500839255706E-002
   3.9906864668057068E-002  -1.1542355419619343E-002   5.5613576419686409E-002
   3.8779060784466059E-002  -1.1348829463523259E-002   5.5649414337185912E-002
   3.7651256900875070E-002  -1.1116657014192233E-002   5.5877014591754232E-002
   3.5060343560712158E-002  -9.6197761520916830E-003   5.8929475428526501E-002
   3.4130720216400900E-002  -9.6190886773169122E-003   5.8593340545600725E-002
   3.3201096872089622E-002  -9.5549184990072478E-003   5.8461804404165651E-002
   3.2271473527778365E-002  -9.4272656171628007E-003   5.8534867004221156E-002
   3.1341850183467107E-002  -9.2361300317835154E-003   5.8812528345767404E-002
   2.7912283759301749E-002  -7.4260844520766672E-003   6.1613799661157889E-002
   2.7193677358692096E-002  -7.5409424721532142E-003   6.1314052862244367E-002
   2.6475070958082426E-002  -7.5674815783951348E-003   6.1231741209243289E-002
   2.5756464557472776E-002  -7.5057017708023100E-003   6.1366864702154800E-002
   2.5037858156863102E-002  -7.3556030493747426E-003   6.1719423340978824E-002
   5.0286314408102939E-002  -1.4877710979009695E-002   4.9920130807322355E-002
   4.8693857400859714E-002  -1.4542256554690422E-002   4.9506451381457817E-002
   4.7101400393616447E-002  -1.4153359708836952E-002   4.9321917055186321E-002
   4.5508943386373200E-002  -1.3711020441449184E-002   4.9366527828507922E-002
   4.3916486379129954E-002  -1.3215238752527059E-002   4.9640283701422538E-002
   4.3966078309087026E-002  -1.2997183996600992E-002   5.2912882078939225E-002
   4.2596968144804320E-002  -1.2696060041405194E-002   5.2546549798458603E-002
   4.1227857980521615E-002  -1.2352917085318521E-002   5.2397766104306166E-002
   3.9858747816238903E-002  -1.1967755128340994E-002   5.2466530996481700E-002
   3.8489637651956191E-002  -1.1540574170472495E-002   5.2752844474985211E-002
   3.7651256900875070E-002  -1.1116657014192233E-002   5.5877014591754232E-002
   3.6493897066287841E-002  -1.0849863528119973E-002   5.5546606036014357E-002
   3.5336537231700618E-002  -1.0552474461800208E-002   5.5422149553337498E-002
   3.4179177397113417E-002  -1.0224489815232806E-002   5.5503645143723537E-002
   3.3021817562526166E-002  -9.8659095884179870E-003   5.5791092807172565E-002
   3.1341850183467107E-002  -9.2361300317835154E-003   5.8812528345767404E-002
   3.0384644165310309E-002  -9.0036670148346924E-003   5.8506620094124891E-002
   2.9427438147153533E-002  -8.7520318382818367E-003   5.8395067402280225E-002
   2.8470232128996738E-002  -8.4812245021247297E-003   5.8477870270233503E-002
   2.7513026110839951E-002  -8.1912450063633957E-003   5.8755028697984740E-002
   2.5037858156863102E-002  -7.3556030493747426E-003   6.1719423340978824E-002
   2.4269209441871692E-002  -7.1574705015495094E-003   6.1426591972790157E-002
   2.3500560726880282E-002  -6.9515892147634442E-003   6.1316519651134480E-002
   2.2731912011888861E-002  -6.7379591890164518E-003   6.1389206376011550E-002
   2.1963263296897462E-002  -6.5165804243089154E-003   6.1644652147421486E-002
   4.3916486379129954E-002  -1.3215238752527059E-002   4.9640283701422538E-002
   4.2297519064076888E-002  -1.2697084172540729E-002   4.9397648636492930E-002
   4.0678551749023864E-002  -1.2187626231960250E-002   4.9335113157782190E-002
   3.9059584433970805E-002  -1.1686864930785888E-002   4.9452677265290387E-002
   3.7440617118917746E-002  -1.1194800269017091E-002   4.9750340959017592E-002
   3.8489637651956191E-002  -1.1540574170472495E-002   5.2752844474985211E-002
   3.7054867961606341E-002  -1.1093842603149204E-002   5.2467528875589989E-002
   3.5620098271256471E-002  -1.0650028817807175E-002   5.2370508939382443E-002
   3.4185328580906615E-002  -1.0209132814446600E-002   5.2461784666362116E-002
   3.2750558890556725E-002  -9.7711545930669885E-003   5.2741356056529187E-002
   3.3021817562526166E-002  -9.8659095884179870E-003   5.5791092807172565E-002
   3.1779441573848037E-002  -9.4906010337577340E-003   5.5468875530736331E-002
   3.0537065585169876E-002  -9.1124314036540935E-003   5.5343149994456241E-002
   2.9294689596491744E-002  -8.7314006981072546E-003   5.5413916198332067E-002
   2.8052313607813587E-002  -8.3475089171169969E-003   5.5681174142363801E-002
   2.7513026110839951E-002  -8.1912450063633957E-003   5.8755028697984740E-002
   2.6471239900802017E-002  -7.8873594643661810E-003   5.8401688601932109E-002
   2.5429453690764062E-002  -7.5748339895010154E-003   5.8253036323004104E-002
   2.4387667480726145E-002  -7.2536685817679936E-003   5.8309071861200525E-002
   2.3345881270688172E-002  -6.9238632411669776E-003   5.8569795216521336E-002
   2.1963263296897462E-002  -6.5165804243089154E-003   6.1644652147421486E-002
   2.1130262942468253E-002  -6.2841178949747112E-003   6.1265968089177170E-002
   2.0297262588039051E-002  -6.0372365753478957E-003   6.1100167925025789E-002
   1.9464262233609846E-002  -5.7759364654286667E-003   6.1147251654967358E-002
   1.8631261879180655E-002  -5.5002175652169027E-003   6.1407219279001890E-002
   3.7440617118917746E-002  -1.1194800269017091E-002   4.9750340959017592E-002
   3.5864022883818125E-002  -1.0695376943750667E-002   4.9448928394784819E-002
   3.4287428648718504E-002  -1.0172539652082743E-002   4.9337578023681772E-002
   3.2710834413618883E-002  -9.6262883940130516E-003   4.9416289845708630E-002
   3.1134240178519262E-002  -9.0566231695423105E-003   4.9685063860865186E-002
   3.2750558890556725E-002  -9.7711545930669885E-003   5.2741356056529187E-002
   3.1362484204332172E-002  -9.3255179024996360E-003   5.2451038137038331E-002
   2.9974409518107592E-002  -8.8616464915753507E-003   5.2347697122168024E-002
   2.8586334831883033E-002  -8.3795403602938863E-003   5.2431333011917686E-002
   2.7198260145658459E-002  -7.8791995086553990E-003   5.2701945806287731E-002
   2.8052313607813587E-002  -8.3475089171169969E-003   5.5681174142363801E-002
   2.6849673181954366E-002  -7.9556588612488821E-003   5.5396771621570959E-002
   2.5647032756095187E-002  -7.5507533310680761E-003   5.5296260716888583E-002
   2.4444392330235973E-002  -7.1327923265747228E-003   5.5379641428316764E-002
   2.3241751904376787E-002  -6.7017758477687372E-003   5.5646913755855579E-002
   2.3345881270688172E-002  -6.9238632411669776E-003   5.8569795216521336E-002
   2.2325589816684699E-002  -6.5857998199979340E-003   5.8286128848381871E-002
   2.1305298362681201E-002  -6.2398601705608535E-003   5.8183268807843205E-002
   2.0285006908677711E-002  -5.8860442928555029E-003   5.8261215094905401E-002
   1.9264715454674227E-002  -5.5243521868820616E-003   5.8519967709568535E-002
   1.8631261879180655E-002  -5.5002175652169027E-003   6.1407219279001890E-002
   1.7790234108523179E-002  -5.2159407787471246E-003   6.1119109817471429E-002
   1.6949206337865716E-002  -4.9289670100533950E-003   6.1008721395032078E-002
   1.6108178567208246E-002  -4.6392962591363350E-003   6.1076054011683908E-002
   1.5267150796550777E-002  -4.3469285259952195E-003   6.1321107667426877E-002
   3.1134240178519262E-002  -9.0566231695423105E-003   4.9685063860865186E-002
   2.9408181082561491E-002  -8.4894622371067263E-003   4.9475696271524761E-002
   2.7682121986603664E-002  -7.9507238551437404E-003   4.9486670641196412E-002
   2.5956062890645934E-002  -7.4404080236528704E-003   4.9717986969880848E-002
   2.4230003794688149E-002  -6.9585147426343141E-003   5.0169645257577500E-002
   2.7198260145658459E-002  -7.8791995086553990E-003   5.2701945806287731E-002
   2.5684748181230371E-002  -7.3790048909156691E-003   5.2440780311730301E-002
   2.4171236216802297E-002  -6.8973374613298249E-003   5.2384367121219494E-002
   2.2657724252374195E-002  -6.4341972198981891E-003   5.2532706234756005E-002
   2.1144212287946107E-002  -5.9895841666206540E-003   5.2885797652339139E-002
   2.3241751904376787E-002  -6.7017758477687372E-003   5.5646913755855579E-002
   2.1925197416512804E-002  -6.2685475447244732E-003   5.5343845718399245E-002
   2.0608642928648870E-002  -5.8439510675160136E-003   5.5229940330024312E-002
   1.9292088440784904E-002  -5.4279864161435615E-003   5.5305197590730840E-002
   1.7975533952920966E-002  -5.0206535906071048E-003   5.5569617500518587E-002
   1.9264715454674227E-002  -5.5243521868820616E-003   5.8519967709568535E-002
   1.8129528788408837E-002  -5.1580901985331801E-003   5.8184892491531762E-002
   1.6994342122143478E-002  -4.7905646737023168E-003   5.8023390267610775E-002
   1.5859155455878082E-002  -4.4217756123889626E-003   5.8035461037805644E-002
   1.4723968789612702E-002  -4.0517230145935001E-003   5.8221104802116411E-002
   1.5267150796550777E-002  -4.3469285259952195E-003   6.1321107667426877E-002
   1.4297742296918423E-002  -4.0476328523421645E-003   6.0963920631127821E-002
   1.3328333797286068E-002  -3.7371782798883840E-003   6.0764716933979140E-002
   1.2358925297653700E-002  -3.4155648086342770E-003   6.0723496575980376E-002
   1.1389516798021360E-002  -3.0827924385798955E-003   6.0840259557132237E-002
   2.6633325162868052E-002   0.0000000000000000        2.9468627489416414E-002
   2.7233986374796133E-002  -5.8532361673088815E-004   3.4945729466695136E-002
   2.7834647586724211E-002  -1.3188280962517316E-003   4.0114903740444692E-002
   2.8435308798652290E-002  -2.2005134385625329E-003   4.4976150310665070E-002
   2.9035970010580371E-002  -3.2303796436632852E-003   4.9529469177356275E-002
   2.0116341751174632E-002   0.0000000000000000        2.9021298452276821E-002
   2.0448515859700190E-002  -4.3899271249057004E-004   3.4313950855204278E-002
   2.0780689968225755E-002  -9.8912107207573333E-004   3.9377556754855866E-002
   2.1112864076751312E-002  -1.6503850787554829E-003   4.4212116151231592E-002
   2.1445038185276873E-002  -2.4227847325298275E-003   4.8817629044331463E-002
   1.3505126419945560E-002   0.0000000000000000        2.8701777711529868E-002
   1.3647694625321907E-002  -2.9266180825025063E-004   3.3847025755801410E-002
   1.3790262830698258E-002  -6.5941404789972898E-004   3.8842108497050408E-002
   1.3932831036074608E-002  -1.1002567189484390E-003   4.3687025935276860E-002
   1.4075399241450959E-002  -1.6151898213963693E-003   4.8381778070480733E-002
   6.7996791691808337E-003   0.0000000000000000        2.8510065267175547E-002
   6.8315226716612843E-003  -1.4633090400993144E-004   3.3544954168486560E-002
   6.8633661741417324E-003  -3.2970702372372594E-004   3.8508558967028317E-002
   6.8952096766221821E-003  -5.5012835914138849E-004   4.3400879662800831E-002
   6.9270531791026328E-003  -8.0759491026291303E-004   4.8221916255804111E-002
  -1.1195410917763660E-012   0.0000000000000000        2.8446161119213866E-002
  -1.2816822256289662E-012   2.3038775748274176E-013   3.3407736093259692E-002
  -1.4438242268433044E-012   4.5227536993319717E-013   3.8376908164789593E-002
  -1.6059657943767736E-012   6.6565503109572433E-013   4.3353677333803554E-002
  -1.7681064945485048E-012   8.7054755765203495E-013   4.8338043600301570E-002
   2.9035970010580371E-002  -3.2303796436632852E-003   4.9529469177356275E-002
   2.9108841650076357E-002  -4.2485215937668802E-003   5.1588641565451711E-002
   2.9181713289572336E-002  -5.0950341710861461E-003   5.3746043612889365E-002
   2.9254584929068315E-002  -5.7699173756210901E-003   5.6001675319669167E-002
   2.9327456568564302E-002  -6.2731712073717180E-003   5.8355536685791153E-002
   2.1445038185276873E-002  -2.4227847325298275E-003   4.8817629044331463E-002
   2.1587027591798896E-002  -3.1863911950622006E-003   5.1219158122769774E-002
   2.1729016998320923E-002  -3.8212756280160639E-003   5.3660693075917976E-002
   2.1871006404842953E-002  -4.3274380313914037E-003   5.6142233903776151E-002
   2.2012995811364976E-002  -4.7048784051881981E-003   5.8663780606344154E-002
   1.4075399241450959E-002  -1.6151898213963693E-003   4.8381778070480733E-002
   1.4228282630366754E-002  -2.1242607963575483E-003   5.1082756496056148E-002
   1.4381166019282549E-002  -2.5475170849459951E-003   5.3765517011709146E-002
   1.4534049408198343E-002  -2.8849586871616960E-003   5.6430059617439805E-002
   1.4686932797114138E-002  -3.1365856030046678E-003   5.9076384313248083E-002
   6.9270531791026328E-003  -8.0759491026291303E-004   4.8221916255804111E-002
   7.0326067657799189E-003  -1.0621303976528892E-003   5.1179436685310789E-002
   7.1381603524572033E-003  -1.2737585418759162E-003   5.4060515420262849E-002
   7.2437139391344912E-003  -1.4424793429320024E-003   5.6865152460660234E-002
   7.3492675258117757E-003  -1.5682928008211288E-003   5.9593347806502994E-002
  -1.7681064945485048E-012   8.7054755765203495E-013   4.8338043600301570E-002
  -1.9616057909954687E-012   1.0517732518255940E-012   5.1509198690533761E-002
  -2.1551042200806947E-012   1.1941526326803009E-012   5.4545688301579028E-002
  -2.3486035165276586E-012   1.2976937775223407E-012   5.7447512433437382E-002
  -2.5421019456128846E-012   1.3623963068809530E-012   6.0214671086108798E-002
   2.9327456568564302E-002  -6.2731712073717180E-003   5.8355536685791153E-002
   2.8973663366248660E-002  -6.6583076441846696E-003   5.9118489543199829E-002
   2.8619870163933026E-002  -6.9788386639064396E-003   5.9915850991563865E-002
   2.8266076961617391E-002  -7.2347642665371564E-003   6.0747621030883180E-002
   2.7912283759301749E-002  -7.4260844520766672E-003   6.1613799661157889E-002
   2.2012995811364976E-002  -4.7048784051881981E-003   5.8663780606344154E-002
   2.1707121127367134E-002  -4.9937307327383058E-003   5.9485170874066753E-002
   2.1401246443369288E-002  -5.2341289973735321E-003   6.0367989587469577E-002
   2.1095371759371442E-002  -5.4260731990939384E-003   6.1312236746552659E-002
   2.0789497075373600E-002  -5.5695633378994303E-003   6.2317912351315910E-002
   1.4686932797114138E-002  -3.1365856030046678E-003   5.9076384313248083E-002
   1.4455996486158968E-002  -3.3291538212919750E-003   5.9940060637108342E-002
   1.4225060175203797E-002  -3.4894193308406514E-003   6.0892185261373688E-002
   1.3994123864248623E-002  -3.6173821316507612E-003   6.1932758186044198E-002
   1.3763187553293454E-002  -3.7130422237222419E-003   6.3061779411119775E-002
   7.3492675258117757E-003  -1.5682928008211288E-003   5.9593347806502994E-002
   7.2202894426241660E-003  -1.6645769098456139E-003   6.0483158832324621E-002
   7.0913113594365538E-003  -1.7447096643077782E-003   6.1488438013276289E-002
   6.9623332762489432E-003  -1.8086910642075775E-003   6.2609185349357901E-002
   6.8333551930613301E-003  -1.8565211095450430E-003   6.3845400840569555E-002
  -2.5421019456128846E-012   1.3623963068809530E-012   6.0214671086108798E-002
  -3.2372715619288783E-012   1.6007126180106468E-012   6.1114465459715564E-002
  -3.9324411782448720E-012   2.2251402109763063E-012   6.2156747843177228E-002
  -4.6276107945608658E-012   3.2355932169658708E-012   6.3341518236493796E-002
  -5.3227804108768595E-012   4.6321557700679250E-012   6.4668776639665193E-002
   2.7912283759301749E-002  -7.4260844520766672E-003   6.1613799661157889E-002
   2.7193677358692096E-002  -7.5409424721532142E-003   6.1314052862244367E-002
   2.6475070958082426E-002  -7.5674815783951348E-003   6.1231741209243289E-002
   2.5756464557472776E-002  -7.5057017708023100E-003   6.1366864702154800E-002
   2.5037858156863102E-002  -7.3556030493747426E-003   6.1719423340978824E-002
   2.0789497075373600E-002  -5.5695633378994303E-003   6.2317912351315910E-002
   2.0278879934079438E-002  -5.6557068526100346E-003   6.2182475877208113E-002
   1.9768262792785277E-002  -5.6756111820457783E-003   6.2245582775818799E-002
   1.9257645651491122E-002  -5.6292763262065608E-003   6.2507233047147934E-002
   1.8747028510196960E-002  -5.5167022850924896E-003   6.2967426691195552E-002
   1.3763187553293454E-002  -3.7130422237222419E-003   6.3061779411119775E-002
   1.3441667898120726E-002  -3.7704712330669035E-003   6.3068573533257968E-002
   1.3120148242948000E-002  -3.7837407856964236E-003   6.3255019254920566E-002
   1.2798628587775276E-002  -3.7528508816108814E-003   6.3621116576107486E-002
   1.2477108932602548E-002  -3.6778015208101950E-003   6.4166865496818937E-002
   6.8333551930613301E-003  -1.8565211095450430E-003   6.3845400840569555E-002
   6.6820412508159614E-003  -1.8852356135237343E-003   6.3972345830393920E-002
   6.5307273085705910E-003  -1.8918703893470541E-003   6.4260050646548592E-002
   6.3794133663252284E-003  -1.8764254370151670E-003   6.4708515289033597E-002
   6.2280994240798511E-003  -1.8389007565279072E-003   6.5317739757848881E-002
  -5.3227804108768595E-012   4.6321557700679250E-012   6.4668776639665193E-002
  -7.8348647014614414E-012   6.0194349504882894E-012   6.4893792768615927E-002
  -1.0346945522599071E-011   7.0022876386133248E-012   6.5260676950702923E-002
  -1.2859024609013225E-011   7.5805750565649532E-012   6.5769429185926168E-002
  -1.5371110634321283E-011   7.7543804710700215E-012   6.6420049474285620E-002
   2.5037858156863102E-002  -7.3556030493747426E-003   6.1719423340978824E-002
   2.4269209441871692E-002  -7.1574705015495094E-003   6.1426591972790157E-002
   2.3500560726880282E-002  -6.9515892147634442E-003   6.1316519651134480E-002
   2.2731912011888861E-002  -6.7379591890164518E-003   6.1389206376011550E-002
   2.1963263296897462E-002  -6.5165804243089154E-003   6.1644652147421486E-002
   1.8747028510196960E-002  -5.5167022850924896E-003   6.2967426691195552E-002
   1.8163489625404101E-002  -5.3681028744970022E-003   6.2704636322068671E-002
   1.7579950740611229E-002  -5.2136919102137164E-003   6.2629306566805959E-002
   1.6996411855818364E-002  -5.0534693922425662E-003   6.2741437425407609E-002
   1.6412872971025498E-002  -4.8874353205836107E-003   6.3041028897873469E-002
   1.2477108932602548E-002  -3.6778015208101950E-003   6.4166865496818937E-002
   1.2083381445339613E-002  -3.5787352474445575E-003   6.3932178941480802E-002
   1.1689653958076673E-002  -3.4757946056640406E-003   6.3889654567338319E-002
   1.1295926470813736E-002  -3.3689795954686243E-003   6.4039292374391446E-002
   1.0902198983550788E-002  -3.2582902168583061E-003   6.4381092362640266E-002
   6.2280994240798511E-003  -1.8389007565279072E-003   6.5317739757848881E-002
   6.0288849016782373E-003  -1.7893676203921093E-003   6.5109219831026632E-002
   5.8296703792766209E-003  -1.7378973011143387E-003   6.5097563652731380E-002
   5.6304558568750053E-003  -1.6844897986945996E-003   6.5282771222963096E-002
   5.4312413344733872E-003  -1.6291451131330292E-003   6.5664842541721849E-002
  -1.5371110634321283E-011   7.7543804710700215E-012   6.6420049474285620E-002
  -5.5800260245764122E-012   6.6604222137556235E-012   6.6235758990706189E-002
   4.2110672587858389E-012   3.4353561662037180E-012   6.6253033822985127E-002
   1.4002152735892448E-011  -1.9207014451128046E-012   6.6471873971122558E-002
   2.3793245151892961E-011  -9.4076968437661890E-012   6.6892279435118329E-002
   2.1963263296897462E-002  -6.5165804243089154E-003   6.1644652147421486E-002
   2.1130262942468253E-002  -6.2841178949747112E-003   6.1265968089177170E-002
   2.0297262588039051E-002  -6.0372365753478957E-003   6.1100167925025789E-002
   1.9464262233609846E-002  -5.7759364654286667E-003   6.1147251654967358E-002
   1.8631261879180655E-002  -5.5002175652169027E-003   6.1407219279001890E-002
   1.6412872971025498E-002  -4.8874353205836107E-003   6.3041028897873469E-002
   1.5791598060328059E-002  -4.7130884255577044E-003   6.2713519169334403E-002
   1.5170323149630616E-002  -4.5279274374856182E-003   6.2596576434165871E-002
   1.4549048238933169E-002  -4.3319523563678311E-003   6.2690200692368081E-002
   1.3927773328235735E-002  -4.1251631822036838E-003   6.2994391943940492E-002
   1.0902198983550788E-002  -3.2582902168583061E-003   6.4381092362640266E-002
   1.0490332615862664E-002  -3.1420589561407669E-003   6.4101152266560088E-002
   1.0078466248174536E-002  -3.0186182996236113E-003   6.4029462263128029E-002
   9.6665998804864109E-003  -2.8879682473067717E-003   6.4166022352344004E-002
   9.2547335127982841E-003  -2.7501087991903539E-003   6.4510832534208154E-002
   5.4312413344733872E-003  -1.6291451131330292E-003   6.5664842541721849E-002
   5.2264666090721104E-003  -1.5710294867239058E-003   6.5428867380854128E-002
   5.0216918836708396E-003  -1.5093091617614414E-003   6.5398825411912123E-002
   4.8169171582695654E-003  -1.4439841382459353E-003   6.5574716634895780E-002
   4.6121424328682912E-003  -1.3750544161770795E-003   6.5956541049804918E-002
   2.3793245151892961E-011  -9.4076968437661890E-012   6.6892279435118329E-002
   3.9956371544747071E-011  -1.7306822641671715E-011   6.6696664512216675E-002
   5.6119508345942037E-011  -2.3899340839683703E-011   6.6704665880518293E-002
   7.2282639942966576E-011  -2.9184963473705139E-011   6.6916283540023061E-002
   8.8445771539991114E-011  -3.3163749524334207E-011   6.7331517490730908E-002
   1.8631261879180655E-002  -5.5002175652169027E-003   6.1407219279001890E-002
   1.7790234108523179E-002  -5.2159407787471246E-003   6.1119109817471429E-002
   1.6949206337865716E-002  -4.9289670100533950E-003   6.1008721395032078E-002
   1.6108178567208246E-002  -4.6392962591363350E-003   6.1076054011683908E-002
   1.5267150796550777E-002  -4.3469285259952195E-003   6.1321107667426877E-002
   1.3927773328235735E-002  -4.1251631822036838E-003   6.2994391943940492E-002
   1.3272600573470586E-002  -3.9119555920795190E-003   6.2747225055267475E-002
   1.2617427818705444E-002  -3.6967252630809994E-003   6.2694047159287933E-002
   1.1962255063940292E-002  -3.4794721952085654E-003   6.2834858256002019E-002
   1.1307082309175154E-002  -3.2601963884618113E-003   6.3169658345409163E-002
   9.2547335127982841E-003  -2.7501087991903539E-003   6.4510832534208154E-002
   8.8016837275277197E-003  -2.6079704054117886E-003   6.4303933975043095E-002
   8.3486339422571589E-003  -2.4644835161085552E-003   6.4307292362173779E-002
   7.8955841569865997E-003  -2.3196481312809086E-003   6.4520907695600177E-002
   7.4425343717160267E-003  -2.1734642509283753E-003   6.4944779975322234E-002
   4.6121424328682912E-003  -1.3750544161770795E-003   6.5956541049804918E-002
   4.3774835706945781E-003  -1.3039852187440651E-003   6.5789236576798318E-002
   4.1428247085208625E-003  -1.2322417691361352E-003   6.5848457003689728E-002
   3.9081658463471468E-003  -1.1598240673531398E-003   6.6134202330479078E-002
   3.6735069841734337E-003  -1.0867321133950086E-003   6.6646472557166492E-002
   8.8445771539991114E-011  -3.3163749524334207E-011   6.7331517490730908E-002
   1.0297116978530418E-010  -3.2076397094016329E-011   6.7203132860533143E-002
   1.1749656109172335E-010  -2.2163673674135964E-011   6.7317541083835725E-002
   1.3202195760231294E-010  -3.4253884451107552E-012   6.7674742160638332E-002
   1.4654735064345559E-010   2.4138469001400154E-011   6.8274736090941479E-002
   1.5267150796550777E-002  -4.3469285259952195E-003   6.1321107667426877E-002
   1.4297742296918423E-002  -4.0476328523421645E-003   6.0963920631127821E-002
   1.3328333797286068E-002  -3.7371782798883840E-003   6.0764716933979140E-002
   1.2358925297653700E-002  -3.4155648086342770E-003   6.0723496575980376E-002
   1.1389516798021360E-002  -3.0827924385798955E-003   6.0840259557132237E-002
   1.1307082309175154E-002  -3.2601963884618113E-003   6.3169658345409163E-002
   1.0516749344627284E-002  -3.0357246204570643E-003   6.2938848096182082E-002
   9.7264163800794071E-003  -2.8028836688106656E-003   6.2908205577973525E-002
   8.9360834155315649E-003  -2.5616735335226050E-003   6.3077730790783923E-002
   8.1457504509836742E-003  -2.3120942145925527E-003   6.3447423734612873E-002
   7.4425343717160267E-003  -2.1734642509283753E-003   6.4944779975322234E-002
   6.8734613341211344E-003  -2.0238163885721583E-003   6.4837556798008303E-002
   6.3043882965262352E-003  -1.8685890577330652E-003   6.4972685743581532E-002
   5.7353152589313394E-003  -1.7077822584106294E-003   6.5350166812041921E-002
   5.1662422213364367E-003  -1.5413959906053210E-003   6.5970000003389540E-002
   3.6735069841734337E-003  -1.0867321133950086E-003   6.6646472557166492E-002
   3.3678782653999966E-003  -1.0119081566871552E-003   6.6660046736606859E-002
   3.0622495466265474E-003  -9.3429444665507275E-004   6.6958157430802981E-002
   2.7566208278531103E-003  -8.5389098329880560E-004   6.7540804639755120E-002
   2.4509921090796610E-003  -7.7069776661803369E-004   6.8407988363462388E-002
   1.4654735064345559E-010   2.4138469001400154E-011   6.8274736090941479E-002
   1.3846384455673544E-010   7.5197792437364797E-011   6.8406317911977432E-002
   1.3038034540890919E-010   1.6442233685687313E-010   6.8864620639637886E-002
   1.2229682891384819E-010   2.9181312227732903E-010   6.9649644273922229E-002
   1.1421333323546889E-010   4.5736925358141889E-010   7.0761388814831072E-002
  -1.1195410917763660E-012   0.0000000000000000        2.8446161119213866E-002
  -1.2816822256289662E-012   2.3038775748274176E-013   3.3407736093259692E-002
  -1.4438242268433044E-012   4.5227536993319717E-013   3.8376908164789593E-002
  -1.6059657943767736E-012   6.6565503109572433E-013   4.3353677333803554E-002
  -1.7681064945485048E-012   8.7054755765203495E-013   4.8338043600301570E-002
  -6.7996791713843202E-003   0.0000000000000000        2.8510065267635380E-002
  -6.8315226741801367E-003   1.4633090444217661E-004   3.3544954168999851E-002
  -6.8633661769759496E-003   3.2970702455193020E-004   3.8508558967612926E-002
  -6.8952096797717617E-003   5.5012836032925644E-004   4.3400879663474563E-002
  -6.9270531825675781E-003   8.0759491177416227E-004   4.8221916256584826E-002
  -1.3505126422042255E-002   0.0000000000000000        2.8701777712430640E-002
  -1.3647694627707214E-002   2.9266180865396415E-004   3.3847025756789842E-002
  -1.3790262833372176E-002   6.5941404865158242E-004   3.8842108498162158E-002
  -1.3932831039037140E-002   1.1002567199928544E-003   4.3687025936547587E-002
  -1.4075399244702099E-002   1.6151898226777800E-003   4.8381778071946144E-002
  -2.0116341753093344E-002   0.0000000000000000        2.9021298453599652E-002
  -2.0448515861862925E-002   4.3899271286575148E-004   3.4313950856629652E-002
  -2.0780689970632513E-002   9.8912107275123682E-004   3.9377556756437303E-002
  -2.1112864079402095E-002   1.6503850796564523E-003   4.4212116153022570E-002
  -2.1445038188171679E-002   2.4227847335813978E-003   4.8817629046385501E-002
  -2.6633325164537588E-002   0.0000000000000000        2.9468627491142416E-002
  -2.7233986376647264E-002   5.8532361707754055E-004   3.4945729468519288E-002
  -2.7834647588756943E-002   1.3188280968508895E-003   4.0114903742438333E-002
  -2.8435308800866626E-002   2.2005134393200503E-003   4.4976150312899546E-002
  -2.9035970012976309E-002   3.2303796444850142E-003   4.9529469179902919E-002
  -1.7681064945485048E-012   8.7054755765203495E-013   4.8338043600301570E-002
  -1.9616057909954687E-012   1.0517732518255940E-012   5.1509198690533761E-002
  -2.1551042200806947E-012   1.1941526326803009E-012   5.4545688301579028E-002
  -2.3486035165276586E-012   1.2976937775223407E-012   5.7447512433437382E-002
  -2.5421019456128846E-012   1.3623963068809530E-012   6.0214671086108798E-002
  -6.9270531825675781E-003   8.0759491177416227E-004   4.8221916256584826E-002
  -7.0326067696127072E-003   1.0621303994358543E-003   5.1179436686180822E-002
  -7.1381603566578354E-003   1.2737585438635176E-003   5.4060515421260481E-002
  -7.2437139437029662E-003   1.4424793450571653E-003   5.6865152461823817E-002
  -7.3492675307480953E-003   1.5682928030167770E-003   5.9593347807870810E-002
  -1.4075399244702099E-002   1.6151898226777800E-003   4.8381778071946144E-002
  -1.4228282633928278E-002   2.1242607978199397E-003   5.1082756497710768E-002
  -1.4381166023154450E-002   2.5475170865328824E-003   5.3765517013629638E-002
  -1.4534049412380626E-002   2.8849586888166265E-003   5.6430059619702752E-002
  -1.4686932801606802E-002   3.1365856046711646E-003   5.9076384315930125E-002
  -2.1445038188171679E-002   2.4227847335813978E-003   4.8817629046385501E-002
  -2.1587027594908312E-002   3.1863911962040194E-003   5.1219158125123572E-002
  -2.1729017001644944E-002   3.8212756292022474E-003   5.3660693078686490E-002
  -2.1871006408381580E-002   4.3274380325760862E-003   5.6142233907074214E-002
  -2.2012995815118220E-002   4.7048784063255487E-003   5.8663780610286792E-002
  -2.9035970012976309E-002   3.2303796444850142E-003   4.9529469179902919E-002
  -2.9108841652552821E-002   4.2485215945881104E-003   5.1588641568419261E-002
  -2.9181713292129326E-002   5.0950341718716107E-003   5.3746043616431018E-002
  -2.9254584931705845E-002   5.7699173763355663E-003   5.6001675323938190E-002
  -2.9327456571282346E-002   6.2731712079799329E-003   5.8355536690940776E-002
  -2.5421019456128846E-012   1.3623963068809530E-012   6.0214671086108798E-002
  -3.2372715619288783E-012   1.6007126180106468E-012   6.1114465459715564E-002
  -3.9324411782448720E-012   2.2251402109763063E-012   6.2156747843177228E-002
  -4.6276107945608658E-012   3.2355932169658708E-012   6.3341518236493796E-002
  -5.3227804108768595E-012   4.6321557700679250E-012   6.4668776639665193E-002
  -7.3492675307480953E-003   1.5682928030167770E-003   5.9593347807870810E-002
  -7.2202894488688791E-003   1.6645769123637723E-003   6.0483158834741771E-002
  -7.0913113669896690E-003   1.7447096677195191E-003   6.1488438016906621E-002
  -6.9623332851104598E-003   1.8086910690840287E-003   6.2609185354365382E-002
  -6.8333552032312419E-003   1.8565211164572604E-003   6.3845400847117970E-002
  -1.4686932801606802E-002   3.1365856046711646E-003   5.9076384315930125E-002
  -1.4455996491714213E-002   3.3291538231268285E-003   5.9940060641687998E-002
  -1.4225060181821620E-002   3.4894193332139240E-003   6.0892185268178731E-002
  -1.3994123871929030E-002   3.6173821349324499E-003   6.1932758195402324E-002
  -1.3763187562036438E-002   3.7130422282824066E-003   6.3061779423358805E-002
  -2.2012995815118220E-002   4.7048784063255487E-003   5.8663780610286792E-002
  -2.1707121131773251E-002   4.9937307338898587E-003   5.9485170880554203E-002
  -2.1401246448428286E-002   5.2341289987082951E-003   6.0367989596993500E-002
  -2.1095371765083332E-002   5.4260732007808780E-003   6.1312236759604663E-002
  -2.0789497081738363E-002   5.5695633401075736E-003   6.2317912368387685E-002
  -2.9327456571282346E-002   6.2731712079799329E-003   5.8355536690940776E-002
  -2.8973663369046016E-002   6.6583076446529547E-003   5.9118489551340456E-002
  -2.8619870166809683E-002   6.9788386642027182E-003   5.9915851003350944E-002
  -2.8266076964573353E-002   7.2347642666292953E-003   6.0747621046972344E-002
  -2.7912283762337023E-002   7.4260844519326713E-003   6.1613799682204581E-002
  -5.3227804108768595E-012   4.6321557700679250E-012   6.4668776639665193E-002
  -7.8348647014614414E-012   6.0194349504882894E-012   6.4893792768615927E-002
  -1.0346945522599071E-011   7.0022876386133248E-012   6.5260676950702923E-002
  -1.2859024609013225E-011   7.5805750565649532E-012   6.5769429185926168E-002
  -1.5371110634321283E-011   7.7543804710700215E-012   6.6420049474285620E-002
  -6.8333552032312419E-003   1.8565211164572604E-003   6.3845400847117970E-002
  -6.6820412657371169E-003   1.8852356225247599E-003   6.3972345837529504E-002
  -6.5307273282429953E-003   1.8918703999718234E-003   6.4260050654817200E-002
  -6.3794133907488651E-003   1.8764254487985896E-003   6.4708515298981056E-002
  -6.2280994532547488E-003   1.8389007690049197E-003   6.5317739770021060E-002
  -1.3763187562036438E-002   3.7130422282824066E-003   6.3061779423358805E-002
  -1.3441667910796186E-002   3.7704712390299738E-003   6.3068573547015269E-002
  -1.3120148259555929E-002   3.7837407929413591E-003   6.3255019271287863E-002
  -1.2798628608315675E-002   3.7528508900165486E-003   6.3621116596176544E-002
  -1.2477108957075420E-002   3.6778015302555561E-003   6.4166865521681243E-002
  -2.0789497081738363E-002   5.5695633401075736E-003   6.2317912368387685E-002
  -2.0278879943012060E-002   5.6557068555352294E-003   6.2182475897073285E-002
  -1.9768262804285758E-002   5.6756111859108532E-003   6.2245582800114871E-002
  -1.9257645665559459E-002   5.6292763312345076E-003   6.2507233077512492E-002
  -1.8747028526833156E-002   5.5167022915061856E-003   6.2967426729266140E-002
  -2.7912283762337023E-002   7.4260844519326713E-003   6.1613799682204581E-002
  -2.7193677362384747E-002   7.5409424720404780E-003   6.1314052887703446E-002
  -2.6475070962432470E-002   7.5674815788804410E-003   6.1231741241298258E-002
  -2.5756464562480201E-002   7.5057017724524692E-003   6.1366864742989052E-002
  -2.5037858162527925E-002   7.3556030527567595E-003   6.1719423392775669E-002
  -1.5371110634321283E-011   7.7543804710700215E-012   6.6420049474285620E-002
  -5.5800260245764122E-012   6.6604222137556235E-012   6.6235758990706189E-002
   4.2110672587858389E-012   3.4353561662037180E-012   6.6253033822985127E-002
   1.4002152735892448E-011  -1.9207014451128046E-012   6.6471873971122558E-002
   2.3793245151892961E-011  -9.4076968437661890E-012   6.6892279435118329E-002
  -6.2280994532547488E-003   1.8389007690049197E-003   6.5317739770021060E-002
  -6.0288849122039131E-003   1.7893676316474288E-003   6.5109219841586782E-002
  -5.8296703711530886E-003   1.7378973077826279E-003   6.5097563659813520E-002
  -5.6304558301022573E-003   1.6844897974102897E-003   6.5282771224701330E-002
  -5.4312412890514285E-003   1.6291451005307489E-003   6.5664842536250267E-002
  -1.2477108957075420E-002   3.6778015302555561E-003   6.4166865521681243E-002
  -1.2083381453962181E-002   3.5787352566345881E-003   6.3932178964015679E-002
  -1.1689653950848936E-002   3.4757946121298754E-003   6.3889654583813793E-002
  -1.1295926447735700E-002   3.3689795967414204E-003   6.4039292381075752E-002
  -1.0902198944622455E-002   3.2582902104692502E-003   6.4381092355801348E-002
  -1.8747028526833156E-002   5.5167022915061856E-003   6.2967426729266140E-002
  -1.8163489630854821E-002   5.3681028816216850E-003   6.2704636357992907E-002
  -1.7579950734876493E-002   5.2136919164771072E-003   6.2629306594986126E-002
  -1.6996411838898159E-002   5.0534693960724818E-003   6.2741437440245740E-002
  -1.6412872942919824E-002   4.8874353204077514E-003   6.3041028893771778E-002
  -2.5037858162527925E-002   7.3556030527567595E-003   6.1719423392775669E-002
  -2.4269209442881835E-002   7.1574705066087541E-003   6.1426592023518467E-002
  -2.3500560723235739E-002   6.9515892208243599E-003   6.1316519693330337E-002
  -2.2731912003589639E-002   6.7379591954035058E-003   6.1389206402211328E-002
  -2.1963263283943546E-002   6.5165804303462527E-003   6.1644652150161461E-002
   2.3793245151892961E-011  -9.4076968437661890E-012   6.6892279435118329E-002
   3.9956371544747071E-011  -1.7306822641671715E-011   6.6696664512216675E-002
   5.6119508345942037E-011  -2.3899340839683703E-011   6.6704665880518293E-002
   7.2282639942966576E-011  -2.9184963473705139E-011   6.6916283540023061E-002
   8.8445771539991114E-011  -3.3163749524334207E-011   6.7331517490730908E-002
  -5.4312412890514285E-003   1.6291451005307489E-003   6.5664842536250267E-002
  -5.2264665329393072E-003   1.5710294621932297E-003   6.5428867371817273E-002
  -5.0216917768271772E-003   1.5093091274471365E-003   6.5398825396079052E-002
  -4.8169170207150542E-003   1.4439840962926116E-003   6.5574716609035619E-002
  -4.6121422646029260E-003   1.3750543687295336E-003   6.5956541010687042E-002
  -1.0902198944622455E-002   3.2582902104692502E-003   6.4381092355801348E-002
  -1.0490332551069709E-002   3.1420589416933931E-003   6.4101152252121665E-002
  -1.0078466157516962E-002   3.0186182787936208E-003   6.4029462234628520E-002
  -9.6665997639642110E-003   2.8879682217702440E-003   6.4166022303321718E-002
  -9.2547333704114682E-003   2.7501087706230110E-003   6.4510832458201398E-002
  -1.6412872942919824E-002   4.8874353204077514E-003   6.3041028893771778E-002
  -1.5791598014434825E-002   4.7130884211935009E-003   6.2713519153130240E-002
  -1.5170323085949818E-002   4.5279274301400739E-003   6.2596576396166725E-002
  -1.4549048157464819E-002   4.3319523472477922E-003   6.2690200622881165E-002
  -1.3927773228979819E-002   4.1251631725162802E-003   6.2994391833273822E-002
  -2.1963263283943546E-002   6.5165804303462527E-003   6.1644652150161461E-002
  -2.1130262923034653E-002   6.2841179006936365E-003   6.1265968074842636E-002
  -2.0297262562125776E-002   6.0372365814866241E-003   6.1100167880693584E-002
  -1.9464262201216893E-002   5.7759364727252953E-003   6.1147251567714181E-002
  -1.8631261840308000E-002   5.5002175744097714E-003   6.1407219135904467E-002
   8.8445771539991114E-011  -3.3163749524334207E-011   6.7331517490730908E-002
   1.0297116978530418E-010  -3.2076397094016329E-011   6.7203132860533143E-002
   1.1749656109172335E-010  -2.2163673674135964E-011   6.7317541083835725E-002
   1.3202195760231294E-010  -3.4253884451107552E-012   6.7674742160638332E-002
   1.4654735064345559E-010   2.4138469001400154E-011   6.8274736090941479E-002
  -4.6121422646029260E-003   1.3750543687295336E-003   6.5956541010687042E-002
  -4.3774833748120353E-003   1.3039851739546637E-003   6.5789236534899792E-002
  -4.1428244850211394E-003   1.2322417411641529E-003   6.5848456956143164E-002
  -3.9081655952302417E-003   1.1598240703581536E-003   6.6134202274417395E-002
  -3.6735067054393528E-003   1.0867321615365411E-003   6.6646472489722164E-002
  -9.2547333704114682E-003   2.7501087706230110E-003   6.4510832458201398E-002
  -8.8016835618245359E-003   2.6079703799856968E-003   6.4303933889983456E-002
  -8.3486337532376192E-003   2.4644835044918198E-003   6.4307292262326926E-002
  -7.8955839446507043E-003   2.3196481441416974E-003   6.4520907575231545E-002
  -7.4425341360637720E-003   2.1734642989348352E-003   6.4944779828697508E-002
  -1.3927773228979819E-002   4.1251631725162802E-003   6.2994391833273822E-002
  -1.3272600458066360E-002   3.9119555860165495E-003   6.2747224925784412E-002
  -1.2617427687152887E-002   3.6967252678195665E-003   6.2694047002386774E-002
  -1.1962254916239418E-002   3.4794722179251293E-003   6.2834858063081103E-002
  -1.1307082145325963E-002   3.2601964363331293E-003   6.3169658107867038E-002
  -1.8631261840308000E-002   5.5002175744097714E-003   6.1407219135904467E-002
  -1.7790234063537469E-002   5.2159407920477907E-003   6.1119109642302605E-002
  -1.6949206286766934E-002   4.9289670311473410E-003   6.1008721176323000E-002
  -1.6108178509996393E-002   4.6392962917087346E-003   6.1076053737965763E-002
  -1.5267150733225869E-002   4.3469285737313124E-003   6.1321107327230839E-002
   1.4654735064345559E-010   2.4138469001400154E-011   6.8274736090941479E-002
   1.3846384455673544E-010   7.5197792437364797E-011   6.8406317911977432E-002
   1.3038034540890919E-010   1.6442233685687313E-010   6.8864620639637886E-002
   1.2229682891384819E-010   2.9181312227732903E-010   6.9649644273922229E-002
   1.1421333323546889E-010   4.5736925358141889E-010   7.0761388814831072E-002
  -3.6735067054393528E-003   1.0867321615365411E-003   6.6646472489722164E-002
  -3.3678780022407505E-003   1.0119082880696018E-003   6.6660046710223880E-002
  -3.0622492990421447E-003   9.3429472332759445E-004   6.6958157446665306E-002
  -2.7566205958435416E-003   8.5389146731015136E-004   6.7540804699047233E-002
  -2.4509918926449437E-003   7.7069852001754313E-004   6.8407988467368619E-002
  -7.4425341360637720E-003   2.1734642989348352E-003   6.4944779828697508E-002
  -6.8734611122672484E-003   2.0238165009418274E-003   6.4837556719223588E-002
  -6.3043880884707040E-003   1.8685892822324773E-003   6.4972685735005434E-002
  -5.7353150646741726E-003   1.7077826428071839E-003   6.5350166876043086E-002
  -5.1662420408776222E-003   1.5413965826658327E-003   6.5970000142336893E-002
  -1.1307082145325963E-002   3.2601964363331293E-003   6.3169658107867038E-002
  -1.0516749191615635E-002   3.0357247138138449E-003   6.2938847938976694E-002
  -9.7264162379052978E-003   2.8028838411375476E-003   6.2908205504658060E-002
  -8.9360832841949862E-003   2.5616738183042147E-003   6.3077730804911053E-002
  -8.1457503304846468E-003   2.3120946453141222E-003   6.3447423839735687E-002
  -1.5267150733225869E-002   4.3469285737313124E-003   6.1321107327230839E-002
  -1.4297742240285925E-002   4.0476329266859734E-003   6.0963920369483116E-002
  -1.3328333747345971E-002   3.7371784000423958E-003   6.0764716755623116E-002
  -1.2358925254406015E-002   3.4155649938012733E-003   6.0723496485650619E-002
  -1.1389516761466073E-002   3.0827927079624118E-003   6.0840259559565624E-002
  -2.6633325164537588E-002   0.0000000000000000        2.9468627491142416E-002
  -2.7233986376647264E-002   5.8532361707754055E-004   3.4945729468519288E-002
  -2.7834647588756943E-002   1.3188280968508895E-003   4.0114903742438333E-002
  -2.8435308800866626E-002   2.2005134393200503E-003   4.4976150312899546E-002
  -2.9035970012976309E-002   3.2303796444850142E-003   4.9529469179902919E-002
  -3.3393171126296112E-002   0.0000000000000000        3.0178477535706155E-002
  -3.4236603550723381E-002   9.6014581382979775E-004   3.5266548325767720E-002
  -3.5080035975150657E-002   2.0236494485235002E-003   4.0177004394651938E-002
  -3.5923468399577926E-002   3.1905109040811126E-003   4.4909845742358796E-002
  -3.6766900824005196E-002   4.4607301805026263E-003   4.9465072368888335E-002
  -4.0732974108290056E-002   0.0000000000000000        3.1285561297938108E-002
  -4.1688864762754428E-002   1.3349680105820562E-003   3.5939777858852454E-002
  -4.2644755417218815E-002   2.7284708001961144E-003   4.0546692680869939E-002
  -4.3600646071683180E-002   4.1805083688421767E-003   4.5106305763990565E-002
  -4.4556536726147553E-002   5.6910807165202375E-003   4.9618617108214316E-002
  -4.8652734110519416E-002   0.0000000000000000        3.2789878777838267E-002
  -4.9590770012740405E-002   1.7097902073343119E-003   3.6965418067773488E-002
  -5.0528805914961401E-002   3.4332921518687243E-003   4.1223968601092349E-002
  -5.1466841817182384E-002   5.1705058336032365E-003   4.5565530377794816E-002
  -5.2404877719403394E-002   6.9214312525378418E-003   4.9990103397880931E-002
  -5.7152451132984186E-002   0.0000000000000000        3.4691429975406640E-002
  -5.7942319300681305E-002   2.0846124040865702E-003   3.8343468952530838E-002
  -5.8732187468378438E-002   4.1381135035413394E-003   4.2208832155319148E-002
  -5.9522055636075558E-002   6.1605032983643049E-003   4.6287519583771565E-002
  -6.0311923803772677E-002   8.1517817885554591E-003   5.0579531237888109E-002
  -2.9035970012976309E-002   3.2303796444850142E-003   4.9529469179902919E-002
  -2.9108841652552821E-002   4.2485215945881104E-003   5.1588641568419261E-002
  -2.9181713292129326E-002   5.0950341718716107E-003   5.3746043616431018E-002
  -2.9254584931705845E-002   5.7699173763355663E-003   5.6001675323938190E-002
  -2.9327456571282346E-002   6.2731712079799329E-003   5.8355536690940776E-002
  -3.6766900824005196E-002   4.4607301805026263E-003   4.9465072368888335E-002
  -3.6780344897664727E-002   5.6940517765996200E-003   5.1252346295546501E-002
  -3.6793788971324251E-002   6.7502201911837012E-003   5.3060245694543241E-002
  -3.6807233044983775E-002   7.6292354242548290E-003   5.4888770565878500E-002
  -3.6820677118643307E-002   8.3310974758130235E-003   5.6737920909552320E-002
  -4.4556536726147553E-002   5.6910807165202375E-003   4.9618617108214316E-002
  -4.4588157421046978E-002   7.1395819586111495E-003   5.1128468764320992E-002
  -4.4619778115946397E-002   8.4054062104957639E-003   5.2581341705609325E-002
  -4.4651398810845823E-002   9.4885534721740918E-003   5.3977235932079322E-002
  -4.4683019505745249E-002   1.0389023743646128E-002   5.5316151443731004E-002
  -5.2404877719403394E-002   6.9214312525378418E-003   4.9990103397880931E-002
  -5.2532279222699561E-002   8.5851121406226704E-003   5.1217008974742712E-002
  -5.2659680725995750E-002   1.0060592229807857E-002   5.2309331649629275E-002
  -5.2787082229291946E-002   1.1347871520093361E-002   5.3267071422540668E-002
  -5.2914483732588134E-002   1.2446950011479226E-002   5.4090228293476837E-002
  -6.0311923803772677E-002   8.1517817885554591E-003   5.0579531237888109E-002
  -6.0612710302622511E-002   1.0030642322634196E-002   5.1517966926811654E-002
  -6.0913496801472317E-002   1.1715778249119919E-002   5.2244215526603105E-002
  -6.1214283300322164E-002   1.3207189568012603E-002   5.2758277037262491E-002
  -6.1515069799171977E-002   1.4504876279312316E-002   5.3060151458789818E-002
  -2.9327456571282346E-002   6.2731712079799329E-003   5.8355536690940776E-002
  -2.8973663369046016E-002   6.6583076446529547E-003   5.9118489551340456E-002
  -2.8619870166809683E-002   6.9788386642027182E-003   5.9915851003350944E-002
  -2.8266076964573353E-002   7.2347642666292953E-003   6.0747621046972344E-002
  -2.7912283762337023E-002   7.4260844519326713E-003   6.1613799682204581E-002
  -3.6820677118643307E-002   8.3310974758130235E-003   5.6737920909552320E-002
  -3.6380593729066824E-002   8.8716039885094466E-003   5.7078551869273381E-002
  -3.5940510339490341E-002   9.2665526049951555E-003   5.7557354612063856E-002
  -3.5500426949913857E-002   9.5159433252702940E-003   5.8174329137923787E-002
  -3.5060343560337388E-002   9.6197761493347078E-003   5.8929475446853140E-002
  -4.4683019505745249E-002   1.0389023743646128E-002   5.5316151443731004E-002
  -4.4052882737370035E-002   1.1084900332365968E-002   5.5153508023685995E-002
  -4.3422745968994814E-002   1.1554266545787664E-002   5.5232799578168998E-002
  -4.2792609200619593E-002   1.1797122383911266E-002   5.5554026107180007E-002
  -4.2162472432244372E-002   1.1813467846736765E-002   5.6117187610719071E-002
  -5.2914483732588134E-002   1.2446950011479226E-002   5.4090228293476837E-002
  -5.1990530393955590E-002   1.3298196676222469E-002   5.3343358014578283E-002
  -5.1066577055323095E-002   1.3841980486580110E-002   5.2942185901666369E-002
  -5.0142623716690579E-002   1.4078301442552264E-002   5.2886711954741018E-002
  -4.9218670378058056E-002   1.4007159544138812E-002   5.3176936173802279E-002
  -6.1515069799171977E-002   1.4504876279312316E-002   5.3060151458789818E-002
  -6.0193536698823574E-002   1.5511493020078981E-002   5.1648101841950317E-002
  -5.8872003598475178E-002   1.6129694427372616E-002   5.0685513582555977E-002
  -5.7550470498126761E-002   1.6359480501193246E-002   5.0172386680606876E-002
  -5.6228937397778372E-002   1.6200851241540873E-002   5.0108721136102860E-002
  -2.7912283762337023E-002   7.4260844519326713E-003   6.1613799682204581E-002
  -2.7193677362384747E-002   7.5409424720404780E-003   6.1314052887703446E-002
  -2.6475070962432470E-002   7.5674815788804410E-003   6.1231741241298258E-002
  -2.5756464562480201E-002   7.5057017724524692E-003   6.1366864742989052E-002
  -2.5037858162527925E-002   7.3556030527567595E-003   6.1719423392775669E-002
  -3.5060343560337388E-002   9.6197761493347078E-003   5.8929475446853140E-002
  -3.4130720214711197E-002   9.6190886737758524E-003   5.8593340567871452E-002
  -3.3201096869085012E-002   9.5549184951811486E-003   5.8461804432141648E-002
  -3.2271473523458834E-002   9.4272656135504732E-003   5.8534867039663693E-002
  -3.1341850177832628E-002   9.2361300288839043E-003   5.8812528390437629E-002
  -4.2162472432244372E-002   1.1813467846736765E-002   5.6117187610719071E-002
  -4.1034668545788355E-002   1.1697234875511203E-002   5.5769500857488795E-002
  -3.9906864659332325E-002   1.1542355411481802E-002   5.5613576442666311E-002
  -3.8779060772876288E-002   1.1348829454648436E-002   5.5649414366251676E-002
  -3.7651256886420285E-002   1.1116657005011146E-002   5.5877014628244868E-002
  -4.9218670378058056E-002   1.4007159544138812E-002   5.3176936173802279E-002
  -4.7905522355616216E-002   1.3775381077246620E-002   5.2842533756555364E-002
  -4.6592374333174390E-002   1.3529792327782442E-002   5.2687057272872269E-002
  -4.5279226310732570E-002   1.3270393295746336E-002   5.2710506722752883E-002
  -4.3966078288290723E-002   1.2997183981138326E-002   5.2912882106197288E-002
  -5.6228937397778372E-002   1.6200851241540873E-002   5.0108721136102860E-002
  -5.4743281644194799E-002   1.5853527278981934E-002   4.9812439265071326E-002
  -5.3257625890611220E-002   1.5517229244083160E-002   4.9682246922759500E-002
  -5.1771970137027667E-002   1.5191957136844361E-002   4.9718144109167361E-002
  -5.0286314383444081E-002   1.4877710957265561E-002   4.9920130824295000E-002
  -2.5037858162527925E-002   7.3556030527567595E-003   6.1719423392775669E-002
  -2.4269209442881835E-002   7.1574705066087541E-003   6.1426592023518467E-002
  -2.3500560723235739E-002   6.9515892208243599E-003   6.1316519693330337E-002
  -2.2731912003589639E-002   6.7379591954035058E-003   6.1389206402211328E-002
  -2.1963263283943546E-002   6.5165804303462527E-003   6.1644652150161461E-002
  -3.1341850177832628E-002   9.2361300288839043E-003   5.8812528390437629E-002
  -3.0384644161792103E-002   9.0036670135285879E-003   5.8506620136233867E-002
  -2.9427438145751550E-002   8.7520318398316976E-003   5.8395067435749889E-002
  -2.8470232129711004E-002   8.4812245077929560E-003   5.8477870288985739E-002
  -2.7513026113670441E-002   8.1912450174125295E-003   5.8755028695941403E-002
  -3.7651256886420285E-002   1.1116657005011146E-002   5.5877014628244868E-002
  -3.6493897059334569E-002   1.0849863520448449E-002   5.5546606070389290E-002
  -3.5336537232248832E-002   1.0552474458838817E-002   5.5422149580904176E-002
  -3.4179177405163116E-002   1.0224489820182352E-002   5.5503645159789651E-002
  -3.3021817578077366E-002   9.8659096044788896E-003   5.5791092807045584E-002
  -4.3966078288290723E-002   1.2997183981138326E-002   5.2912882106197288E-002
  -4.2596968135509131E-002   1.2696060027368256E-002   5.2546549825984674E-002
  -4.1227857982727531E-002   1.2352917077846073E-002   5.2397766128793342E-002
  -3.9858747829945952E-002   1.1967755132571636E-002   5.2466531014623126E-002
  -3.8489637677164339E-002   1.1540574191545236E-002   5.2752844483474198E-002
  -5.0286314383444081E-002   1.4877710957265561E-002   4.9920130824295000E-002
  -4.8693857390315919E-002   1.4542256534288145E-002   4.9506451403020096E-002
  -4.7101400397187701E-002   1.4153359696853267E-002   4.9321917079417174E-002
  -4.5508943404059539E-002   1.3711020444961154E-002   4.9366527853486171E-002
  -4.3916486410931349E-002   1.3215238778611527E-002   4.9640283725227163E-002
  -2.1963263283943546E-002   6.5165804303462527E-003   6.1644652150161461E-002
  -2.1130262923034653E-002   6.2841179006936365E-003   6.1265968074842636E-002
  -2.0297262562125776E-002   6.0372365814866241E-003   6.1100167880693584E-002
  -1.9464262201216893E-002   5.7759364727252953E-003   6.1147251567714181E-002
  -1.8631261840308000E-002   5.5002175744097714E-003   6.1407219135904467E-002
  -2.7513026113670441E-002   8.1912450174125295E-003   5.8755028695941403E-002
  -2.6471239909048525E-002   7.8873594811821046E-003   5.8401688587029460E-002
  -2.5429453704426619E-002   7.5748340115929513E-003   5.8253036284373880E-002
  -2.4387667499804710E-002   7.2536686086452570E-003   5.8309071787974655E-002
  -2.3345881295182763E-002   6.9238632723388482E-003   5.8569795097831889E-002
  -3.3021817578077366E-002   9.8659096044788896E-003   5.5791092807045584E-002
  -3.1779441604655768E-002   9.4906010616705033E-003   5.5468875520736219E-002
  -3.0537065631234109E-002   9.1124314416993410E-003   5.5343149965769854E-002
  -2.9294689657812480E-002   8.7314007445649985E-003   5.5413916142146538E-002
  -2.8052313684390852E-002   8.3475089702679806E-003   5.5681174049866305E-002
  -3.8489637677164339E-002   1.1540574191545236E-002   5.2752844483474198E-002
  -3.7054868009856336E-002   1.1093842642159020E-002   5.2467528875963045E-002
  -3.5620098342548312E-002   1.0650028871805783E-002   5.2370508924881563E-002
  -3.4185328675240281E-002   1.0209132880484934E-002   5.2461784630229859E-002
  -3.2750559007932251E-002   9.7711546681970574E-003   5.2741355992007778E-002
  -4.3916486410931349E-002   1.3215238778611527E-002   4.9640283725227163E-002
  -4.2297519124650212E-002   1.2697084222647398E-002   4.9397648652709847E-002
  -4.0678551838369145E-002   1.2187626301912100E-002   4.9335113161708966E-002
  -3.9059584552088043E-002   1.1686865016404657E-002   4.9452677252224478E-002
  -3.7440617265806955E-002   1.1194800366126245E-002   4.9750340924256509E-002
  -1.8631261840308000E-002   5.5002175744097714E-003   6.1407219135904467E-002
  -1.7790234063537469E-002   5.2159407920477907E-003   6.1119109642302605E-002
  -1.6949206286766934E-002   4.9289670311473410E-003   6.1008721176323000E-002
  -1.6108178509996393E-002   4.6392962917087346E-003   6.1076053737965763E-002
  -1.5267150733225869E-002   4.3469285737313124E-003   6.1321107327230839E-002
  -2.3345881295182763E-002   6.9238632723388482E-003   5.8569795097831889E-002
  -2.2325589845034570E-002   6.5857998538503826E-003   5.8286128710880014E-002
  -2.1305298394886332E-002   6.2398602043563789E-003   5.8183268643061198E-002
  -2.0285006944738108E-002   5.8860443238571078E-003   5.8261214894375385E-002
  -1.9264715494589895E-002   5.5243522123520350E-003   5.8519967464822742E-002
  -2.8052313684390852E-002   8.3475089702679806E-003   5.5681174049866305E-002
  -2.6849673269354234E-002   7.9556589156530300E-003   5.5396771517097473E-002
  -2.5647032854317634E-002   7.5507533775655139E-003   5.5296260594972321E-002
  -2.4444392439281037E-002   7.1327923560054775E-003   5.5379641283490898E-002
  -2.3241752024244416E-002   6.7017758509727021E-003   5.5646913582653307E-002
  -3.2750559007932251E-002   9.7711546681970574E-003   5.2741355992007778E-002
  -3.1362484336496549E-002   9.3255179774557051E-003   5.2451038060954865E-002
  -2.9974409665060871E-002   8.8616465507747114E-003   5.2347697032056301E-002
  -2.8586334993625152E-002   8.3795403881539044E-003   5.2431332905312177E-002
  -2.7198260322189492E-002   7.8791994895935080E-003   5.2701945680722589E-002
  -3.7440617265806955E-002   1.1194800366126245E-002   4.9750340924256509E-002
  -3.5864023046461455E-002   1.0695377039258297E-002   4.9448928342452347E-002
  -3.4287428827115975E-002   1.0172539723983645E-002   4.9337577954313261E-002
  -3.2710834607770495E-002   9.6262884203023209E-003   4.9416289759839346E-002
  -3.1134240388425008E-002   9.0566231282140919E-003   4.9685063759030701E-002
  -1.5267150733225869E-002   4.3469285737313124E-003   6.1321107327230839E-002
  -1.4297742240285925E-002   4.0476329266859734E-003   6.0963920369483116E-002
  -1.3328333747345971E-002   3.7371784000423958E-003   6.0764716755623116E-002
  -1.2358925254406015E-002   3.4155649938012733E-003   6.0723496485650619E-002
  -1.1389516761466073E-002   3.0827927079624118E-003   6.0840259559565624E-002
  -1.9264715494589895E-002   5.5243522123520350E-003   5.8519967464822742E-002
  -1.8129528828705492E-002   5.1580902153692543E-003   5.8184892358067425E-002
  -1.6994342162821113E-002   4.7905646784364431E-003   5.8023390253313656E-002
  -1.5859155496936696E-002   4.4217756015538581E-003   5.8035461150561102E-002
  -1.4723968831052328E-002   4.0517229847212288E-003   5.8221105049809929E-002
  -2.3241752024244416E-002   6.7017758509727021E-003   5.5646913582653307E-002
  -2.1925197527301793E-002   6.2685475040527572E-003   5.5343845666538466E-002
  -2.0608643030359190E-002   5.8439509568305459E-003   5.5229940410538650E-002
  -1.9292088533416529E-002   5.4279862093064152E-003   5.5305197814654095E-002
  -1.7975534036473943E-002   5.0206532614800459E-003   5.5569617878884758E-002
  -2.7198260322189492E-002   7.8791994895935080E-003   5.2701945680722589E-002
  -2.5684748336074828E-002   7.3790047927361491E-003   5.2440780294896037E-002
  -2.4171236349960139E-002   6.8973372352246209E-003   5.2384367227298403E-002
  -2.2657724363845441E-002   6.4341968170587086E-003   5.2532706477929576E-002
  -2.1144212377730814E-002   5.9895835382388629E-003   5.2885798046789959E-002
  -3.1134240388425008E-002   9.0566231282140919E-003   4.9685063759030701E-002
  -2.9408181255024521E-002   8.4894620814194854E-003   4.9475696243140244E-002
  -2.7682122121624027E-002   7.9507235136185295E-003   4.9486670703592472E-002
  -2.5956062988223529E-002   7.4404074248113766E-003   4.9717987140387609E-002
  -2.4230003854823046E-002   6.9585138149976800E-003   5.0169645553525211E-002
  -5.7152451132984186E-002   0.0000000000000000        3.4691429975406640E-002
  -5.7942319300681305E-002   2.0846124040865702E-003   3.8343468952530838E-002
  -5.8732187468378438E-002   4.1381135035413394E-003   4.2208832155319148E-002
  -5.9522055636075558E-002   6.1605032983643049E-003   4.6287519583771565E-002
  -6.0311923803772677E-002   8.1517817885554591E-003   5.0579531237888109E-002
  -6.5820355981985768E-002   0.0000000000000000        3.7213165579606119E-002
  -6.6625864216864783E-002   2.9144811757725987E-003   4.0835444002506306E-002
  -6.7431372451743798E-002   5.7713183990974167E-003   4.4213118065378615E-002
  -6.8236880686622800E-002   8.5705116699744625E-003   4.7346187768223039E-002
  -6.9042388921501802E-002   1.1312060988403720E-002   5.0234653111039557E-002
  -7.4244679463825569E-002   0.0000000000000000        4.0578036279399612E-002
  -7.5523756351578472E-002   3.7443499474586251E-003   4.4144021500259825E-002
  -7.6802833239331375E-002   7.4045232946534966E-003   4.7007473775400141E-002
  -7.8081910127084250E-002   1.0980520041584611E-002   4.9168393104820581E-002
  -7.9360987014837153E-002   1.4472340188251973E-002   5.0626779488521130E-002
  -8.2425421578503591E-002   0.0000000000000000        4.4786042074787126E-002
  -8.4635995704822373E-002   4.5742187191446541E-003   4.8269201445791374E-002
  -8.6846569831141154E-002   9.0377281902095773E-003   5.0591899285383733E-002
  -8.9057143957459936E-002   1.3390528413194772E-002   5.1754135593564232E-002
  -9.1267718083778704E-002   1.7632619388100217E-002   5.1755910370332836E-002
  -9.0362582326019833E-002   0.0000000000000000        4.9837182965768653E-002
  -9.3962582276596499E-002   5.4040874908306783E-003   5.3210983839100973E-002
  -9.7562582227173150E-002   1.0670933085765655E-002   5.4966394595329399E-002
 -0.10116258217774982        1.5800536784804923E-002   5.5103415234453945E-002
 -0.10476258212832647        2.0792898587948489E-002   5.3622045756474612E-002
  -6.0311923803772677E-002   8.1517817885554591E-003   5.0579531237888109E-002
  -6.0612710302622511E-002   1.0030642322634196E-002   5.1517966926811654E-002
  -6.0913496801472317E-002   1.1715778249119919E-002   5.2244215526603105E-002
  -6.1214283300322164E-002   1.3207189568012603E-002   5.2758277037262491E-002
  -6.1515069799171977E-002   1.4504876279312316E-002   5.3060151458789818E-002
  -6.9042388921501802E-002   1.1312060988403720E-002   5.0234653111039557E-002
  -6.9317686263451486E-002   1.3756666491887915E-002   4.9457647927871454E-002
  -6.9592983605401157E-002   1.5665028317929781E-002   4.8943808147635701E-002
  -6.9868280947350841E-002   1.7037146466529322E-002   4.8693133770332318E-002
  -7.0143578289300512E-002   1.7873020937686543E-002   4.8705624795961355E-002
  -7.9360987014837153E-002   1.4472340188251973E-002   5.0626779488521130E-002
  -7.9135442707822246E-002   1.7482690661141626E-002   4.7791814363412038E-002
  -7.8909898400807296E-002   1.9614278386739653E-002   4.5695367133299788E-002
  -7.8684354093792375E-002   2.0867103365046026E-002   4.4337437798184345E-002
  -7.8458809786777453E-002   2.1241165596060773E-002   4.3718026358065772E-002
  -9.1267718083778704E-002   1.7632619388100217E-002   5.1755910370332836E-002
  -9.0065979635734719E-002   2.1208714830395346E-002   4.6520466233433456E-002
  -8.8864241187690735E-002   2.3563528455549515E-002   4.2498892483595355E-002
  -8.7662502739646778E-002   2.4697060263562737E-002   3.9691189120818544E-002
  -8.6460764291602793E-002   2.4609310254435003E-002   3.8097356145103019E-002
 -0.10476258212832647        2.0792898587948489E-002   5.3622045756474612E-002
 -0.10210929704718899        2.4934738999649056E-002   4.5643603537935645E-002
  -9.9456011966051500E-002   2.7512778524359387E-002   3.9354384198522441E-002
  -9.6802726884914023E-002   2.8527017162079442E-002   3.4754387738234895E-002
  -9.4149441803776532E-002   2.7977454912809230E-002   3.1843614157073180E-002
  -6.1515069799171977E-002   1.4504876279312316E-002   5.3060151458789818E-002
  -6.0193536698823574E-002   1.5511493020078981E-002   5.1648101841950317E-002
  -5.8872003598475178E-002   1.6129694427372616E-002   5.0685513582555977E-002
  -5.7550470498126761E-002   1.6359480501193246E-002   5.0172386680606876E-002
  -5.6228937397778372E-002   1.6200851241540873E-002   5.0108721136102860E-002
  -7.0143578289300512E-002   1.7873020937686543E-002   4.8705624795961355E-002
  -6.8418241662715304E-002   1.8329462994035144E-002   4.7255676097741138E-002
  -6.6692905036130096E-002   1.8563283898208896E-002   4.6163873094549356E-002
  -6.4967568409544901E-002   1.8574483650207772E-002   4.5430215786386043E-002
  -6.3242231782959693E-002   1.8363062250031745E-002   4.5054704173251157E-002
  -7.8458809786777453E-002   2.1241165596060773E-002   4.3718026358065772E-002
  -7.6420985296372174E-002   2.1147432967991320E-002   4.2395972759762979E-002
  -7.4383160805966880E-002   2.0996873369045158E-002   4.1340749194071900E-002
  -7.2345336315561587E-002   2.0789486799222271E-002   4.0552355660992565E-002
  -7.0307511825156321E-002   2.0525273258522637E-002   4.0030792160524881E-002
  -8.6460764291602793E-002   2.4609310254435003E-002   3.8097356145103019E-002
  -8.4201767599794169E-002   2.3965402941947496E-002   3.7068991828015818E-002
  -8.1942770907985546E-002   2.3430462839881431E-002   3.6216141881123619E-002
  -7.9683774216176922E-002   2.3004489948236787E-002   3.5538806304426351E-002
  -7.7424777524368327E-002   2.2687484267013575E-002   3.5036985097924092E-002
  -9.4149441803776532E-002   2.7977454912809230E-002   3.1843614157073180E-002
  -9.1760588572981291E-002   2.6783372915903669E-002   3.1274733302499719E-002
  -8.9371735342186065E-002   2.5864052310717690E-002   3.0790051155704483E-002
  -8.6982882111390852E-002   2.5219493097251303E-002   3.0389567716687511E-002
  -8.4594028880595626E-002   2.4849695275504416E-002   3.0073282985448743E-002
  -5.6228937397778372E-002   1.6200851241540873E-002   5.0108721136102860E-002
  -5.4743281644194799E-002   1.5853527278981934E-002   4.9812439265071326E-002
  -5.3257625890611220E-002   1.5517229244083160E-002   4.9682246922759500E-002
  -5.1771970137027667E-002   1.5191957136844361E-002   4.9718144109167361E-002
  -5.0286314383444081E-002   1.4877710957265561E-002   4.9920130824295000E-002
  -6.3242231782959693E-002   1.8363062250031745E-002   4.5054704173251157E-002
  -6.1575829237025467E-002   1.8024043650797412E-002   4.4710320249694326E-002
  -5.9909426691091235E-002   1.7652451805621316E-002   4.4561340382119119E-002
  -5.8243024145157030E-002   1.7248286714503385E-002   4.4607764570525441E-002
  -5.6576621599222797E-002   1.6811548377443669E-002   4.4849592814913408E-002
  -7.0307511825156321E-002   2.0525273258522637E-002   4.0030792160524881E-002
  -6.8431047959609581E-002   2.0194560022612860E-002   3.9594707010840988E-002
  -6.6554584094062855E-002   1.9787674367159475E-002   3.9383340444400491E-002
  -6.4678120228516128E-002   1.9304616292162492E-002   3.9396692461203510E-002
  -6.2801656362969388E-002   1.8745385797621902E-002   3.9634763061249891E-002
  -7.7424777524368327E-002   2.2687484267013575E-002   3.5036985097924092E-002
  -7.5308937811947183E-002   2.2365076394428307E-002   3.4465599548511312E-002
  -7.3193098099526108E-002   2.1922896928697658E-002   3.4148247109603756E-002
  -7.1077258387104977E-002   2.1360945869821558E-002   3.4084927781201563E-002
  -6.8961418674683847E-002   2.0679223217800059E-002   3.4275641563304635E-002
  -8.4594028880595626E-002   2.4849695275504416E-002   3.0073282985448743E-002
  -8.2209498794038299E-002   2.4535592766243772E-002   2.9322997862705258E-002
  -7.9824968707480931E-002   2.4058119490235796E-002   2.8856060377728789E-002
  -7.7440438620923563E-002   2.3417275447480641E-002   2.8672470530519602E-002
  -7.5055908534366222E-002   2.2613060637978272E-002   2.8772228321077564E-002
  -5.0286314383444081E-002   1.4877710957265561E-002   4.9920130824295000E-002
  -4.8693857390315919E-002   1.4542256534288145E-002   4.9506451403020096E-002
  -4.7101400397187701E-002   1.4153359696853267E-002   4.9321917079417174E-002
  -4.5508943404059539E-002   1.3711020444961154E-002   4.9366527853486171E-002
  -4.3916486410931349E-002   1.3215238778611527E-002   4.9640283725227163E-002
  -5.6576621599222797E-002   1.6811548377443669E-002   4.4849592814913408E-002
  -5.4764699871468085E-002   1.6346008106066665E-002   4.4452268964050010E-002
  -5.2952778143713353E-002   1.5855437211996594E-002   4.4264729484767770E-002
  -5.1140856415958634E-002   1.5339835695233639E-002   4.4286974377066746E-002
  -4.9328934688203860E-002   1.4799203555777685E-002   4.4519003640946742E-002
  -6.2801656362969388E-002   1.8745385797621902E-002   3.9634763061249891E-002
  -6.0789630626678956E-002   1.8149759677845240E-002   3.9282206572562504E-002
  -5.8777604890388510E-002   1.7557514727139952E-002   3.9120073729365476E-002
  -5.6765579154098016E-002   1.6968650945506127E-002   3.9148364531658736E-002
  -5.4753553417807597E-002   1.6383168332943732E-002   3.9367078979442346E-002
  -6.8961418674683847E-002   2.0679223217800059E-002   3.4275641563304635E-002
  -6.6768649655948517E-002   1.9953511249623787E-002   3.3996264228557595E-002
  -6.4575880637213104E-002   1.9259592242283255E-002   3.3887949813210076E-002
  -6.2383111618477753E-002   1.8597466195778584E-002   3.3950698317261996E-002
  -6.0190342599742333E-002   1.7967133110109917E-002   3.4184509740713437E-002
  -7.5055908534366222E-002   2.2613060637978272E-002   2.8772228321077564E-002
  -7.2701756959276720E-002   2.1757262821402376E-002   2.8594441932035253E-002
  -7.0347605384187231E-002   2.0961669757426714E-002   2.8568357736301689E-002
  -6.7993453809097770E-002   2.0226281446051160E-002   2.8693975733876810E-002
  -6.5639302234008268E-002   1.9551097887275937E-002   2.8971295924760554E-002
  -4.3916486410931349E-002   1.3215238778611527E-002   4.9640283725227163E-002
  -4.2297519124650212E-002   1.2697084222647398E-002   4.9397648652709847E-002
  -4.0678551838369145E-002   1.2187626301912100E-002   4.9335113161708966E-002
  -3.9059584552088043E-002   1.1686865016404657E-002   4.9452677252224478E-002
  -3.7440617265806955E-002   1.1194800366126245E-002   4.9750340924256509E-002
  -4.9328934688203860E-002   1.4799203555777685E-002   4.4519003640946742E-002
  -4.7528948215681766E-002   1.4244899556648205E-002   4.4268309490110236E-002
  -4.5728961743159678E-002   1.3688282460864759E-002   4.4199554130239335E-002
  -4.3928975270637563E-002   1.3129352268427312E-002   4.4312737561334130E-002
  -4.2128988798115420E-002   1.2568108979336079E-002   4.4607859783394460E-002
  -5.4753553417807597E-002   1.6383168332943732E-002   3.9367078979442346E-002
  -5.2770708549595223E-002   1.5792714890648832E-002   3.9097316018404049E-002
  -5.0787863681382869E-002   1.5188938619817648E-002   3.9011331057780742E-002
  -4.8805018813170495E-002   1.4571839520449969E-002   3.9109124097572168E-002
  -4.6822173944958134E-002   1.3941417592545940E-002   3.9390695137778500E-002
  -6.0190342599742333E-002   1.7967133110109917E-002   3.4184509740713437E-002
  -5.8022800126390515E-002   1.7340530224649604E-002   3.3884668237591224E-002
  -5.5855257653038712E-002   1.6689594778770422E-002   3.3770443944333019E-002
  -5.3687715179686901E-002   1.6014326772472515E-002   3.3841836860938911E-002
  -5.1520172706335091E-002   1.5314726205755844E-002   3.4098846987408837E-002
  -6.5639302234008268E-002   1.9551097887275937E-002   2.8971295924760554E-002
  -6.3285222946067740E-002   1.8888345558650266E-002   2.8630366147671810E-002
  -6.0931143658127268E-002   1.8190250937723210E-002   2.8476892789896319E-002
  -5.8577064370186768E-002   1.7456814024495147E-002   2.8510875851433928E-002
  -5.6222985082246241E-002   1.6688034818965691E-002   2.8732315332285152E-002
  -3.7440617265806955E-002   1.1194800366126245E-002   4.9750340924256509E-002
  -3.5864023046461455E-002   1.0695377039258297E-002   4.9448928342452347E-002
  -3.4287428827115975E-002   1.0172539723983645E-002   4.9337577954313261E-002
  -3.2710834607770495E-002   9.6262884203023209E-003   4.9416289759839346E-002
  -3.1134240388425008E-002   9.0566231282140919E-003   4.9685063759030701E-002
  -4.2128988798115420E-002   1.2568108979336079E-002   4.4607859783394460E-002
  -4.0363460092533804E-002   1.1999629873144624E-002   4.4282719616650645E-002
  -3.8597931386952153E-002   1.1418992229407204E-002   4.4145386228713987E-002
  -3.6832402681370516E-002   1.0826196048123703E-002   4.4195859619584395E-002
  -3.5066873975788893E-002   1.0221241329293806E-002   4.4434139789262084E-002
  -4.6822173944958134E-002   1.3941417592545940E-002   3.9390695137778500E-002
  -4.4869966167998362E-002   1.3303882707030937E-002   3.9053082836955660E-002
  -4.2917758391038535E-002   1.2665444734830590E-002   3.8901021900082038E-002
  -4.0965550614078791E-002   1.2026103675944750E-002   3.8934512327157514E-002
  -3.9013342837118992E-002   1.1385859530373521E-002   3.9153554118182221E-002
  -5.1520172706335091E-002   1.5314726205755844E-002   3.4098846987408837E-002
  -4.9383541272855151E-002   1.4608135540917229E-002   3.3760018003367698E-002
  -4.7246909839375149E-002   1.3911897240254229E-002   3.3604484968417690E-002
  -4.5110278405895154E-002   1.3226011303766074E-002   3.3632247882558801E-002
  -4.2973646972415208E-002   1.2550477731453291E-002   3.3843306745791168E-002
  -5.6222985082246241E-002   1.6688034818965691E-002   2.8732315332285152E-002
  -5.3904185407104066E-002   1.5912388374803521E-002   2.8403525115886230E-002
  -5.1585385731961947E-002   1.5158349745677466E-002   2.8255775433720515E-002
  -4.9266586056819772E-002   1.4425918931587272E-002   2.8289066285788173E-002
  -4.6947786381677598E-002   1.3715095932532839E-002   2.8503397672088870E-002
  -3.1134240388425008E-002   9.0566231282140919E-003   4.9685063759030701E-002
  -2.9408181255024521E-002   8.4894620814194854E-003   4.9475696243140244E-002
  -2.7682122121624027E-002   7.9507235136185295E-003   4.9486670703592472E-002
  -2.5956062988223529E-002   7.4404074248113766E-003   4.9717987140387609E-002
  -2.4230003854823046E-002   6.9585138149976800E-003   5.0169645553525211E-002
  -3.5066873975788893E-002   1.0221241329293806E-002   4.4434139789262084E-002
  -3.3128668749090352E-002   9.5837733384267210E-003   4.4190518352593161E-002
  -3.1190463522391763E-002   8.8934373410306661E-003   4.4150847126177784E-002
  -2.9252258295693220E-002   8.1502333371060755E-003   4.4315126110015549E-002
  -2.7314053068994648E-002   7.3541613266524530E-003   4.4683355304107053E-002
  -3.9013342837118992E-002   1.1385859530373521E-002   3.9153554118182221E-002
  -3.6879383283211636E-002   1.0678084595433929E-002   3.8794388275212463E-002
  -3.4745423729304378E-002   9.8361511684430802E-003   3.8622780876406859E-002
  -3.2611464175397072E-002   8.8600592494007188E-003   3.8638731921765521E-002
  -3.0477504621489723E-002   7.7498088383071151E-003   3.8842241411287726E-002
  -4.2973646972415208E-002   1.2550477731453291E-002   3.3843306745791168E-002
  -4.0660324857388491E-002   1.1772395852441095E-002   3.3287306010998066E-002
  -3.8347002742361747E-002   1.0778864995855189E-002   3.2902471954279533E-002
  -3.6033680627335009E-002   9.5698851616955564E-003   3.2688804575635874E-002
  -3.3720358512308243E-002   8.1454563499617771E-003   3.2646303875066979E-002
  -4.6947786381677598E-002   1.3715095932532839E-002   2.8503397672088870E-002
  -4.4471493471620771E-002   1.2866707109448428E-002   2.7669271559949860E-002
  -4.1995200561563958E-002   1.1721578823267659E-002   2.6989920359796249E-002
  -3.9518907651507139E-002   1.0279711073990151E-002   2.6465344071628177E-002
  -3.7042614741450375E-002   8.5411038616165502E-003   2.6095542695445229E-002
  -9.0362582326019833E-002   0.0000000000000000        4.9837182965768653E-002
  -9.3962582276596499E-002   5.4040874908306783E-003   5.3210983839100973E-002
  -9.7562582227173150E-002   1.0670933085765655E-002   5.4966394595329399E-002
 -0.10116258217774982        1.5800536784804923E-002   5.5103415234453945E-002
 -0.10476258212832647        2.0792898587948489E-002   5.3622045756474612E-002
 -0.10329438688684414        0.0000000000000000        5.8664894211063849E-002
 -0.10683125728194712        1.0884445596943109E-002   5.2120456360379194E-002
 -0.11036812767705009        1.9172354284148711E-002   4.7320667737745785E-002
 -0.11390499807215305        2.4863726061616825E-002   4.4265528343163663E-002
 -0.11744186846725602        2.7958560929347447E-002   4.2955038176632800E-002
 -0.12645906044144639        0.0000000000000000        7.4202611069392355E-002
 -0.12656976193592054        1.6364803703055535E-002   5.5280639480848937E-002
 -0.12668046343039469        2.7673775482531776E-002   4.1466356465511924E-002
 -0.12679116492486880        3.3926915338428718E-002   3.2759762023381316E-002
 -0.12690186641934298        3.5124223270746380E-002   2.9160856154457102E-002
 -0.15985660298982660        0.0000000000000000        9.6450333540754205E-002
 -0.15317809623851678        2.1845161809167960E-002   6.2691533200510227E-002
 -0.14649958948720693        3.6175196680914845E-002   3.7403460778627814E-002
 -0.13982108273589708        4.2990104615240630E-002   2.0586116275106921E-002
 -0.13314257598458723        4.2289885612145320E-002   1.2239499689947555E-002
 -0.20348701453198473        0.0000000000000000       0.12540806162514936     
 -0.18665626018973580        2.7325519915280386E-002   7.4353137519363052E-002
 -0.16982550584748682        4.4676617879297886E-002   3.5131980677093402E-002
 -0.15299475150523786        5.2053293892052523E-002   7.7445910983404559E-003
 -0.13616399716298894        4.9455547953544267E-002  -7.8090312168958356E-003
 -0.10476258212832647        2.0792898587948489E-002   5.3622045756474612E-002
 -0.10210929704718899        2.4934738999649056E-002   4.5643603537935645E-002
  -9.9456011966051500E-002   2.7512778524359387E-002   3.9354384198522441E-002
  -9.6802726884914023E-002   2.8527017162079442E-002   3.4754387738234895E-002
  -9.4149441803776532E-002   2.7977454912809230E-002   3.1843614157073180E-002
 -0.11744186846725602        2.7958560929347447E-002   4.2955038176632800E-002
 -0.11348715888965555        2.9431035568996244E-002   3.6702093745565517E-002
 -0.10953244931205504        3.0255326662218914E-002   3.1362775428298552E-002
 -0.10557773973445456        3.0431434209015507E-002   2.6937083224831855E-002
 -0.10162303015685405        2.9959358209385945E-002   2.3425017135165437E-002
 -0.12690186641934298        3.5124223270746380E-002   2.9160856154457102E-002
 -0.12242132911060492        3.3927332138343397E-002   2.5549026851425686E-002
 -0.11794079180186690        3.2997874800078444E-002   2.2075226896869145E-002
 -0.11346025449312884        3.2335851255951564E-002   1.8739456290787361E-002
 -0.10897971718439083        3.1941261505962645E-002   1.5541715033180421E-002
 -0.13314257598458723        4.2289885612145320E-002   1.2239499689947555E-002
 -0.12891180771003713        3.8423628707690581E-002   1.2184402855516138E-002
 -0.12468103943548701        3.5740422937937992E-002   1.1491738604234176E-002
 -0.12045027116093691        3.4240268302887546E-002   1.0161506936101506E-002
 -0.11621950288638680        3.3923164802539346E-002   8.1937078511181080E-003
 -0.13616399716298894        4.9455547953544267E-002  -7.8090312168958356E-003
 -0.13295859468795218        4.2919925277037745E-002  -3.3917782421630273E-003
 -0.12975319221291545        3.8482971075797491E-002  -3.8768944960648234E-004
 -0.12654778973787872        3.6144685349823680E-002   1.2032351607741284E-003
 -0.12334238726284197        3.5905068099116089E-002   1.3809955889784731E-003
  -9.4149441803776532E-002   2.7977454912809230E-002   3.1843614157073180E-002
  -9.1760588572981291E-002   2.6783372915903669E-002   3.1274733302499719E-002
  -8.9371735342186065E-002   2.5864052310717690E-002   3.0790051155704483E-002
  -8.6982882111390852E-002   2.5219493097251303E-002   3.0389567716687511E-002
  -8.4594028880595626E-002   2.4849695275504416E-002   3.0073282985448743E-002
 -0.10162303015685405        2.9959358209385945E-002   2.3425017135165437E-002
  -9.9136660267518897E-002   2.9188661766841352E-002   2.3149207583052160E-002
  -9.6650290378183790E-002   2.8468907984892669E-002   2.2984232640240597E-002
  -9.4163920488848613E-002   2.7800096863539969E-002   2.2930092306730553E-002
  -9.1677550599513491E-002   2.7182228402783198E-002   2.2986786582522206E-002
 -0.10897971718439083        3.1941261505962645E-002   1.5541715033180421E-002
 -0.10636919473499237        3.1593950617778969E-002   1.5335158052403791E-002
 -0.10375867228559392        3.1073763659067631E-002   1.5266071582452198E-002
 -0.10114814983619543        3.0380700629828675E-002   1.5334455623325569E-002
  -9.8537627386796986E-002   2.9514761530062057E-002   1.5540310175023924E-002
 -0.11621950288638680        3.3923164802539346E-002   8.1937078511181080E-003
 -0.11345819197540166        3.3999239468716545E-002   7.8325847105546100E-003
 -0.11069688106441655        3.3678619333242545E-002   7.6355679823394192E-003
 -0.10793557015343140        3.2961304396117330E-002   7.6026576664725018E-003
 -0.10517425924244628        3.1847294657340847E-002   7.7338537629541371E-003
 -0.12334238726284197        3.5905068099116089E-002   1.3809955889784731E-003
 -0.12040365198874681        3.6404528319654253E-002   6.4148755750431663E-004
 -0.11746491671465162        3.6283475007417618E-002   9.2721839902040748E-005
 -0.11452618144055642        3.5541908162406030E-002  -2.6530156382867723E-004
 -0.11158744616646127        3.4179827784619643E-002  -4.3258265368756321E-004
  -8.4594028880595626E-002   2.4849695275504416E-002   3.0073282985448743E-002
  -8.2209498794038299E-002   2.4535592766243772E-002   2.9322997862705258E-002
  -7.9824968707480931E-002   2.4058119490235796E-002   2.8856060377728789E-002
  -7.7440438620923563E-002   2.3417275447480641E-002   2.8672470530519602E-002
  -7.5055908534366222E-002   2.2613060637978272E-002   2.8772228321077564E-002
  -9.1677550599513491E-002   2.7182228402783198E-002   2.2986786582522206E-002
  -8.9037297662125009E-002   2.6565107506855687E-002   2.2325912455634450E-002
  -8.6397044724736527E-002   2.5898539079990589E-002   2.1893136392641746E-002
  -8.3756791787348073E-002   2.5182523122187772E-002   2.1688458393544208E-002
  -8.1116538849959563E-002   2.4417059633447424E-002   2.1711878458341535E-002
  -9.8537627386796986E-002   2.9514761530062057E-002   1.5540310175023924E-002
  -9.5696901172449528E-002   2.8594622247467665E-002   1.5082770279801649E-002
  -9.2856174958102056E-002   2.7738958669745274E-002   1.4798078874602298E-002
  -9.0015448743754625E-002   2.6947770796894956E-002   1.4686235959425892E-002
  -8.7174722529407112E-002   2.6221058628916619E-002   1.4747241534272447E-002
 -0.10517425924244628        3.1847294657340847E-002   7.7338537629541371E-003
 -0.10218830932501193        3.0624136988079542E-002   7.5935713352068956E-003
  -9.9202359407577559E-002   2.9579378259500095E-002   7.5708878236103363E-003
  -9.6216409490143234E-002   2.8713018471602143E-002   7.6658032281650421E-003
  -9.3230459572708854E-002   2.8025057624385986E-002   7.8783175488702038E-003
 -0.11158744616646127        3.4179827784619643E-002  -4.3258265368756321E-004
 -0.10851152211981213        3.2653651728691474E-002  -1.4168437814993107E-004
 -0.10543559807316302        3.1419797849254708E-002   2.1156323966617374E-004
 -0.10235967402651390        3.0478266146309264E-002   6.2716019976116061E-004
  -9.9283749979864777E-002   2.9829056619855021E-002   1.1051065021348561E-003
  -7.5055908534366222E-002   2.2613060637978272E-002   2.8772228321077564E-002
  -7.2701756959276720E-002   2.1757262821402376E-002   2.8594441932035253E-002
  -7.0347605384187231E-002   2.0961669757426714E-002   2.8568357736301689E-002
  -6.7993453809097770E-002   2.0226281446051160E-002   2.8693975733876810E-002
  -6.5639302234008268E-002   1.9551097887275937E-002   2.8971295924760554E-002
  -8.1116538849959563E-002   2.4417059633447424E-002   2.1711878458341535E-002
  -7.8609174215528432E-002   2.3633030033449839E-002   2.1574309601989652E-002
  -7.6101809581097246E-002   2.2861315741875235E-002   2.1591464671012382E-002
  -7.3594444946666143E-002   2.2101916758723587E-002   2.1763343665409839E-002
  -7.1087080312234929E-002   2.1354833083994829E-002   2.2089946585181930E-002
  -8.7174722529407112E-002   2.6221058628916619E-002   1.4747241534272447E-002
  -8.4511123103568342E-002   2.5508797245497282E-002   1.4602000766433719E-002
  -8.1847523677729558E-002   2.4760961726323815E-002   1.4614505656035542E-002
  -7.9183924251890817E-002   2.3977552071395767E-002   1.4784756203078045E-002
  -7.6520324826051977E-002   2.3158568280713832E-002   1.5112752407561075E-002
  -9.3230459572708854E-002   2.8025057624385986E-002   7.8783175488702038E-003
  -9.0407603623396504E-002   2.7384564457545012E-002   7.6775154253674142E-003
  -8.7584747674084140E-002   2.6660607710772229E-002   7.6374806913712756E-003
  -8.4761891724771776E-002   2.5853187384068263E-002   7.7582133468814558E-003
  -8.1939035775459371E-002   2.4962303477432612E-002   8.0397133918983718E-003
  -9.9283749979864777E-002   2.9829056619855021E-002   1.1051065021348561E-003
  -9.6298615775012919E-002   2.9260331669592021E-002   8.0085357879086660E-004
  -9.3313481570161005E-002   2.8560253695221055E-002   6.6038977701905754E-004
  -9.0328347365309120E-002   2.7728822696740478E-002   6.8371509682023726E-004
  -8.7343213160457234E-002   2.6766038674151726E-002   8.7082953819361819E-004
  -6.5639302234008268E-002   1.9551097887275937E-002   2.8971295924760554E-002
  -6.3285222946067740E-002   1.8888345558650266E-002   2.8630366147671810E-002
  -6.0931143658127268E-002   1.8190250937723210E-002   2.8476892789896319E-002
  -5.8577064370186768E-002   1.7456814024495147E-002   2.8510875851433928E-002
  -5.6222985082246241E-002   1.6688034818965691E-002   2.8732315332285152E-002
  -7.1087080312234929E-002   2.1354833083994829E-002   2.2089946585181930E-002
  -6.8544914914342600E-002   2.0610220351062192E-002   2.1742822204575074E-002
  -6.6002749516450271E-002   1.9858234193298227E-002   2.1584413624558693E-002
  -6.3460584118557942E-002   1.9098874610703625E-002   2.1614720845132628E-002
  -6.0918418720665543E-002   1.8332141603277674E-002   2.1833743866296940E-002
  -7.6520324826051977E-002   2.3158568280713832E-002   1.5112752407561075E-002
  -7.3788813936930722E-002   2.2332095143474229E-002   1.4787402290906485E-002
  -7.1057303047809467E-002   2.1526217448873460E-002   1.4652027356119313E-002
  -6.8325792158688253E-002   2.0740935196912155E-002   1.4706627603199612E-002
  -6.5594281269567026E-002   1.9976248387589685E-002   1.4951203032147309E-002
  -8.1939035775459371E-002   2.4962303477432612E-002   8.0397133918983718E-003
  -7.9016920013832176E-002   2.4053969935886238E-002   7.7641064066659750E-003
  -7.6094804252204981E-002   2.3194200704448779E-002   7.6797339845782516E-003
  -7.3172688490577731E-002   2.2382995783120495E-002   7.7865961256351280E-003
  -7.0250572728950564E-002   2.1620355171901709E-002   8.0846928298361452E-003
  -8.7343213160457234E-002   2.6766038674151726E-002   8.7082953819361819E-004
  -8.4229233145046933E-002   2.5775844728298136E-002   6.7293455185352125E-004
  -8.1115253129636689E-002   2.4862183960023543E-002   6.6753350993536964E-004
  -7.8001273114226444E-002   2.4025056369329098E-002   8.5462641243889970E-004
  -7.4887293098816143E-002   2.3264461956213678E-002   1.2342132593637922E-003
  -5.6222985082246241E-002   1.6688034818965691E-002   2.8732315332285152E-002
  -5.3904185407104066E-002   1.5912388374803521E-002   2.8403525115886230E-002
  -5.1585385731961947E-002   1.5158349745677466E-002   2.8255775433720515E-002
  -4.9266586056819772E-002   1.4425918931587272E-002   2.8289066285788173E-002
  -4.6947786381677598E-002   1.3715095932532839E-002   2.8503397672088870E-002
  -6.0918418720665543E-002   1.8332141603277674E-002   2.1833743866296940E-002
  -5.8420961087104983E-002   1.7565027095942903E-002   2.1536251283625601E-002
  -5.5923503453544444E-002   1.6804523013620842E-002   2.1415034083557993E-002
  -5.3426045819983850E-002   1.6050629356311755E-002   2.1470092266093851E-002
  -5.0928588186423276E-002   1.5303346124015460E-002   2.1701425831233523E-002
  -6.5594281269567026E-002   1.9976248387589685E-002   1.4951203032147309E-002
  -6.2922930829217530E-002   1.9217665817081869E-002   1.4670010693180663E-002
  -6.0251580388868180E-002   1.8450696281564004E-002   1.4560328585187715E-002
  -5.7580229948518802E-002   1.7675339781036241E-002   1.4622156708169413E-002
  -5.4908879508169382E-002   1.6891596315498025E-002   1.4855495062124635E-002
  -7.0250572728950564E-002   2.1620355171901709E-002   8.0846928298361452E-003
  -6.7410094633441858E-002   2.0870304538221016E-002   7.8048033445509701E-003
  -6.4569616537933125E-002   2.0096869549507328E-002   7.6916589386104937E-003
  -6.1729138442424378E-002   1.9300050205760446E-002   7.7452596120139950E-003
  -5.8888660346915707E-002   1.8479846506980618E-002   7.9656053647626859E-003
  -7.4887293098816143E-002   2.3264461956213678E-002   1.2342132593637922E-003
  -7.1882452499777705E-002   2.2522943259360328E-002   9.4062923773730045E-004
  -6.8877611900739266E-002   2.1743042817450486E-002   8.0902514382580337E-004
  -6.5872771301700772E-002   2.0924760630485081E-002   8.3940097762881527E-004
  -6.2867930702662389E-002   2.0068096698462989E-002   1.0317567391471272E-003
  -4.6947786381677598E-002   1.3715095932532839E-002   2.8503397672088870E-002
  -4.4471493471620771E-002   1.2866707109448428E-002   2.7669271559949860E-002
  -4.1995200561563958E-002   1.1721578823267659E-002   2.6989920359796249E-002
  -3.9518907651507139E-002   1.0279711073990151E-002   2.6465344071628177E-002
  -3.7042614741450375E-002   8.5411038616165502E-003   2.6095542695445229E-002
  -5.0928588186423276E-002   1.5303346124015460E-002   2.1701425831233523E-002
  -4.8316424280433715E-002   1.4601821375613583E-002   2.0742989825881047E-002
  -4.5704260374444118E-002   1.3985203169987359E-002   1.9901520900408504E-002
  -4.3092096468454480E-002   1.3453491507136803E-002   1.9177019054816377E-002
  -4.0479932562464960E-002   1.3006686387061817E-002   1.8569484289103877E-002
  -5.4908879508169382E-002   1.6891596315498025E-002   1.4855495062124635E-002
  -5.2198652438352325E-002   1.6336935641778655E-002   1.4154395169430900E-002
  -4.9488425368535413E-002   1.6248827516707434E-002   1.3532454524511767E-002
  -4.6778198298718536E-002   1.6627271940283395E-002   1.2989673127367186E-002
  -4.4067971228901479E-002   1.7472268912507194E-002   1.2526050977997860E-002
  -5.8888660346915707E-002   1.8479846506980618E-002   7.9656053647626859E-003
  -5.6118177945376713E-002   1.8072049907943824E-002   7.9034875905994520E-003
  -5.3347695543837725E-002   1.8512451863427322E-002   7.8827212321055141E-003
  -5.0577213142298724E-002   1.9801052373429905E-002   7.9033062892813408E-003
  -4.7806730740759695E-002   2.1937851437952571E-002   7.9652427621258043E-003
  -6.2867930702662389E-002   2.0068096698462989E-002   1.0317567391471272E-003
  -6.0075000801506739E-002   1.9807164174108882E-002   1.9902670893867658E-003
  -5.7282070900351145E-002   2.0776076210146988E-002   2.9523210231901242E-003
  -5.4489140999195523E-002   2.2974832806576695E-002   3.9179185405577091E-003
  -5.1696211098039901E-002   2.6403433963397838E-002   4.8870596414889445E-003
 </DataArray>
 </PointData>
 </Piece>
 <Piece  NumberOfPoints="          1600 "  NumberOfCells="         1024 ">
 <Points>
 <DataArray  type="Float64" NumberOfComponents="3"  format="ascii" >
  0.50000000000000000        0.0000000000000000        0.0000000000000000     
  0.53125000000000000        0.0000000000000000        0.0000000000000000     
  0.56250000000000000        0.0000000000000000        0.0000000000000000     
  0.59375000000000000        0.0000000000000000        0.0000000000000000     
  0.62500000000000000        0.0000000000000000        0.0000000000000000     
  0.50000000000000000        3.1250000000000000E-002   0.0000000000000000     
  0.53125000000000000        3.1250000000000000E-002   0.0000000000000000     
  0.56250000000000000        3.1250000000000000E-002   0.0000000000000000     
  0.59375000000000000        3.1250000000000000E-002   0.0000000000000000     
  0.62500000000000000        3.1250000000000000E-002   0.0000000000000000     
  0.50000000000000000        6.2500000000000000E-002   0.0000000000000000     
  0.53125000000000000        6.2500000000000000E-002   0.0000000000000000     
  0.56250000000000000        6.2500000000000000E-002   0.0000000000000000     
  0.59375000000000000        6.2500000000000000E-002   0.0000000000000000     
  0.62500000000000000        6.2500000000000000E-002   0.0000000000000000     
  0.50000000000000000        9.3750000000000000E-002   0.0000000000000000     
  0.53125000000000000        9.3750000000000000E-002   0.0000000000000000     
  0.56250000000000000        9.3750000000000000E-002   0.0000000000000000     
  0.59375000000000000        9.3750000000000000E-002   0.0000000000000000     
  0.62500000000000000        9.3750000000000000E-002   0.0000000000000000     
  0.50000000000000000       0.12500000000000000        0.0000000000000000     
  0.53125000000000000       0.12500000000000000        0.0000000000000000     
  0.56250000000000000       0.12500000000000000        0.0000000000000000     
  0.59375000000000000       0.12500000000000000        0.0000000000000000     
  0.62500000000000000       0.12500000000000000        0.0000000000000000     
  0.62500000000000000        0.0000000000000000        0.0000000000000000     
  0.65625000000000000        0.0000000000000000        0.0000000000000000     
  0.68750000000000000        0.0000000000000000        0.0000000000000000     
  0.71875000000000000        0.0000000000000000        0.0000000000000000     
  0.75000000000000000        0.0000000000000000        0.0000000000000000     
  0.62500000000000000        3.1250000000000000E-002   0.0000000000000000     
  0.65625000000000000        3.1250000000000000E-002   0.0000000000000000     
  0.68750000000000000        3.1250000000000000E-002   0.0000000000000000     
  0.71875000000000000        3.1250000000000000E-002   0.0000000000000000     
  0.75000000000000000        3.1250000000000000E-002   0.0000000000000000     
  0.62500000000000000        6.2500000000000000E-002   0.0000000000000000     
  0.65625000000000000        6.2500000000000000E-002   0.0000000000000000     
  0.68750000000000000        6.2500000000000000E-002   0.0000000000000000     
  0.71875000000000000        6.2500000000000000E-002   0.0000000000000000     
  0.75000000000000000        6.2500000000000000E-002   0.0000000000000000     
  0.62500000000000000        9.3750000000000000E-002   0.0000000000000000     
  0.65625000000000000        9.3750000000000000E-002   0.0000000000000000     
  0.68750000000000000        9.3750000000000000E-002   0.0000000000000000     
  0.71875000000000000        9.3750000000000000E-002   0.0000000000000000     
  0.75000000000000000        9.3750000000000000E-002   0.0000000000000000     
  0.62500000000000000       0.12500000000000000        0.0000000000000000     
  0.65625000000000000       0.12500000000000000        0.0000000000000000     
  0.68750000000000000       0.12500000000000000        0.0000000000000000     
  0.71875000000000000       0.12500000000000000        0.0000000000000000     
  0.75000000000000000       0.12500000000000000        0.0000000000000000     
  0.75000000000000000        0.0000000000000000        0.0000000000000000     
  0.78125000000000000        0.0000000000000000        0.0000000000000000     
  0.81250000000000000        0.0000000000000000        0.0000000000000000     
  0.84375000000000000        0.0000000000000000        0.0000000000000000     
  0.87500000000000000        0.0000000000000000        0.0000000000000000     
  0.75000000000000000        3.1250000000000000E-002   0.0000000000000000     
  0.78125000000000000        3.1250000000000000E-002   0.0000000000000000     
  0.81250000000000000        3.1250000000000000E-002   0.0000000000000000     
  0.84375000000000000        3.1250000000000000E-002   0.0000000000000000     
  0.87500000000000000        3.1250000000000000E-002   0.0000000000000000     
  0.75000000000000000        6.2500000000000000E-002   0.0000000000000000     
  0.78125000000000000        6.2500000000000000E-002   0.0000000000000000     
  0.81250000000000000        6.2500000000000000E-002   0.0000000000000000     
  0.84375000000000000        6.2500000000000000E-002   0.0000000000000000     
  0.87500000000000000        6.2500000000000000E-002   0.0000000000000000     
  0.75000000000000000        9.3750000000000000E-002   0.0000000000000000     
  0.78125000000000000        9.3750000000000000E-002   0.0000000000000000     
  0.81250000000000000        9.3750000000000000E-002   0.0000000000000000     
  0.84375000000000000        9.3750000000000000E-002   0.0000000000000000     
  0.87500000000000000        9.3750000000000000E-002   0.0000000000000000     
  0.75000000000000000       0.12500000000000000        0.0000000000000000     
  0.78125000000000000       0.12500000000000000        0.0000000000000000     
  0.81250000000000000       0.12500000000000000        0.0000000000000000     
  0.84375000000000000       0.12500000000000000        0.0000000000000000     
  0.87500000000000000       0.12500000000000000        0.0000000000000000     
  0.87500000000000000        0.0000000000000000        0.0000000000000000     
  0.90625000000000000        0.0000000000000000        0.0000000000000000     
  0.93750000000000000        0.0000000000000000        0.0000000000000000     
  0.96875000000000000        0.0000000000000000        0.0000000000000000     
   1.0000000000000000        0.0000000000000000        0.0000000000000000     
  0.87500000000000000        3.1250000000000000E-002   0.0000000000000000     
  0.90625000000000000        3.1250000000000000E-002   0.0000000000000000     
  0.93750000000000000        3.1250000000000000E-002   0.0000000000000000     
  0.96875000000000000        3.1250000000000000E-002   0.0000000000000000     
   1.0000000000000000        3.1250000000000000E-002   0.0000000000000000     
  0.87500000000000000        6.2500000000000000E-002   0.0000000000000000     
  0.90625000000000000        6.2500000000000000E-002   0.0000000000000000     
  0.93750000000000000        6.2500000000000000E-002   0.0000000000000000     
  0.96875000000000000        6.2500000000000000E-002   0.0000000000000000     
   1.0000000000000000        6.2500000000000000E-002   0.0000000000000000     
  0.87500000000000000        9.3750000000000000E-002   0.0000000000000000     
  0.90625000000000000        9.3750000000000000E-002   0.0000000000000000     
  0.93750000000000000        9.3750000000000000E-002   0.0000000000000000     
  0.96875000000000000        9.3750000000000000E-002   0.0000000000000000     
   1.0000000000000000        9.3750000000000000E-002   0.0000000000000000     
  0.87500000000000000       0.12500000000000000        0.0000000000000000     
  0.90625000000000000       0.12500000000000000        0.0000000000000000     
  0.93750000000000000       0.12500000000000000        0.0000000000000000     
  0.96875000000000000       0.12500000000000000        0.0000000000000000     
   1.0000000000000000       0.12500000000000000        0.0000000000000000     
   1.0000000000000000        0.0000000000000000        0.0000000000000000     
   1.0312500000000000        0.0000000000000000        0.0000000000000000     
   1.0625000000000000        0.0000000000000000        0.0000000000000000     
   1.0937500000000000        0.0000000000000000        0.0000000000000000     
   1.1250000000000000        0.0000000000000000        0.0000000000000000     
   1.0000000000000000        3.1250000000000000E-002   0.0000000000000000     
   1.0312500000000000        3.1250000000000000E-002   0.0000000000000000     
   1.0625000000000000        3.1250000000000000E-002   0.0000000000000000     
   1.0937500000000000        3.1250000000000000E-002   0.0000000000000000     
   1.1250000000000000        3.1250000000000000E-002   0.0000000000000000     
   1.0000000000000000        6.2500000000000000E-002   0.0000000000000000     
   1.0312500000000000        6.2500000000000000E-002   0.0000000000000000     
   1.0625000000000000        6.2500000000000000E-002   0.0000000000000000     
   1.0937500000000000        6.2500000000000000E-002   0.0000000000000000     
   1.1250000000000000        6.2500000000000000E-002   0.0000000000000000     
   1.0000000000000000        9.3750000000000000E-002   0.0000000000000000     
   1.0312500000000000        9.3750000000000000E-002   0.0000000000000000     
   1.0625000000000000        9.3750000000000000E-002   0.0000000000000000     
   1.0937500000000000        9.3750000000000000E-002   0.0000000000000000     
   1.1250000000000000        9.3750000000000000E-002   0.0000000000000000     
   1.0000000000000000       0.12500000000000000        0.0000000000000000     
   1.0312500000000000       0.12500000000000000        0.0000000000000000     
   1.0625000000000000       0.12500000000000000        0.0000000000000000     
   1.0937500000000000       0.12500000000000000        0.0000000000000000     
   1.1250000000000000       0.12500000000000000        0.0000000000000000     
   1.1250000000000000        0.0000000000000000        0.0000000000000000     
   1.1562500000000000        0.0000000000000000        0.0000000000000000     
   1.1875000000000000        0.0000000000000000        0.0000000000000000     
   1.2187500000000000        0.0000000000000000        0.0000000000000000     
   1.2500000000000000        0.0000000000000000        0.0000000000000000     
   1.1250000000000000        3.1250000000000000E-002   0.0000000000000000     
   1.1562500000000000        3.1250000000000000E-002   0.0000000000000000     
   1.1875000000000000        3.1250000000000000E-002   0.0000000000000000     
   1.2187500000000000        3.1250000000000000E-002   0.0000000000000000     
   1.2500000000000000        3.1250000000000000E-002   0.0000000000000000     
   1.1250000000000000        6.2500000000000000E-002   0.0000000000000000     
   1.1562500000000000        6.2500000000000000E-002   0.0000000000000000     
   1.1875000000000000        6.2500000000000000E-002   0.0000000000000000     
   1.2187500000000000        6.2500000000000000E-002   0.0000000000000000     
   1.2500000000000000        6.2500000000000000E-002   0.0000000000000000     
   1.1250000000000000        9.3750000000000000E-002   0.0000000000000000     
   1.1562500000000000        9.3750000000000000E-002   0.0000000000000000     
   1.1875000000000000        9.3750000000000000E-002   0.0000000000000000     
   1.2187500000000000        9.3750000000000000E-002   0.0000000000000000     
   1.2500000000000000        9.3750000000000000E-002   0.0000000000000000     
   1.1250000000000000       0.12500000000000000        0.0000000000000000     
   1.1562500000000000       0.12500000000000000        0.0000000000000000     
   1.1875000000000000       0.12500000000000000        0.0000000000000000     
   1.2187500000000000       0.12500000000000000        0.0000000000000000     
   1.2500000000000000       0.12500000000000000        0.0000000000000000     
   1.2500000000000000        0.0000000000000000        0.0000000000000000     
   1.2812500000000000        0.0000000000000000        0.0000000000000000     
   1.3125000000000000        0.0000000000000000        0.0000000000000000     
   1.3437500000000000        0.0000000000000000        0.0000000000000000     
   1.3750000000000000        0.0000000000000000        0.0000000000000000     
   1.2500000000000000        3.1250000000000000E-002   0.0000000000000000     
   1.2812500000000000        3.1250000000000000E-002   0.0000000000000000     
   1.3125000000000000        3.1250000000000000E-002   0.0000000000000000     
   1.3437500000000000        3.1250000000000000E-002   0.0000000000000000     
   1.3750000000000000        3.1250000000000000E-002   0.0000000000000000     
   1.2500000000000000        6.2500000000000000E-002   0.0000000000000000     
   1.2812500000000000        6.2500000000000000E-002   0.0000000000000000     
   1.3125000000000000        6.2500000000000000E-002   0.0000000000000000     
   1.3437500000000000        6.2500000000000000E-002   0.0000000000000000     
   1.3750000000000000        6.2500000000000000E-002   0.0000000000000000     
   1.2500000000000000        9.3750000000000000E-002   0.0000000000000000     
   1.2812500000000000        9.3750000000000000E-002   0.0000000000000000     
   1.3125000000000000        9.3750000000000000E-002   0.0000000000000000     
   1.3437500000000000        9.3750000000000000E-002   0.0000000000000000     
   1.3750000000000000        9.3750000000000000E-002   0.0000000000000000     
   1.2500000000000000       0.12500000000000000        0.0000000000000000     
   1.2812500000000000       0.12500000000000000        0.0000000000000000     
   1.3125000000000000       0.12500000000000000        0.0000000000000000     
   1.3437500000000000       0.12500000000000000        0.0000000000000000     
   1.3750000000000000       0.12500000000000000        0.0000000000000000     
   1.3750000000000000        0.0000000000000000        0.0000000000000000     
   1.4062500000000000        0.0000000000000000        0.0000000000000000     
   1.4375000000000000        0.0000000000000000        0.0000000000000000     
   1.4687500000000000        0.0000000000000000        0.0000000000000000     
   1.5000000000000000        0.0000000000000000        0.0000000000000000     
   1.3750000000000000        3.1250000000000000E-002   0.0000000000000000     
   1.4062500000000000        3.1250000000000000E-002   0.0000000000000000     
   1.4375000000000000        3.1250000000000000E-002   0.0000000000000000     
   1.4687500000000000        3.1250000000000000E-002   0.0000000000000000     
   1.5000000000000000        3.1250000000000000E-002   0.0000000000000000     
   1.3750000000000000        6.2500000000000000E-002   0.0000000000000000     
   1.4062500000000000        6.2500000000000000E-002   0.0000000000000000     
   1.4375000000000000        6.2500000000000000E-002   0.0000000000000000     
   1.4687500000000000        6.2500000000000000E-002   0.0000000000000000     
   1.5000000000000000        6.2500000000000000E-002   0.0000000000000000     
   1.3750000000000000        9.3750000000000000E-002   0.0000000000000000     
   1.4062500000000000        9.3750000000000000E-002   0.0000000000000000     
   1.4375000000000000        9.3750000000000000E-002   0.0000000000000000     
   1.4687500000000000        9.3750000000000000E-002   0.0000000000000000     
   1.5000000000000000        9.3750000000000000E-002   0.0000000000000000     
   1.3750000000000000       0.12500000000000000        0.0000000000000000     
   1.4062500000000000       0.12500000000000000        0.0000000000000000     
   1.4375000000000000       0.12500000000000000        0.0000000000000000     
   1.4687500000000000       0.12500000000000000        0.0000000000000000     
   1.5000000000000000       0.12500000000000000        0.0000000000000000     
  0.50000000000000000       0.12500000000000000        0.0000000000000000     
  0.53125000000000000       0.12500000000000000        0.0000000000000000     
  0.56250000000000000       0.12500000000000000        0.0000000000000000     
  0.59375000000000000       0.12500000000000000        0.0000000000000000     
  0.62500000000000000       0.12500000000000000        0.0000000000000000     
  0.50000000000000000       0.15625000000000000        0.0000000000000000     
  0.53125000000000000       0.15625000000000000        0.0000000000000000     
  0.56250000000000000       0.15625000000000000        0.0000000000000000     
  0.59375000000000000       0.15625000000000000        0.0000000000000000     
  0.62500000000000000       0.15625000000000000        0.0000000000000000     
  0.50000000000000000       0.18750000000000000        0.0000000000000000     
  0.53125000000000000       0.18750000000000000        0.0000000000000000     
  0.56250000000000000       0.18750000000000000        0.0000000000000000     
  0.59375000000000000       0.18750000000000000        0.0000000000000000     
  0.62500000000000000       0.18750000000000000        0.0000000000000000     
  0.50000000000000000       0.21875000000000000        0.0000000000000000     
  0.53125000000000000       0.21875000000000000        0.0000000000000000     
  0.56250000000000000       0.21875000000000000        0.0000000000000000     
  0.59375000000000000       0.21875000000000000        0.0000000000000000     
  0.62500000000000000       0.21875000000000000        0.0000000000000000     
  0.50000000000000000       0.25000000000000000        0.0000000000000000     
  0.53125000000000000       0.25000000000000000        0.0000000000000000     
  0.56250000000000000       0.25000000000000000        0.0000000000000000     
  0.59375000000000000       0.25000000000000000        0.0000000000000000     
  0.62500000000000000       0.25000000000000000        0.0000000000000000     
  0.62500000000000000       0.12500000000000000        0.0000000000000000     
  0.65625000000000000       0.12500000000000000        0.0000000000000000     
  0.68750000000000000       0.12500000000000000        0.0000000000000000     
  0.71875000000000000       0.12500000000000000        0.0000000000000000     
  0.75000000000000000       0.12500000000000000        0.0000000000000000     
  0.62500000000000000       0.15625000000000000        0.0000000000000000     
  0.65625000000000000       0.15625000000000000        0.0000000000000000     
  0.68750000000000000       0.15625000000000000        0.0000000000000000     
  0.71875000000000000       0.15625000000000000        0.0000000000000000     
  0.75000000000000000       0.15625000000000000        0.0000000000000000     
  0.62500000000000000       0.18750000000000000        0.0000000000000000     
  0.65625000000000000       0.18750000000000000        0.0000000000000000     
  0.68750000000000000       0.18750000000000000        0.0000000000000000     
  0.71875000000000000       0.18750000000000000        0.0000000000000000     
  0.75000000000000000       0.18750000000000000        0.0000000000000000     
  0.62500000000000000       0.21875000000000000        0.0000000000000000     
  0.65625000000000000       0.21875000000000000        0.0000000000000000     
  0.68750000000000000       0.21875000000000000        0.0000000000000000     
  0.71875000000000000       0.21875000000000000        0.0000000000000000     
  0.75000000000000000       0.21875000000000000        0.0000000000000000     
  0.62500000000000000       0.25000000000000000        0.0000000000000000     
  0.65625000000000000       0.25000000000000000        0.0000000000000000     
  0.68750000000000000       0.25000000000000000        0.0000000000000000     
  0.71875000000000000       0.25000000000000000        0.0000000000000000     
  0.75000000000000000       0.25000000000000000        0.0000000000000000     
  0.75000000000000000       0.12500000000000000        0.0000000000000000     
  0.78125000000000000       0.12500000000000000        0.0000000000000000     
  0.81250000000000000       0.12500000000000000        0.0000000000000000     
  0.84375000000000000       0.12500000000000000        0.0000000000000000     
  0.87500000000000000       0.12500000000000000        0.0000000000000000     
  0.75000000000000000       0.15625000000000000        0.0000000000000000     
  0.78125000000000000       0.15625000000000000        0.0000000000000000     
  0.81250000000000000       0.15625000000000000        0.0000000000000000     
  0.84375000000000000       0.15625000000000000        0.0000000000000000     
  0.87500000000000000       0.15625000000000000        0.0000000000000000     
  0.75000000000000000       0.18750000000000000        0.0000000000000000     
  0.78125000000000000       0.18750000000000000        0.0000000000000000     
  0.81250000000000000       0.18750000000000000        0.0000000000000000     
  0.84375000000000000       0.18750000000000000        0.0000000000000000     
  0.87500000000000000       0.18750000000000000        0.0000000000000000     
  0.75000000000000000       0.21875000000000000        0.0000000000000000     
  0.78125000000000000       0.21875000000000000        0.0000000000000000     
  0.81250000000000000       0.21875000000000000        0.0000000000000000     
  0.84375000000000000       0.21875000000000000        0.0000000000000000     
  0.87500000000000000       0.21875000000000000        0.0000000000000000     
  0.75000000000000000       0.25000000000000000        0.0000000000000000     
  0.78125000000000000       0.25000000000000000        0.0000000000000000     
  0.81250000000000000       0.25000000000000000        0.0000000000000000     
  0.84375000000000000       0.25000000000000000        0.0000000000000000     
  0.87500000000000000       0.25000000000000000        0.0000000000000000     
  0.87500000000000000       0.12500000000000000        0.0000000000000000     
  0.90625000000000000       0.12500000000000000        0.0000000000000000     
  0.93750000000000000       0.12500000000000000        0.0000000000000000     
  0.96875000000000000       0.12500000000000000        0.0000000000000000     
   1.0000000000000000       0.12500000000000000        0.0000000000000000     
  0.87500000000000000       0.15625000000000000        0.0000000000000000     
  0.90625000000000000       0.15625000000000000        0.0000000000000000     
  0.93750000000000000       0.15625000000000000        0.0000000000000000     
  0.96875000000000000       0.15625000000000000        0.0000000000000000     
   1.0000000000000000       0.15625000000000000        0.0000000000000000     
  0.87500000000000000       0.18750000000000000        0.0000000000000000     
  0.90625000000000000       0.18750000000000000        0.0000000000000000     
  0.93750000000000000       0.18750000000000000        0.0000000000000000     
  0.96875000000000000       0.18750000000000000        0.0000000000000000     
   1.0000000000000000       0.18750000000000000        0.0000000000000000     
  0.87500000000000000       0.21875000000000000        0.0000000000000000     
  0.90625000000000000       0.21875000000000000        0.0000000000000000     
  0.93750000000000000       0.21875000000000000        0.0000000000000000     
  0.96875000000000000       0.21875000000000000        0.0000000000000000     
   1.0000000000000000       0.21875000000000000        0.0000000000000000     
  0.87500000000000000       0.25000000000000000        0.0000000000000000     
  0.90625000000000000       0.25000000000000000        0.0000000000000000     
  0.93750000000000000       0.25000000000000000        0.0000000000000000     
  0.96875000000000000       0.25000000000000000        0.0000000000000000     
   1.0000000000000000       0.25000000000000000        0.0000000000000000     
   1.0000000000000000       0.12500000000000000        0.0000000000000000     
   1.0312500000000000       0.12500000000000000        0.0000000000000000     
   1.0625000000000000       0.12500000000000000        0.0000000000000000     
   1.0937500000000000       0.12500000000000000        0.0000000000000000     
   1.1250000000000000       0.12500000000000000        0.0000000000000000     
   1.0000000000000000       0.15625000000000000        0.0000000000000000     
   1.0312500000000000       0.15625000000000000        0.0000000000000000     
   1.0625000000000000       0.15625000000000000        0.0000000000000000     
   1.0937500000000000       0.15625000000000000        0.0000000000000000     
   1.1250000000000000       0.15625000000000000        0.0000000000000000     
   1.0000000000000000       0.18750000000000000        0.0000000000000000     
   1.0312500000000000       0.18750000000000000        0.0000000000000000     
   1.0625000000000000       0.18750000000000000        0.0000000000000000     
   1.0937500000000000       0.18750000000000000        0.0000000000000000     
   1.1250000000000000       0.18750000000000000        0.0000000000000000     
   1.0000000000000000       0.21875000000000000        0.0000000000000000     
   1.0312500000000000       0.21875000000000000        0.0000000000000000     
   1.0625000000000000       0.21875000000000000        0.0000000000000000     
   1.0937500000000000       0.21875000000000000        0.0000000000000000     
   1.1250000000000000       0.21875000000000000        0.0000000000000000     
   1.0000000000000000       0.25000000000000000        0.0000000000000000     
   1.0312500000000000       0.25000000000000000        0.0000000000000000     
   1.0625000000000000       0.25000000000000000        0.0000000000000000     
   1.0937500000000000       0.25000000000000000        0.0000000000000000     
   1.1250000000000000       0.25000000000000000        0.0000000000000000     
   1.1250000000000000       0.12500000000000000        0.0000000000000000     
   1.1562500000000000       0.12500000000000000        0.0000000000000000     
   1.1875000000000000       0.12500000000000000        0.0000000000000000     
   1.2187500000000000       0.12500000000000000        0.0000000000000000     
   1.2500000000000000       0.12500000000000000        0.0000000000000000     
   1.1250000000000000       0.15625000000000000        0.0000000000000000     
   1.1562500000000000       0.15625000000000000        0.0000000000000000     
   1.1875000000000000       0.15625000000000000        0.0000000000000000     
   1.2187500000000000       0.15625000000000000        0.0000000000000000     
   1.2500000000000000       0.15625000000000000        0.0000000000000000     
   1.1250000000000000       0.18750000000000000        0.0000000000000000     
   1.1562500000000000       0.18750000000000000        0.0000000000000000     
   1.1875000000000000       0.18750000000000000        0.0000000000000000     
   1.2187500000000000       0.18750000000000000        0.0000000000000000     
   1.2500000000000000       0.18750000000000000        0.0000000000000000     
   1.1250000000000000       0.21875000000000000        0.0000000000000000     
   1.1562500000000000       0.21875000000000000        0.0000000000000000     
   1.1875000000000000       0.21875000000000000        0.0000000000000000     
   1.2187500000000000       0.21875000000000000        0.0000000000000000     
   1.2500000000000000       0.21875000000000000        0.0000000000000000     
   1.1250000000000000       0.25000000000000000        0.0000000000000000     
   1.1562500000000000       0.25000000000000000        0.0000000000000000     
   1.1875000000000000       0.25000000000000000        0.0000000000000000     
   1.2187500000000000       0.25000000000000000        0.0000000000000000     
   1.2500000000000000       0.25000000000000000        0.0000000000000000     
   1.2500000000000000       0.12500000000000000        0.0000000000000000     
   1.2812500000000000       0.12500000000000000        0.0000000000000000     
   1.3125000000000000       0.12500000000000000        0.0000000000000000     
   1.3437500000000000       0.12500000000000000        0.0000000000000000     
   1.3750000000000000       0.12500000000000000        0.0000000000000000     
   1.2500000000000000       0.15625000000000000        0.0000000000000000     
   1.2812500000000000       0.15625000000000000        0.0000000000000000     
   1.3125000000000000       0.15625000000000000        0.0000000000000000     
   1.3437500000000000       0.15625000000000000        0.0000000000000000     
   1.3750000000000000       0.15625000000000000        0.0000000000000000     
   1.2500000000000000       0.18750000000000000        0.0000000000000000     
   1.2812500000000000       0.18750000000000000        0.0000000000000000     
   1.3125000000000000       0.18750000000000000        0.0000000000000000     
   1.3437500000000000       0.18750000000000000        0.0000000000000000     
   1.3750000000000000       0.18750000000000000        0.0000000000000000     
   1.2500000000000000       0.21875000000000000        0.0000000000000000     
   1.2812500000000000       0.21875000000000000        0.0000000000000000     
   1.3125000000000000       0.21875000000000000        0.0000000000000000     
   1.3437500000000000       0.21875000000000000        0.0000000000000000     
   1.3750000000000000       0.21875000000000000        0.0000000000000000     
   1.2500000000000000       0.25000000000000000        0.0000000000000000     
   1.2812500000000000       0.25000000000000000        0.0000000000000000     
   1.3125000000000000       0.25000000000000000        0.0000000000000000     
   1.3437500000000000       0.25000000000000000        0.0000000000000000     
   1.3750000000000000       0.25000000000000000        0.0000000000000000     
   1.3750000000000000       0.12500000000000000        0.0000000000000000     
   1.4062500000000000       0.12500000000000000        0.0000000000000000     
   1.4375000000000000       0.12500000000000000        0.0000000000000000     
   1.4687500000000000       0.12500000000000000        0.0000000000000000     
   1.5000000000000000       0.12500000000000000        0.0000000000000000     
   1.3750000000000000       0.15625000000000000        0.0000000000000000     
   1.4062500000000000       0.15625000000000000        0.0000000000000000     
   1.4375000000000000       0.15625000000000000        0.0000000000000000     
   1.4687500000000000       0.15625000000000000        0.0000000000000000     
   1.5000000000000000       0.15625000000000000        0.0000000000000000     
   1.3750000000000000       0.18750000000000000        0.0000000000000000     
   1.4062500000000000       0.18750000000000000        0.0000000000000000     
   1.4375000000000000       0.18750000000000000        0.0000000000000000     
   1.4687500000000000       0.18750000000000000        0.0000000000000000     
   1.5000000000000000       0.18750000000000000        0.0000000000000000     
   1.3750000000000000       0.21875000000000000        0.0000000000000000     
   1.4062500000000000       0.21875000000000000        0.0000000000000000     
   1.4375000000000000       0.21875000000000000        0.0000000000000000     
   1.4687500000000000       0.21875000000000000        0.0000000000000000     
   1.5000000000000000       0.21875000000000000        0.0000000000000000     
   1.3750000000000000       0.25000000000000000        0.0000000000000000     
   1.4062500000000000       0.25000000000000000        0.0000000000000000     
   1.4375000000000000       0.25000000000000000        0.0000000000000000     
   1.4687500000000000       0.25000000000000000        0.0000000000000000     
   1.5000000000000000       0.25000000000000000        0.0000000000000000     
  0.50000000000000000       0.25000000000000000        0.0000000000000000     
  0.53125000000000000       0.25000000000000000        0.0000000000000000     
  0.56250000000000000       0.25000000000000000        0.0000000000000000     
  0.59375000000000000       0.25000000000000000        0.0000000000000000     
  0.62500000000000000       0.25000000000000000        0.0000000000000000     
  0.50000000000000000       0.28125000000000000        0.0000000000000000     
  0.53125000000000000       0.28125000000000000        0.0000000000000000     
  0.56250000000000000       0.28125000000000000        0.0000000000000000     
  0.59375000000000000       0.28125000000000000        0.0000000000000000     
  0.62500000000000000       0.28125000000000000        0.0000000000000000     
  0.50000000000000000       0.31250000000000000        0.0000000000000000     
  0.53125000000000000       0.31250000000000000        0.0000000000000000     
  0.56250000000000000       0.31250000000000000        0.0000000000000000     
  0.59375000000000000       0.31250000000000000        0.0000000000000000     
  0.62500000000000000       0.31250000000000000        0.0000000000000000     
  0.50000000000000000       0.34375000000000000        0.0000000000000000     
  0.53125000000000000       0.34375000000000000        0.0000000000000000     
  0.56250000000000000       0.34375000000000000        0.0000000000000000     
  0.59375000000000000       0.34375000000000000        0.0000000000000000     
  0.62500000000000000       0.34375000000000000        0.0000000000000000     
  0.50000000000000000       0.37500000000000000        0.0000000000000000     
  0.53125000000000000       0.37500000000000000        0.0000000000000000     
  0.56250000000000000       0.37500000000000000        0.0000000000000000     
  0.59375000000000000       0.37500000000000000        0.0000000000000000     
  0.62500000000000000       0.37500000000000000        0.0000000000000000     
  0.62500000000000000       0.25000000000000000        0.0000000000000000     
  0.65625000000000000       0.25000000000000000        0.0000000000000000     
  0.68750000000000000       0.25000000000000000        0.0000000000000000     
  0.71875000000000000       0.25000000000000000        0.0000000000000000     
  0.75000000000000000       0.25000000000000000        0.0000000000000000     
  0.62500000000000000       0.28125000000000000        0.0000000000000000     
  0.65625000000000000       0.28125000000000000        0.0000000000000000     
  0.68750000000000000       0.28125000000000000        0.0000000000000000     
  0.71875000000000000       0.28125000000000000        0.0000000000000000     
  0.75000000000000000       0.28125000000000000        0.0000000000000000     
  0.62500000000000000       0.31250000000000000        0.0000000000000000     
  0.65625000000000000       0.31250000000000000        0.0000000000000000     
  0.68750000000000000       0.31250000000000000        0.0000000000000000     
  0.71875000000000000       0.31250000000000000        0.0000000000000000     
  0.75000000000000000       0.31250000000000000        0.0000000000000000     
  0.62500000000000000       0.34375000000000000        0.0000000000000000     
  0.65625000000000000       0.34375000000000000        0.0000000000000000     
  0.68750000000000000       0.34375000000000000        0.0000000000000000     
  0.71875000000000000       0.34375000000000000        0.0000000000000000     
  0.75000000000000000       0.34375000000000000        0.0000000000000000     
  0.62500000000000000       0.37500000000000000        0.0000000000000000     
  0.65625000000000000       0.37500000000000000        0.0000000000000000     
  0.68750000000000000       0.37500000000000000        0.0000000000000000     
  0.71875000000000000       0.37500000000000000        0.0000000000000000     
  0.75000000000000000       0.37500000000000000        0.0000000000000000     
  0.75000000000000000       0.25000000000000000        0.0000000000000000     
  0.78125000000000000       0.25000000000000000        0.0000000000000000     
  0.81250000000000000       0.25000000000000000        0.0000000000000000     
  0.84375000000000000       0.25000000000000000        0.0000000000000000     
  0.87500000000000000       0.25000000000000000        0.0000000000000000     
  0.75000000000000000       0.28125000000000000        0.0000000000000000     
  0.78125000000000000       0.28125000000000000        0.0000000000000000     
  0.81250000000000000       0.28125000000000000        0.0000000000000000     
  0.84375000000000000       0.28125000000000000        0.0000000000000000     
  0.87500000000000000       0.28125000000000000        0.0000000000000000     
  0.75000000000000000       0.31250000000000000        0.0000000000000000     
  0.78125000000000000       0.31250000000000000        0.0000000000000000     
  0.81250000000000000       0.31250000000000000        0.0000000000000000     
  0.84375000000000000       0.31250000000000000        0.0000000000000000     
  0.87500000000000000       0.31250000000000000        0.0000000000000000     
  0.75000000000000000       0.34375000000000000        0.0000000000000000     
  0.78125000000000000       0.34375000000000000        0.0000000000000000     
  0.81250000000000000       0.34375000000000000        0.0000000000000000     
  0.84375000000000000       0.34375000000000000        0.0000000000000000     
  0.87500000000000000       0.34375000000000000        0.0000000000000000     
  0.75000000000000000       0.37500000000000000        0.0000000000000000     
  0.78125000000000000       0.37500000000000000        0.0000000000000000     
  0.81250000000000000       0.37500000000000000        0.0000000000000000     
  0.84375000000000000       0.37500000000000000        0.0000000000000000     
  0.87500000000000000       0.37500000000000000        0.0000000000000000     
  0.87500000000000000       0.25000000000000000        0.0000000000000000     
  0.90625000000000000       0.25000000000000000        0.0000000000000000     
  0.93750000000000000       0.25000000000000000        0.0000000000000000     
  0.96875000000000000       0.25000000000000000        0.0000000000000000     
   1.0000000000000000       0.25000000000000000        0.0000000000000000     
  0.87500000000000000       0.28125000000000000        0.0000000000000000     
  0.90625000000000000       0.28125000000000000        0.0000000000000000     
  0.93750000000000000       0.28125000000000000        0.0000000000000000     
  0.96875000000000000       0.28125000000000000        0.0000000000000000     
   1.0000000000000000       0.28125000000000000        0.0000000000000000     
  0.87500000000000000       0.31250000000000000        0.0000000000000000     
  0.90625000000000000       0.31250000000000000        0.0000000000000000     
  0.93750000000000000       0.31250000000000000        0.0000000000000000     
  0.96875000000000000       0.31250000000000000        0.0000000000000000     
   1.0000000000000000       0.31250000000000000        0.0000000000000000     
  0.87500000000000000       0.34375000000000000        0.0000000000000000     
  0.90625000000000000       0.34375000000000000        0.0000000000000000     
  0.93750000000000000       0.34375000000000000        0.0000000000000000     
  0.96875000000000000       0.34375000000000000        0.0000000000000000     
   1.0000000000000000       0.34375000000000000        0.0000000000000000     
  0.87500000000000000       0.37500000000000000        0.0000000000000000     
  0.90625000000000000       0.37500000000000000        0.0000000000000000     
  0.93750000000000000       0.37500000000000000        0.0000000000000000     
  0.96875000000000000       0.37500000000000000        0.0000000000000000     
   1.0000000000000000       0.37500000000000000        0.0000000000000000     
   1.0000000000000000       0.25000000000000000        0.0000000000000000     
   1.0312500000000000       0.25000000000000000        0.0000000000000000     
   1.0625000000000000       0.25000000000000000        0.0000000000000000     
   1.0937500000000000       0.25000000000000000        0.0000000000000000     
   1.1250000000000000       0.25000000000000000        0.0000000000000000     
   1.0000000000000000       0.28125000000000000        0.0000000000000000     
   1.0312500000000000       0.28125000000000000        0.0000000000000000     
   1.0625000000000000       0.28125000000000000        0.0000000000000000     
   1.0937500000000000       0.28125000000000000        0.0000000000000000     
   1.1250000000000000       0.28125000000000000        0.0000000000000000     
   1.0000000000000000       0.31250000000000000        0.0000000000000000     
   1.0312500000000000       0.31250000000000000        0.0000000000000000     
   1.0625000000000000       0.31250000000000000        0.0000000000000000     
   1.0937500000000000       0.31250000000000000        0.0000000000000000     
   1.1250000000000000       0.31250000000000000        0.0000000000000000     
   1.0000000000000000       0.34375000000000000        0.0000000000000000     
   1.0312500000000000       0.34375000000000000        0.0000000000000000     
   1.0625000000000000       0.34375000000000000        0.0000000000000000     
   1.0937500000000000       0.34375000000000000        0.0000000000000000     
   1.1250000000000000       0.34375000000000000        0.0000000000000000     
   1.0000000000000000       0.37500000000000000        0.0000000000000000     
   1.0312500000000000       0.37500000000000000        0.0000000000000000     
   1.0625000000000000       0.37500000000000000        0.0000000000000000     
   1.0937500000000000       0.37500000000000000        0.0000000000000000     
   1.1250000000000000       0.37500000000000000        0.0000000000000000     
   1.1250000000000000       0.25000000000000000        0.0000000000000000     
   1.1562500000000000       0.25000000000000000        0.0000000000000000     
   1.1875000000000000       0.25000000000000000        0.0000000000000000     
   1.2187500000000000       0.25000000000000000        0.0000000000000000     
   1.2500000000000000       0.25000000000000000        0.0000000000000000     
   1.1250000000000000       0.28125000000000000        0.0000000000000000     
   1.1562500000000000       0.28125000000000000        0.0000000000000000     
   1.1875000000000000       0.28125000000000000        0.0000000000000000     
   1.2187500000000000       0.28125000000000000        0.0000000000000000     
   1.2500000000000000       0.28125000000000000        0.0000000000000000     
   1.1250000000000000       0.31250000000000000        0.0000000000000000     
   1.1562500000000000       0.31250000000000000        0.0000000000000000     
   1.1875000000000000       0.31250000000000000        0.0000000000000000     
   1.2187500000000000       0.31250000000000000        0.0000000000000000     
   1.2500000000000000       0.31250000000000000        0.0000000000000000     
   1.1250000000000000       0.34375000000000000        0.0000000000000000     
   1.1562500000000000       0.34375000000000000        0.0000000000000000     
   1.1875000000000000       0.34375000000000000        0.0000000000000000     
   1.2187500000000000       0.34375000000000000        0.0000000000000000     
   1.2500000000000000       0.34375000000000000        0.0000000000000000     
   1.1250000000000000       0.37500000000000000        0.0000000000000000     
   1.1562500000000000       0.37500000000000000        0.0000000000000000     
   1.1875000000000000       0.37500000000000000        0.0000000000000000     
   1.2187500000000000       0.37500000000000000        0.0000000000000000     
   1.2500000000000000       0.37500000000000000        0.0000000000000000     
   1.2500000000000000       0.25000000000000000        0.0000000000000000     
   1.2812500000000000       0.25000000000000000        0.0000000000000000     
   1.3125000000000000       0.25000000000000000        0.0000000000000000     
   1.3437500000000000       0.25000000000000000        0.0000000000000000     
   1.3750000000000000       0.25000000000000000        0.0000000000000000     
   1.2500000000000000       0.28125000000000000        0.0000000000000000     
   1.2812500000000000       0.28125000000000000        0.0000000000000000     
   1.3125000000000000       0.28125000000000000        0.0000000000000000     
   1.3437500000000000       0.28125000000000000        0.0000000000000000     
   1.3750000000000000       0.28125000000000000        0.0000000000000000     
   1.2500000000000000       0.31250000000000000        0.0000000000000000     
   1.2812500000000000       0.31250000000000000        0.0000000000000000     
   1.3125000000000000       0.31250000000000000        0.0000000000000000     
   1.3437500000000000       0.31250000000000000        0.0000000000000000     
   1.3750000000000000       0.31250000000000000        0.0000000000000000     
   1.2500000000000000       0.34375000000000000        0.0000000000000000     
   1.2812500000000000       0.34375000000000000        0.0000000000000000     
   1.3125000000000000       0.34375000000000000        0.0000000000000000     
   1.3437500000000000       0.34375000000000000        0.0000000000000000     
   1.3750000000000000       0.34375000000000000        0.0000000000000000     
   1.2500000000000000       0.37500000000000000        0.0000000000000000     
   1.2812500000000000       0.37500000000000000        0.0000000000000000     
   1.3125000000000000       0.37500000000000000        0.0000000000000000     
   1.3437500000000000       0.37500000000000000        0.0000000000000000     
   1.3750000000000000       0.37500000000000000        0.0000000000000000     
   1.3750000000000000       0.25000000000000000        0.0000000000000000     
   1.4062500000000000       0.25000000000000000        0.0000000000000000     
   1.4375000000000000       0.25000000000000000        0.0000000000000000     
   1.4687500000000000       0.25000000000000000        0.0000000000000000     
   1.5000000000000000       0.25000000000000000        0.0000000000000000     
   1.3750000000000000       0.28125000000000000        0.0000000000000000     
   1.4062500000000000       0.28125000000000000        0.0000000000000000     
   1.4375000000000000       0.28125000000000000        0.0000000000000000     
   1.4687500000000000       0.28125000000000000        0.0000000000000000     
   1.5000000000000000       0.28125000000000000        0.0000000000000000     
   1.3750000000000000       0.31250000000000000        0.0000000000000000     
   1.4062500000000000       0.31250000000000000        0.0000000000000000     
   1.4375000000000000       0.31250000000000000        0.0000000000000000     
   1.4687500000000000       0.31250000000000000        0.0000000000000000     
   1.5000000000000000       0.31250000000000000        0.0000000000000000     
   1.3750000000000000       0.34375000000000000        0.0000000000000000     
   1.4062500000000000       0.34375000000000000        0.0000000000000000     
   1.4375000000000000       0.34375000000000000        0.0000000000000000     
   1.4687500000000000       0.34375000000000000        0.0000000000000000     
   1.5000000000000000       0.34375000000000000        0.0000000000000000     
   1.3750000000000000       0.37500000000000000        0.0000000000000000     
   1.4062500000000000       0.37500000000000000        0.0000000000000000     
   1.4375000000000000       0.37500000000000000        0.0000000000000000     
   1.4687500000000000       0.37500000000000000        0.0000000000000000     
   1.5000000000000000       0.37500000000000000        0.0000000000000000     
  0.50000000000000000       0.37500000000000000        0.0000000000000000     
  0.53125000000000000       0.37500000000000000        0.0000000000000000     
  0.56250000000000000       0.37500000000000000        0.0000000000000000     
  0.59375000000000000       0.37500000000000000        0.0000000000000000     
  0.62500000000000000       0.37500000000000000        0.0000000000000000     
  0.50000000000000000       0.40625000000000000        0.0000000000000000     
  0.53125000000000000       0.40625000000000000        0.0000000000000000     
  0.56250000000000000       0.40625000000000000        0.0000000000000000     
  0.59375000000000000       0.40625000000000000        0.0000000000000000     
  0.62500000000000000       0.40625000000000000        0.0000000000000000     
  0.50000000000000000       0.43750000000000000        0.0000000000000000     
  0.53125000000000000       0.43750000000000000        0.0000000000000000     
  0.56250000000000000       0.43750000000000000        0.0000000000000000     
  0.59375000000000000       0.43750000000000000        0.0000000000000000     
  0.62500000000000000       0.43750000000000000        0.0000000000000000     
  0.50000000000000000       0.46875000000000000        0.0000000000000000     
  0.53125000000000000       0.46875000000000000        0.0000000000000000     
  0.56250000000000000       0.46875000000000000        0.0000000000000000     
  0.59375000000000000       0.46875000000000000        0.0000000000000000     
  0.62500000000000000       0.46875000000000000        0.0000000000000000     
  0.50000000000000000       0.50000000000000000        0.0000000000000000     
  0.53125000000000000       0.50000000000000000        0.0000000000000000     
  0.56250000000000000       0.50000000000000000        0.0000000000000000     
  0.59375000000000000       0.50000000000000000        0.0000000000000000     
  0.62500000000000000       0.50000000000000000        0.0000000000000000     
  0.62500000000000000       0.37500000000000000        0.0000000000000000     
  0.65625000000000000       0.37500000000000000        0.0000000000000000     
  0.68750000000000000       0.37500000000000000        0.0000000000000000     
  0.71875000000000000       0.37500000000000000        0.0000000000000000     
  0.75000000000000000       0.37500000000000000        0.0000000000000000     
  0.62500000000000000       0.40625000000000000        0.0000000000000000     
  0.65625000000000000       0.40625000000000000        0.0000000000000000     
  0.68750000000000000       0.40625000000000000        0.0000000000000000     
  0.71875000000000000       0.40625000000000000        0.0000000000000000     
  0.75000000000000000       0.40625000000000000        0.0000000000000000     
  0.62500000000000000       0.43750000000000000        0.0000000000000000     
  0.65625000000000000       0.43750000000000000        0.0000000000000000     
  0.68750000000000000       0.43750000000000000        0.0000000000000000     
  0.71875000000000000       0.43750000000000000        0.0000000000000000     
  0.75000000000000000       0.43750000000000000        0.0000000000000000     
  0.62500000000000000       0.46875000000000000        0.0000000000000000     
  0.65625000000000000       0.46875000000000000        0.0000000000000000     
  0.68750000000000000       0.46875000000000000        0.0000000000000000     
  0.71875000000000000       0.46875000000000000        0.0000000000000000     
  0.75000000000000000       0.46875000000000000        0.0000000000000000     
  0.62500000000000000       0.50000000000000000        0.0000000000000000     
  0.65625000000000000       0.50000000000000000        0.0000000000000000     
  0.68750000000000000       0.50000000000000000        0.0000000000000000     
  0.71875000000000000       0.50000000000000000        0.0000000000000000     
  0.75000000000000000       0.50000000000000000        0.0000000000000000     
  0.75000000000000000       0.37500000000000000        0.0000000000000000     
  0.78125000000000000       0.37500000000000000        0.0000000000000000     
  0.81250000000000000       0.37500000000000000        0.0000000000000000     
  0.84375000000000000       0.37500000000000000        0.0000000000000000     
  0.87500000000000000       0.37500000000000000        0.0000000000000000     
  0.75000000000000000       0.40625000000000000        0.0000000000000000     
  0.78125000000000000       0.40625000000000000        0.0000000000000000     
  0.81250000000000000       0.40625000000000000        0.0000000000000000     
  0.84375000000000000       0.40625000000000000        0.0000000000000000     
  0.87500000000000000       0.40625000000000000        0.0000000000000000     
  0.75000000000000000       0.43750000000000000        0.0000000000000000     
  0.78125000000000000       0.43750000000000000        0.0000000000000000     
  0.81250000000000000       0.43750000000000000        0.0000000000000000     
  0.84375000000000000       0.43750000000000000        0.0000000000000000     
  0.87500000000000000       0.43750000000000000        0.0000000000000000     
  0.75000000000000000       0.46875000000000000        0.0000000000000000     
  0.78125000000000000       0.46875000000000000        0.0000000000000000     
  0.81250000000000000       0.46875000000000000        0.0000000000000000     
  0.84375000000000000       0.46875000000000000        0.0000000000000000     
  0.87500000000000000       0.46875000000000000        0.0000000000000000     
  0.75000000000000000       0.50000000000000000        0.0000000000000000     
  0.78125000000000000       0.50000000000000000        0.0000000000000000     
  0.81250000000000000       0.50000000000000000        0.0000000000000000     
  0.84375000000000000       0.50000000000000000        0.0000000000000000     
  0.87500000000000000       0.50000000000000000        0.0000000000000000     
  0.87500000000000000       0.37500000000000000        0.0000000000000000     
  0.90625000000000000       0.37500000000000000        0.0000000000000000     
  0.93750000000000000       0.37500000000000000        0.0000000000000000     
  0.96875000000000000       0.37500000000000000        0.0000000000000000     
   1.0000000000000000       0.37500000000000000        0.0000000000000000     
  0.87500000000000000       0.40625000000000000        0.0000000000000000     
  0.90625000000000000       0.40625000000000000        0.0000000000000000     
  0.93750000000000000       0.40625000000000000        0.0000000000000000     
  0.96875000000000000       0.40625000000000000        0.0000000000000000     
   1.0000000000000000       0.40625000000000000        0.0000000000000000     
  0.87500000000000000       0.43750000000000000        0.0000000000000000     
  0.90625000000000000       0.43750000000000000        0.0000000000000000     
  0.93750000000000000       0.43750000000000000        0.0000000000000000     
  0.96875000000000000       0.43750000000000000        0.0000000000000000     
   1.0000000000000000       0.43750000000000000        0.0000000000000000     
  0.87500000000000000       0.46875000000000000        0.0000000000000000     
  0.90625000000000000       0.46875000000000000        0.0000000000000000     
  0.93750000000000000       0.46875000000000000        0.0000000000000000     
  0.96875000000000000       0.46875000000000000        0.0000000000000000     
   1.0000000000000000       0.46875000000000000        0.0000000000000000     
  0.87500000000000000       0.50000000000000000        0.0000000000000000     
  0.90625000000000000       0.50000000000000000        0.0000000000000000     
  0.93750000000000000       0.50000000000000000        0.0000000000000000     
  0.96875000000000000       0.50000000000000000        0.0000000000000000     
   1.0000000000000000       0.50000000000000000        0.0000000000000000     
   1.0000000000000000       0.37500000000000000        0.0000000000000000     
   1.0312500000000000       0.37500000000000000        0.0000000000000000     
   1.0625000000000000       0.37500000000000000        0.0000000000000000     
   1.0937500000000000       0.37500000000000000        0.0000000000000000     
   1.1250000000000000       0.37500000000000000        0.0000000000000000     
   1.0000000000000000       0.40625000000000000        0.0000000000000000     
   1.0312500000000000       0.40625000000000000        0.0000000000000000     
   1.0625000000000000       0.40625000000000000        0.0000000000000000     
   1.0937500000000000       0.40625000000000000        0.0000000000000000     
   1.1250000000000000       0.40625000000000000        0.0000000000000000     
   1.0000000000000000       0.43750000000000000        0.0000000000000000     
   1.0312500000000000       0.43750000000000000        0.0000000000000000     
   1.0625000000000000       0.43750000000000000        0.0000000000000000     
   1.0937500000000000       0.43750000000000000        0.0000000000000000     
   1.1250000000000000       0.43750000000000000        0.0000000000000000     
   1.0000000000000000       0.46875000000000000        0.0000000000000000     
   1.0312500000000000       0.46875000000000000        0.0000000000000000     
   1.0625000000000000       0.46875000000000000        0.0000000000000000     
   1.0937500000000000       0.46875000000000000        0.0000000000000000     
   1.1250000000000000       0.46875000000000000        0.0000000000000000     
   1.0000000000000000       0.50000000000000000        0.0000000000000000     
   1.0312500000000000       0.50000000000000000        0.0000000000000000     
   1.0625000000000000       0.50000000000000000        0.0000000000000000     
   1.0937500000000000       0.50000000000000000        0.0000000000000000     
   1.1250000000000000       0.50000000000000000        0.0000000000000000     
   1.1250000000000000       0.37500000000000000        0.0000000000000000     
   1.1562500000000000       0.37500000000000000        0.0000000000000000     
   1.1875000000000000       0.37500000000000000        0.0000000000000000     
   1.2187500000000000       0.37500000000000000        0.0000000000000000     
   1.2500000000000000       0.37500000000000000        0.0000000000000000     
   1.1250000000000000       0.40625000000000000        0.0000000000000000     
   1.1562500000000000       0.40625000000000000        0.0000000000000000     
   1.1875000000000000       0.40625000000000000        0.0000000000000000     
   1.2187500000000000       0.40625000000000000        0.0000000000000000     
   1.2500000000000000       0.40625000000000000        0.0000000000000000     
   1.1250000000000000       0.43750000000000000        0.0000000000000000     
   1.1562500000000000       0.43750000000000000        0.0000000000000000     
   1.1875000000000000       0.43750000000000000        0.0000000000000000     
   1.2187500000000000       0.43750000000000000        0.0000000000000000     
   1.2500000000000000       0.43750000000000000        0.0000000000000000     
   1.1250000000000000       0.46875000000000000        0.0000000000000000     
   1.1562500000000000       0.46875000000000000        0.0000000000000000     
   1.1875000000000000       0.46875000000000000        0.0000000000000000     
   1.2187500000000000       0.46875000000000000        0.0000000000000000     
   1.2500000000000000       0.46875000000000000        0.0000000000000000     
   1.1250000000000000       0.50000000000000000        0.0000000000000000     
   1.1562500000000000       0.50000000000000000        0.0000000000000000     
   1.1875000000000000       0.50000000000000000        0.0000000000000000     
   1.2187500000000000       0.50000000000000000        0.0000000000000000     
   1.2500000000000000       0.50000000000000000        0.0000000000000000     
   1.2500000000000000       0.37500000000000000        0.0000000000000000     
   1.2812500000000000       0.37500000000000000        0.0000000000000000     
   1.3125000000000000       0.37500000000000000        0.0000000000000000     
   1.3437500000000000       0.37500000000000000        0.0000000000000000     
   1.3750000000000000       0.37500000000000000        0.0000000000000000     
   1.2500000000000000       0.40625000000000000        0.0000000000000000     
   1.2812500000000000       0.40625000000000000        0.0000000000000000     
   1.3125000000000000       0.40625000000000000        0.0000000000000000     
   1.3437500000000000       0.40625000000000000        0.0000000000000000     
   1.3750000000000000       0.40625000000000000        0.0000000000000000     
   1.2500000000000000       0.43750000000000000        0.0000000000000000     
   1.2812500000000000       0.43750000000000000        0.0000000000000000     
   1.3125000000000000       0.43750000000000000        0.0000000000000000     
   1.3437500000000000       0.43750000000000000        0.0000000000000000     
   1.3750000000000000       0.43750000000000000        0.0000000000000000     
   1.2500000000000000       0.46875000000000000        0.0000000000000000     
   1.2812500000000000       0.46875000000000000        0.0000000000000000     
   1.3125000000000000       0.46875000000000000        0.0000000000000000     
   1.3437500000000000       0.46875000000000000        0.0000000000000000     
   1.3750000000000000       0.46875000000000000        0.0000000000000000     
   1.2500000000000000       0.50000000000000000        0.0000000000000000     
   1.2812500000000000       0.50000000000000000        0.0000000000000000     
   1.3125000000000000       0.50000000000000000        0.0000000000000000     
   1.3437500000000000       0.50000000000000000        0.0000000000000000     
   1.3750000000000000       0.50000000000000000        0.0000000000000000     
   1.3750000000000000       0.37500000000000000        0.0000000000000000     
   1.4062500000000000       0.37500000000000000        0.0000000000000000     
   1.4375000000000000       0.37500000000000000        0.0000000000000000     
   1.4687500000000000       0.37500000000000000        0.0000000000000000     
   1.5000000000000000       0.37500000000000000        0.0000000000000000     
   1.3750000000000000       0.40625000000000000        0.0000000000000000     
   1.4062500000000000       0.40625000000000000        0.0000000000000000     
   1.4375000000000000       0.40625000000000000        0.0000000000000000     
   1.4687500000000000       0.40625000000000000        0.0000000000000000     
   1.5000000000000000       0.40625000000000000        0.0000000000000000     
   1.3750000000000000       0.43750000000000000        0.0000000000000000     
   1.4062500000000000       0.43750000000000000        0.0000000000000000     
   1.4375000000000000       0.43750000000000000        0.0000000000000000     
   1.4687500000000000       0.43750000000000000        0.0000000000000000     
   1.5000000000000000       0.43750000000000000        0.0000000000000000     
   1.3750000000000000       0.46875000000000000        0.0000000000000000     
   1.4062500000000000       0.46875000000000000        0.0000000000000000     
   1.4375000000000000       0.46875000000000000        0.0000000000000000     
   1.4687500000000000       0.46875000000000000        0.0000000000000000     
   1.5000000000000000       0.46875000000000000        0.0000000000000000     
   1.3750000000000000       0.50000000000000000        0.0000000000000000     
   1.4062500000000000       0.50000000000000000        0.0000000000000000     
   1.4375000000000000       0.50000000000000000        0.0000000000000000     
   1.4687500000000000       0.50000000000000000        0.0000000000000000     
   1.5000000000000000       0.50000000000000000        0.0000000000000000     
  0.50000000000000000       0.50000000000000000        0.0000000000000000     
  0.53125000000000000       0.50000000000000000        0.0000000000000000     
  0.56250000000000000       0.50000000000000000        0.0000000000000000     
  0.59375000000000000       0.50000000000000000        0.0000000000000000     
  0.62500000000000000       0.50000000000000000        0.0000000000000000     
  0.50000000000000000       0.53125000000000000        0.0000000000000000     
  0.53125000000000000       0.53125000000000000        0.0000000000000000     
  0.56250000000000000       0.53125000000000000        0.0000000000000000     
  0.59375000000000000       0.53125000000000000        0.0000000000000000     
  0.62500000000000000       0.53125000000000000        0.0000000000000000     
  0.50000000000000000       0.56250000000000000        0.0000000000000000     
  0.53125000000000000       0.56250000000000000        0.0000000000000000     
  0.56250000000000000       0.56250000000000000        0.0000000000000000     
  0.59375000000000000       0.56250000000000000        0.0000000000000000     
  0.62500000000000000       0.56250000000000000        0.0000000000000000     
  0.50000000000000000       0.59375000000000000        0.0000000000000000     
  0.53125000000000000       0.59375000000000000        0.0000000000000000     
  0.56250000000000000       0.59375000000000000        0.0000000000000000     
  0.59375000000000000       0.59375000000000000        0.0000000000000000     
  0.62500000000000000       0.59375000000000000        0.0000000000000000     
  0.50000000000000000       0.62500000000000000        0.0000000000000000     
  0.53125000000000000       0.62500000000000000        0.0000000000000000     
  0.56250000000000000       0.62500000000000000        0.0000000000000000     
  0.59375000000000000       0.62500000000000000        0.0000000000000000     
  0.62500000000000000       0.62500000000000000        0.0000000000000000     
  0.62500000000000000       0.50000000000000000        0.0000000000000000     
  0.65625000000000000       0.50000000000000000        0.0000000000000000     
  0.68750000000000000       0.50000000000000000        0.0000000000000000     
  0.71875000000000000       0.50000000000000000        0.0000000000000000     
  0.75000000000000000       0.50000000000000000        0.0000000000000000     
  0.62500000000000000       0.53125000000000000        0.0000000000000000     
  0.65625000000000000       0.53125000000000000        0.0000000000000000     
  0.68750000000000000       0.53125000000000000        0.0000000000000000     
  0.71875000000000000       0.53125000000000000        0.0000000000000000     
  0.75000000000000000       0.53125000000000000        0.0000000000000000     
  0.62500000000000000       0.56250000000000000        0.0000000000000000     
  0.65625000000000000       0.56250000000000000        0.0000000000000000     
  0.68750000000000000       0.56250000000000000        0.0000000000000000     
  0.71875000000000000       0.56250000000000000        0.0000000000000000     
  0.75000000000000000       0.56250000000000000        0.0000000000000000     
  0.62500000000000000       0.59375000000000000        0.0000000000000000     
  0.65625000000000000       0.59375000000000000        0.0000000000000000     
  0.68750000000000000       0.59375000000000000        0.0000000000000000     
  0.71875000000000000       0.59375000000000000        0.0000000000000000     
  0.75000000000000000       0.59375000000000000        0.0000000000000000     
  0.62500000000000000       0.62500000000000000        0.0000000000000000     
  0.65625000000000000       0.62500000000000000        0.0000000000000000     
  0.68750000000000000       0.62500000000000000        0.0000000000000000     
  0.71875000000000000       0.62500000000000000        0.0000000000000000     
  0.75000000000000000       0.62500000000000000        0.0000000000000000     
  0.75000000000000000       0.50000000000000000        0.0000000000000000     
  0.78125000000000000       0.50000000000000000        0.0000000000000000     
  0.81250000000000000       0.50000000000000000        0.0000000000000000     
  0.84375000000000000       0.50000000000000000        0.0000000000000000     
  0.87500000000000000       0.50000000000000000        0.0000000000000000     
  0.75000000000000000       0.53125000000000000        0.0000000000000000     
  0.78125000000000000       0.53125000000000000        0.0000000000000000     
  0.81250000000000000       0.53125000000000000        0.0000000000000000     
  0.84375000000000000       0.53125000000000000        0.0000000000000000     
  0.87500000000000000       0.53125000000000000        0.0000000000000000     
  0.75000000000000000       0.56250000000000000        0.0000000000000000     
  0.78125000000000000       0.56250000000000000        0.0000000000000000     
  0.81250000000000000       0.56250000000000000        0.0000000000000000     
  0.84375000000000000       0.56250000000000000        0.0000000000000000     
  0.87500000000000000       0.56250000000000000        0.0000000000000000     
  0.75000000000000000       0.59375000000000000        0.0000000000000000     
  0.78125000000000000       0.59375000000000000        0.0000000000000000     
  0.81250000000000000       0.59375000000000000        0.0000000000000000     
  0.84375000000000000       0.59375000000000000        0.0000000000000000     
  0.87500000000000000       0.59375000000000000        0.0000000000000000     
  0.75000000000000000       0.62500000000000000        0.0000000000000000     
  0.78125000000000000       0.62500000000000000        0.0000000000000000     
  0.81250000000000000       0.62500000000000000        0.0000000000000000     
  0.84375000000000000       0.62500000000000000        0.0000000000000000     
  0.87500000000000000       0.62500000000000000        0.0000000000000000     
  0.87500000000000000       0.50000000000000000        0.0000000000000000     
  0.90625000000000000       0.50000000000000000        0.0000000000000000     
  0.93750000000000000       0.50000000000000000        0.0000000000000000     
  0.96875000000000000       0.50000000000000000        0.0000000000000000     
   1.0000000000000000       0.50000000000000000        0.0000000000000000     
  0.87500000000000000       0.53125000000000000        0.0000000000000000     
  0.90625000000000000       0.53125000000000000        0.0000000000000000     
  0.93750000000000000       0.53125000000000000        0.0000000000000000     
  0.96875000000000000       0.53125000000000000        0.0000000000000000     
   1.0000000000000000       0.53125000000000000        0.0000000000000000     
  0.87500000000000000       0.56250000000000000        0.0000000000000000     
  0.90625000000000000       0.56250000000000000        0.0000000000000000     
  0.93750000000000000       0.56250000000000000        0.0000000000000000     
  0.96875000000000000       0.56250000000000000        0.0000000000000000     
   1.0000000000000000       0.56250000000000000        0.0000000000000000     
  0.87500000000000000       0.59375000000000000        0.0000000000000000     
  0.90625000000000000       0.59375000000000000        0.0000000000000000     
  0.93750000000000000       0.59375000000000000        0.0000000000000000     
  0.96875000000000000       0.59375000000000000        0.0000000000000000     
   1.0000000000000000       0.59375000000000000        0.0000000000000000     
  0.87500000000000000       0.62500000000000000        0.0000000000000000     
  0.90625000000000000       0.62500000000000000        0.0000000000000000     
  0.93750000000000000       0.62500000000000000        0.0000000000000000     
  0.96875000000000000       0.62500000000000000        0.0000000000000000     
   1.0000000000000000       0.62500000000000000        0.0000000000000000     
   1.0000000000000000       0.50000000000000000        0.0000000000000000     
   1.0312500000000000       0.50000000000000000        0.0000000000000000     
   1.0625000000000000       0.50000000000000000        0.0000000000000000     
   1.0937500000000000       0.50000000000000000        0.0000000000000000     
   1.1250000000000000       0.50000000000000000        0.0000000000000000     
   1.0000000000000000       0.53125000000000000        0.0000000000000000     
   1.0312500000000000       0.53125000000000000        0.0000000000000000     
   1.0625000000000000       0.53125000000000000        0.0000000000000000     
   1.0937500000000000       0.53125000000000000        0.0000000000000000     
   1.1250000000000000       0.53125000000000000        0.0000000000000000     
   1.0000000000000000       0.56250000000000000        0.0000000000000000     
   1.0312500000000000       0.56250000000000000        0.0000000000000000     
   1.0625000000000000       0.56250000000000000        0.0000000000000000     
   1.0937500000000000       0.56250000000000000        0.0000000000000000     
   1.1250000000000000       0.56250000000000000        0.0000000000000000     
   1.0000000000000000       0.59375000000000000        0.0000000000000000     
   1.0312500000000000       0.59375000000000000        0.0000000000000000     
   1.0625000000000000       0.59375000000000000        0.0000000000000000     
   1.0937500000000000       0.59375000000000000        0.0000000000000000     
   1.1250000000000000       0.59375000000000000        0.0000000000000000     
   1.0000000000000000       0.62500000000000000        0.0000000000000000     
   1.0312500000000000       0.62500000000000000        0.0000000000000000     
   1.0625000000000000       0.62500000000000000        0.0000000000000000     
   1.0937500000000000       0.62500000000000000        0.0000000000000000     
   1.1250000000000000       0.62500000000000000        0.0000000000000000     
   1.1250000000000000       0.50000000000000000        0.0000000000000000     
   1.1562500000000000       0.50000000000000000        0.0000000000000000     
   1.1875000000000000       0.50000000000000000        0.0000000000000000     
   1.2187500000000000       0.50000000000000000        0.0000000000000000     
   1.2500000000000000       0.50000000000000000        0.0000000000000000     
   1.1250000000000000       0.53125000000000000        0.0000000000000000     
   1.1562500000000000       0.53125000000000000        0.0000000000000000     
   1.1875000000000000       0.53125000000000000        0.0000000000000000     
   1.2187500000000000       0.53125000000000000        0.0000000000000000     
   1.2500000000000000       0.53125000000000000        0.0000000000000000     
   1.1250000000000000       0.56250000000000000        0.0000000000000000     
   1.1562500000000000       0.56250000000000000        0.0000000000000000     
   1.1875000000000000       0.56250000000000000        0.0000000000000000     
   1.2187500000000000       0.56250000000000000        0.0000000000000000     
   1.2500000000000000       0.56250000000000000        0.0000000000000000     
   1.1250000000000000       0.59375000000000000        0.0000000000000000     
   1.1562500000000000       0.59375000000000000        0.0000000000000000     
   1.1875000000000000       0.59375000000000000        0.0000000000000000     
   1.2187500000000000       0.59375000000000000        0.0000000000000000     
   1.2500000000000000       0.59375000000000000        0.0000000000000000     
   1.1250000000000000       0.62500000000000000        0.0000000000000000     
   1.1562500000000000       0.62500000000000000        0.0000000000000000     
   1.1875000000000000       0.62500000000000000        0.0000000000000000     
   1.2187500000000000       0.62500000000000000        0.0000000000000000     
   1.2500000000000000       0.62500000000000000        0.0000000000000000     
   1.2500000000000000       0.50000000000000000        0.0000000000000000     
   1.2812500000000000       0.50000000000000000        0.0000000000000000     
   1.3125000000000000       0.50000000000000000        0.0000000000000000     
   1.3437500000000000       0.50000000000000000        0.0000000000000000     
   1.3750000000000000       0.50000000000000000        0.0000000000000000     
   1.2500000000000000       0.53125000000000000        0.0000000000000000     
   1.2812500000000000       0.53125000000000000        0.0000000000000000     
   1.3125000000000000       0.53125000000000000        0.0000000000000000     
   1.3437500000000000       0.53125000000000000        0.0000000000000000     
   1.3750000000000000       0.53125000000000000        0.0000000000000000     
   1.2500000000000000       0.56250000000000000        0.0000000000000000     
   1.2812500000000000       0.56250000000000000        0.0000000000000000     
   1.3125000000000000       0.56250000000000000        0.0000000000000000     
   1.3437500000000000       0.56250000000000000        0.0000000000000000     
   1.3750000000000000       0.56250000000000000        0.0000000000000000     
   1.2500000000000000       0.59375000000000000        0.0000000000000000     
   1.2812500000000000       0.59375000000000000        0.0000000000000000     
   1.3125000000000000       0.59375000000000000        0.0000000000000000     
   1.3437500000000000       0.59375000000000000        0.0000000000000000     
   1.3750000000000000       0.59375000000000000        0.0000000000000000     
   1.2500000000000000       0.62500000000000000        0.0000000000000000     
   1.2812500000000000       0.62500000000000000        0.0000000000000000     
   1.3125000000000000       0.62500000000000000        0.0000000000000000     
   1.3437500000000000       0.62500000000000000        0.0000000000000000     
   1.3750000000000000       0.62500000000000000        0.0000000000000000     
   1.3750000000000000       0.50000000000000000        0.0000000000000000     
   1.4062500000000000       0.50000000000000000        0.0000000000000000     
   1.4375000000000000       0.50000000000000000        0.0000000000000000     
   1.4687500000000000       0.50000000000000000        0.0000000000000000     
   1.5000000000000000       0.50000000000000000        0.0000000000000000     
   1.3750000000000000       0.53125000000000000        0.0000000000000000     
   1.4062500000000000       0.53125000000000000        0.0000000000000000     
   1.4375000000000000       0.53125000000000000        0.0000000000000000     
   1.4687500000000000       0.53125000000000000        0.0000000000000000     
   1.5000000000000000       0.53125000000000000        0.0000000000000000     
   1.3750000000000000       0.56250000000000000        0.0000000000000000     
   1.4062500000000000       0.56250000000000000        0.0000000000000000     
   1.4375000000000000       0.56250000000000000        0.0000000000000000     
   1.4687500000000000       0.56250000000000000        0.0000000000000000     
   1.5000000000000000       0.56250000000000000        0.0000000000000000     
   1.3750000000000000       0.59375000000000000        0.0000000000000000     
   1.4062500000000000       0.59375000000000000        0.0000000000000000     
   1.4375000000000000       0.59375000000000000        0.0000000000000000     
   1.4687500000000000       0.59375000000000000        0.0000000000000000     
   1.5000000000000000       0.59375000000000000        0.0000000000000000     
   1.3750000000000000       0.62500000000000000        0.0000000000000000     
   1.4062500000000000       0.62500000000000000        0.0000000000000000     
   1.4375000000000000       0.62500000000000000        0.0000000000000000     
   1.4687500000000000       0.62500000000000000        0.0000000000000000     
   1.5000000000000000       0.62500000000000000        0.0000000000000000     
  0.50000000000000000       0.62500000000000000        0.0000000000000000     
  0.53125000000000000       0.62500000000000000        0.0000000000000000     
  0.56250000000000000       0.62500000000000000        0.0000000000000000     
  0.59375000000000000       0.62500000000000000        0.0000000000000000     
  0.62500000000000000       0.62500000000000000        0.0000000000000000     
  0.50000000000000000       0.65625000000000000        0.0000000000000000     
  0.53125000000000000       0.65625000000000000        0.0000000000000000     
  0.56250000000000000       0.65625000000000000        0.0000000000000000     
  0.59375000000000000       0.65625000000000000        0.0000000000000000     
  0.62500000000000000       0.65625000000000000        0.0000000000000000     
  0.50000000000000000       0.68750000000000000        0.0000000000000000     
  0.53125000000000000       0.68750000000000000        0.0000000000000000     
  0.56250000000000000       0.68750000000000000        0.0000000000000000     
  0.59375000000000000       0.68750000000000000        0.0000000000000000     
  0.62500000000000000       0.68750000000000000        0.0000000000000000     
  0.50000000000000000       0.71875000000000000        0.0000000000000000     
  0.53125000000000000       0.71875000000000000        0.0000000000000000     
  0.56250000000000000       0.71875000000000000        0.0000000000000000     
  0.59375000000000000       0.71875000000000000        0.0000000000000000     
  0.62500000000000000       0.71875000000000000        0.0000000000000000     
  0.50000000000000000       0.75000000000000000        0.0000000000000000     
  0.53125000000000000       0.75000000000000000        0.0000000000000000     
  0.56250000000000000       0.75000000000000000        0.0000000000000000     
  0.59375000000000000       0.75000000000000000        0.0000000000000000     
  0.62500000000000000       0.75000000000000000        0.0000000000000000     
  0.62500000000000000       0.62500000000000000        0.0000000000000000     
  0.65625000000000000       0.62500000000000000        0.0000000000000000     
  0.68750000000000000       0.62500000000000000        0.0000000000000000     
  0.71875000000000000       0.62500000000000000        0.0000000000000000     
  0.75000000000000000       0.62500000000000000        0.0000000000000000     
  0.62500000000000000       0.65625000000000000        0.0000000000000000     
  0.65625000000000000       0.65625000000000000        0.0000000000000000     
  0.68750000000000000       0.65625000000000000        0.0000000000000000     
  0.71875000000000000       0.65625000000000000        0.0000000000000000     
  0.75000000000000000       0.65625000000000000        0.0000000000000000     
  0.62500000000000000       0.68750000000000000        0.0000000000000000     
  0.65625000000000000       0.68750000000000000        0.0000000000000000     
  0.68750000000000000       0.68750000000000000        0.0000000000000000     
  0.71875000000000000       0.68750000000000000        0.0000000000000000     
  0.75000000000000000       0.68750000000000000        0.0000000000000000     
  0.62500000000000000       0.71875000000000000        0.0000000000000000     
  0.65625000000000000       0.71875000000000000        0.0000000000000000     
  0.68750000000000000       0.71875000000000000        0.0000000000000000     
  0.71875000000000000       0.71875000000000000        0.0000000000000000     
  0.75000000000000000       0.71875000000000000        0.0000000000000000     
  0.62500000000000000       0.75000000000000000        0.0000000000000000     
  0.65625000000000000       0.75000000000000000        0.0000000000000000     
  0.68750000000000000       0.75000000000000000        0.0000000000000000     
  0.71875000000000000       0.75000000000000000        0.0000000000000000     
  0.75000000000000000       0.75000000000000000        0.0000000000000000     
  0.75000000000000000       0.62500000000000000        0.0000000000000000     
  0.78125000000000000       0.62500000000000000        0.0000000000000000     
  0.81250000000000000       0.62500000000000000        0.0000000000000000     
  0.84375000000000000       0.62500000000000000        0.0000000000000000     
  0.87500000000000000       0.62500000000000000        0.0000000000000000     
  0.75000000000000000       0.65625000000000000        0.0000000000000000     
  0.78125000000000000       0.65625000000000000        0.0000000000000000     
  0.81250000000000000       0.65625000000000000        0.0000000000000000     
  0.84375000000000000       0.65625000000000000        0.0000000000000000     
  0.87500000000000000       0.65625000000000000        0.0000000000000000     
  0.75000000000000000       0.68750000000000000        0.0000000000000000     
  0.78125000000000000       0.68750000000000000        0.0000000000000000     
  0.81250000000000000       0.68750000000000000        0.0000000000000000     
  0.84375000000000000       0.68750000000000000        0.0000000000000000     
  0.87500000000000000       0.68750000000000000        0.0000000000000000     
  0.75000000000000000       0.71875000000000000        0.0000000000000000     
  0.78125000000000000       0.71875000000000000        0.0000000000000000     
  0.81250000000000000       0.71875000000000000        0.0000000000000000     
  0.84375000000000000       0.71875000000000000        0.0000000000000000     
  0.87500000000000000       0.71875000000000000        0.0000000000000000     
  0.75000000000000000       0.75000000000000000        0.0000000000000000     
  0.78125000000000000       0.75000000000000000        0.0000000000000000     
  0.81250000000000000       0.75000000000000000        0.0000000000000000     
  0.84375000000000000       0.75000000000000000        0.0000000000000000     
  0.87500000000000000       0.75000000000000000        0.0000000000000000     
  0.87500000000000000       0.62500000000000000        0.0000000000000000     
  0.90625000000000000       0.62500000000000000        0.0000000000000000     
  0.93750000000000000       0.62500000000000000        0.0000000000000000     
  0.96875000000000000       0.62500000000000000        0.0000000000000000     
   1.0000000000000000       0.62500000000000000        0.0000000000000000     
  0.87500000000000000       0.65625000000000000        0.0000000000000000     
  0.90625000000000000       0.65625000000000000        0.0000000000000000     
  0.93750000000000000       0.65625000000000000        0.0000000000000000     
  0.96875000000000000       0.65625000000000000        0.0000000000000000     
   1.0000000000000000       0.65625000000000000        0.0000000000000000     
  0.87500000000000000       0.68750000000000000        0.0000000000000000     
  0.90625000000000000       0.68750000000000000        0.0000000000000000     
  0.93750000000000000       0.68750000000000000        0.0000000000000000     
  0.96875000000000000       0.68750000000000000        0.0000000000000000     
   1.0000000000000000       0.68750000000000000        0.0000000000000000     
  0.87500000000000000       0.71875000000000000        0.0000000000000000     
  0.90625000000000000       0.71875000000000000        0.0000000000000000     
  0.93750000000000000       0.71875000000000000        0.0000000000000000     
  0.96875000000000000       0.71875000000000000        0.0000000000000000     
   1.0000000000000000       0.71875000000000000        0.0000000000000000     
  0.87500000000000000       0.75000000000000000        0.0000000000000000     
  0.90625000000000000       0.75000000000000000        0.0000000000000000     
  0.93750000000000000       0.75000000000000000        0.0000000000000000     
  0.96875000000000000       0.75000000000000000        0.0000000000000000     
   1.0000000000000000       0.75000000000000000        0.0000000000000000     
   1.0000000000000000       0.62500000000000000        0.0000000000000000     
   1.0312500000000000       0.62500000000000000        0.0000000000000000     
   1.0625000000000000       0.62500000000000000        0.0000000000000000     
   1.0937500000000000       0.62500000000000000        0.0000000000000000     
   1.1250000000000000       0.62500000000000000        0.0000000000000000     
   1.0000000000000000       0.65625000000000000        0.0000000000000000     
   1.0312500000000000       0.65625000000000000        0.0000000000000000     
   1.0625000000000000       0.65625000000000000        0.0000000000000000     
   1.0937500000000000       0.65625000000000000        0.0000000000000000     
   1.1250000000000000       0.65625000000000000        0.0000000000000000     
   1.0000000000000000       0.68750000000000000        0.0000000000000000     
   1.0312500000000000       0.68750000000000000        0.0000000000000000     
   1.0625000000000000       0.68750000000000000        0.0000000000000000     
   1.0937500000000000       0.68750000000000000        0.0000000000000000     
   1.1250000000000000       0.68750000000000000        0.0000000000000000     
   1.0000000000000000       0.71875000000000000        0.0000000000000000     
   1.0312500000000000       0.71875000000000000        0.0000000000000000     
   1.0625000000000000       0.71875000000000000        0.0000000000000000     
   1.0937500000000000       0.71875000000000000        0.0000000000000000     
   1.1250000000000000       0.71875000000000000        0.0000000000000000     
   1.0000000000000000       0.75000000000000000        0.0000000000000000     
   1.0312500000000000       0.75000000000000000        0.0000000000000000     
   1.0625000000000000       0.75000000000000000        0.0000000000000000     
   1.0937500000000000       0.75000000000000000        0.0000000000000000     
   1.1250000000000000       0.75000000000000000        0.0000000000000000     
   1.1250000000000000       0.62500000000000000        0.0000000000000000     
   1.1562500000000000       0.62500000000000000        0.0000000000000000     
   1.1875000000000000       0.62500000000000000        0.0000000000000000     
   1.2187500000000000       0.62500000000000000        0.0000000000000000     
   1.2500000000000000       0.62500000000000000        0.0000000000000000     
   1.1250000000000000       0.65625000000000000        0.0000000000000000     
   1.1562500000000000       0.65625000000000000        0.0000000000000000     
   1.1875000000000000       0.65625000000000000        0.0000000000000000     
   1.2187500000000000       0.65625000000000000        0.0000000000000000     
   1.2500000000000000       0.65625000000000000        0.0000000000000000     
   1.1250000000000000       0.68750000000000000        0.0000000000000000     
   1.1562500000000000       0.68750000000000000        0.0000000000000000     
   1.1875000000000000       0.68750000000000000        0.0000000000000000     
   1.2187500000000000       0.68750000000000000        0.0000000000000000     
   1.2500000000000000       0.68750000000000000        0.0000000000000000     
   1.1250000000000000       0.71875000000000000        0.0000000000000000     
   1.1562500000000000       0.71875000000000000        0.0000000000000000     
   1.1875000000000000       0.71875000000000000        0.0000000000000000     
   1.2187500000000000       0.71875000000000000        0.0000000000000000     
   1.2500000000000000       0.71875000000000000        0.0000000000000000     
   1.1250000000000000       0.75000000000000000        0.0000000000000000     
   1.1562500000000000       0.75000000000000000        0.0000000000000000     
   1.1875000000000000       0.75000000000000000        0.0000000000000000     
   1.2187500000000000       0.75000000000000000        0.0000000000000000     
   1.2500000000000000       0.75000000000000000        0.0000000000000000     
   1.2500000000000000       0.62500000000000000        0.0000000000000000     
   1.2812500000000000       0.62500000000000000        0.0000000000000000     
   1.3125000000000000       0.62500000000000000        0.0000000000000000     
   1.3437500000000000       0.62500000000000000        0.0000000000000000     
   1.3750000000000000       0.62500000000000000        0.0000000000000000     
   1.2500000000000000       0.65625000000000000        0.0000000000000000     
   1.2812500000000000       0.65625000000000000        0.0000000000000000     
   1.3125000000000000       0.65625000000000000        0.0000000000000000     
   1.3437500000000000       0.65625000000000000        0.0000000000000000     
   1.3750000000000000       0.65625000000000000        0.0000000000000000     
   1.2500000000000000       0.68750000000000000        0.0000000000000000     
   1.2812500000000000       0.68750000000000000        0.0000000000000000     
   1.3125000000000000       0.68750000000000000        0.0000000000000000     
   1.3437500000000000       0.68750000000000000        0.0000000000000000     
   1.3750000000000000       0.68750000000000000        0.0000000000000000     
   1.2500000000000000       0.71875000000000000        0.0000000000000000     
   1.2812500000000000       0.71875000000000000        0.0000000000000000     
   1.3125000000000000       0.71875000000000000        0.0000000000000000     
   1.3437500000000000       0.71875000000000000        0.0000000000000000     
   1.3750000000000000       0.71875000000000000        0.0000000000000000     
   1.2500000000000000       0.75000000000000000        0.0000000000000000     
   1.2812500000000000       0.75000000000000000        0.0000000000000000     
   1.3125000000000000       0.75000000000000000        0.0000000000000000     
   1.3437500000000000       0.75000000000000000        0.0000000000000000     
   1.3750000000000000       0.75000000000000000        0.0000000000000000     
   1.3750000000000000       0.62500000000000000        0.0000000000000000     
   1.4062500000000000       0.62500000000000000        0.0000000000000000     
   1.4375000000000000       0.62500000000000000        0.0000000000000000     
   1.4687500000000000       0.62500000000000000        0.0000000000000000     
   1.5000000000000000       0.62500000000000000        0.0000000000000000     
   1.3750000000000000       0.65625000000000000        0.0000000000000000     
   1.4062500000000000       0.65625000000000000        0.0000000000000000     
   1.4375000000000000       0.65625000000000000        0.0000000000000000     
   1.4687500000000000       0.65625000000000000        0.0000000000000000     
   1.5000000000000000       0.65625000000000000        0.0000000000000000     
   1.3750000000000000       0.68750000000000000        0.0000000000000000     
   1.4062500000000000       0.68750000000000000        0.0000000000000000     
   1.4375000000000000       0.68750000000000000        0.0000000000000000     
   1.4687500000000000       0.68750000000000000        0.0000000000000000     
   1.5000000000000000       0.68750000000000000        0.0000000000000000     
   1.3750000000000000       0.71875000000000000        0.0000000000000000     
   1.4062500000000000       0.71875000000000000        0.0000000000000000     
   1.4375000000000000       0.71875000000000000        0.0000000000000000     
   1.4687500000000000       0.71875000000000000        0.0000000000000000     
   1.5000000000000000       0.71875000000000000        0.0000000000000000     
   1.3750000000000000       0.75000000000000000        0.0000000000000000     
   1.4062500000000000       0.75000000000000000        0.0000000000000000     
   1.4375000000000000       0.75000000000000000        0.0000000000000000     
   1.4687500000000000       0.75000000000000000        0.0000000000000000     
   1.5000000000000000       0.75000000000000000        0.0000000000000000     
  0.50000000000000000       0.75000000000000000        0.0000000000000000     
  0.53125000000000000       0.75000000000000000        0.0000000000000000     
  0.56250000000000000       0.75000000000000000        0.0000000000000000     
  0.59375000000000000       0.75000000000000000        0.0000000000000000     
  0.62500000000000000       0.75000000000000000        0.0000000000000000     
  0.50000000000000000       0.78125000000000000        0.0000000000000000     
  0.53125000000000000       0.78125000000000000        0.0000000000000000     
  0.56250000000000000       0.78125000000000000        0.0000000000000000     
  0.59375000000000000       0.78125000000000000        0.0000000000000000     
  0.62500000000000000       0.78125000000000000        0.0000000000000000     
  0.50000000000000000       0.81250000000000000        0.0000000000000000     
  0.53125000000000000       0.81250000000000000        0.0000000000000000     
  0.56250000000000000       0.81250000000000000        0.0000000000000000     
  0.59375000000000000       0.81250000000000000        0.0000000000000000     
  0.62500000000000000       0.81250000000000000        0.0000000000000000     
  0.50000000000000000       0.84375000000000000        0.0000000000000000     
  0.53125000000000000       0.84375000000000000        0.0000000000000000     
  0.56250000000000000       0.84375000000000000        0.0000000000000000     
  0.59375000000000000       0.84375000000000000        0.0000000000000000     
  0.62500000000000000       0.84375000000000000        0.0000000000000000     
  0.50000000000000000       0.87500000000000000        0.0000000000000000     
  0.53125000000000000       0.87500000000000000        0.0000000000000000     
  0.56250000000000000       0.87500000000000000        0.0000000000000000     
  0.59375000000000000       0.87500000000000000        0.0000000000000000     
  0.62500000000000000       0.87500000000000000        0.0000000000000000     
  0.62500000000000000       0.75000000000000000        0.0000000000000000     
  0.65625000000000000       0.75000000000000000        0.0000000000000000     
  0.68750000000000000       0.75000000000000000        0.0000000000000000     
  0.71875000000000000       0.75000000000000000        0.0000000000000000     
  0.75000000000000000       0.75000000000000000        0.0000000000000000     
  0.62500000000000000       0.78125000000000000        0.0000000000000000     
  0.65625000000000000       0.78125000000000000        0.0000000000000000     
  0.68750000000000000       0.78125000000000000        0.0000000000000000     
  0.71875000000000000       0.78125000000000000        0.0000000000000000     
  0.75000000000000000       0.78125000000000000        0.0000000000000000     
  0.62500000000000000       0.81250000000000000        0.0000000000000000     
  0.65625000000000000       0.81250000000000000        0.0000000000000000     
  0.68750000000000000       0.81250000000000000        0.0000000000000000     
  0.71875000000000000       0.81250000000000000        0.0000000000000000     
  0.75000000000000000       0.81250000000000000        0.0000000000000000     
  0.62500000000000000       0.84375000000000000        0.0000000000000000     
  0.65625000000000000       0.84375000000000000        0.0000000000000000     
  0.68750000000000000       0.84375000000000000        0.0000000000000000     
  0.71875000000000000       0.84375000000000000        0.0000000000000000     
  0.75000000000000000       0.84375000000000000        0.0000000000000000     
  0.62500000000000000       0.87500000000000000        0.0000000000000000     
  0.65625000000000000       0.87500000000000000        0.0000000000000000     
  0.68750000000000000       0.87500000000000000        0.0000000000000000     
  0.71875000000000000       0.87500000000000000        0.0000000000000000     
  0.75000000000000000       0.87500000000000000        0.0000000000000000     
  0.75000000000000000       0.75000000000000000        0.0000000000000000     
  0.78125000000000000       0.75000000000000000        0.0000000000000000     
  0.81250000000000000       0.75000000000000000        0.0000000000000000     
  0.84375000000000000       0.75000000000000000        0.0000000000000000     
  0.87500000000000000       0.75000000000000000        0.0000000000000000     
  0.75000000000000000       0.78125000000000000        0.0000000000000000     
  0.78125000000000000       0.78125000000000000        0.0000000000000000     
  0.81250000000000000       0.78125000000000000        0.0000000000000000     
  0.84375000000000000       0.78125000000000000        0.0000000000000000     
  0.87500000000000000       0.78125000000000000        0.0000000000000000     
  0.75000000000000000       0.81250000000000000        0.0000000000000000     
  0.78125000000000000       0.81250000000000000        0.0000000000000000     
  0.81250000000000000       0.81250000000000000        0.0000000000000000     
  0.84375000000000000       0.81250000000000000        0.0000000000000000     
  0.87500000000000000       0.81250000000000000        0.0000000000000000     
  0.75000000000000000       0.84375000000000000        0.0000000000000000     
  0.78125000000000000       0.84375000000000000        0.0000000000000000     
  0.81250000000000000       0.84375000000000000        0.0000000000000000     
  0.84375000000000000       0.84375000000000000        0.0000000000000000     
  0.87500000000000000       0.84375000000000000        0.0000000000000000     
  0.75000000000000000       0.87500000000000000        0.0000000000000000     
  0.78125000000000000       0.87500000000000000        0.0000000000000000     
  0.81250000000000000       0.87500000000000000        0.0000000000000000     
  0.84375000000000000       0.87500000000000000        0.0000000000000000     
  0.87500000000000000       0.87500000000000000        0.0000000000000000     
  0.87500000000000000       0.75000000000000000        0.0000000000000000     
  0.90625000000000000       0.75000000000000000        0.0000000000000000     
  0.93750000000000000       0.75000000000000000        0.0000000000000000     
  0.96875000000000000       0.75000000000000000        0.0000000000000000     
   1.0000000000000000       0.75000000000000000        0.0000000000000000     
  0.87500000000000000       0.78125000000000000        0.0000000000000000     
  0.90625000000000000       0.78125000000000000        0.0000000000000000     
  0.93750000000000000       0.78125000000000000        0.0000000000000000     
  0.96875000000000000       0.78125000000000000        0.0000000000000000     
   1.0000000000000000       0.78125000000000000        0.0000000000000000     
  0.87500000000000000       0.81250000000000000        0.0000000000000000     
  0.90625000000000000       0.81250000000000000        0.0000000000000000     
  0.93750000000000000       0.81250000000000000        0.0000000000000000     
  0.96875000000000000       0.81250000000000000        0.0000000000000000     
   1.0000000000000000       0.81250000000000000        0.0000000000000000     
  0.87500000000000000       0.84375000000000000        0.0000000000000000     
  0.90625000000000000       0.84375000000000000        0.0000000000000000     
  0.93750000000000000       0.84375000000000000        0.0000000000000000     
  0.96875000000000000       0.84375000000000000        0.0000000000000000     
   1.0000000000000000       0.84375000000000000        0.0000000000000000     
  0.87500000000000000       0.87500000000000000        0.0000000000000000     
  0.90625000000000000       0.87500000000000000        0.0000000000000000     
  0.93750000000000000       0.87500000000000000        0.0000000000000000     
  0.96875000000000000       0.87500000000000000        0.0000000000000000     
   1.0000000000000000       0.87500000000000000        0.0000000000000000     
   1.0000000000000000       0.75000000000000000        0.0000000000000000     
   1.0312500000000000       0.75000000000000000        0.0000000000000000     
   1.0625000000000000       0.75000000000000000        0.0000000000000000     
   1.0937500000000000       0.75000000000000000        0.0000000000000000     
   1.1250000000000000       0.75000000000000000        0.0000000000000000     
   1.0000000000000000       0.78125000000000000        0.0000000000000000     
   1.0312500000000000       0.78125000000000000        0.0000000000000000     
   1.0625000000000000       0.78125000000000000        0.0000000000000000     
   1.0937500000000000       0.78125000000000000        0.0000000000000000     
   1.1250000000000000       0.78125000000000000        0.0000000000000000     
   1.0000000000000000       0.81250000000000000        0.0000000000000000     
   1.0312500000000000       0.81250000000000000        0.0000000000000000     
   1.0625000000000000       0.81250000000000000        0.0000000000000000     
   1.0937500000000000       0.81250000000000000        0.0000000000000000     
   1.1250000000000000       0.81250000000000000        0.0000000000000000     
   1.0000000000000000       0.84375000000000000        0.0000000000000000     
   1.0312500000000000       0.84375000000000000        0.0000000000000000     
   1.0625000000000000       0.84375000000000000        0.0000000000000000     
   1.0937500000000000       0.84375000000000000        0.0000000000000000     
   1.1250000000000000       0.84375000000000000        0.0000000000000000     
   1.0000000000000000       0.87500000000000000        0.0000000000000000     
   1.0312500000000000       0.87500000000000000        0.0000000000000000     
   1.0625000000000000       0.87500000000000000        0.0000000000000000     
   1.0937500000000000       0.87500000000000000        0.0000000000000000     
   1.1250000000000000       0.87500000000000000        0.0000000000000000     
   1.1250000000000000       0.75000000000000000        0.0000000000000000     
   1.1562500000000000       0.75000000000000000        0.0000000000000000     
   1.1875000000000000       0.75000000000000000        0.0000000000000000     
   1.2187500000000000       0.75000000000000000        0.0000000000000000     
   1.2500000000000000       0.75000000000000000        0.0000000000000000     
   1.1250000000000000       0.78125000000000000        0.0000000000000000     
   1.1562500000000000       0.78125000000000000        0.0000000000000000     
   1.1875000000000000       0.78125000000000000        0.0000000000000000     
   1.2187500000000000       0.78125000000000000        0.0000000000000000     
   1.2500000000000000       0.78125000000000000        0.0000000000000000     
   1.1250000000000000       0.81250000000000000        0.0000000000000000     
   1.1562500000000000       0.81250000000000000        0.0000000000000000     
   1.1875000000000000       0.81250000000000000        0.0000000000000000     
   1.2187500000000000       0.81250000000000000        0.0000000000000000     
   1.2500000000000000       0.81250000000000000        0.0000000000000000     
   1.1250000000000000       0.84375000000000000        0.0000000000000000     
   1.1562500000000000       0.84375000000000000        0.0000000000000000     
   1.1875000000000000       0.84375000000000000        0.0000000000000000     
   1.2187500000000000       0.84375000000000000        0.0000000000000000     
   1.2500000000000000       0.84375000000000000        0.0000000000000000     
   1.1250000000000000       0.87500000000000000        0.0000000000000000     
   1.1562500000000000       0.87500000000000000        0.0000000000000000     
   1.1875000000000000       0.87500000000000000        0.0000000000000000     
   1.2187500000000000       0.87500000000000000        0.0000000000000000     
   1.2500000000000000       0.87500000000000000        0.0000000000000000     
   1.2500000000000000       0.75000000000000000        0.0000000000000000     
   1.2812500000000000       0.75000000000000000        0.0000000000000000     
   1.3125000000000000       0.75000000000000000        0.0000000000000000     
   1.3437500000000000       0.75000000000000000        0.0000000000000000     
   1.3750000000000000       0.75000000000000000        0.0000000000000000     
   1.2500000000000000       0.78125000000000000        0.0000000000000000     
   1.2812500000000000       0.78125000000000000        0.0000000000000000     
   1.3125000000000000       0.78125000000000000        0.0000000000000000     
   1.3437500000000000       0.78125000000000000        0.0000000000000000     
   1.3750000000000000       0.78125000000000000        0.0000000000000000     
   1.2500000000000000       0.81250000000000000        0.0000000000000000     
   1.2812500000000000       0.81250000000000000        0.0000000000000000     
   1.3125000000000000       0.81250000000000000        0.0000000000000000     
   1.3437500000000000       0.81250000000000000        0.0000000000000000     
   1.3750000000000000       0.81250000000000000        0.0000000000000000     
   1.2500000000000000       0.84375000000000000        0.0000000000000000     
   1.2812500000000000       0.84375000000000000        0.0000000000000000     
   1.3125000000000000       0.84375000000000000        0.0000000000000000     
   1.3437500000000000       0.84375000000000000        0.0000000000000000     
   1.3750000000000000       0.84375000000000000        0.0000000000000000     
   1.2500000000000000       0.87500000000000000        0.0000000000000000     
   1.2812500000000000       0.87500000000000000        0.0000000000000000     
   1.3125000000000000       0.87500000000000000        0.0000000000000000     
   1.3437500000000000       0.87500000000000000        0.0000000000000000     
   1.3750000000000000       0.87500000000000000        0.0000000000000000     
   1.3750000000000000       0.75000000000000000        0.0000000000000000     
   1.4062500000000000       0.75000000000000000        0.0000000000000000     
   1.4375000000000000       0.75000000000000000        0.0000000000000000     
   1.4687500000000000       0.75000000000000000        0.0000000000000000     
   1.5000000000000000       0.75000000000000000        0.0000000000000000     
   1.3750000000000000       0.78125000000000000        0.0000000000000000     
   1.4062500000000000       0.78125000000000000        0.0000000000000000     
   1.4375000000000000       0.78125000000000000        0.0000000000000000     
   1.4687500000000000       0.78125000000000000        0.0000000000000000     
   1.5000000000000000       0.78125000000000000        0.0000000000000000     
   1.3750000000000000       0.81250000000000000        0.0000000000000000     
   1.4062500000000000       0.81250000000000000        0.0000000000000000     
   1.4375000000000000       0.81250000000000000        0.0000000000000000     
   1.4687500000000000       0.81250000000000000        0.0000000000000000     
   1.5000000000000000       0.81250000000000000        0.0000000000000000     
   1.3750000000000000       0.84375000000000000        0.0000000000000000     
   1.4062500000000000       0.84375000000000000        0.0000000000000000     
   1.4375000000000000       0.84375000000000000        0.0000000000000000     
   1.4687500000000000       0.84375000000000000        0.0000000000000000     
   1.5000000000000000       0.84375000000000000        0.0000000000000000     
   1.3750000000000000       0.87500000000000000        0.0000000000000000     
   1.4062500000000000       0.87500000000000000        0.0000000000000000     
   1.4375000000000000       0.87500000000000000        0.0000000000000000     
   1.4687500000000000       0.87500000000000000        0.0000000000000000     
   1.5000000000000000       0.87500000000000000        0.0000000000000000     
  0.50000000000000000       0.87500000000000000        0.0000000000000000     
  0.53125000000000000       0.87500000000000000        0.0000000000000000     
  0.56250000000000000       0.87500000000000000        0.0000000000000000     
  0.59375000000000000       0.87500000000000000        0.0000000000000000     
  0.62500000000000000       0.87500000000000000        0.0000000000000000     
  0.50000000000000000       0.90625000000000000        0.0000000000000000     
  0.53125000000000000       0.90625000000000000        0.0000000000000000     
  0.56250000000000000       0.90625000000000000        0.0000000000000000     
  0.59375000000000000       0.90625000000000000        0.0000000000000000     
  0.62500000000000000       0.90625000000000000        0.0000000000000000     
  0.50000000000000000       0.93750000000000000        0.0000000000000000     
  0.53125000000000000       0.93750000000000000        0.0000000000000000     
  0.56250000000000000       0.93750000000000000        0.0000000000000000     
  0.59375000000000000       0.93750000000000000        0.0000000000000000     
  0.62500000000000000       0.93750000000000000        0.0000000000000000     
  0.50000000000000000       0.96875000000000000        0.0000000000000000     
  0.53125000000000000       0.96875000000000000        0.0000000000000000     
  0.56250000000000000       0.96875000000000000        0.0000000000000000     
  0.59375000000000000       0.96875000000000000        0.0000000000000000     
  0.62500000000000000       0.96875000000000000        0.0000000000000000     
  0.50000000000000000        1.0000000000000000        0.0000000000000000     
  0.53125000000000000        1.0000000000000000        0.0000000000000000     
  0.56250000000000000        1.0000000000000000        0.0000000000000000     
  0.59375000000000000        1.0000000000000000        0.0000000000000000     
  0.62500000000000000        1.0000000000000000        0.0000000000000000     
  0.62500000000000000       0.87500000000000000        0.0000000000000000     
  0.65625000000000000       0.87500000000000000        0.0000000000000000     
  0.68750000000000000       0.87500000000000000        0.0000000000000000     
  0.71875000000000000       0.87500000000000000        0.0000000000000000     
  0.75000000000000000       0.87500000000000000        0.0000000000000000     
  0.62500000000000000       0.90625000000000000        0.0000000000000000     
  0.65625000000000000       0.90625000000000000        0.0000000000000000     
  0.68750000000000000       0.90625000000000000        0.0000000000000000     
  0.71875000000000000       0.90625000000000000        0.0000000000000000     
  0.75000000000000000       0.90625000000000000        0.0000000000000000     
  0.62500000000000000       0.93750000000000000        0.0000000000000000     
  0.65625000000000000       0.93750000000000000        0.0000000000000000     
  0.68750000000000000       0.93750000000000000        0.0000000000000000     
  0.71875000000000000       0.93750000000000000        0.0000000000000000     
  0.75000000000000000       0.93750000000000000        0.0000000000000000     
  0.62500000000000000       0.96875000000000000        0.0000000000000000     
  0.65625000000000000       0.96875000000000000        0.0000000000000000     
  0.68750000000000000       0.96875000000000000        0.0000000000000000     
  0.71875000000000000       0.96875000000000000        0.0000000000000000     
  0.75000000000000000       0.96875000000000000        0.0000000000000000     
  0.62500000000000000        1.0000000000000000        0.0000000000000000     
  0.65625000000000000        1.0000000000000000        0.0000000000000000     
  0.68750000000000000        1.0000000000000000        0.0000000000000000     
  0.71875000000000000        1.0000000000000000        0.0000000000000000     
  0.75000000000000000        1.0000000000000000        0.0000000000000000     
  0.75000000000000000       0.87500000000000000        0.0000000000000000     
  0.78125000000000000       0.87500000000000000        0.0000000000000000     
  0.81250000000000000       0.87500000000000000        0.0000000000000000     
  0.84375000000000000       0.87500000000000000        0.0000000000000000     
  0.87500000000000000       0.87500000000000000        0.0000000000000000     
  0.75000000000000000       0.90625000000000000        0.0000000000000000     
  0.78125000000000000       0.90625000000000000        0.0000000000000000     
  0.81250000000000000       0.90625000000000000        0.0000000000000000     
  0.84375000000000000       0.90625000000000000        0.0000000000000000     
  0.87500000000000000       0.90625000000000000        0.0000000000000000     
  0.75000000000000000       0.93750000000000000        0.0000000000000000     
  0.78125000000000000       0.93750000000000000        0.0000000000000000     
  0.81250000000000000       0.93750000000000000        0.0000000000000000     
  0.84375000000000000       0.93750000000000000        0.0000000000000000     
  0.87500000000000000       0.93750000000000000        0.0000000000000000     
  0.75000000000000000       0.96875000000000000        0.0000000000000000     
  0.78125000000000000       0.96875000000000000        0.0000000000000000     
  0.81250000000000000       0.96875000000000000        0.0000000000000000     
  0.84375000000000000       0.96875000000000000        0.0000000000000000     
  0.87500000000000000       0.96875000000000000        0.0000000000000000     
  0.75000000000000000        1.0000000000000000        0.0000000000000000     
  0.78125000000000000        1.0000000000000000        0.0000000000000000     
  0.81250000000000000        1.0000000000000000        0.0000000000000000     
  0.84375000000000000        1.0000000000000000        0.0000000000000000     
  0.87500000000000000        1.0000000000000000        0.0000000000000000     
  0.87500000000000000       0.87500000000000000        0.0000000000000000     
  0.90625000000000000       0.87500000000000000        0.0000000000000000     
  0.93750000000000000       0.87500000000000000        0.0000000000000000     
  0.96875000000000000       0.87500000000000000        0.0000000000000000     
   1.0000000000000000       0.87500000000000000        0.0000000000000000     
  0.87500000000000000       0.90625000000000000        0.0000000000000000     
  0.90625000000000000       0.90625000000000000        0.0000000000000000     
  0.93750000000000000       0.90625000000000000        0.0000000000000000     
  0.96875000000000000       0.90625000000000000        0.0000000000000000     
   1.0000000000000000       0.90625000000000000        0.0000000000000000     
  0.87500000000000000       0.93750000000000000        0.0000000000000000     
  0.90625000000000000       0.93750000000000000        0.0000000000000000     
  0.93750000000000000       0.93750000000000000        0.0000000000000000     
  0.96875000000000000       0.93750000000000000        0.0000000000000000     
   1.0000000000000000       0.93750000000000000        0.0000000000000000     
  0.87500000000000000       0.96875000000000000        0.0000000000000000     
  0.90625000000000000       0.96875000000000000        0.0000000000000000     
  0.93750000000000000       0.96875000000000000        0.0000000000000000     
  0.96875000000000000       0.96875000000000000        0.0000000000000000     
   1.0000000000000000       0.96875000000000000        0.0000000000000000     
  0.87500000000000000        1.0000000000000000        0.0000000000000000     
  0.90625000000000000        1.0000000000000000        0.0000000000000000     
  0.93750000000000000        1.0000000000000000        0.0000000000000000     
  0.96875000000000000        1.0000000000000000        0.0000000000000000     
   1.0000000000000000        1.0000000000000000        0.0000000000000000     
   1.0000000000000000       0.87500000000000000        0.0000000000000000     
   1.0312500000000000       0.87500000000000000        0.0000000000000000     
   1.0625000000000000       0.87500000000000000        0.0000000000000000     
   1.0937500000000000       0.87500000000000000        0.0000000000000000     
   1.1250000000000000       0.87500000000000000        0.0000000000000000     
   1.0000000000000000       0.90625000000000000        0.0000000000000000     
   1.0312500000000000       0.90625000000000000        0.0000000000000000     
   1.0625000000000000       0.90625000000000000        0.0000000000000000     
   1.0937500000000000       0.90625000000000000        0.0000000000000000     
   1.1250000000000000       0.90625000000000000        0.0000000000000000     
   1.0000000000000000       0.93750000000000000        0.0000000000000000     
   1.0312500000000000       0.93750000000000000        0.0000000000000000     
   1.0625000000000000       0.93750000000000000        0.0000000000000000     
   1.0937500000000000       0.93750000000000000        0.0000000000000000     
   1.1250000000000000       0.93750000000000000        0.0000000000000000     
   1.0000000000000000       0.96875000000000000        0.0000000000000000     
   1.0312500000000000       0.96875000000000000        0.0000000000000000     
   1.0625000000000000       0.96875000000000000        0.0000000000000000     
   1.0937500000000000       0.96875000000000000        0.0000000000000000     
   1.1250000000000000       0.96875000000000000        0.0000000000000000     
   1.0000000000000000        1.0000000000000000        0.0000000000000000     
   1.0312500000000000        1.0000000000000000        0.0000000000000000     
   1.0625000000000000        1.0000000000000000        0.0000000000000000     
   1.0937500000000000        1.0000000000000000        0.0000000000000000     
   1.1250000000000000        1.0000000000000000        0.0000000000000000     
   1.1250000000000000       0.87500000000000000        0.0000000000000000     
   1.1562500000000000       0.87500000000000000        0.0000000000000000     
   1.1875000000000000       0.87500000000000000        0.0000000000000000     
   1.2187500000000000       0.87500000000000000        0.0000000000000000     
   1.2500000000000000       0.87500000000000000        0.0000000000000000     
   1.1250000000000000       0.90625000000000000        0.0000000000000000     
   1.1562500000000000       0.90625000000000000        0.0000000000000000     
   1.1875000000000000       0.90625000000000000        0.0000000000000000     
   1.2187500000000000       0.90625000000000000        0.0000000000000000     
   1.2500000000000000       0.90625000000000000        0.0000000000000000     
   1.1250000000000000       0.93750000000000000        0.0000000000000000     
   1.1562500000000000       0.93750000000000000        0.0000000000000000     
   1.1875000000000000       0.93750000000000000        0.0000000000000000     
   1.2187500000000000       0.93750000000000000        0.0000000000000000     
   1.2500000000000000       0.93750000000000000        0.0000000000000000     
   1.1250000000000000       0.96875000000000000        0.0000000000000000     
   1.1562500000000000       0.96875000000000000        0.0000000000000000     
   1.1875000000000000       0.96875000000000000        0.0000000000000000     
   1.2187500000000000       0.96875000000000000        0.0000000000000000     
   1.2500000000000000       0.96875000000000000        0.0000000000000000     
   1.1250000000000000        1.0000000000000000        0.0000000000000000     
   1.1562500000000000        1.0000000000000000        0.0000000000000000     
   1.1875000000000000        1.0000000000000000        0.0000000000000000     
   1.2187500000000000        1.0000000000000000        0.0000000000000000     
   1.2500000000000000        1.0000000000000000        0.0000000000000000     
   1.2500000000000000       0.87500000000000000        0.0000000000000000     
   1.2812500000000000       0.87500000000000000        0.0000000000000000     
   1.3125000000000000       0.87500000000000000        0.0000000000000000     
   1.3437500000000000       0.87500000000000000        0.0000000000000000     
   1.3750000000000000       0.87500000000000000        0.0000000000000000     
   1.2500000000000000       0.90625000000000000        0.0000000000000000     
   1.2812500000000000       0.90625000000000000        0.0000000000000000     
   1.3125000000000000       0.90625000000000000        0.0000000000000000     
   1.3437500000000000       0.90625000000000000        0.0000000000000000     
   1.3750000000000000       0.90625000000000000        0.0000000000000000     
   1.2500000000000000       0.93750000000000000        0.0000000000000000     
   1.2812500000000000       0.93750000000000000        0.0000000000000000     
   1.3125000000000000       0.93750000000000000        0.0000000000000000     
   1.3437500000000000       0.93750000000000000        0.0000000000000000     
   1.3750000000000000       0.93750000000000000        0.0000000000000000     
   1.2500000000000000       0.96875000000000000        0.0000000000000000     
   1.2812500000000000       0.96875000000000000        0.0000000000000000     
   1.3125000000000000       0.96875000000000000        0.0000000000000000     
   1.3437500000000000       0.96875000000000000        0.0000000000000000     
   1.3750000000000000       0.96875000000000000        0.0000000000000000     
   1.2500000000000000        1.0000000000000000        0.0000000000000000     
   1.2812500000000000        1.0000000000000000        0.0000000000000000     
   1.3125000000000000        1.0000000000000000        0.0000000000000000     
   1.3437500000000000        1.0000000000000000        0.0000000000000000     
   1.3750000000000000        1.0000000000000000        0.0000000000000000     
   1.3750000000000000       0.87500000000000000        0.0000000000000000     
   1.4062500000000000       0.87500000000000000        0.0000000000000000     
   1.4375000000000000       0.87500000000000000        0.0000000000000000     
   1.4687500000000000       0.87500000000000000        0.0000000000000000     
   1.5000000000000000       0.87500000000000000        0.0000000000000000     
   1.3750000000000000       0.90625000000000000        0.0000000000000000     
   1.4062500000000000       0.90625000000000000        0.0000000000000000     
   1.4375000000000000       0.90625000000000000        0.0000000000000000     
   1.4687500000000000       0.90625000000000000        0.0000000000000000     
   1.5000000000000000       0.90625000000000000        0.0000000000000000     
   1.3750000000000000       0.93750000000000000        0.0000000000000000     
   1.4062500000000000       0.93750000000000000        0.0000000000000000     
   1.4375000000000000       0.93750000000000000        0.0000000000000000     
   1.4687500000000000       0.93750000000000000        0.0000000000000000     
   1.5000000000000000       0.93750000000000000        0.0000000000000000     
   1.3750000000000000       0.96875000000000000        0.0000000000000000     
   1.4062500000000000       0.96875000000000000        0.0000000000000000     
   1.4375000000000000       0.96875000000000000        0.0000000000000000     
   1.4687500000000000       0.96875000000000000        0.0000000000000000     
   1.5000000000000000       0.96875000000000000        0.0000000000000000     
   1.3750000000000000        1.0000000000000000        0.0000000000000000     
   1.4062500000000000        1.0000000000000000        0.0000000000000000     
   1.4375000000000000        1.0000000000000000        0.0000000000000000     
   1.4687500000000000        1.0000000000000000        0.0000000000000000     
   1.5000000000000000        1.0000000000000000        0.0000000000000000     
 </DataArray>
 </Points>
 <Cells>
 <DataArray  type="Int32"  Name="connectivity"  format="ascii">
           0           1           6           5
           1           2           7           6
           2           3           8           7
           3           4           9           8
           5           6          11          10
           6           7          12          11
           7           8          13          12
           8           9          14          13
          10          11          16          15
          11          12          17          16
          12          13          18          17
          13          14          19          18
          15          16          21          20
          16          17          22          21
          17          18          23          22
          18          19          24          23
          25          26          31          30
          26          27          32          31
          27          28          33          32
          28          29          34          33
          30          31          36          35
          31          32          37          36
          32          33          38          37
          33          34          39          38
          35          36          41          40
          36          37          42          41
          37          38          43          42
          38          39          44          43
          40          41          46          45
          41          42          47          46
          42          43          48          47
          43          44          49          48
          50          51          56          55
          51          52          57          56
          52          53          58          57
          53          54          59          58
          55          56          61          60
          56          57          62          61
          57          58          63          62
          58          59          64          63
          60          61          66          65
          61          62          67          66
          62          63          68          67
          63          64          69          68
          65          66          71          70
          66          67          72          71
          67          68          73          72
          68          69          74          73
          75          76          81          80
          76          77          82          81
          77          78          83          82
          78          79          84          83
          80          81          86          85
          81          82          87          86
          82          83          88          87
          83          84          89          88
          85          86          91          90
          86          87          92          91
          87          88          93          92
          88          89          94          93
          90          91          96          95
          91          92          97          96
          92          93          98          97
          93          94          99          98
         100         101         106         105
         101         102         107         106
         102         103         108         107
         103         104         109         108
         105         106         111         110
         106         107         112         111
         107         108         113         112
         108         109         114         113
         110         111         116         115
         111         112         117         116
         112         113         118         117
         113         114         119         118
         115         116         121         120
         116         117         122         121
         117         118         123         122
         118         119         124         123
         125         126         131         130
         126         127         132         131
         127         128         133         132
         128         129         134         133
         130         131         136         135
         131         132         137         136
         132         133         138         137
         133         134         139         138
         135         136         141         140
         136         137         142         141
         137         138         143         142
         138         139         144         143
         140         141         146         145
         141         142         147         146
         142         143         148         147
         143         144         149         148
         150         151         156         155
         151         152         157         156
         152         153         158         157
         153         154         159         158
         155         156         161         160
         156         157         162         161
         157         158         163         162
         158         159         164         163
         160         161         166         165
         161         162         167         166
         162         163         168         167
         163         164         169         168
         165         166         171         170
         166         167         172         171
         167         168         173         172
         168         169         174         173
         175         176         181         180
         176         177         182         181
         177         178         183         182
         178         179         184         183
         180         181         186         185
         181         182         187         186
         182         183         188         187
         183         184         189         188
         185         186         191         190
         186         187         192         191
         187         188         193         192
         188         189         194         193
         190         191         196         195
         191         192         197         196
         192         193         198         197
         193         194         199         198
         200         201         206         205
         201         202         207         206
         202         203         208         207
         203         204         209         208
         205         206         211         210
         206         207         212         211
         207         208         213         212
         208         209         214         213
         210         211         216         215
         211         212         217         216
         212         213         218         217
         213         214         219         218
         215         216         221         220
         216         217         222         221
         217         218         223         222
         218         219         224         223
         225         226         231         230
         226         227         232         231
         227         228         233         232
         228         229         234         233
         230         231         236         235
         231         232         237         236
         232         233         238         237
         233         234         239         238
         235         236         241         240
         236         237         242         241
         237         238         243         242
         238         239         244         243
         240         241         246         245
         241         242         247         246
         242         243         248         247
         243         244         249         248
         250         251         256         255
         251         252         257         256
         252         253         258         257
         253         254         259         258
         255         256         261         260
         256         257         262         261
         257         258         263         262
         258         259         264         263
         260         261         266         265
         261         262         267         266
         262         263         268         267
         263         264         269         268
         265         266         271         270
         266         267         272         271
         267         268         273         272
         268         269         274         273
         275         276         281         280
         276         277         282         281
         277         278         283         282
         278         279         284         283
         280         281         286         285
         281         282         287         286
         282         283         288         287
         283         284         289         288
         285         286         291         290
         286         287         292         291
         287         288         293         292
         288         289         294         293
         290         291         296         295
         291         292         297         296
         292         293         298         297
         293         294         299         298
         300         301         306         305
         301         302         307         306
         302         303         308         307
         303         304         309         308
         305         306         311         310
         306         307         312         311
         307         308         313         312
         308         309         314         313
         310         311         316         315
         311         312         317         316
         312         313         318         317
         313         314         319         318
         315         316         321         320
         316         317         322         321
         317         318         323         322
         318         319         324         323
         325         326         331         330
         326         327         332         331
         327         328         333         332
         328         329         334         333
         330         331         336         335
         331         332         337         336
         332         333         338         337
         333         334         339         338
         335         336         341         340
         336         337         342         341
         337         338         343         342
         338         339         344         343
         340         341         346         345
         341         342         347         346
         342         343         348         347
         343         344         349         348
         350         351         356         355
         351         352         357         356
         352         353         358         357
         353         354         359         358
         355         356         361         360
         356         357         362         361
         357         358         363         362
         358         359         364         363
         360         361         366         365
         361         362         367         366
         362         363         368         367
         363         364         369         368
         365         366         371         370
         366         367         372         371
         367         368         373         372
         368         369         374         373
         375         376         381         380
         376         377         382         381
         377         378         383         382
         378         379         384         383
         380         381         386         385
         381         382         387         386
         382         383         388         387
         383         384         389         388
         385         386         391         390
         386         387         392         391
         387         388         393         392
         388         389         394         393
         390         391         396         395
         391         392         397         396
         392         393         398         397
         393         394         399         398
         400         401         406         405
         401         402         407         406
         402         403         408         407
         403         404         409         408
         405         406         411         410
         406         407         412         411
         407         408         413         412
         408         409         414         413
         410         411         416         415
         411         412         417         416
         412         413         418         417
         413         414         419         418
         415         416         421         420
         416         417         422         421
         417         418         423         422
         418         419         424         423
         425         426         431         430
         426         427         432         431
         427         428         433         432
         428         429         434         433
         430         431         436         435
         431         432         437         436
         432         433         438         437
         433         434         439         438
         435         436         441         440
         436         437         442         441
         437         438         443         442
         438         439         444         443
         440         441         446         445
         441         442         447         446
         442         443         448         447
         443         444         449         448
         450         451         456         455
         451         452         457         456
         452         453         458         457
         453         454         459         458
         455         456         461         460
         456         457         462         461
         457         458         463         462
         458         459         464         463
         460         461         466         465
         461         462         467         466
         462         463         468         467
         463         464         469         468
         465         466         471         470
         466         467         472         471
         467         468         473         472
         468         469         474         473
         475         476         481         480
         476         477         482         481
         477         478         483         482
         478         479         484         483
         480         481         486         485
         481         482         487         486
         482         483         488         487
         483         484         489         488
         485         486         491         490
         486         487         492         491
         487         488         493         492
         488         489         494         493
         490         491         496         495
         491         492         497         496
         492         493         498         497
         493         494         499         498
         500         501         506         505
         501         502         507         506
         502         503         508         507
         503         504         509         508
         505         506         511         510
         506         507         512         511
         507         508         513         512
         508         509         514         513
         510         511         516         515
         511         512         517         516
         512         513         518         517
         513         514         519         518
         515         516         521         520
         516         517         522         521
         517         518         523         522
         518         519         524         523
         525         526         531         530
         526         527         532         531
         527         528         533         532
         528         529         534         533
         530         531         536         535
         531         532         537         536
         532         533         538         537
         533         534         539         538
         535         536         541         540
         536         537         542         541
         537         538         543         542
         538         539         544         543
         540         541         546         545
         541         542         547         546
         542         543         548         547
         543         544         549         548
         550         551         556         555
         551         552         557         556
         552         553         558         557
         553         554         559         558
         555         556         561         560
         556         557         562         561
         557         558         563         562
         558         559         564         563
         560         561         566         565
         561         562         567         566
         562         563         568         567
         563         564         569         568
         565         566         571         570
         566         567         572         571
         567         568         573         572
         568         569         574         573
         575         576         581         580
         576         577         582         581
         577         578         583         582
         578         579         584         583
         580         581         586         585
         581         582         587         586
         582         583         588         587
         583         584         589         588
         585         586         591         590
         586         587         592         591
         587         588         593         592
         588         589         594         593
         590         591         596         595
         591         592         597         596
         592         593         598         597
         593         594         599         598
         600         601         606         605
         601         602         607         606
         602         603         608         607
         603         604         609         608
         605         606         611         610
         606         607         612         611
         607         608         613         612
         608         609         614         613
         610         611         616         615
         611         612         617         616
         612         613         618         617
         613         614         619         618
         615         616         621         620
         616         617         622         621
         617         618         623         622
         618         619         624         623
         625         626         631         630
         626         627         632         631
         627         628         633         632
         628         629         634         633
         630         631         636         635
         631         632         637         636
         632         633         638         637
         633         634         639         638
         635         636         641         640
         636         637         642         641
         637         638         643         642
         638         639         644         643
         640         641         646         645
         641         642         647         646
         642         643         648         647
         643         644         649         648
         650         651         656         655
         651         652         657         656
         652         653         658         657
         653         654         659         658
         655         656         661         660
         656         657         662         661
         657         658         663         662
         658         659         664         663
         660         661         666         665
         661         662         667         666
         662         663         668         667
         663         664         669         668
         665         666         671         670
         666         667         672         671
         667         668         673         672
         668         669         674         673
         675         676         681         680
         676         677         682         681
         677         678         683         682
         678         679         684         683
         680         681         686         685
         681         682         687         686
         682         683         688         687
         683         684         689         688
         685         686         691         690
         686         687         692         691
         687         688         693         692
         688         689         694         693
         690         691         696         695
         691         692         697         696
         692         693         698         697
         693         694         699         698
         700         701         706         705
         701         702         707         706
         702         703         708         707
         703         704         709         708
         705         706         711         710
         706         707         712         711
         707         708         713         712
         708         709         714         713
         710         711         716         715
         711         712         717         716
         712         713         718         717
         713         714         719         718
         715         716         721         720
         716         717         722         721
         717         718         723         722
         718         719         724         723
         725         726         731         730
         726         727         732         731
         727         728         733         732
         728         729         734         733
         730         731         736         735
         731         732         737         736
         732         733         738         737
         733         734         739         738
         735         736         741         740
         736         737         742         741
         737         738         743         742
         738         739         744         743
         740         741         746         745
         741         742         747         746
         742         743         748         747
         743         744         749         748
         750         751         756         755
         751         752         757         756
         752         753         758         757
         753         754         759         758
         755         756         761         760
         756         757         762         761
         757         758         763         762
         758         759         764         763
         760         761         766         765
         761         762         767         766
         762         763         768         767
         763         764         769         768
         765         766         771         770
         766         767         772         771
         767         768         773         772
         768         769         774         773
         775         776         781         780
         776         777         782         781
         777         778         783         782
         778         779         784         783
         780         781         786         785
         781         782         787         786
         782         783         788         787
         783         784         789         788
         785         786         791         790
         786         787         792         791
         787         788         793         792
         788         789         794         793
         790         791         796         795
         791         792         797         796
         792         793         798         797
         793         794         799         798
         800         801         806         805
         801         802         807         806
         802         803         808         807
         803         804         809         808
         805         806         811         810
         806         807         812         811
         807         808         813         812
         808         809         814         813
         810         811         816         815
         811         812         817         816
         812         813         818         817
         813         814         819         818
         815         816         821         820
         816         817         822         821
         817         818         823         822
         818         819         824         823
         825         826         831         830
         826         827         832         831
         827         828         833         832
         828         829         834         833
         830         831         836         835
         831         832         837         836
         832         833         838         837
         833         834         839         838
         835         836         841         840
         836         837         842         841
         837         838         843         842
         838         839         844         843
         840         841         846         845
         841         842         847         846
         842         843         848         847
         843         844         849         848
         850         851         856         855
         851         852         857         856
         852         853         858         857
         853         854         859         858
         855         856         861         860
         856         857         862         861
         857         858         863         862
         858         859         864         863
         860         861         866         865
         861         862         867         866
         862         863         868         867
         863         864         869         868
         865         866         871         870
         866         867         872         871
         867         868         873         872
         868         869         874         873
         875         876         881         880
         876         877         882         881
         877         878         883         882
         878         879         884         883
         880         881         886         885
         881         882         887         886
         882         883         888         887
         883         884         889         888
         885         886         891         890
         886         887         892         891
         887         888         893         892
         888         889         894         893
         890         891         896         895
         891         892         897         896
         892         893         898         897
         893         894         899         898
         900         901         906         905
         901         902         907         906
         902         903         908         907
         903         904         909         908
         905         906         911         910
         906         907         912         911
         907         908         913         912
         908         909         914         913
         910         911         916         915
         911         912         917         916
         912         913         918         917
         913         914         919         918
         915         916         921         920
         916         917         922         921
         917         918         923         922
         918         919         924         923
         925         926         931         930
         926         927         932         931
         927         928         933         932
         928         929         934         933
         930         931         936         935
         931         932         937         936
         932         933         938         937
         933         934         939         938
         935         936         941         940
         936         937         942         941
         937         938         943         942
         938         939         944         943
         940         941         946         945
         941         942         947         946
         942         943         948         947
         943         944         949         948
         950         951         956         955
         951         952         957         956
         952         953         958         957
         953         954         959         958
         955         956         961         960
         956         957         962         961
         957         958         963         962
         958         959         964         963
         960         961         966         965
         961         962         967         966
         962         963         968         967
         963         964         969         968
         965         966         971         970
         966         967         972         971
         967         968         973         972
         968         969         974         973
         975         976         981         980
         976         977         982         981
         977         978         983         982
         978         979         984         983
         980         981         986         985
         981         982         987         986
         982         983         988         987
         983         984         989         988
         985         986         991         990
         986         987         992         991
         987         988         993         992
         988         989         994         993
         990         991         996         995
         991         992         997         996
         992         993         998         997
         993         994         999         998
        1000        1001        1006        1005
        1001        1002        1007        1006
        1002        1003        1008        1007
        1003        1004        1009        1008
        1005        1006        1011        1010
        1006        1007        1012        1011
        1007        1008        1013        1012
        1008        1009        1014        1013
        1010        1011        1016        1015
        1011        1012        1017        1016
        1012        1013        1018        1017
        1013        1014        1019        1018
        1015        1016        1021        1020
        1016        1017        1022        1021
        1017        1018        1023        1022
        1018        1019        1024        1023
        1025        1026        1031        1030
        1026        1027        1032        1031
        1027        1028        1033        1032
        1028        1029        1034        1033
        1030        1031        1036        1035
        1031        1032        1037        1036
        1032        1033        1038        1037
        1033        1034        1039        1038
        1035        1036        1041        1040
        1036        1037        1042        1041
        1037        1038        1043        1042
        1038        1039        1044        1043
        1040        1041        1046        1045
        1041        1042        1047        1046
        1042        1043        1048        1047
        1043        1044        1049        1048
        1050        1051        1056        1055
        1051        1052        1057        1056
        1052        1053        1058        1057
        1053        1054        1059        1058
        1055        1056        1061        1060
        1056        1057        1062        1061
        1057        1058        1063        1062
        1058        1059        1064        1063
        1060        1061        1066        1065
        1061        1062        1067        1066
        1062        1063        1068        1067
        1063        1064        1069        1068
        1065        1066        1071        1070
        1066        1067        1072        1071
        1067        1068        1073        1072
        1068        1069        1074        1073
        1075        1076        1081        1080
        1076        1077        1082        1081
        1077        1078        1083        1082
        1078        1079        1084        1083
        1080        1081        1086        1085
        1081        1082        1087        1086
        1082        1083        1088        1087
        1083        1084        1089        1088
        1085        1086        1091        1090
        1086        1087        1092        1091
        1087        1088        1093        1092
        1088        1089        1094        1093
        1090        1091        1096        1095
        1091        1092        1097        1096
        1092        1093        1098        1097
        1093        1094        1099        1098
        1100        1101        1106        1105
        1101        1102        1107        1106
        1102        1103        1108        1107
        1103        1104        1109        1108
        1105        1106        1111        1110
        1106        1107        1112        1111
        1107        1108        1113        1112
        1108        1109        1114        1113
        1110        1111        1116        1115
        1111        1112        1117        1116
        1112        1113        1118        1117
        1113        1114        1119        1118
        1115        1116        1121        1120
        1116        1117        1122        1121
        1117        1118        1123        1122
        1118        1119        1124        1123
        1125        1126        1131        1130
        1126        1127        1132        1131
        1127        1128        1133        1132
        1128        1129        1134        1133
        1130        1131        1136        1135
        1131        1132        1137        1136
        1132        1133        1138        1137
        1133        1134        1139        1138
        1135        1136        1141        1140
        1136        1137        1142        1141
        1137        1138        1143        1142
        1138        1139        1144        1143
        1140        1141        1146        1145
        1141        1142        1147        1146
        1142        1143        1148        1147
        1143        1144        1149        1148
        1150        1151        1156        1155
        1151        1152        1157        1156
        1152        1153        1158        1157
        1153        1154        1159        1158
        1155        1156        1161        1160
        1156        1157        1162        1161
        1157        1158        1163        1162
        1158        1159        1164        1163
        1160        1161        1166        1165
        1161        1162        1167        1166
        1162        1163        1168        1167
        1163        1164        1169        1168
        1165        1166        1171        1170
        1166        1167        1172        1171
        1167        1168        1173        1172
        1168        1169        1174        1173
        1175        1176        1181        1180
        1176        1177        1182        1181
        1177        1178        1183        1182
        1178        1179        1184        1183
        1180        1181        1186        1185
        1181        1182        1187        1186
        1182        1183        1188        1187
        1183        1184        1189        1188
        1185        1186        1191        1190
        1186        1187        1192        1191
        1187        1188        1193        1192
        1188        1189        1194        1193
        1190        1191        1196        1195
        1191        1192        1197        1196
        1192        1193        1198        1197
        1193        1194        1199        1198
        1200        1201        1206        1205
        1201        1202        1207        1206
        1202        1203        1208        1207
        1203        1204        1209        1208
        1205        1206        1211        1210
        1206        1207        1212        1211
        1207        1208        1213        1212
        1208        1209        1214        1213
        1210        1211        1216        1215
        1211        1212        1217        1216
        1212        1213        1218        1217
        1213        1214        1219        1218
        1215        1216        1221        1220
        1216        1217        1222        1221
        1217        1218        1223        1222
        1218        1219        1224        1223
        1225        1226        1231        1230
        1226        1227        1232        1231
        1227        1228        1233        1232
        1228        1229        1234        1233
        1230        1231        1236        1235
        1231        1232        1237        1236
        1232        1233        1238        1237
        1233        1234        1239        1238
        1235        1236        1241        1240
        1236        1237        1242        1241
        1237        1238        1243        1242
        1238        1239        1244        1243
        1240        1241        1246        1245
        1241        1242        1247        1246
        1242        1243        1248        1247
        1243        1244        1249        1248
        1250        1251        1256        1255
        1251        1252        1257        1256
        1252        1253        1258        1257
        1253        1254        1259        1258
        1255        1256        1261        1260
        1256        1257        1262        1261
        1257        1258        1263        1262
        1258        1259        1264        1263
        1260        1261        1266        1265
        1261        1262        1267        1266
        1262        1263        1268        1267
        1263        1264        1269        1268
        1265        1266        1271        1270
        1266        1267        1272        1271
        1267        1268        1273        1272
        1268        1269        1274        1273
        1275        1276        1281        1280
        1276        1277        1282        1281
        1277        1278        1283        1282
        1278        1279        1284        1283
        1280        1281        1286        1285
        1281        1282        1287        1286
        1282        1283        1288        1287
        1283        1284        1289        1288
        1285        1286        1291        1290
        1286        1287        1292        1291
        1287        1288        1293        1292
        1288        1289        1294        1293
        1290        1291        1296        1295
        1291        1292        1297        1296
        1292        1293        1298        1297
        1293        1294        1299        1298
        1300        1301        1306        1305
        1301        1302        1307        1306
        1302        1303        1308        1307
        1303        1304        1309        1308
        1305        1306        1311        1310
        1306        1307        1312        1311
        1307        1308        1313        1312
        1308        1309        1314        1313
        1310        1311        1316        1315
        1311        1312        1317        1316
        1312        1313        1318        1317
        1313        1314        1319        1318
        1315        1316        1321        1320
        1316        1317        1322        1321
        1317        1318        1323        1322
        1318        1319        1324        1323
        1325        1326        1331        1330
        1326        1327        1332        1331
        1327        1328        1333        1332
        1328        1329        1334        1333
        1330        1331        1336        1335
        1331        1332        1337        1336
        1332        1333        1338        1337
        1333        1334        1339        1338
        1335        1336        1341        1340
        1336        1337        1342        1341
        1337        1338        1343        1342
        1338        1339        1344        1343
        1340        1341        1346        1345
        1341        1342        1347        1346
        1342        1343        1348        1347
        1343        1344        1349        1348
        1350        1351        1356        1355
        1351        1352        1357        1356
        1352        1353        1358        1357
        1353        1354        1359        1358
        1355        1356        1361        1360
        1356        1357        1362        1361
        1357        1358        1363        1362
        1358        1359        1364        1363
        1360        1361        1366        1365
        1361        1362        1367        1366
        1362        1363        1368        1367
        1363        1364        1369        1368
        1365        1366        1371        1370
        1366        1367        1372        1371
        1367        1368        1373        1372
        1368        1369        1374        1373
        1375        1376        1381        1380
        1376        1377        1382        1381
        1377        1378        1383        1382
        1378        1379        1384        1383
        1380        1381        1386        1385
        1381        1382        1387        1386
        1382        1383        1388        1387
        1383        1384        1389        1388
        1385        1386        1391        1390
        1386        1387        1392        1391
        1387        1388        1393        1392
        1388        1389        1394        1393
        1390        1391        1396        1395
        1391        1392        1397        1396
        1392        1393        1398        1397
        1393        1394        1399        1398
        1400        1401        1406        1405
        1401        1402        1407        1406
        1402        1403        1408        1407
        1403        1404        1409        1408
        1405        1406        1411        1410
        1406        1407        1412        1411
        1407        1408        1413        1412
        1408        1409        1414        1413
        1410        1411        1416        1415
        1411        1412        1417        1416
        1412        1413        1418        1417
        1413        1414        1419        1418
        1415        1416        1421        1420
        1416        1417        1422        1421
        1417        1418        1423        1422
        1418        1419        1424        1423
        1425        1426        1431        1430
        1426        1427        1432        1431
        1427        1428        1433        1432
        1428        1429        1434        1433
        1430        1431        1436        1435
        1431        1432        1437        1436
        1432        1433        1438        1437
        1433        1434        1439        1438
        1435        1436        1441        1440
        1436        1437        1442        1441
        1437        1438        1443        1442
        1438        1439        1444        1443
        1440        1441        1446        1445
        1441        1442        1447        1446
        1442        1443        1448        1447
        1443        1444        1449        1448
        1450        1451        1456        1455
        1451        1452        1457        1456
        1452        1453        1458        1457
        1453        1454        1459        1458
        1455        1456        1461        1460
        1456        1457        1462        1461
        1457        1458        1463        1462
        1458        1459        1464        1463
        1460        1461        1466        1465
        1461        1462        1467        1466
        1462        1463        1468        1467
        1463        1464        1469        1468
        1465        1466        1471        1470
        1466        1467        1472        1471
        1467        1468        1473        1472
        1468        1469        1474        1473
        1475        1476        1481        1480
        1476        1477        1482        1481
        1477        1478        1483        1482
        1478        1479        1484        1483
        1480        1481        1486        1485
        1481        1482        1487        1486
        1482        1483        1488        1487
        1483        1484        1489        1488
        1485        1486        1491        1490
        1486        1487        1492        1491
        1487        1488        1493        1492
        1488        1489        1494        1493
        1490        1491        1496        1495
        1491        1492        1497        1496
        1492        1493        1498        1497
        1493        1494        1499        1498
        1500        1501        1506        1505
        1501        1502        1507        1506
        1502        1503        1508        1507
        1503        1504        1509        1508
        1505        1506        1511        1510
        1506        1507        1512        1511
        1507        1508        1513        1512
        1508        1509        1514        1513
        1510        1511        1516        1515
        1511        1512        1517        1516
        1512        1513        1518        1517
        1513        1514        1519        1518
        1515        1516        1521        1520
        1516        1517        1522        1521
        1517        1518        1523        1522
        1518        1519        1524        1523
        1525        1526        1531        1530
        1526        1527        1532        1531
        1527        1528        1533        1532
        1528        1529        1534        1533
        1530        1531        1536        1535
        1531        1532        1537        1536
        1532        1533        1538        1537
        1533        1534        1539        1538
        1535        1536        1541        1540
        1536        1537        1542        1541
        1537        1538        1543        1542
        1538        1539        1544        1543
        1540        1541        1546        1545
        1541        1542        1547        1546
        1542        1543        1548        1547
        1543        1544        1549        1548
        1550        1551        1556        1555
        1551        1552        1557        1556
        1552        1553        1558        1557
        1553        1554        1559        1558
        1555        1556        1561        1560
        1556        1557        1562        1561
        1557        1558        1563        1562
        1558        1559        1564        1563
        1560        1561        1566        1565
        1561        1562        1567        1566
        1562        1563        1568        1567
        1563        1564        1569        1568
        1565        1566        1571        1570
        1566        1567        1572        1571
        1567        1568        1573        1572
        1568        1569        1574        1573
        1575        1576        1581        1580
        1576        1577        1582        1581
        1577        1578        1583        1582
        1578        1579        1584        1583
        1580        1581        1586        1585
        1581        1582        1587        1586
        1582        1583        1588        1587
        1583        1584        1589        1588
        1585        1586        1591        1590
        1586        1587        1592        1591
        1587        1588        1593        1592
        1588        1589        1594        1593
        1590        1591        1596        1595
        1591        1592        1597        1596
        1592        1593        1598        1597
        1593        1594        1599        1598
 </DataArray>
 <DataArray  type="Int32"  Name="offsets"  format="ascii"> 
           4
           8
          12
          16
          20
          24
          28
          32
          36
          40
          44
          48
          52
          56
          60
          64
          68
          72
          76
          80
          84
          88
          92
          96
         100
         104
         108
         112
         116
         120
         124
         128
         132
         136
         140
         144
         148
         152
         156
         160
         164
         168
         172
         176
         180
         184
         188
         192
         196
         200
         204
         208
         212
         216
         220
         224
         228
         232
         236
         240
         244
         248
         252
         256
         260
         264
         268
         272
         276
         280
         284
         288
         292
         296
         300
         304
         308
         312
         316
         320
         324
         328
         332
         336
         340
         344
         348
         352
         356
         360
         364
         368
         372
         376
         380
         384
         388
         392
         396
         400
         404
         408
         412
         416
         420
         424
         428
         432
         436
         440
         444
         448
         452
         456
         460
         464
         468
         472
         476
         480
         484
         488
         492
         496
         500
         504
         508
         512
         516
         520
         524
         528
         532
         536
         540
         544
         548
         552
         556
         560
         564
         568
         572
         576
         580
         584
         588
         592
         596
         600
         604
         608
         612
         616
         620
         624
         628
         632
         636
         640
         644
         648
         652
         656
         660
         664
         668
         672
         676
         680
         684
         688
         692
         696
         700
         704
         708
         712
         716
         720
         724
         728
         732
         736
         740
         744
         748
         752
         756
         760
         764
         768
         772
         776
         780
         784
         788
         792
         796
         800
         804
         808
         812
         816
         820
         824
         828
         832
         836
         840
         844
         848
         852
         856
         860
         864
         868
         872
         876
         880
         884
         888
         892
         896
         900
         904
         908
         912
         916
         920
         924
         928
         932
         936
         940
         944
         948
         952
         956
         960
         964
         968
         972
         976
         980
         984
         988
         992
         996
        1000
        1004
        1008
        1012
        1016
        1020
        1024
        1028
        1032
        1036
        1040
        1044
        1048
        1052
        1056
        1060
        1064
        1068
        1072
        1076
        1080
        1084
        1088
        1092
        1096
        1100
        1104
        1108
        1112
        1116
        1120
        1124
        1128
        1132
        1136
        1140
        1144
        1148
        1152
        1156
        1160
        1164
        1168
        1172
        1176
        1180
        1184
        1188
        1192
        1196
        1200
        1204
        1208
        1212
        1216
        1220
        1224
        1228
        1232
        1236
        1240
        1244
        1248
        1252
        1256
        1260
        1264
        1268
        1272
        1276
        1280
        1284
        1288
        1292
        1296
        1300
        1304
        1308
        1312
        1316
        1320
        1324
        1328
        1332
        1336
        1340
        1344
        1348
        1352
        1356
        1360
        1364
        1368
        1372
        1376
        1380
        1384
        1388
        1392
        1396
        1400
        1404
        1408
        1412
        1416
        1420
        1424
        1428
        1432
        1436
        1440
        1444
        1448
        1452
        1456
        1460
        1464
        1468
        1472
        1476
        1480
        1484
        1488
        1492
        1496
        1500
        1504
        1508
        1512
        1516
        1520
        1524
        1528
        1532
        1536
        1540
        1544
        1548
        1552
        1556
        1560
        1564
        1568
        1572
        1576
        1580
        1584
        1588
        1592
        1596
        1600
        1604
        1608
        1612
        1616
        1620
        1624
        1628
        1632
        1636
        1640
        1644
        1648
        1652
        1656
        1660
        1664
        1668
        1672
        1676
        1680
        1684
        1688
        1692
        1696
        1700
        1704
        1708
        1712
        1716
        1720
        1724
        1728
        1732
        1736
        1740
        1744
        1748
        1752
        1756
        1760
        1764
        1768
        1772
        1776
        1780
        1784
        1788
        1792
        1796
        1800
        1804
        1808
        1812
        1816
        1820
        1824
        1828
        1832
        1836
        1840
        1844
        1848
        1852
        1856
        1860
        1864
        1868
        1872
        1876
        1880
        1884
        1888
        1892
        1896
        1900
        1904
        1908
        1912
        1916
        1920
        1924
        1928
        1932
        1936
        1940
        1944
        1948
        1952
        1956
        1960
        1964
        1968
        1972
        1976
        1980
        1984
        1988
        1992
        1996
        2000
        2004
        2008
        2012
        2016
        2020
        2024
        2028
        2032
        2036
        2040
        2044
        2048
        2052
        2056
        2060
        2064
        2068
        2072
        2076
        2080
        2084
        2088
        2092
        2096
        2100
        2104
        2108
        2112
        2116
        2120
        2124
        2128
        2132
        2136
        2140
        2144
        2148
        2152
        2156
        2160
        2164
        2168
        2172
        2176
        2180
        2184
        2188
        2192
        2196
        2200
        2204
        2208
        2212
        2216
        2220
        2224
        2228
        2232
        2236
        2240
        2244
        2248
        2252
        2256
        2260
        2264
        2268
        2272
        2276
        2280
        2284
        2288
        2292
        2296
        2300
        2304
        2308
        2312
        2316
        2320
        2324
        2328
        2332
        2336
        2340
        2344
        2348
        2352
        2356
        2360
        2364
        2368
        2372
        2376
        2380
        2384
        2388
        2392
        2396
        2400
        2404
        2408
        2412
        2416
        2420
        2424
        2428
        2432
        2436
        2440
        2444
        2448
        2452
        2456
        2460
        2464
        2468
        2472
        2476
        2480
        2484
        2488
        2492
        2496
        2500
        2504
        2508
        2512
        2516
        2520
        2524
        2528
        2532
        2536
        2540
        2544
        2548
        2552
        2556
        2560
        2564
        2568
        2572
        2576
        2580
        2584
        2588
        2592
        2596
        2600
        2604
        2608
        2612
        2616
        2620
        2624
        2628
        2632
        2636
        2640
        2644
        2648
        2652
        2656
        2660
        2664
        2668
        2672
        2676
        2680
        2684
        2688
        2692
        2696
        2700
        2704
        2708
        2712
        2716
        2720
        2724
        2728
        2732
        2736
        2740
        2744
        2748
        2752
        2756
        2760
        2764
        2768
        2772
        2776
        2780
        2784
        2788
        2792
        2796
        2800
        2804
        2808
        2812
        2816
        2820
        2824
        2828
        2832
        2836
        2840
        2844
        2848
        2852
        2856
        2860
        2864
        2868
        2872
        2876
        2880
        2884
        2888
        2892
        2896
        2900
        2904
        2908
        2912
        2916
        2920
        2924
        2928
        2932
        2936
        2940
        2944
        2948
        2952
        2956
        2960
        2964
        2968
        2972
        2976
        2980
        2984
        2988
        2992
        2996
        3000
        3004
        3008
        3012
        3016
        3020
        3024
        3028
        3032
        3036
        3040
        3044
        3048
        3052
        3056
        3060
        3064
        3068
        3072
        3076
        3080
        3084
        3088
        3092
        3096
        3100
        3104
        3108
        3112
        3116
        3120
        3124
        3128
        3132
        3136
        3140
        3144
        3148
        3152
        3156
        3160
        3164
        3168
        3172
        3176
        3180
        3184
        3188
        3192
        3196
        3200
        3204
        3208
        3212
        3216
        3220
        3224
        3228
        3232
        3236
        3240
        3244
        3248
        3252
        3256
        3260
        3264
        3268
        3272
        3276
        3280
        3284
        3288
        3292
        3296
        3300
        3304
        3308
        3312
        3316
        3320
        3324
        3328
        3332
        3336
        3340
        3344
        3348
        3352
        3356
        3360
        3364
        3368
        3372
        3376
        3380
        3384
        3388
        3392
        3396
        3400
        3404
        3408
        3412
        3416
        3420
        3424
        3428
        3432
        3436
        3440
        3444
        3448
        3452
        3456
        3460
        3464
        3468
        3472
        3476
        3480
        3484
        3488
        3492
        3496
        3500
        3504
        3508
        3512
        3516
        3520
        3524
        3528
        3532
        3536
        3540
        3544
        3548
        3552
        3556
        3560
        3564
        3568
        3572
        3576
        3580
        3584
        3588
        3592
        3596
        3600
        3604
        3608
        3612
        3616
        3620
        3624
        3628
        3632
        3636
        3640
        3644
        3648
        3652
        3656
        3660
        3664
        3668
        3672
        3676
        3680
        3684
        3688
        3692
        3696
        3700
        3704
        3708
        3712
        3716
        3720
        3724
        3728
        3732
        3736
        3740
        3744
        3748
        3752
        3756
        3760
        3764
        3768
        3772
        3776
        3780
        3784
        3788
        3792
        3796
        3800
        3804
        3808
        3812
        3816
        3820
        3824
        3828
        3832
        3836
        3840
        3844
        3848
        3852
        3856
        3860
        3864
        3868
        3872
        3876
        3880
        3884
        3888
        3892
        3896
        3900
        3904
        3908
        3912
        3916
        3920
        3924
        3928
        3932
        3936
        3940
        3944
        3948
        3952
        3956
        3960
        3964
        3968
        3972
        3976
        3980
        3984
        3988
        3992
        3996
        4000
        4004
        4008
        4012
        4016
        4020
        4024
        4028
        4032
        4036
        4040
        4044
        4048
        4052
        4056
        4060
        4064
        4068
        4072
        4076
        4080
        4084
        4088
        4092
        4096
 </DataArray>
 <DataArray  type="UInt8"  Name="types"  format="ascii">
 9
 9
 9
 9
 9
 9
 9
 9
 9
 9
 9
 9
 9
 9
 9
 9
 9
 9
 9
 9
 9
 9
 9
 9
 9
 9
 9
 9
 9
 9
 9
 9
 9
 9
 9
 9
 9
 9
 9
 9
 9
 9
 9
 9
 9
 9
 9
 9
 9
 9
 9
 9
 9
 9
 9
 9
 9
 9
 9
 9
 9
 9
 9
 9
 9
 9
 9
 9
 9
 9
 9
 9
 9
 9
 9
 9
 9
 9
 9
 9
 9
 9
 9
 9
 9
 9
 9
 9
 9
 9
 9
 9
 9
 9
 9
 9
 9
 9
 9
 9
 9
 9
 9
 9
 9
 9
 9
 9
 9
 9
 9
 9
 9
 9
 9
 9
 9
 9
 9
 9
 9
 9
 9
 9
 9
 9
 9
 9
 9
 9
 9
 9
 9
 9
 9
 9
 9
 9
 9
 9
 9
 9
 9
 9
 9
 9
 9
 9
 9
 9
 9
 9
 9
 9
 9
 9
 9
 9
 9
 9
 9
 9
 9
 9
 9
 9
 9
 9
 9
 9
 9
 9
 9
 9
 9
 9
 9
 9
 9
 9
 9
 9
 9
 9
 9
 9
 9
 9
 9
 9
 9
 9
 9
 9
 9
 9
 9
 9
 9
 9
 9
 9
 9
 9
 9
 9
 9
 9
 9
 9
 9
 9
 9
 9
 9
 9
 9
 9
 9
 9
 9
 9
 9
 9
 9
 9
 9
 9
 9
 9
 9
 9
 9
 9
 9
 9
 9
 9
 9
 9
 9
 9
 9
 9
 9
 9
 9
 9
 9
 9
 9
 9
 9
 9
 9
 9
 9
 9
 9
 9
 9
 9
 9
 9
 9
 9
 9
 9
 9
 9
 9
 9
 9
 9
 9
 9
 9
 9
 9
 9
 9
 9
 9
 9
 9
 9
 9
 9
 9
 9
 9
 9
 9
 9
 9
 9
 9
 9
 9
 9
 9
 9
 9
 9
 9
 9
 9
 9
 9
 9
 9
 9
 9
 9
 9
 9
 9
 9
 9
 9
 9
 9
 9
 9
 9
 9
 9
 9
 9
 9
 9
 9
 9
 9
 9
 9
 9
 9
 9
 9
 9
 9
 9
 9
 9
 9
 9
 9
 9
 9
 9
 9
 9
 9
 9
 9
 9
 9
 9
 9
 9
 9
 9
 9
 9
 9
 9
 9
 9
 9
 9
 9
 9
 9
 9
 9
 9
 9
 9
 9
 9
 9
 9
 9
 9
 9
 9
 9
 9
 9
 9
 9
 9
 9
 9
 9
 9
 9
 9
 9
 9
 9
 9
 9
 9
 9
 9
 9
 9
 9
 9
 9
 9
 9
 9
 9
 9
 9
 9
 9
 9
 9
 9
 9
 9
 9
 9
 9
 9
 9
 9
 9
 9
 9
 9
 9
 9
 9
 9
 9
 9
 9
 9
 9
 9
 9
 9
 9
 9
 9
 9
 9
 9
 9
 9
 9
 9
 9
 9
 9
 9
 9
 9
 9
 9
 9
 9
 9
 9
 9
 9
 9
 9
 9
 9
 9
 9
 9
 9
 9
 9
 9
 9
 9
 9
 9
 9
 9
 9
 9
 9
 9
 9
 9
 9
 9
 9
 9
 9
 9
 9
 9
 9
 9
 9
 9
 9
 9
 9
 9
 9
 9
 9
 9
 9
 9
 9
 9
 9
 9
 9
 9
 9
 9
 9
 9
 9
 9
 9
 9
 9
 9
 9
 9
 9
 9
 9
 9
 9
 9
 9
 9
 9
 9
 9
 9
 9
 9
 9
 9
 9
 9
 9
 9
 9
 9
 9
 9
 9
 9
 9
 9
 9
 9
 9
 9
 9
 9
 9
 9
 9
 9
 9
 9
 9
 9
 9
 9
 9
 9
 9
 9
 9
 9
 9
 9
 9
 9
 9
 9
 9
 9
 9
 9
 9
 9
 9
 9
 9
 9
 9
 9
 9
 9
 9
 9
 9
 9
 9
 9
 9
 9
 9
 9
 9
 9
 9
 9
 9
 9
 9
 9
 9
 9
 9
 9
 9
 9
 9
 9
 9
 9
 9
 9
 9
 9
 9
 9
 9
 9
 9
 9
 9
 9
 9
 9
 9
 9
 9
 9
 9
 9
 9
 9
 9
 9
 9
 9
 9
 9
 9
 9
 9
 9
 9
 9
 9
 9
 9
 9
 9
 9
 9
 9
 9
 9
 9
 9
 9
 9
 9
 9
 9
 9
 9
 9
 9
 9
 9
 9
 9
 9
 9
 9
 9
 9
 9
 9
 9
 9
 9
 9
 9
 9
 9
 9
 9
 9
 9
 9
 9
 9
 9
 9
 9
 9
 9
 9
 9
 9
 9
 9
 9
 9
 9
 9
 9
 9
 9
 9
 9
 9
 9
 9
 9
 9
 9
 9
 9
 9
 9
 9
 9
 9
 9
 9
 9
 9
 9
 9
 9
 9
 9
 9
 9
 9
 9
 9
 9
 9
 9
 9
 9
 9
 9
 9
 9
 9
 9
 9
 9
 9
 9
 9
 9
 9
 9
 9
 9
 9
 9
 9
 9
 9
 9
 9
 9
 9
 9
 9
 9
 9
 9
 9
 9
 9
 9
 9
 9
 9
 9
 9
 9
 9
 9
 9
 9
 9
 9
 9
 9
 9
 9
 9
 9
 9
 9
 9
 9
 9
 9
 9
 9
 9
 9
 9
 9
 9
 9
 9
 9
 9
 9
 9
 9
 9
 9
 9
 9
 9
 9
 9
 9
 9
 9
 9
 9
 9
 9
 9
 9
 9
 9
 9
 9
 9
 9
 9
 9
 9
 9
 9
 9
 9
 9
 9
 9
 9
 9
 9
 9
 9
 9
 9
 9
 9
 9
 9
 9
 9
 9
 9
 9
 9
 9
 9
 9
 9
 9
 9
 9
 9
 9
 9
 9
 9
 9
 9
 9
 9
 9
 9
 9
 9
 9
 9
 9
 9
 9
 9
 9
 9
 9
 9
 9
 9
 9
 9
 9
 9
 9
 9
 9
 9
 9
 9
 9
 9
 9
 9
 9
 9
 9
 9
 9
 9
 9
 9
 9
 9
 9
 9
 9
 9
 9
 9
 9
 9
 9
 9
 9
 9
 9
 9
 9
 9
 9
 9
 9
 9
 9
 9
 9
 9
 9
 9
 9
 9
 9
 9
 9
 9
 9
 9
 9
 9
 9
 9
 9
 9
 9
 9
 9
 9
 9
 9
 9
 9
 9
 9
 9
 9
 9
 9
 9
 9
 9
 9
 9
 9
 9
 9
 9
 9
 9
 9
 9
 9
 9
 9
 9
 9
 9
 9
 9
 9
 9
 9
 9
 9
 9
 9
 9
 9
 </DataArray>
 </Cells> 
 <PointData>
 <DataArray  type="Float64" Name="disp" NumberOfComponents="3" format="ascii">
   6.5553934782805190E-002   6.2286987563169971E-002   0.0000000000000000     
   6.8533647252978308E-002   6.7871449731436689E-002   0.0000000000000000     
   7.1437765529021924E-002   7.3579892078421333E-002   0.0000000000000000     
   7.4266289610936023E-002   7.9412314604123929E-002   0.0000000000000000     
   7.7019219498720592E-002   8.5368717308544464E-002   0.0000000000000000     
   6.0204810049103649E-002   6.1735824181323028E-002   0.0000000000000000     
   6.3053665159286051E-002   6.7207853774799001E-002   0.0000000000000000     
   6.5818515493486732E-002   7.2843785589444807E-002   0.0000000000000000     
   6.8499361051705704E-002   7.8643619625260411E-002   0.0000000000000000     
   7.1096201833942940E-002   8.4607355882245827E-002   0.0000000000000000     
   5.5116089617657370E-002   6.1114400579787675E-002   0.0000000000000000     
   5.7813495455382696E-002   6.6523235213512472E-002   0.0000000000000000     
   6.0423243175002583E-002   7.2121360444033777E-002   0.0000000000000000     
   6.2945332776517052E-002   7.7908776271351635E-002   0.0000000000000000     
   6.5379764259926060E-002   8.3885482695466002E-002   0.0000000000000000     
   5.0287773488466331E-002   6.0422716758563901E-002   0.0000000000000000     
   5.2813138141268243E-002   6.5817594047577047E-002   0.0000000000000000     
   5.5251948573569493E-002   7.1412616642188259E-002   0.0000000000000000     
   5.7604204785370067E-002   7.7207784542397545E-002   0.0000000000000000     
   5.9869906776669986E-002   8.3203097748204946E-002   0.0000000000000000     
   4.5719861661530553E-002   5.9660772717651717E-002   0.0000000000000000     
   4.8052593216942691E-002   6.5090930276992739E-002   0.0000000000000000     
   5.0304631689187425E-002   7.0717554183908224E-002   0.0000000000000000     
   5.2475977078264763E-002   7.6540644438398212E-002   0.0000000000000000     
   5.4566629384174697E-002   8.2560201040462702E-002   0.0000000000000000     
   7.7019219498720592E-002   8.5368717308544464E-002   0.0000000000000000     
   7.9687700351783242E-002   9.1466444575708239E-002   0.0000000000000000     
   8.2262877329531511E-002   9.7722840789640580E-002   0.0000000000000000     
   8.4744750431965443E-002  0.10413790595034150        0.0000000000000000     
   8.7133319659085010E-002  0.11071164005781098        0.0000000000000000     
   7.1096201833942940E-002   8.4607355882245827E-002   0.0000000000000000     
   7.3606348174178896E-002   9.0731899574149275E-002   0.0000000000000000     
   7.6027110406394038E-002   9.7014155914718944E-002   0.0000000000000000     
   7.8358488530588327E-002  0.10345412490395485        0.0000000000000000     
   8.0600482546761790E-002  0.11005180654185701        0.0000000000000000     
   6.5379764259926060E-002   8.3885482695466002E-002   0.0000000000000000     
   6.7728053700335106E-002   9.0035430889784204E-002   0.0000000000000000     
   6.9991717172849632E-002   9.6342572027713597E-002   0.0000000000000000     
   7.2170754677469640E-002  0.10280690610925418        0.0000000000000000     
   7.4265166214195127E-002  0.10942843313440592        0.0000000000000000     
   5.9869906776669986E-002   8.3203097748204946E-002   0.0000000000000000     
   6.2052816930251865E-002   8.9377038522613056E-002   0.0000000000000000     
   6.4156697628898335E-002   9.5708089128624579E-002   0.0000000000000000     
   6.6181548872609380E-002  0.10219624956623946        0.0000000000000000     
   6.8127370661384981E-002  0.10884151983545774        0.0000000000000000     
   5.4566629384174697E-002   8.2560201040462702E-002   0.0000000000000000     
   5.6580637863929167E-002   8.8756722472635843E-002   0.0000000000000000     
   5.8522051774540111E-002   9.5110707217451837E-002   0.0000000000000000     
   6.0390871116007522E-002  0.10162215527491070        0.0000000000000000     
   6.2187095888331413E-002  0.10829106664501242        0.0000000000000000     
   8.7133319659085010E-002  0.11071164005781098        0.0000000000000000     
   8.9427341268531732E-002  0.11743073512763810        0.0000000000000000     
   9.1625571517947160E-002  0.12428188317541200        0.0000000000000000     
   9.3728010407331280E-002  0.13126508420113264        0.0000000000000000     
   9.5734657936684092E-002  0.13838033820480003        0.0000000000000000     
   8.0600482546761790E-002  0.11005180654185701        0.0000000000000000     
   8.2752741579533134E-002  0.11679492387577023        0.0000000000000000     
   8.4814914753521084E-002  0.12367119995303932        0.0000000000000000     
   8.6787002068725638E-002  0.13068063477366434        0.0000000000000000     
   8.8669003525146783E-002  0.13782322833764521        0.0000000000000000     
   7.4265166214195127E-002  0.10942843313440592        0.0000000000000000     
   7.6275015383131028E-002  0.11619546850455045        0.0000000000000000     
   7.8200365784382261E-002  0.12309632762106931        0.0000000000000000     
   8.0041217417948854E-002  0.13013101048396250        0.0000000000000000     
   8.1797570283830764E-002  0.13729951709323007        0.0000000000000000     
   6.8127370661384981E-002  0.10884151983545774        0.0000000000000000     
   6.9994162679325400E-002  0.11563236901397875        0.0000000000000000     
   7.1781924610530679E-002  0.12255726617950193        0.0000000000000000     
   7.3490656455000913E-002  0.12961621133202719        0.0000000000000000     
   7.5120358212736063E-002  0.13680920447155459        0.0000000000000000     
   6.2187095888331413E-002  0.10829106664501242        0.0000000000000000     
   6.3910183468116208E-002  0.11510562540405518        0.0000000000000000     
   6.5559591231966349E-002  0.12205401562833716        0.0000000000000000     
   6.7135319179881831E-002  0.12913623731785834        0.0000000000000000     
   6.8637367311862665E-002  0.13635229047261876        0.0000000000000000     
   9.5734657936684092E-002  0.13838033820480003        0.0000000000000000     
   9.7646894683099880E-002  0.14561717369272778        0.0000000000000000     
   9.9466101223672915E-002  0.15296511917122949        0.0000000000000000     
  0.10119227755840318       0.16042417464030512        0.0000000000000000     
  0.10282542368729070       0.16799434009995473        0.0000000000000000     
   8.8669003525146783E-002  0.13782322833764521        0.0000000000000000     
   9.0462324199319460E-002  0.14508714024831748        0.0000000000000000     
   9.2168369167778583E-002  0.15246053010901656        0.0000000000000000     
   9.3787138430524164E-002  0.15994339791974246        0.0000000000000000     
   9.5318631987556190E-002  0.16753574368049523        0.0000000000000000     
   8.1797570283830764E-002  0.13729951709323007        0.0000000000000000     
   8.3470688410266447E-002  0.14458922308078737        0.0000000000000000     
   8.5061835825494245E-002  0.15198750407854969        0.0000000000000000     
   8.6571012529514199E-002  0.15949436008651713        0.0000000000000000     
   8.7998218522326269E-002  0.16710979110468968        0.0000000000000000     
   7.5120358212736063E-002  0.13680920447155459        0.0000000000000000     
   7.6671987315940826E-002  0.14412342219013743        0.0000000000000000     
   7.8146501196819887E-002  0.15154604107982894        0.0000000000000000     
   7.9543899855373246E-002  0.15907706114062917        0.0000000000000000     
   8.0864183291600902E-002  0.16671648237253806        0.0000000000000000     
   6.8637367311862665E-002  0.13635229047261876        0.0000000000000000     
   7.0066220916342625E-002  0.14368973757636766        0.0000000000000000     
   7.1422365281755523E-002  0.15113614111285420        0.0000000000000000     
   7.2705800408101345E-002  0.15869150108207847        0.0000000000000000     
   7.3916526295380119E-002  0.16635581748404038        0.0000000000000000     
  0.10282542368729070       0.16799434009995473        0.0000000000000000     
  0.10436954768202696       0.17566406377328531        0.0000000000000000     
  0.10582865761430341       0.18342179388340399        0.0000000000000000     
  0.10720275348412012       0.19126753043031064        0.0000000000000000     
  0.10849183529147705       0.19920127341400540        0.0000000000000000     
   9.5318631987556190E-002  0.16753574368049523        0.0000000000000000     
   9.6764820614690328E-002  0.17522769759228438        0.0000000000000000     
   9.8127675087742228E-002  0.18300938985611956        0.0000000000000000     
   9.9407195406711862E-002  0.19088082047200072        0.0000000000000000     
  0.10060338157159926       0.19884198943992792        0.0000000000000000     
   8.7998218522326269E-002  0.16710979110468968        0.0000000000000000     
   8.9343941377000594E-002  0.17482482836971153        0.0000000000000000     
   9.0608668666607300E-002  0.18263050311822696        0.0000000000000000     
   9.1792400391146389E-002  0.19052681535023600        0.0000000000000000     
   9.2895136550617846E-002  0.19851376506573859        0.0000000000000000     
   8.0864183291600902E-002  0.16671648237253806        0.0000000000000000     
   8.2106909968957753E-002  0.17445545610556670        0.0000000000000000     
   8.3271638350898666E-002  0.18228513366972612        0.0000000000000000     
   8.4358368437423698E-002  0.19020551506501643        0.0000000000000000     
   8.5367100228532777E-002  0.19821660029143742        0.0000000000000000     
   7.3916526295380119E-002  0.16635581748404038        0.0000000000000000     
   7.5053726390561792E-002  0.17411958079984996        0.0000000000000000     
   7.6116584140616339E-002  0.18197328151061715        0.0000000000000000     
   7.7105099545543773E-002  0.18991691961634194        0.0000000000000000     
   7.8019272605344081E-002  0.19795049511702434        0.0000000000000000     
  0.10849183529147705       0.19920127341400540        0.0000000000000000     
  0.10970060559172848       0.20722000093782184        0.0000000000000000     
  0.11083376694022871       0.21532069110509350        0.0000000000000000     
  0.11189131933697771       0.22350334391582055        0.0000000000000000     
  0.11287326278197553       0.23176795937000283        0.0000000000000000     
  0.10060338157159926       0.19884198943992792        0.0000000000000000     
  0.10172119459882698       0.20688681243620249        0.0000000000000000     
  0.10276559550481755       0.21500920513712585        0.0000000000000000     
  0.10373658428957098       0.22320916754269798        0.0000000000000000     
  0.10463416095308725       0.23148669965291888        0.0000000000000000     
   9.2895136550617846E-002  0.19851376506573859        0.0000000000000000     
   9.3921222810362831E-002  0.20658353120072728        0.0000000000000000     
   9.4875004835722462E-002  0.21472829269119451        0.0000000000000000     
   9.5756482626696768E-002  0.22294804953714029        0.0000000000000000     
   9.6565656183285734E-002  0.23124280173856460        0.0000000000000000     
   8.5367100228532777E-002  0.19821660029143742        0.0000000000000000     
   8.6300690226336019E-002  0.20631015723139612        0.0000000000000000     
   8.7161994932943479E-002  0.21447795376729950        0.0000000000000000     
   8.7951014348355103E-002  0.22271998989914746        0.0000000000000000     
   8.8667748472570945E-002  0.23103626562694005        0.0000000000000000     
   7.8019272605344081E-002  0.19795049511702434        0.0000000000000000     
   7.8859596846746580E-002  0.20606669052820906        0.0000000000000000     
   7.9626565796480531E-002  0.21425818836544075        0.0000000000000000     
   8.0320179454545976E-002  0.22252498862871950        0.0000000000000000     
   8.0940437820942887E-002  0.23086709131804517        0.0000000000000000     
  0.11287326278197553       0.23176795937000283        0.0000000000000000     
  0.11380791318591676       0.24013097152247764        0.0000000000000000     
  0.11472358645949605       0.24860881442808216        0.0000000000000000     
  0.11562028260271344       0.25720148808681642        0.0000000000000000     
  0.11649800161556886       0.26590899249868033        0.0000000000000000     
  0.10463416095308725       0.23148669965291888        0.0000000000000000     
  0.10546348720153961       0.23986527733786861        0.0000000000000000     
  0.10622972474110118       0.24836837646762716        0.0000000000000000     
  0.10693287357177200       0.25699599704219461        0.0000000000000000     
  0.10757293369355204       0.26574813906157091        0.0000000000000000     
   9.6565656183285734E-002  0.23124280173856460        0.0000000000000000     
   9.7293492049657912E-002  0.23963907069831875        0.0000000000000000     
   9.7930956769981842E-002  0.24816337781925374        0.0000000000000000     
   9.8478050344257495E-002  0.25681572310136974        0.0000000000000000     
   9.8934772772484927E-002  0.26559610654466664        0.0000000000000000     
   8.8667748472570945E-002  0.23103626562694005        0.0000000000000000     
   8.9297927730271690E-002  0.23945235160382794        0.0000000000000000     
   8.9827282546138032E-002  0.24799381848296184        0.0000000000000000     
   9.0255812920170000E-002  0.25666066626434175        0.0000000000000000     
   9.0583518852367553E-002  0.26545289494796764        0.0000000000000000     
   8.0940437820942887E-002  0.23086709131804517        0.0000000000000000     
   8.1476794243380946E-002  0.23930512005439639        0.0000000000000000     
   8.1918702069569790E-002  0.24785969845875158        0.0000000000000000     
   8.2266161299509449E-002  0.25653082653111076        0.0000000000000000     
   8.2519171933199895E-002  0.26531850427147391        0.0000000000000000     
  0.11649800161556886       0.26590899249868033        0.0000000000000000     
  0.11729704875508942       0.27489594477053170        0.0000000000000000     
  0.11795772927830218       0.28432696200922797        0.0000000000000000     
  0.11848004318520715       0.29420204421476936        0.0000000000000000     
  0.11886399047580430       0.30452119138715578        0.0000000000000000     
  0.10757293369355204       0.26574813906157091        0.0000000000000000     
  0.10813089004399185       0.27475692202166146        0.0000000000000000     
  0.10858772756064189       0.28415446541837158        0.0000000000000000     
  0.10894344624350222       0.29394076925170137        0.0000000000000000     
  0.10919804609257278       0.30411583352165078        0.0000000000000000     
   9.8934772772484927E-002  0.26559610654466664        0.0000000000000000     
   9.9312112717170137E-002  0.27460277620794321        0.0000000000000000     
   9.9621058840819107E-002  0.28393398014999799        0.0000000000000000     
   9.9861611143431853E-002  0.29358971837083098        0.0000000000000000     
  0.10003376962500839       0.30356999087044223        0.0000000000000000     
   9.0583518852367553E-002  0.26545289494796764        0.0000000000000000     
   9.0840716774624311E-002  0.27443350732937699        0.0000000000000000     
   9.1057723118833825E-002  0.28366550620410719        0.0000000000000000     
   9.1234537884996095E-002  0.29314889157215823        0.0000000000000000     
   9.1371161073111135E-002  0.30288366343353013        0.0000000000000000     
   8.2519171933199895E-002  0.26531850427147391        0.0000000000000000     
   8.2716702216354354E-002  0.27424911538596281        0.0000000000000000     
   8.2897720394686028E-002  0.28334904358069918        0.0000000000000000     
   8.3062226468194916E-002  0.29261828885568308        0.0000000000000000     
   8.3210220436881033E-002  0.30205685121091441        0.0000000000000000     
   4.5719861661530553E-002   5.9660772717651717E-002   0.0000000000000000     
   4.8052593216942691E-002   6.5090930276992739E-002   0.0000000000000000     
   5.0304631689187425E-002   7.0717554183908224E-002   0.0000000000000000     
   5.2475977078264763E-002   7.6540644438398212E-002   0.0000000000000000     
   5.4566629384174697E-002   8.2560201040462702E-002   0.0000000000000000     
   4.1340781048128640E-002   5.8906339920495057E-002   0.0000000000000000     
   4.3473140807197413E-002   6.4389821423921495E-002   0.0000000000000000     
   4.5532644030585774E-002   7.0060504651950878E-002   0.0000000000000000     
   4.7519290718293743E-002   7.5918389604583233E-002   0.0000000000000000     
   4.9433080870321292E-002   8.1963476281818506E-002   0.0000000000000000     
   3.7078958559539230E-002   5.8237189830537869E-002   0.0000000000000000     
   3.9016061036823785E-002   6.3760845010525313E-002   0.0000000000000000     
   4.0887337106493914E-002   6.9465799629073441E-002   0.0000000000000000     
   4.2692786768549609E-002   7.5352053686182210E-002   0.0000000000000000     
   4.4432410022990865E-002   8.1419607181851636E-002   0.0000000000000000     
   3.2934394195762308E-002   5.7653322447780146E-002   0.0000000000000000     
   3.4681353905821805E-002   6.3204001036804180E-002   0.0000000000000000     
   3.6368710916911823E-002   6.8933439115275857E-002   0.0000000000000000     
   3.7996465229032363E-002   7.4841636683195156E-002   0.0000000000000000     
   3.9564616842183403E-002   8.0928593740562119E-002   0.0000000000000000     
   2.8907087956797882E-002   5.7154737772221895E-002   0.0000000000000000     
   3.0469019414191476E-002   6.2719289502758083E-002   0.0000000000000000     
   3.1976765461839515E-002   6.8463423110558155E-002   0.0000000000000000     
   3.3430326099742003E-002   7.4387138595622085E-002   0.0000000000000000     
   3.4829701327898914E-002   8.0490435957949913E-002   0.0000000000000000     
   5.4566629384174697E-002   8.2560201040462702E-002   0.0000000000000000     
   5.6580637863929167E-002   8.8756722472635843E-002   0.0000000000000000     
   5.8522051774540111E-002   9.5110707217451837E-002   0.0000000000000000     
   6.0390871116007522E-002  0.10162215527491070        0.0000000000000000     
   6.2187095888331413E-002  0.10829106664501242        0.0000000000000000     
   4.9433080870321292E-002   8.1963476281818506E-002   0.0000000000000000     
   5.1277439568359222E-002   8.8181135752916723E-002   0.0000000000000000     
   5.3055791894098314E-002   9.4556739087137839E-002   0.0000000000000000     
   5.4768137847538569E-002  0.10109028628448190        0.0000000000000000     
   5.6414477428679971E-002  0.10778177734494887        0.0000000000000000     
   4.4432410022990865E-002   8.1419607181851636E-002   0.0000000000000000     
   4.6109145110534225E-002   8.7656931376519850E-002   0.0000000000000000     
   4.7725930271896269E-002   9.4052497530624973E-002   0.0000000000000000     
   4.9282765507076949E-002  0.10060630564416696        0.0000000000000000     
   5.0779650816076299E-002  0.10731835571714587        0.0000000000000000     
   3.9564616842183403E-002   8.0928593740562119E-002   0.0000000000000000     
   4.1075754490454190E-002   8.7184109343445268E-002   0.0000000000000000     
   4.2532466907933941E-002   9.3597982547913211E-002   0.0000000000000000     
   4.3934754094622670E-002  0.10017021335396595        0.0000000000000000     
   4.5282616050520356E-002  0.10690080176160348        0.0000000000000000     
   3.4829701327898914E-002   8.0490435957949913E-002   0.0000000000000000     
   3.6177267708119097E-002   8.6762669653692948E-002   0.0000000000000000     
   3.7475401802211372E-002   9.3193194139002580E-002   0.0000000000000000     
   3.8724103610175725E-002   9.9782009413878811E-002   0.0000000000000000     
   3.9923373132012177E-002  0.10652911547832163        0.0000000000000000     
   6.2187095888331413E-002  0.10829106664501242        0.0000000000000000     
   6.3910183468116208E-002  0.11510562540405518        0.0000000000000000     
   6.5559591231966349E-002  0.12205401562833716        0.0000000000000000     
   6.7135319179881831E-002  0.12913623731785834        0.0000000000000000     
   6.8637367311862665E-002  0.13635229047261876        0.0000000000000000     
   5.6414477428679971E-002  0.10778177734494887        0.0000000000000000     
   5.7993645903639285E-002  0.11461900540764126        0.0000000000000000     
   5.9504478538533197E-002  0.12158976361166163        0.0000000000000000     
   6.0946975333361769E-002  0.12869405195700998        0.0000000000000000     
   6.2321136288124926E-002  0.13593187044368626        0.0000000000000000     
   5.0779650816076299E-002  0.10731835571714587        0.0000000000000000     
   5.2215118140030367E-002  0.11417627675759855        0.0000000000000000     
   5.3587699420075199E-002  0.12116769777356193        0.0000000000000000     
   5.4897394656210838E-002  0.12829261876503598        0.0000000000000000     
   5.6144203848437262E-002  0.13555103973202073        0.0000000000000000     
   4.5282616050520356E-002  0.10690080176160348        0.0000000000000000     
   4.6574600177289441E-002  0.11377743945392706        0.0000000000000000     
   4.7809253876592350E-002  0.12078781811403802        0.0000000000000000     
   4.8986577148429085E-002  0.12793193774193640        0.0000000000000000     
   5.0106569992799638E-002  0.13520979833762217        0.0000000000000000     
   3.9923373132012177E-002  0.10652911547832163        0.0000000000000000     
   4.1072092015416534E-002  0.11342249349662678        0.0000000000000000     
   4.2169141908084642E-002  0.12045012463308996        0.0000000000000000     
   4.3214522810016483E-002  0.12761200888771121        0.0000000000000000     
   4.4208234721212075E-002  0.13490814626049052        0.0000000000000000     
   6.8637367311862665E-002  0.13635229047261876        0.0000000000000000     
   7.0066220916342625E-002  0.14368973757636766        0.0000000000000000     
   7.1422365281755523E-002  0.15113614111285420        0.0000000000000000     
   7.2705800408101345E-002  0.15869150108207847        0.0000000000000000     
   7.3916526295380119E-002  0.16635581748404038        0.0000000000000000     
   6.2321136288124926E-002  0.13593187044368626        0.0000000000000000     
   6.3626966583281749E-002  0.14329133718514525        0.0000000000000000     
   6.4864471399291246E-002  0.15076057029484158        0.0000000000000000     
   6.6033650736153415E-002  0.15833956977277533        0.0000000000000000     
   6.7134504593868244E-002  0.16602833561894642        0.0000000000000000     
   5.6144203848437262E-002  0.13555103973202073        0.0000000000000000     
   5.7327801688568145E-002  0.14293138896213736        0.0000000000000000     
   5.8447862868417161E-002  0.15042209474300713        0.0000000000000000     
   5.9504387387984324E-002  0.15802315707462994        0.0000000000000000     
   6.0497375247269627E-002  0.16573457595700594        0.0000000000000000     
   5.0106569992799638E-002  0.13520979833762217        0.0000000000000000     
   5.1168726232201790E-002  0.14260989290734402        0.0000000000000000     
   5.2172539689133275E-002  0.15012071445735073        0.0000000000000000     
   5.3118010363594099E-002  0.15774226298764243        0.0000000000000000     
   5.4005138255584270E-002  0.16547453849821897        0.0000000000000000     
   4.4208234721212075E-002  0.13490814626049052        0.0000000000000000     
   4.5149740214182686E-002  0.14232684902076517        0.0000000000000000     
   4.6038501861439568E-002  0.14985642943787258        0.0000000000000000     
   4.6874519662982735E-002  0.15749688751181265        0.0000000000000000     
   4.7657793618812172E-002  0.16524822324258548        0.0000000000000000     
   7.3916526295380119E-002  0.16635581748404038        0.0000000000000000     
   7.5053726390561792E-002  0.17411958079984996        0.0000000000000000     
   7.6116584140616339E-002  0.18197328151061715        0.0000000000000000     
   7.7105099545543773E-002  0.18991691961634194        0.0000000000000000     
   7.8019272605344081E-002  0.19795049511702434        0.0000000000000000     
   6.7134504593868244E-002  0.16602833561894642        0.0000000000000000     
   6.8166093506993042E-002  0.17381646050088403        0.0000000000000000     
   6.9127478010085064E-002  0.18169353708611730        0.0000000000000000     
   7.0018658103144366E-002  0.18965956537464629        0.0000000000000000     
   7.0839633786170919E-002  0.19771454536647093        0.0000000000000000     
   6.0497375247269627E-002  0.16573457595700594        0.0000000000000000     
   6.1425714183431832E-002  0.17354535325699172        0.0000000000000000     
   6.2288291933629704E-002  0.18144449084144412        0.0000000000000000     
   6.3085108497863238E-002  0.18943198871036310        0.0000000000000000     
   6.3816163876132453E-002  0.19750784686374862        0.0000000000000000     
   5.4005138255584270E-002  0.16547453849821897        0.0000000000000000     
   5.4832588419878182E-002  0.17330625906817307        0.0000000000000000     
   5.5599025911250224E-002  0.18122614277659757        0.0000000000000000     
   5.6304450729700403E-002  0.18923418962349237        0.0000000000000000     
   5.6948862875228719E-002  0.19733039960885748        0.0000000000000000     
   4.7657793618812172E-002  0.16524822324258548        0.0000000000000000     
   4.8386716216332074E-002  0.17309917793442806        0.0000000000000000     
   4.9059679942946632E-002  0.18103849289157761        0.0000000000000000     
   4.9676684798655842E-002  0.18906616811403407        0.0000000000000000     
   5.0237730783459694E-002  0.19718220360179745        0.0000000000000000     
   7.8019272605344081E-002  0.19795049511702434        0.0000000000000000     
   7.8859596846746580E-002  0.20606669052820906        0.0000000000000000     
   7.9626565796480531E-002  0.21425818836544075        0.0000000000000000     
   8.0320179454545976E-002  0.22252498862871950        0.0000000000000000     
   8.0940437820942887E-002  0.23086709131804517        0.0000000000000000     
   7.0839633786170919E-002  0.19771454536647093        0.0000000000000000     
   7.1588619457937125E-002  0.20585228059888208        0.0000000000000000     
   7.2263829517215453E-002  0.21406657460917067        0.0000000000000000     
   7.2865263964005861E-002  0.22235742739733669        0.0000000000000000     
   7.3392922798308377E-002  0.23072483896338017        0.0000000000000000     
   6.3816163876132453E-002  0.19750784686374862        0.0000000000000000     
   6.4478434846250349E-002  0.20566607695113123        0.0000000000000000     
   6.5068898186029955E-002  0.21390069062204153        0.0000000000000000     
   6.5587553895471232E-002  0.22221168787647944        0.0000000000000000     
   6.6034401974574219E-002  0.23059906871444502        0.0000000000000000     
   5.6948862875228719E-002  0.19733039960885748        0.0000000000000000     
   5.7529043011686237E-002  0.20550807958495657        0.0000000000000000     
   5.8041771802924025E-002  0.21376053640405335        0.0000000000000000     
   5.8487049248942088E-002  0.22208777006614774        0.0000000000000000     
   5.8864875349740428E-002  0.23048978057123987        0.0000000000000000     
   5.0237730783459694E-002  0.19718220360179745        0.0000000000000000     
   5.0740443954244784E-002  0.20537828850035802        0.0000000000000000     
   5.1182450367897689E-002  0.21364611195520608        0.0000000000000000     
   5.1563750024418417E-002  0.22198567396634161        0.0000000000000000     
   5.1884342923806975E-002  0.23039697453376459        0.0000000000000000     
   8.0940437820942887E-002  0.23086709131804517        0.0000000000000000     
   8.1476794243380946E-002  0.23930512005439639        0.0000000000000000     
   8.1918702069569790E-002  0.24785969845875158        0.0000000000000000     
   8.2266161299509449E-002  0.25653082653111076        0.0000000000000000     
   8.2519171933199895E-002  0.26531850427147391        0.0000000000000000     
   7.3392922798308377E-002  0.23072483896338017        0.0000000000000000     
   7.3843579711462423E-002  0.23918240757474818        0.0000000000000000     
   7.4214008394807393E-002  0.24774373149888812        0.0000000000000000     
   7.4504208848343315E-002  0.25640881073579985        0.0000000000000000     
   7.4714181072070174E-002  0.26517764528548343        0.0000000000000000     
   6.6034401974574219E-002  0.23059906871444502        0.0000000000000000     
   6.6411772256992879E-002  0.23906924568960766        0.0000000000000000     
   6.6721994576381172E-002  0.24762863135563679        0.0000000000000000     
   6.6965068932739111E-002  0.25627722571253236        0.0000000000000000     
   6.7140995326066669E-002  0.26501502876029442        0.0000000000000000     
   5.8864875349740428E-002  0.23048978057123987        0.0000000000000000     
   5.9181371879972335E-002  0.23896563439897472        0.0000000000000000     
   5.9442660614291126E-002  0.24751439802899752        0.0000000000000000     
   5.9648741552696803E-002  0.25613607146130823        0.0000000000000000     
   5.9799614695189358E-002  0.26483065469590689        0.0000000000000000     
   5.1884342923806975E-002  0.23039697453376459        0.0000000000000000     
   5.2152378580400768E-002  0.23887157370284939        0.0000000000000000     
   5.2376006508537250E-002  0.24740103151897036        0.0000000000000000     
   5.2555226708216406E-002  0.25598534798212741        0.0000000000000000     
   5.2690039179438236E-002  0.26462452309232065        0.0000000000000000     
   8.2519171933199895E-002  0.26531850427147391        0.0000000000000000     
   8.2716702216354354E-002  0.27424911538596281        0.0000000000000000     
   8.2897720394686028E-002  0.28334904358069918        0.0000000000000000     
   8.3062226468194916E-002  0.29261828885568308        0.0000000000000000     
   8.3210220436881033E-002  0.30205685121091441        0.0000000000000000     
   7.4714181072070174E-002  0.26517764528548343        0.0000000000000000     
   7.4884869180683836E-002  0.27404391550966256        0.0000000000000000     
   7.5057217288880165E-002  0.28300130177006094        0.0000000000000000     
   7.5231225396659121E-002  0.29204980406667858        0.0000000000000000     
   7.5406893504020731E-002  0.30118942239951535        0.0000000000000000     
   6.7140995326066669E-002  0.26501502876029442        0.0000000000000000     
   6.7290017805936353E-002  0.27381222283243839        0.0000000000000000     
   6.7452380421920602E-002  0.28263899026247946        0.0000000000000000     
   6.7628083174019457E-002  0.29149533105041775        0.0000000000000000     
   6.7817126062232891E-002  0.30038124519625314        0.0000000000000000     
   5.9799614695189358E-002  0.26483065469590689        0.0000000000000000     
   5.9932148092111864E-002  0.27355403735429007        0.0000000000000000     
   6.0083209793807379E-002  0.28226210905795468        0.0000000000000000     
   6.0252799800275918E-002  0.29095486980690061        0.0000000000000000     
   6.0440918111517472E-002  0.29963231960112779        0.0000000000000000     
   5.2690039179438236E-002  0.26462452309232065        0.0000000000000000     
   5.2811260039210384E-002  0.27326935907521788        0.0000000000000000     
   5.2949705404540477E-002  0.28187065815648671        0.0000000000000000     
   5.3105375275428530E-002  0.29042842033612715        0.0000000000000000     
   5.3278269651874516E-002  0.29894264561413930        0.0000000000000000     
   2.8907087956797882E-002   5.7154737772221895E-002   0.0000000000000000     
   3.0469019414191476E-002   6.2719289502758083E-002   0.0000000000000000     
   3.1976765461839515E-002   6.8463423110558155E-002   0.0000000000000000     
   3.3430326099742003E-002   7.4387138595622085E-002   0.0000000000000000     
   3.4829701327898914E-002   8.0490435957949913E-002   0.0000000000000000     
   2.5005545414136188E-002   5.6727005842807071E-002   0.0000000000000000     
   2.6380176263513973E-002   6.2298745227753013E-002   0.0000000000000000     
   2.7706417607061284E-002   6.8052276312888543E-002   0.0000000000000000     
   2.8984269444778121E-002   7.3987599098213647E-002   0.0000000000000000     
   3.0213731776664483E-002   8.0104713583728338E-002   0.0000000000000000     
   2.1238272139267458E-002   5.6355696698479646E-002   0.0000000000000000     
   2.2415943155370478E-002   6.1934403031154953E-002   0.0000000000000000     
   2.3552584218361438E-002   6.7696523420235244E-002   0.0000000000000000     
   2.4648195328240349E-002   7.3642057865720478E-002   0.0000000000000000     
   2.5702776485007194E-002   7.9771006367610697E-002   0.0000000000000000     
   1.7605268132191702E-002   5.6040810339239605E-002   0.0000000000000000     
   1.8576320089760994E-002   6.1626262912963907E-002   0.0000000000000000     
   1.9515265295739982E-002   6.7396164432598243E-002   0.0000000000000000     
   2.0422103750128668E-002   7.3350514898142635E-002   0.0000000000000000     
   2.1296835452927050E-002   7.9489314309597020E-002   0.0000000000000000     
   1.4106533392908911E-002   5.5782346765086963E-002   0.0000000000000000     
   1.4861307066685515E-002   6.1374324873179870E-002   0.0000000000000000     
   1.5594460839196909E-002   6.7151199349977542E-002   0.0000000000000000     
   1.6305994710443087E-002   7.3112970195480020E-002   0.0000000000000000     
   1.6995908680424051E-002   7.9259637409687278E-002   0.0000000000000000     
   3.4829701327898914E-002   8.0490435957949913E-002   0.0000000000000000     
   3.6177267708119097E-002   8.6762669653692948E-002   0.0000000000000000     
   3.7475401802211372E-002   9.3193194139002580E-002   0.0000000000000000     
   3.8724103610175725E-002   9.9782009413878811E-002   0.0000000000000000     
   3.9923373132012177E-002  0.10652911547832163        0.0000000000000000     
   3.0213731776664483E-002   8.0104713583728338E-002   0.0000000000000000     
   3.1396844752210974E-002   8.6391830978064549E-002   0.0000000000000000     
   3.2535648520908178E-002   9.2837162489854227E-002   0.0000000000000000     
   3.3630143082756109E-002   9.9440708119097401E-002   0.0000000000000000     
   3.4680328437754752E-002  0.10620246786579404        0.0000000000000000     
   2.5702776485007194E-002   7.9771006367610697E-002   0.0000000000000000     
   2.6717645611411808E-002   8.6070811987361703E-002   0.0000000000000000     
   2.7694120630203996E-002   9.2528917786429327E-002   0.0000000000000000     
   2.8632201541383767E-002   9.9145323764813525E-002   0.0000000000000000     
   2.9531888344951115E-002  0.10592002992251436        0.0000000000000000     
   2.1296835452927050E-002   7.9489314309597020E-002   0.0000000000000000     
   2.2139670285721617E-002   8.5799612681584439E-002   0.0000000000000000     
   2.2950818130098843E-002   9.2268460028727822E-002   0.0000000000000000     
   2.3730278986058721E-002   9.8895856351027225E-002   0.0000000000000000     
   2.4478052853601259E-002  0.10568180164848258        0.0000000000000000     
   1.6995908680424051E-002   7.9259637409687278E-002   0.0000000000000000     
   1.7662918775140389E-002   8.5578233060732728E-002   0.0000000000000000     
   1.8305741020592695E-002   9.2055789216749770E-002   0.0000000000000000     
   1.8924375416780961E-002   9.8692305877738418E-002   0.0000000000000000     
   1.9518821963705191E-002  0.10548778304369869        0.0000000000000000     
   3.9923373132012177E-002  0.10652911547832163        0.0000000000000000     
   4.1072092015416534E-002  0.11342249349662678        0.0000000000000000     
   4.2169141908084642E-002  0.12045012463308996        0.0000000000000000     
   4.3214522810016483E-002  0.12761200888771121        0.0000000000000000     
   4.4208234721212075E-002  0.13490814626049052        0.0000000000000000     
   3.4680328437754752E-002  0.10620246786579404        0.0000000000000000     
   3.5685460295542294E-002  0.11311074718092580        0.0000000000000000     
   3.6644794365756905E-002  0.12015385151547421        0.0000000000000000     
   3.7558330648398586E-002  0.12733178086943936        0.0000000000000000     
   3.8426069143467328E-002  0.13464453524282119        0.0000000000000000     
   2.9531888344951115E-002  0.10592002992251436        0.0000000000000000     
   3.0392571658797409E-002  0.11284150880205217        0.0000000000000000     
   3.1213642100814010E-002  0.11989823294594730        0.0000000000000000     
   3.1995099671000927E-002  0.12709020235419979        0.0000000000000000     
   3.2736944369358145E-002  0.13441741702680962        0.0000000000000000     
   2.4478052853601259E-002  0.10568180164848258        0.0000000000000000     
   2.5193426105181872E-002  0.11261477836000591        0.0000000000000000     
   2.5875685113255949E-002  0.11968326892450923        0.0000000000000000     
   2.6524829877823505E-002  0.12688727334199248        0.0000000000000000     
   2.7140860398884525E-002  0.13422679161245574        0.0000000000000000     
   1.9518821963705191E-002  0.10548778304369869        0.0000000000000000     
   2.0088023634695681E-002  0.11243055585478703        0.0000000000000000     
   2.0630923403082726E-002  0.11950895945115995        0.0000000000000000     
   2.1147521268866327E-002  0.12672299383281749        0.0000000000000000     
   2.1637817232046479E-002  0.13407265899975956        0.0000000000000000     
   4.4208234721212075E-002  0.13490814626049052        0.0000000000000000     
   4.5149740214182686E-002  0.14232684902076517        0.0000000000000000     
   4.6038501861439568E-002  0.14985642943787258        0.0000000000000000     
   4.6874519662982735E-002  0.15749688751181265        0.0000000000000000     
   4.7657793618812172E-002  0.16524822324258548        0.0000000000000000     
   3.8426069143467328E-002  0.13464453524282119        0.0000000000000000     
   3.9247496583022963E-002  0.14208018288765892        0.0000000000000000     
   4.0022099699125332E-002  0.14962679205599172        0.0000000000000000     
   4.0749878491774416E-002  0.15728436274781951        0.0000000000000000     
   4.1430832960970235E-002  0.16505289496314232        0.0000000000000000     
   3.2736944369358145E-002  0.13441741702680962        0.0000000000000000     
   3.3438648287234751E-002  0.14186782009328333        0.0000000000000000     
   3.4099683515979827E-002  0.14942935468312732        0.0000000000000000     
   3.4720050055593366E-002  0.15710202079634167        0.0000000000000000     
   3.5299747906075381E-002  0.16488581843292638        0.0000000000000000     
   2.7140860398884525E-002  0.13422679161245574        0.0000000000000000     
   2.7723195326818034E-002  0.14168976063763827        0.0000000000000000     
   2.8271253312003055E-002  0.14926411731927947        0.0000000000000000     
   2.8785034354439569E-002  0.15694986165737923        0.0000000000000000     
   2.9264538454127596E-002  0.16474699365193762        0.0000000000000000     
   2.1637817232046479E-002  0.13407265899975956        0.0000000000000000     
   2.2101137701772831E-002  0.14154600452072388        0.0000000000000000     
   2.2536809087195016E-002  0.14913107996444808        0.0000000000000000     
   2.2944831388313030E-002  0.15682788533093214        0.0000000000000000     
   2.3325204605126881E-002  0.16463642062017608        0.0000000000000000     
   4.7657793618812172E-002  0.16524822324258548        0.0000000000000000     
   4.8386716216332074E-002  0.17309917793442806        0.0000000000000000     
   4.9059679942946632E-002  0.18103849289157761        0.0000000000000000     
   4.9676684798655842E-002  0.18906616811403407        0.0000000000000000     
   5.0237730783459694E-002  0.19718220360179745        0.0000000000000000     
   4.1430832960970235E-002  0.16505289496314232        0.0000000000000000     
   4.2063157271062905E-002  0.17292122236130197        0.0000000000000000     
   4.2645045586402544E-002  0.18087817860164029        0.0000000000000000     
   4.3176497906989152E-002  0.18892376368415728        0.0000000000000000     
   4.3657514232822728E-002  0.19705797760885294        0.0000000000000000     
   3.5299747906075381E-002  0.16488581843292638        0.0000000000000000     
   3.5836971282340056E-002  0.17276950485434009        0.0000000000000000     
   3.6329914399301576E-002  0.18074183732204166        0.0000000000000000     
   3.6778577256959953E-002  0.18880281583603098        0.0000000000000000     
   3.7182959855315167E-002  0.19695244039630813        0.0000000000000000     
   2.9264538454127596E-002  0.16474699365193762        0.0000000000000000     
   2.9708158250163517E-002  0.17264402541354248        0.0000000000000000     
   3.0114286381643724E-002  0.18062946905278168        0.0000000000000000     
   3.0482922848568232E-002  0.18870332456965522        0.0000000000000000     
   3.0814067650937020E-002  0.19686559196416309        0.0000000000000000     
   2.3325204605126881E-002  0.16463642062017608        0.0000000000000000     
   2.3676718174533290E-002  0.17254478403890908        0.0000000000000000     
   2.3998161533428996E-002  0.18054107379386039        0.0000000000000000     
   2.4289534681813996E-002  0.18862528988502997        0.0000000000000000     
   2.4550837619688282E-002  0.19679743231241784        0.0000000000000000     
   5.0237730783459694E-002  0.19718220360179745        0.0000000000000000     
   5.0740443954244784E-002  0.20537828850035802        0.0000000000000000     
   5.1182450367897689E-002  0.21364611195520608        0.0000000000000000     
   5.1563750024418417E-002  0.22198567396634161        0.0000000000000000     
   5.1884342923806975E-002  0.23039697453376459        0.0000000000000000     
   4.3657514232822728E-002  0.19705797760885294        0.0000000000000000     
   4.4086923381043738E-002  0.20527051955920517        0.0000000000000000     
   4.4463554168792663E-002  0.21355108871869188        0.0000000000000000     
   4.4787406596069487E-002  0.22189968508731325        0.0000000000000000     
   4.5058480662874219E-002  0.23031630866506914        0.0000000000000000     
   3.7182959855315167E-002  0.19695244039630813        0.0000000000000000     
   3.7542766999200866E-002  0.20517858862336733        0.0000000000000000     
   3.7857703493450662E-002  0.21346913813770296        0.0000000000000000     
   3.8127769338064534E-002  0.22182408893931499        0.0000000000000000     
   3.8352964533042516E-002  0.23024344102820340        0.0000000000000000     
   3.0814067650937020E-002  0.19686559196416309        0.0000000000000000     
   3.1107974808716153E-002  0.20510249569284464        0.0000000000000000     
   3.1364898341871672E-002  0.21340026021223915        0.0000000000000000     
   3.1584838250403577E-002  0.22175888552234674        0.0000000000000000     
   3.1767794534311861E-002  0.23017837162316734        0.0000000000000000     
   2.4550837619688282E-002  0.19679743231241784        0.0000000000000000     
   2.4782546809589603E-002  0.20504224076763702        0.0000000000000000     
   2.4985138714055707E-002  0.21334445494230059        0.0000000000000000     
   2.5158613333086586E-002  0.22170407483640855        0.0000000000000000     
   2.5302970666682245E-002  0.23012110044996095        0.0000000000000000     
   5.1884342923806975E-002  0.23039697453376459        0.0000000000000000     
   5.2152378580400768E-002  0.23887157370284939        0.0000000000000000     
   5.2376006508537250E-002  0.24740103151897036        0.0000000000000000     
   5.2555226708216406E-002  0.25598534798212741        0.0000000000000000     
   5.2690039179438236E-002  0.26462452309232065        0.0000000000000000     
   4.5058480662874219E-002  0.23031630866506914        0.0000000000000000     
   4.5285668654118455E-002  0.23878563910415315        0.0000000000000000     
   4.5477862854713766E-002  0.24729235605675889        0.0000000000000000     
   4.5635063264660165E-002  0.25583645952288625        0.0000000000000000     
   4.5757269883957660E-002  0.26441794950253539        0.0000000000000000     
   3.8352964533042516E-002  0.23024344102820340        0.0000000000000000     
   3.8542118396965627E-002  0.23870640610580754        0.0000000000000000     
   3.8704060248414905E-002  0.24719219587356678        0.0000000000000000     
   3.8838790087390350E-002  0.25570081033148095        0.0000000000000000     
   3.8946307913891955E-002  0.26423224947955032        0.0000000000000000     
   3.1767794534311861E-002  0.23017837162316734        0.0000000000000000     
   3.1921727808942292E-002  0.23863387470781253        0.0000000000000000     
   3.2054598689640661E-002  0.24710055096939396        0.0000000000000000     
   3.2166407176406932E-002  0.25557840040791163        0.0000000000000000     
   3.2257153269241140E-002  0.26406742302336544        0.0000000000000000     
   2.5302970666682245E-002  0.23012110044996095        0.0000000000000000     
   2.5424496890048460E-002  0.23856804491016811        0.0000000000000000     
   2.5529478178391022E-002  0.24701742134424048        0.0000000000000000     
   2.5617914531709939E-002  0.25546922975217812        0.0000000000000000     
   2.5689805950005196E-002  0.26392347013398088        0.0000000000000000     
   5.2690039179438236E-002  0.26462452309232065        0.0000000000000000     
   5.2811260039210384E-002  0.27326935907521788        0.0000000000000000     
   5.2949705404540477E-002  0.28187065815648671        0.0000000000000000     
   5.3105375275428530E-002  0.29042842033612715        0.0000000000000000     
   5.3278269651874516E-002  0.29894264561413930        0.0000000000000000     
   4.5757269883957660E-002  0.26441794950253539        0.0000000000000000     
   4.5868591520733658E-002  0.27298689364288353        0.0000000000000000     
   4.5993136983115593E-002  0.28149335959110822        0.0000000000000000     
   4.6130906271103458E-002  0.28993734734720933        0.0000000000000000     
   4.6281899384697262E-002  0.29831885691118687        0.0000000000000000     
   3.8946307913891955E-002  0.26423224947955032        0.0000000000000000     
   3.9045380410183420E-002  0.27273534670494914        0.0000000000000000     
   3.9154774258528403E-002  0.28115893539485204        0.0000000000000000     
   3.9274489458926906E-002  0.28950301554925895        0.0000000000000000     
   3.9404526011378956E-002  0.29776758716816987        0.0000000000000000     
   3.2257153269241140E-002  0.26406742302336544        0.0000000000000000     
   3.2341626707559662E-002  0.27251471826141466        0.0000000000000000     
   3.2434617230778916E-002  0.28086738556771812        0.0000000000000000     
   3.2536124838898894E-002  0.28912542494227605        0.0000000000000000     
   3.2646149531919598E-002  0.29728883638508835        0.0000000000000000     
   2.5689805950005196E-002  0.26392347013398088        0.0000000000000000     
   2.5757330412862399E-002  0.27232500831227996        0.0000000000000000     
   2.5832665899867130E-002  0.28061871010970663        0.0000000000000000     
   2.5915812411019392E-002  0.28880457552626065        0.0000000000000000     
   2.6006769946319185E-002  0.29688260456194215        0.0000000000000000     
   1.4106533392908911E-002   5.5782346765086963E-002   0.0000000000000000     
   1.4861307066685515E-002   6.1374324873179870E-002   0.0000000000000000     
   1.5594460839196909E-002   6.7151199349977542E-002   0.0000000000000000     
   1.6305994710443087E-002   7.3112970195480020E-002   0.0000000000000000     
   1.6995908680424051E-002   7.9259637409687278E-002   0.0000000000000000     
   1.0651174978864596E-002   5.5580876104770860E-002   0.0000000000000000     
   1.1192944375492507E-002   6.1178467496785724E-002   0.0000000000000000     
   1.1722896620717006E-002   6.6961089735644519E-002   0.0000000000000000     
   1.2241031714538093E-002   7.2928742821347259E-002   0.0000000000000000     
   1.2747349656955769E-002   7.9081426753893930E-002   0.0000000000000000     
   7.1482999475042681E-003   5.5436968487040432E-002   0.0000000000000000     
   7.4932723055304209E-003   6.1038569368764395E-002   0.0000000000000000     
   7.8332984122850592E-003   6.6825297152870569E-002   0.0000000000000000     
   8.1683782677681779E-003   7.2797151839358934E-002   0.0000000000000000     
   8.4985118719797751E-003   7.8954133428229489E-002   0.0000000000000000     
   3.5979082988279194E-003   5.5350623911895672E-002   0.0000000000000000     
   3.7622908567992615E-003   6.0954630489115869E-002   0.0000000000000000     
   3.9256662139010674E-003   6.6743821601655637E-002   0.0000000000000000     
   4.0880343701333388E-003   7.2718197249514976E-002   0.0000000000000000     
   4.2493953254960732E-003   7.8877757432693901E-002   0.0000000000000000     
   3.2835555455190679E-011   5.5321842379336586E-002   0.0000000000000000     
   2.9299025445378435E-011   6.0926650857840152E-002   0.0000000000000000     
   2.5565033271758575E-011   6.6716663081999777E-002   0.0000000000000000     
   2.1633578310914850E-011   7.2691879051815442E-002   0.0000000000000000     
   1.7504661782574704E-011   7.8852298767287207E-002   0.0000000000000000     
   1.6995908680424051E-002   7.9259637409687278E-002   0.0000000000000000     
   1.7662918775140389E-002   8.5578233060732728E-002   0.0000000000000000     
   1.8305741020592695E-002   9.2055789216749770E-002   0.0000000000000000     
   1.8924375416780961E-002   9.8692305877738418E-002   0.0000000000000000     
   1.9518821963705191E-002  0.10548778304369869        0.0000000000000000     
   1.2747349656955769E-002   7.9081426753893930E-002   0.0000000000000000     
   1.3239381650267027E-002   8.5406322004685176E-002   0.0000000000000000     
   1.3714658896768862E-002   9.1890609045121627E-002   0.0000000000000000     
   1.4173181396461275E-002   9.8534287875203283E-002   0.0000000000000000     
   1.4614949149344263E-002  0.10533735849493017        0.0000000000000000     
   8.4985118719797751E-003   7.8954133428229489E-002   0.0000000000000000     
   8.8210494817004097E-003   8.5283528393320415E-002   0.0000000000000000     
   9.1333413537106299E-003   9.1772623208469906E-002   0.0000000000000000     
   9.4353874880104393E-003   9.8421417873677919E-002   0.0000000000000000     
   9.7271878845998326E-003  0.10522991238894451        0.0000000000000000     
   4.2493953254960732E-003   7.8877757432693901E-002   0.0000000000000000     
   4.4079222694405383E-003   8.5209852226638405E-002   0.0000000000000000     
   4.5617883914179976E-003   9.1701831706794551E-002   0.0000000000000000     
   4.7109936914284537E-003   9.8353695873162311E-002   0.0000000000000000     
   4.8555381694719039E-003  0.10516544472574169        0.0000000000000000     
   1.7504661782574704E-011   7.8852298767287207E-002   0.0000000000000000     
   1.3487413876717147E-011   8.5185293504639201E-002   0.0000000000000000     
   9.8909671685659672E-012   9.1678234540095632E-002   0.0000000000000000     
   6.7153210618099701E-012   9.8331121873656474E-002   0.0000000000000000     
   3.9604764780210022E-012  0.10514395550532175        0.0000000000000000     
   1.9518821963705191E-002  0.10548778304369869        0.0000000000000000     
   2.0088023634695681E-002  0.11243055585478703        0.0000000000000000     
   2.0630923403082726E-002  0.11950895945115995        0.0000000000000000     
   2.1147521268866327E-002  0.12672299383281749        0.0000000000000000     
   2.1637817232046479E-002  0.13407265899975956        0.0000000000000000     
   1.4614949149344263E-002  0.10533735849493017        0.0000000000000000     
   1.5038623960939898E-002  0.11228795838518352        0.0000000000000000     
   1.5442867636770247E-002  0.11937422502684462        0.0000000000000000     
   1.5827680176835317E-002  0.12659615841991345        0.0000000000000000     
   1.6193061581135100E-002  0.13395375856438999        0.0000000000000000     
   9.7271878845998326E-003  0.10522991238894451        0.0000000000000000     
   1.0007486797515577E-002  0.11218610304998337        0.0000000000000000     
   1.0275028480794434E-002  0.11927798615250820        0.0000000000000000     
   1.0529812934436401E-002  0.12650556169651908        0.0000000000000000     
   1.0771840158441482E-002  0.13386882968201588        0.0000000000000000     
   4.8555381694719039E-003  0.10516544472574169        0.0000000000000000     
   4.9946121444227227E-003  0.11212498984918659        0.0000000000000000     
   5.1274059351552829E-003  0.11922024282815082        0.0000000000000000     
   5.2539195416695834E-003  0.12645120366263438        0.0000000000000000     
   5.3741529639656262E-003  0.13381787235263726        0.0000000000000000     
   3.9604764780210022E-012  0.10514395550532175        0.0000000000000000     
   1.6613340477616978E-012  0.11210461878279314        0.0000000000000000     
  -1.4720538156487439E-013  0.11920099505377234        0.0000000000000000     
  -1.4651381778814365E-012  0.12643308431825934        0.0000000000000000     
  -2.2924674311641802E-012  0.13380088657625416        0.0000000000000000     
   2.1637817232046479E-002  0.13407265899975956        0.0000000000000000     
   2.2101137701772831E-002  0.14154600452072388        0.0000000000000000     
   2.2536809087195016E-002  0.14913107996444808        0.0000000000000000     
   2.2944831388313030E-002  0.15682788533093214        0.0000000000000000     
   2.3325204605126881E-002  0.16463642062017608        0.0000000000000000     
   1.6193061581135100E-002  0.13395375856438999        0.0000000000000000     
   1.6538296627221945E-002  0.14143522562910235        0.0000000000000000     
   1.6862670092648201E-002  0.14902875978287869        0.0000000000000000     
   1.7166181977413864E-002  0.15673436102571894        0.0000000000000000     
   1.7448832281518938E-002  0.16455202935762314        0.0000000000000000     
   1.0771840158441482E-002  0.13386882968201588        0.0000000000000000     
   1.1000493318288207E-002  0.14135609784933603        0.0000000000000000     
   1.1215155579455112E-002  0.14895567393881676        0.0000000000000000     
   1.1415826941942198E-002  0.15666755795045817        0.0000000000000000     
   1.1602507405749463E-002  0.16449174988426019        0.0000000000000000     
   5.3741529639656262E-003  0.13381787235263726        0.0000000000000000     
   5.4877277749716125E-003  0.14130862118142484        0.0000000000000000     
   5.5942655476157481E-003  0.14891182243226234        0.0000000000000000     
   5.6937662818980312E-003  0.15662747610514982        0.0000000000000000     
   5.7862299778184629E-003  0.16445558220008724        0.0000000000000000     
  -2.2924674311641802E-012  0.13380088657625416        0.0000000000000000     
  -2.7278381376644179E-012  0.14129279562536881        0.0000000000000000     
  -2.8698936673302033E-012  0.14889720526321540        0.0000000000000000     
  -2.7186369746124567E-012  0.15661411548979393        0.0000000000000000     
  -2.2740650508501492E-012  0.16444352630510434        0.0000000000000000     
   2.3325204605126881E-002  0.16463642062017608        0.0000000000000000     
   2.3676718174533290E-002  0.17254478403890908        0.0000000000000000     
   2.3998161533428996E-002  0.18054107379386039        0.0000000000000000     
   2.4289534681813996E-002  0.18862528988502997        0.0000000000000000     
   2.4550837619688282E-002  0.19679743231241784        0.0000000000000000     
   1.7448832281518938E-002  0.16455202935762314        0.0000000000000000     
   1.7709858090498579E-002  0.17246942699000772        0.0000000000000000     
   1.7948496489887958E-002  0.18047421613428921        0.0000000000000000     
   1.8164747479687084E-002  0.18856639679046758        0.0000000000000000     
   1.8358611059895936E-002  0.19674596895854282        0.0000000000000000     
   1.1602507405749463E-002  0.16449174988426019        0.0000000000000000     
   1.1774785033108574E-002  0.17241560052640623        0.0000000000000000     
   1.1932247886251197E-002  0.18042646066307960        0.0000000000000000     
   1.2074895965177329E-002  0.18852433029428042        0.0000000000000000     
   1.2202729269886975E-002  0.19670920942000858        0.0000000000000000     
   5.7862299778184629E-003  0.16445558220008724        0.0000000000000000     
   5.8714990023632759E-003  0.17238330464810450        0.0000000000000000     
   5.9494157225187024E-003  0.18039780738023165        0.0000000000000000     
   6.0199801382847425E-003  0.18849909039646848        0.0000000000000000     
   6.0831922496613943E-003  0.19668715369681514        0.0000000000000000     
  -2.2740650508501492E-012  0.16444352630510434        0.0000000000000000     
  -1.7373155865307854E-012  0.17237253935510272        0.0000000000000000     
  -1.3095216100725282E-012  0.18038825628574523        0.0000000000000000     
  -9.9068336542086632E-013  0.18849067709703182        0.0000000000000000     
  -7.8080250598411283E-013  0.19667980178896247        0.0000000000000000     
   2.4550837619688282E-002  0.19679743231241784        0.0000000000000000     
   2.4782546809589603E-002  0.20504224076763702        0.0000000000000000     
   2.4985138714055707E-002  0.21334445494230059        0.0000000000000000     
   2.5158613333086586E-002  0.22170407483640855        0.0000000000000000     
   2.5302970666682245E-002  0.23012110044996095        0.0000000000000000     
   1.8358611059895936E-002  0.19674596895854282        0.0000000000000000     
   1.8530578206364667E-002  0.20499644683539087        0.0000000000000000     
   1.8681139894943410E-002  0.21330134461788752        0.0000000000000000     
   1.8810296125632165E-002  0.22166066230603282        0.0000000000000000     
   1.8918046898430928E-002  0.23007439989982675        0.0000000000000000     
   1.2202729269886975E-002  0.19670920942000858        0.0000000000000000     
   1.2316164203584789E-002  0.20496373688375241        0.0000000000000000     
   1.2415617169475427E-002  0.21327055152900012        0.0000000000000000     
   1.2501088167558893E-002  0.22162965335575177        0.0000000000000000     
   1.2572577197835182E-002  0.23004104236400721        0.0000000000000000     
   6.0831922496613943E-003  0.19668715369681514        0.0000000000000000     
   6.1393048012499639E-003  0.20494411091272174        0.0000000000000000     
   6.1885705376517556E-003  0.21325207567563847        0.0000000000000000     
   6.2309894588667650E-003  0.22161104798556536        0.0000000000000000     
   6.2665615648949983E-003  0.23002102784250236        0.0000000000000000     
  -7.8080250598411283E-013  0.19667980178896247        0.0000000000000000     
  -6.3980201345237298E-013  0.20493756892229881        0.0000000000000000     
  -5.2760356847314505E-013  0.21324591705780255        0.0000000000000000     
  -4.4421031523272925E-013  0.22160484619547366        0.0000000000000000     
  -3.8961932638525987E-013  0.23001435633531217        0.0000000000000000     
   2.5302970666682245E-002  0.23012110044996095        0.0000000000000000     
   2.5424496890048460E-002  0.23856804491016811        0.0000000000000000     
   2.5529478178391022E-002  0.24701742134424048        0.0000000000000000     
   2.5617914531709939E-002  0.25546922975217812        0.0000000000000000     
   2.5689805950005196E-002  0.26392347013398088        0.0000000000000000     
   1.8918046898430928E-002  0.23007439989982675        0.0000000000000000     
   1.9008727521151569E-002  0.23851337578737886        0.0000000000000000     
   1.9086673301605947E-002  0.24694840835679868        0.0000000000000000     
   1.9151884239794064E-002  0.25537949760808615        0.0000000000000000     
   1.9204360335715917E-002  0.26380664354124139        0.0000000000000000     
   1.2572577197835182E-002  0.23004104236400721        0.0000000000000000     
   1.2632721583119079E-002  0.23847432641394936        0.0000000000000000     
   1.2684158646225361E-002  0.24689911336576084        0.0000000000000000     
   1.2726888387154031E-002  0.25531540321944168        0.0000000000000000     
   1.2760910805905086E-002  0.26372319597499194        0.0000000000000000     
   6.2665615648949983E-003  0.23002102784250236        0.0000000000000000     
   6.2964790759509875E-003  0.23845089678987955        0.0000000000000000     
   6.3219342122492663E-003  0.24686953637112694        0.0000000000000000     
   6.3429269737898366E-003  0.25527694658624461        0.0000000000000000     
   6.3594573605726965E-003  0.26367312743523247        0.0000000000000000     
  -3.8961932638525987E-013  0.23001435633531217        0.0000000000000000     
  -3.5270484449734241E-013  0.23844308691516944        0.0000000000000000     
  -3.2233981109297538E-013  0.24685967737289699        0.0000000000000000     
  -2.9851913042194811E-013  0.25526412770849488        0.0000000000000000     
  -2.8124811507490577E-013  0.26365643792196297        0.0000000000000000     
   2.5689805950005196E-002  0.26392347013398088        0.0000000000000000     
   2.5757330412862399E-002  0.27232500831227996        0.0000000000000000     
   2.5832665899867130E-002  0.28061871010970663        0.0000000000000000     
   2.5915812411019392E-002  0.28880457552626065        0.0000000000000000     
   2.6006769946319185E-002  0.29688260456194215        0.0000000000000000     
   1.9204360335715917E-002  0.26380664354124139        0.0000000000000000     
   1.9254071568991248E-002  0.27217253894808402        0.0000000000000000     
   1.9310987919239783E-002  0.28041987662043388        0.0000000000000000     
   1.9375109386461521E-002  0.28854865655829093        0.0000000000000000     
   1.9446435970656470E-002  0.29655887876165515        0.0000000000000000     
   1.2760910805905086E-002  0.26372319597499194        0.0000000000000000     
   1.2793430218845840E-002  0.27206363225936558        0.0000000000000000     
   1.2831650942343613E-002  0.28027785269951661        0.0000000000000000     
   1.2875572976398400E-002  0.28836585729544512        0.0000000000000000     
   1.2925196321010197E-002  0.29632764604715095        0.0000000000000000     
   6.3594573605726965E-003  0.26367312743523247        0.0000000000000000     
   6.3754063624261803E-003  0.27199828824612449        0.0000000000000000     
   6.3946549691786224E-003  0.28019263834695479        0.0000000000000000     
   6.4172031808300192E-003  0.28825617773772311        0.0000000000000000     
   6.4430509973803732E-003  0.29618890641842965        0.0000000000000000     
  -2.8124811507490577E-013  0.26365643792196297        0.0000000000000000     
  -2.6773396867574295E-013  0.27197650690836089        0.0000000000000000     
  -2.5518964111986842E-013  0.28016423356274828        0.0000000000000000     
  -2.4361450899103299E-013  0.28821961788512507        0.0000000000000000     
  -2.3300805729320473E-013  0.29614265987549121        0.0000000000000000     
   3.2835555455190679E-011   5.5321842379336586E-002   0.0000000000000000     
   2.9299025445378435E-011   6.0926650857840152E-002   0.0000000000000000     
   2.5565033271758575E-011   6.6716663081999777E-002   0.0000000000000000     
   2.1633578310914850E-011   7.2691879051815442E-002   0.0000000000000000     
   1.7504661782574704E-011   7.8852298767287207E-002   0.0000000000000000     
  -3.5979082360856284E-003   5.5350623891281620E-002   0.0000000000000000     
  -3.7622908008100174E-003   6.0954630476112250E-002   0.0000000000000000     
  -3.9256661650409631E-003   6.6743821594503816E-002   0.0000000000000000     
  -4.0880343287784671E-003   7.2718197246456298E-002   0.0000000000000000     
  -4.2493952920225255E-003   7.8877757431969703E-002   0.0000000000000000     
  -7.1482998935484343E-003   5.5436968449649203E-002   0.0000000000000000     
  -7.4932722573675991E-003   6.1038569345107214E-002   0.0000000000000000     
  -7.8332983702348417E-003   6.6825297139768619E-002   0.0000000000000000     
  -8.1683782321501589E-003   7.2797151833633431E-002   0.0000000000000000     
  -8.4985118431135549E-003   7.8954133426701656E-002   0.0000000000000000     
  -1.0651174939552862E-002   5.5580876054439350E-002   0.0000000000000000     
  -1.1192944340373720E-002   6.1178467464825012E-002   0.0000000000000000     
  -1.1722896590016602E-002   6.6961089717794214E-002   0.0000000000000000     
  -1.2241031688481504E-002   7.2928742813346895E-002   0.0000000000000000     
  -1.2747349635768424E-002   7.9081426751483122E-002   0.0000000000000000     
  -1.4106533374098911E-002   5.5782346705652054E-002   0.0000000000000000     
  -1.4861307049828380E-002   6.1374324835265691E-002   0.0000000000000000     
  -1.5594460824386243E-002   6.7151199328580546E-002   0.0000000000000000     
  -1.6305994697772497E-002   7.3112970185596676E-002   0.0000000000000000     
  -1.6995908669987136E-002   7.9259637406314004E-002   0.0000000000000000     
   1.7504661782574704E-011   7.8852298767287207E-002   0.0000000000000000     
   1.3487413876717147E-011   8.5185293504639201E-002   0.0000000000000000     
   9.8909671685659672E-012   9.1678234540095632E-002   0.0000000000000000     
   6.7153210618099701E-012   9.8331121873656474E-002   0.0000000000000000     
   3.9604764780210022E-012  0.10514395550532175        0.0000000000000000     
  -4.2493952920225255E-003   7.8877757431969703E-002   0.0000000000000000     
  -4.4079222436340720E-003   8.5209852227155380E-002   0.0000000000000000     
  -4.5617883724740401E-003   9.1701831708124765E-002   0.0000000000000000     
  -4.7109936785424281E-003   9.8353695874877814E-002   0.0000000000000000     
  -4.8555381618392360E-003  0.10516544472741456        0.0000000000000000     
  -8.4985118431135549E-003   7.8954133426701656E-002   0.0000000000000000     
  -8.8210494593990319E-003   8.5283528394019606E-002   0.0000000000000000     
  -9.1333413372806024E-003   9.1772623210633675E-002   0.0000000000000000     
  -9.4353874767582648E-003   9.8421417876543793E-002   0.0000000000000000     
  -9.7271878778320189E-003  0.10522991239175000        0.0000000000000000     
  -1.2747349635768424E-002   7.9081426751483122E-002   0.0000000000000000     
  -1.3239381633807463E-002   8.5406322005231891E-002   0.0000000000000000     
  -1.3714658884528719E-002   9.1890609047622321E-002   0.0000000000000000     
  -1.4173181387932186E-002   9.8534287878654384E-002   0.0000000000000000     
  -1.4614949144017871E-002  0.10533735849832813        0.0000000000000000     
  -1.6995908669987136E-002   7.9259637406314004E-002   0.0000000000000000     
  -1.7662918766859367E-002   8.5578233060792180E-002   0.0000000000000000     
  -1.8305741014218387E-002   9.2055789219090717E-002   0.0000000000000000     
  -1.8924375412064195E-002   9.8692305881209627E-002   0.0000000000000000     
  -1.9518821960396792E-002  0.10548778304714891        0.0000000000000000     
   3.9604764780210022E-012  0.10514395550532175        0.0000000000000000     
   1.6613340477616978E-012  0.11210461878279314        0.0000000000000000     
  -1.4720538156487439E-013  0.11920099505377234        0.0000000000000000     
  -1.4651381778814365E-012  0.12643308431825934        0.0000000000000000     
  -2.2924674311641802E-012  0.13380088657625416        0.0000000000000000     
  -4.8555381618392360E-003  0.10516544472741456        0.0000000000000000     
  -4.9946121411743394E-003  0.11212498985057262        0.0000000000000000     
  -5.1274059353576098E-003  0.11922024282918964        0.0000000000000000     
  -5.2539195443890479E-003  0.12645120366326568        0.0000000000000000     
  -5.3741529682686511E-003  0.13381787235280063        0.0000000000000000     
  -9.7271878778320189E-003  0.10522991239175000        0.0000000000000000     
  -1.0007486794490041E-002  0.11218610305229450        0.0000000000000000     
  -1.0275028480720511E-002  0.11927798615421947        0.0000000000000000     
  -1.0529812936523421E-002  0.12650556169752492        0.0000000000000000     
  -1.0771840161898775E-002  0.13386882968221081        0.0000000000000000     
  -1.4614949144017871E-002  0.10533735849832813        0.0000000000000000     
  -1.5038623958285776E-002  0.11228795838795884        0.0000000000000000     
  -1.5442867636235905E-002  0.11937422502886182        0.0000000000000000     
  -1.5827680177868262E-002  0.12659615842103714        0.0000000000000000     
  -1.6193061583182844E-002  0.13395375856448466        0.0000000000000000     
  -1.9518821960396792E-002  0.10548778304714891        0.0000000000000000     
  -2.0088023632561545E-002  0.11243055585756558        0.0000000000000000     
  -2.0630923401903801E-002  0.11950895945311671        0.0000000000000000     
  -2.1147521268423574E-002  0.12672299383380223        0.0000000000000000     
  -2.1637817232120854E-002  0.13407265899962223        0.0000000000000000     
  -2.2924674311641802E-012  0.13380088657625416        0.0000000000000000     
  -2.7278381376644179E-012  0.14129279562536881        0.0000000000000000     
  -2.8698936673302033E-012  0.14889720526321540        0.0000000000000000     
  -2.7186369746124567E-012  0.15661411548979393        0.0000000000000000     
  -2.2740650508501492E-012  0.16444352630510434        0.0000000000000000     
  -5.3741529682686511E-003  0.13381787235280063        0.0000000000000000     
  -5.4877277801124100E-003  0.14130862118116069        0.0000000000000000     
  -5.5942655530363070E-003  0.14891182243171200        0.0000000000000000     
  -5.6937662870403449E-003  0.15662747610445449        0.0000000000000000     
  -5.7862299821245192E-003  0.16445558219938816        0.0000000000000000     
  -1.0771840161898775E-002  0.13386882968221081        0.0000000000000000     
  -1.1000493322484367E-002  0.14135609784879322        0.0000000000000000     
  -1.1215155583917986E-002  0.14895567393778814        0.0000000000000000     
  -1.1415826946199630E-002  0.15666755794919562        0.0000000000000000     
  -1.1602507409329299E-002  0.16449174988301563        0.0000000000000000     
  -1.6193061583182844E-002  0.13395375856448466        0.0000000000000000     
  -1.6538296629843716E-002  0.14143522562826633        0.0000000000000000     
  -1.6862670095514933E-002  0.14902875978144386        0.0000000000000000     
  -1.7166181980196496E-002  0.15673436102401730        0.0000000000000000     
  -1.7448832283888403E-002  0.16455202935598665        0.0000000000000000     
  -2.1637817232120854E-002  0.13407265899962223        0.0000000000000000     
  -2.2101137702190445E-002  0.14154600451958005        0.0000000000000000     
  -2.2536809087827139E-002  0.14913107996267916        0.0000000000000000     
  -2.2944831389030931E-002  0.15682788532891956        0.0000000000000000     
  -2.3325204605801834E-002  0.16463642061830122        0.0000000000000000     
  -2.2740650508501492E-012  0.16444352630510434        0.0000000000000000     
  -1.7373155865307854E-012  0.17237253935510272        0.0000000000000000     
  -1.3095216100725282E-012  0.18038825628574523        0.0000000000000000     
  -9.9068336542086632E-013  0.18849067709703182        0.0000000000000000     
  -7.8080250598411283E-013  0.19667980178896247        0.0000000000000000     
  -5.7862299821245192E-003  0.16445558219938816        0.0000000000000000     
  -5.8714990056569667E-003  0.17238330464747967        0.0000000000000000     
  -5.9494157250058119E-003  0.18039780737969555        0.0000000000000000     
  -6.0199801401710582E-003  0.18849909039603577        0.0000000000000000     
  -6.0831922511527057E-003  0.19668715369650033        0.0000000000000000     
  -1.1602507409329299E-002  0.16449174988301563        0.0000000000000000     
  -1.1774785035859445E-002  0.17241560052531429        0.0000000000000000     
  -1.1932247888342514E-002  0.18042646066215767        0.0000000000000000     
  -1.2074895966778500E-002  0.18852433029354587        0.0000000000000000     
  -1.2202729271167405E-002  0.19670920941947873        0.0000000000000000     
  -1.7448832283888403E-002  0.16455202935598665        0.0000000000000000     
  -1.7709858092344752E-002  0.17246942698860654        0.0000000000000000     
  -1.7948496491319622E-002  0.18047421613313167        0.0000000000000000     
  -1.8164747480812999E-002  0.18856639678956197        0.0000000000000000     
  -1.8358611060824905E-002  0.19674596895789753        0.0000000000000000     
  -2.3325204605801834E-002  0.16463642061830122        0.0000000000000000     
  -2.3676718175112885E-002  0.17254478403735643        0.0000000000000000     
  -2.3998161533937124E-002  0.18054107379261744        0.0000000000000000     
  -2.4289534682274565E-002  0.18862528988408420        0.0000000000000000     
  -2.4550837620125200E-002  0.19679743231175675        0.0000000000000000     
  -7.8080250598411283E-013  0.19667980178896247        0.0000000000000000     
  -6.3980201345237298E-013  0.20493756892229881        0.0000000000000000     
  -5.2760356847314505E-013  0.21324591705780255        0.0000000000000000     
  -4.4421031523272925E-013  0.22160484619547366        0.0000000000000000     
  -3.8961932638525987E-013  0.23001435633531217        0.0000000000000000     
  -6.0831922511527057E-003  0.19668715369650033        0.0000000000000000     
  -6.1393048024761809E-003  0.20494411091251707        0.0000000000000000     
  -6.1885705386669123E-003  0.21325207567551374        0.0000000000000000     
  -6.2309894597248998E-003  0.22161104798549025        0.0000000000000000     
  -6.2665615656501434E-003  0.23002102784244666        0.0000000000000000     
  -1.2202729271167405E-002  0.19670920941947873        0.0000000000000000     
  -1.2316164204650849E-002  0.20496373688340999        0.0000000000000000     
  -1.2415617170370435E-002  0.21327055152879329        0.0000000000000000     
  -1.2501088168326164E-002  0.22162965335562862        0.0000000000000000     
  -1.2572577198518039E-002  0.23004104236391593        0.0000000000000000     
  -1.8358611060824905E-002  0.19674596895789753        0.0000000000000000     
  -1.8530578207163802E-002  0.20499644683497750        0.0000000000000000     
  -1.8681139895638171E-002  0.21330134461764130        0.0000000000000000     
  -1.8810296126248006E-002  0.22166066230588877        0.0000000000000000     
  -1.8918046898993308E-002  0.23007439989972001        0.0000000000000000     
  -2.4550837620125200E-002  0.19679743231175675        0.0000000000000000     
  -2.4782546810015040E-002  0.20504224076721975        0.0000000000000000     
  -2.4985138714470119E-002  0.21334445494205770        0.0000000000000000     
  -2.5158613333490419E-002  0.22170407483627078        0.0000000000000000     
  -2.5302970667075948E-002  0.23012110044985884        0.0000000000000000     
  -3.8961932638525987E-013  0.23001435633531217        0.0000000000000000     
  -3.5270484449734241E-013  0.23844308691516944        0.0000000000000000     
  -3.2233981109297538E-013  0.24685967737289699        0.0000000000000000     
  -2.9851913042194811E-013  0.25526412770849488        0.0000000000000000     
  -2.8124811507490577E-013  0.26365643792196297        0.0000000000000000     
  -6.2665615656501434E-003  0.23002102784244666        0.0000000000000000     
  -6.2964790766362969E-003  0.23845089678982770        0.0000000000000000     
  -6.3219342128770168E-003  0.24686953637107822        0.0000000000000000     
  -6.3429269743723073E-003  0.25527694658619804        0.0000000000000000     
  -6.3594573611221597E-003  0.26367312743518734        0.0000000000000000     
  -1.2572577198518039E-002  0.23004104236391593        0.0000000000000000     
  -1.2632721583744087E-002  0.23847432641386307        0.0000000000000000     
  -1.2684158646802340E-002  0.24689911336567766        0.0000000000000000     
  -1.2726888387692793E-002  0.25531540321935980        0.0000000000000000     
  -1.2760910806415449E-002  0.26372319597490945        0.0000000000000000     
  -1.8918046898993308E-002  0.23007439989972001        0.0000000000000000     
  -1.9008727521676073E-002  0.23851337578727538        0.0000000000000000     
  -1.9086673302098300E-002  0.24694840835669540        0.0000000000000000     
  -1.9151884240259980E-002  0.25537949760798001        0.0000000000000000     
  -1.9204360336161120E-002  0.26380664354112932        0.0000000000000000     
  -2.5302970667075948E-002  0.23012110044985884        0.0000000000000000     
  -2.5424496890432257E-002  0.23856804491006478        0.0000000000000000     
  -2.5529478178764897E-002  0.24701742134413143        0.0000000000000000     
  -2.5617914532073866E-002  0.25546922975205877        0.0000000000000000     
  -2.5689805950359169E-002  0.26392347013384687        0.0000000000000000     
  -2.8124811507490577E-013  0.26365643792196297        0.0000000000000000     
  -2.6773396867574295E-013  0.27197650690836089        0.0000000000000000     
  -2.5518964111986842E-013  0.28016423356274828        0.0000000000000000     
  -2.4361450899103299E-013  0.28821961788512507        0.0000000000000000     
  -2.3300805729320473E-013  0.29614265987549121        0.0000000000000000     
  -6.3594573611221597E-003  0.26367312743518734        0.0000000000000000     
  -6.3754063629496167E-003  0.27199828824607730        0.0000000000000000     
  -6.3946549696777162E-003  0.28019263834689923        0.0000000000000000     
  -6.4172031813064558E-003  0.28825617773765311        0.0000000000000000     
  -6.4430509978358353E-003  0.29618890641833895        0.0000000000000000     
  -1.2760910806415449E-002  0.26372319597490945        0.0000000000000000     
  -1.2793430219333180E-002  0.27206363225927616        0.0000000000000000     
  -1.2831650942808847E-002  0.28027785269940947        0.0000000000000000     
  -1.2875572976842454E-002  0.28836585729530956        0.0000000000000000     
  -1.2925196321434001E-002  0.29632764604697615        0.0000000000000000     
  -1.9204360336161120E-002  0.26380664354112932        0.0000000000000000     
  -1.9254071569418423E-002  0.27217253894795757        0.0000000000000000     
  -1.9310987919648585E-002  0.28041987662027917        0.0000000000000000     
  -1.9375109386851615E-002  0.28854865655809431        0.0000000000000000     
  -1.9446435971027503E-002  0.29655887876140274        0.0000000000000000     
  -2.5689805950359169E-002  0.26392347013384687        0.0000000000000000     
  -2.5757330413205347E-002  0.27232500831212142        0.0000000000000000     
  -2.5832665900196932E-002  0.28061871010950823        0.0000000000000000     
  -2.5915812411333932E-002  0.28880457552600741        0.0000000000000000     
  -2.6006769946616343E-002  0.29688260456161886        0.0000000000000000     
  -1.4106533374098911E-002   5.5782346705652054E-002   0.0000000000000000     
  -1.4861307049828380E-002   6.1374324835265691E-002   0.0000000000000000     
  -1.5594460824386243E-002   6.7151199328580546E-002   0.0000000000000000     
  -1.6305994697772497E-002   7.3112970185596676E-002   0.0000000000000000     
  -1.6995908669987136E-002   7.9259637406314004E-002   0.0000000000000000     
  -1.7605268134577353E-002   5.6040810276498043E-002   0.0000000000000000     
  -1.8576320091948977E-002   6.1626262872802914E-002   0.0000000000000000     
  -1.9515265297634053E-002   6.7396164409731965E-002   0.0000000000000000     
  -2.0422103751632566E-002   7.3350514887285195E-002   0.0000000000000000     
  -2.1296835453944521E-002   7.9489314305462619E-002   0.0000000000000000     
  -2.1238272158378958E-002   5.6355696640188052E-002   0.0000000000000000     
  -2.2415943172952906E-002   6.1934402993810422E-002   0.0000000000000000     
  -2.3552584234050301E-002   6.7696523398852723E-002   0.0000000000000000     
  -2.4648195341671147E-002   7.3642057855314941E-002   0.0000000000000000     
  -2.5702776495815424E-002   7.9771006363197089E-002   0.0000000000000000     
  -2.5005545445503721E-002   5.6727005796722081E-002   0.0000000000000000     
  -2.6380176292840157E-002   6.2298745198288229E-002   0.0000000000000000     
  -2.7706417633634996E-002   6.8052276295942835E-002   0.0000000000000000     
  -2.8984269467888225E-002   7.3987599089685899E-002   0.0000000000000000     
  -3.0213731795599844E-002   8.0104713579517456E-002   0.0000000000000000     
  -2.8907087995951646E-002   5.7154737746100130E-002   0.0000000000000000     
  -3.0469019451610749E-002   6.2719289486236299E-002   0.0000000000000000     
  -3.1976765496388136E-002   6.8463423101002271E-002   0.0000000000000000     
  -3.3430326130283815E-002   7.4387138590398069E-002   0.0000000000000000     
  -3.4829701353297778E-002   8.0490435954423664E-002   0.0000000000000000     
  -1.6995908669987136E-002   7.9259637406314004E-002   0.0000000000000000     
  -1.7662918766859367E-002   8.5578233060792180E-002   0.0000000000000000     
  -1.8305741014218387E-002   9.2055789219090717E-002   0.0000000000000000     
  -1.8924375412064195E-002   9.8692305881209627E-002   0.0000000000000000     
  -1.9518821960396792E-002  0.10548778304714891        0.0000000000000000     
  -2.1296835453944521E-002   7.9489314305462619E-002   0.0000000000000000     
  -2.2139670286211048E-002   8.5799612680949683E-002   0.0000000000000000     
  -2.2950818130073249E-002   9.2268460030431890E-002   0.0000000000000000     
  -2.3730278985531126E-002   9.8895856353909226E-002   0.0000000000000000     
  -2.4478052852584690E-002  0.10568180165138170        0.0000000000000000     
  -2.5702776495815424E-002   7.9771006363197089E-002   0.0000000000000000     
  -2.6717645619518809E-002   8.6070811985953594E-002   0.0000000000000000     
  -2.7694120635816943E-002   9.2528917787038908E-002   0.0000000000000000     
  -2.8632201544709829E-002   9.9145323766452978E-002   0.0000000000000000     
  -2.9531888346197462E-002  0.10592002992419589        0.0000000000000000     
  -3.0213731795599844E-002   8.0104713579517456E-002   0.0000000000000000     
  -3.1396844766782658E-002   8.6391830975803913E-002   0.0000000000000000     
  -3.2535648531449482E-002   9.2837162488911718E-002   0.0000000000000000     
  -3.3630143089600301E-002   9.9440708118840926E-002   0.0000000000000000     
  -3.4680328441235107E-002  0.10620246786559144        0.0000000000000000     
  -3.4829701353297778E-002   8.0490435954423664E-002   0.0000000000000000     
  -3.6177267728002588E-002   8.6762669650500585E-002   0.0000000000000000     
  -3.7475401816970851E-002   9.3193194136050372E-002   0.0000000000000000     
  -3.8724103620202524E-002   9.9782009411072972E-002   0.0000000000000000     
  -3.9923373137697643E-002  0.10652911547556840        0.0000000000000000     
  -1.9518821960396792E-002  0.10548778304714891        0.0000000000000000     
  -2.0088023632561545E-002  0.11243055585756558        0.0000000000000000     
  -2.0630923401903801E-002  0.11950895945311671        0.0000000000000000     
  -2.1147521268423574E-002  0.12672299383380223        0.0000000000000000     
  -2.1637817232120854E-002  0.13407265899962223        0.0000000000000000     
  -2.4478052852584690E-002  0.10568180165138170        0.0000000000000000     
  -2.5193426103749774E-002  0.11261477836227182        0.0000000000000000     
  -2.5875685111542222E-002  0.11968326892600209        0.0000000000000000     
  -2.6524829875962042E-002  0.12688727334257249        0.0000000000000000     
  -2.7140860397009237E-002  0.13422679161198300        0.0000000000000000     
  -2.9531888346197462E-002  0.10592002992419589        0.0000000000000000     
  -3.0392571658282901E-002  0.11284150880323454        0.0000000000000000     
  -3.1213642098969204E-002  0.11989823294653584        0.0000000000000000     
  -3.1995099668256366E-002  0.12709020235409985        0.0000000000000000     
  -3.2736944366144410E-002  0.13441741702592652        0.0000000000000000     
  -3.4680328441235107E-002  0.10620246786559144        0.0000000000000000     
  -3.5685460296160924E-002  0.11311074718045372        0.0000000000000000     
  -3.6644794364184746E-002  0.12015385151471802        0.0000000000000000     
  -3.7558330645306552E-002  0.12733178086838437        0.0000000000000000     
  -3.8426069139526363E-002  0.13464453524145278        0.0000000000000000     
  -3.9923373137697643E-002  0.10652911547556840        0.0000000000000000     
  -4.1072092017383856E-002  0.11342249349392937        0.0000000000000000     
  -4.2169141907188838E-002  0.12045012463054861        0.0000000000000000     
  -4.3214522807112597E-002  0.12761200888542606        0.0000000000000000     
  -4.4208234717155126E-002  0.13490814625856179        0.0000000000000000     
  -2.1637817232120854E-002  0.13407265899962223        0.0000000000000000     
  -2.2101137702190445E-002  0.14154600451958005        0.0000000000000000     
  -2.2536809087827139E-002  0.14913107996267916        0.0000000000000000     
  -2.2944831389030931E-002  0.15682788532891956        0.0000000000000000     
  -2.3325204605801834E-002  0.16463642061830122        0.0000000000000000     
  -2.7140860397009237E-002  0.13422679161198300        0.0000000000000000     
  -2.7723195325034977E-002  0.14168976063623395        0.0000000000000000     
  -2.8271253310390463E-002  0.14926411731732558        0.0000000000000000     
  -2.8785034353075684E-002  0.15694986165525784        0.0000000000000000     
  -2.9264538453090648E-002  0.16474699365003082        0.0000000000000000     
  -3.2736944366144410E-002  0.13441741702592652        0.0000000000000000     
  -3.3438648283887713E-002  0.14186782009172758        0.0000000000000000     
  -3.4099683512740744E-002  0.14942935468121465        0.0000000000000000     
  -3.4720050052703469E-002  0.15710202079438773        0.0000000000000000     
  -3.5299747903775915E-002  0.16488581843124683        0.0000000000000000     
  -3.8426069139526363E-002  0.13464453524145278        0.0000000000000000     
  -3.9247496578748681E-002  0.14208018288606089        0.0000000000000000     
  -4.0022099694877994E-002  0.14962679205434637        0.0000000000000000     
  -4.0749878487914303E-002  0.15728436274630914        0.0000000000000000     
  -4.1430832957857613E-002  0.16505289496194930        0.0000000000000000     
  -4.4208234717155126E-002  0.13490814625856179        0.0000000000000000     
  -4.5149740209617852E-002  0.14232684901923395        0.0000000000000000     
  -4.6038501856802201E-002  0.14985642943672076        0.0000000000000000     
  -4.6874519658708168E-002  0.15749688751102214        0.0000000000000000     
  -4.7657793615335765E-002  0.16524822324213820        0.0000000000000000     
  -2.3325204605801834E-002  0.16463642061830122        0.0000000000000000     
  -2.3676718175112885E-002  0.17254478403735643        0.0000000000000000     
  -2.3998161533937124E-002  0.18054107379261744        0.0000000000000000     
  -2.4289534682274565E-002  0.18862528988408420        0.0000000000000000     
  -2.4550837620125200E-002  0.19679743231175675        0.0000000000000000     
  -2.9264538453090648E-002  0.16474699365003082        0.0000000000000000     
  -2.9708158249461630E-002  0.17264402541202289        0.0000000000000000     
  -3.0114286381214914E-002  0.18062946905161256        0.0000000000000000     
  -3.0482922848350493E-002  0.18870332456879990        0.0000000000000000     
  -3.0814067650868370E-002  0.19686559196358475        0.0000000000000000     
  -3.5299747903775915E-002  0.16488581843124683        0.0000000000000000     
  -3.5836971280688787E-002  0.17276950485306486        0.0000000000000000     
  -3.6329914398172833E-002  0.18074183732111471        0.0000000000000000     
  -3.6778577256228066E-002  0.18880281583539635        0.0000000000000000     
  -3.7182959854854494E-002  0.19695244039590978        0.0000000000000000     
  -4.1430832957857613E-002  0.16505289496194930        0.0000000000000000     
  -4.2063157268794345E-002  0.17292122236048232        0.0000000000000000     
  -4.2645045584810908E-002  0.18087817860112379        0.0000000000000000     
  -4.3176497905907323E-002  0.18892376368387359        0.0000000000000000     
  -4.3657514232083569E-002  0.19705797760873189        0.0000000000000000     
  -4.7657793615335765E-002  0.16524822324213820        0.0000000000000000     
  -4.8386716213778304E-002  0.17309917793427529        0.0000000000000000     
  -4.9059679941129135E-002  0.18103849289163981        0.0000000000000000     
  -4.9676684797388224E-002  0.18906616811423171        0.0000000000000000     
  -5.0237730782555598E-002  0.19718220360205102        0.0000000000000000     
  -2.4550837620125200E-002  0.19679743231175675        0.0000000000000000     
  -2.4782546810015040E-002  0.20504224076721975        0.0000000000000000     
  -2.4985138714470119E-002  0.21334445494205770        0.0000000000000000     
  -2.5158613333490419E-002  0.22170407483627078        0.0000000000000000     
  -2.5302970667075948E-002  0.23012110044985884        0.0000000000000000     
  -3.0814067650868370E-002  0.19686559196358475        0.0000000000000000     
  -3.1107974808753436E-002  0.20510249569249164        0.0000000000000000     
  -3.1364898341990584E-002  0.21340026021204506        0.0000000000000000     
  -3.1584838250579804E-002  0.22175888552224490        0.0000000000000000     
  -3.1767794534521110E-002  0.23017837162309132        0.0000000000000000     
  -3.7182959854854494E-002  0.19695244039590978        0.0000000000000000     
  -3.7542766998927841E-002  0.20517858862314847        0.0000000000000000     
  -3.7857703493323860E-002  0.21346913813760582        0.0000000000000000     
  -3.8127769338042565E-002  0.22182408893928174        0.0000000000000000     
  -3.8352964533083941E-002  0.23024344102817637        0.0000000000000000     
  -4.3657514232083569E-002  0.19705797760873189        0.0000000000000000     
  -4.4086923380538261E-002  0.20527051955919012        0.0000000000000000     
  -4.4463554168469963E-002  0.21355108871873987        0.0000000000000000     
  -4.4787406595878695E-002  0.22189968508738117        0.0000000000000000     
  -4.5058480662764445E-002  0.23031630866511399        0.0000000000000000     
  -5.0237730782555598E-002  0.19718220360205102        0.0000000000000000     
  -5.0740443953584687E-002  0.20537828850061668        0.0000000000000000     
  -5.1182450367428883E-002  0.21364611195544739        0.0000000000000000     
  -5.1563750024088195E-002  0.22198567396654326        0.0000000000000000     
  -5.1884342923562601E-002  0.23039697453390418        0.0000000000000000     
  -2.5302970667075948E-002  0.23012110044985884        0.0000000000000000     
  -2.5424496890432257E-002  0.23856804491006478        0.0000000000000000     
  -2.5529478178764897E-002  0.24701742134413143        0.0000000000000000     
  -2.5617914532073866E-002  0.25546922975205877        0.0000000000000000     
  -2.5689805950359169E-002  0.26392347013384687        0.0000000000000000     
  -3.1767794534521110E-002  0.23017837162309132        0.0000000000000000     
  -3.1921727809169548E-002  0.23863387470772640        0.0000000000000000     
  -3.2054598689880191E-002  0.24710055096929240        0.0000000000000000     
  -3.2166407176653040E-002  0.25557840040778940        0.0000000000000000     
  -3.2257153269488081E-002  0.26406742302321717        0.0000000000000000     
  -3.8352964533083941E-002  0.23024344102817637        0.0000000000000000     
  -3.8542118397044869E-002  0.23870640610575553        0.0000000000000000     
  -3.8704060248522250E-002  0.24719219587348509        0.0000000000000000     
  -3.8838790087516069E-002  0.25570081033136510        0.0000000000000000     
  -3.8946307914026333E-002  0.26423224947939550        0.0000000000000000     
  -4.5058480662764445E-002  0.23031630866511399        0.0000000000000000     
  -4.5285668654058239E-002  0.23878563910415215        0.0000000000000000     
  -4.5477862854691083E-002  0.24729235605670949        0.0000000000000000     
  -4.5635063264662969E-002  0.25583645952278600        0.0000000000000000     
  -4.5757269883973925E-002  0.26441794950238157        0.0000000000000000     
  -5.1884342923562601E-002  0.23039697453390418        0.0000000000000000     
  -5.2152378580209616E-002  0.23887157370291628        0.0000000000000000     
  -5.2376006508386648E-002  0.24740103151896559        0.0000000000000000     
  -5.2555226708093733E-002  0.25598534798205197        0.0000000000000000     
  -5.2690039179330850E-002  0.26462452309217566        0.0000000000000000     
  -2.5689805950359169E-002  0.26392347013384687        0.0000000000000000     
  -2.5757330413205347E-002  0.27232500831212142        0.0000000000000000     
  -2.5832665900196932E-002  0.28061871010950823        0.0000000000000000     
  -2.5915812411333932E-002  0.28880457552600741        0.0000000000000000     
  -2.6006769946616343E-002  0.29688260456161886        0.0000000000000000     
  -3.2257153269488081E-002  0.26406742302321717        0.0000000000000000     
  -3.2341626707802669E-002  0.27251471826123008        0.0000000000000000     
  -3.2434617231014130E-002  0.28086738556748175        0.0000000000000000     
  -3.2536124839122486E-002  0.28912542494197235        0.0000000000000000     
  -3.2646149532127723E-002  0.29728883638470205        0.0000000000000000     
  -3.8946307914026333E-002  0.26423224947939550        0.0000000000000000     
  -3.9045380410319096E-002  0.27273534670474558        0.0000000000000000     
  -3.9154774258660451E-002  0.28115893539458464        0.0000000000000000     
  -3.9274489459050356E-002  0.28950301554891278        0.0000000000000000     
  -3.9404526011488854E-002  0.29776758716772983        0.0000000000000000     
  -4.5757269883973925E-002  0.26441794950238157        0.0000000000000000     
  -4.5868591520754641E-002  0.27298689364266804        0.0000000000000000     
  -4.5993136983135854E-002  0.28149335959081706        0.0000000000000000     
  -4.6130906271117551E-002  0.28993734734682847        0.0000000000000000     
  -4.6281899384699739E-002  0.29831885691070237        0.0000000000000000     
  -5.2690039179330850E-002  0.26462452309217566        0.0000000000000000     
  -5.2811260039109298E-002  0.27326935907499750        0.0000000000000000     
  -5.2949705404440370E-002  0.28187065815617879        0.0000000000000000     
  -5.3105375275324065E-002  0.29042842033571953        0.0000000000000000     
  -5.3278269651760371E-002  0.29894264561361961        0.0000000000000000     
  -2.8907087995951646E-002   5.7154737746100130E-002   0.0000000000000000     
  -3.0469019451610749E-002   6.2719289486236299E-002   0.0000000000000000     
  -3.1976765496388136E-002   6.8463423101002271E-002   0.0000000000000000     
  -3.3430326130283815E-002   7.4387138590398069E-002   0.0000000000000000     
  -3.4829701353297778E-002   8.0490435954423664E-002   0.0000000000000000     
  -3.2934394239094070E-002   5.7653322445681443E-002   0.0000000000000000     
  -3.4681353948037910E-002   6.3204001035936902E-002   0.0000000000000000     
  -3.6368710956506421E-002   6.8933439114752193E-002   0.0000000000000000     
  -3.7996465264499617E-002   7.4841636682127288E-002   0.0000000000000000     
  -3.9564616872017483E-002   8.0928593738062216E-002   0.0000000000000000     
  -3.7078958604302319E-002   5.8237189852825257E-002   0.0000000000000000     
  -3.9016061080894872E-002   6.3760845025672294E-002   0.0000000000000000     
  -4.0887337148186556E-002   6.9465799637913675E-002   0.0000000000000000     
  -4.2692786806177344E-002   7.5352053689549420E-002   0.0000000000000000     
  -4.4432410054867276E-002   8.1419607180579515E-002   0.0000000000000000     
  -4.1340781091576399E-002   5.8906339967531592E-002   0.0000000000000000     
  -4.3473140850181634E-002   6.4389821455442461E-002   0.0000000000000000     
  -4.5532644071428513E-002   7.0060504670486773E-002   0.0000000000000000     
  -4.7519290755317002E-002   7.5918389612664464E-002   0.0000000000000000     
  -4.9433080901847115E-002   8.1963476281975547E-002   0.0000000000000000     
  -4.5719861700916298E-002   5.9660772789800427E-002   0.0000000000000000     
  -4.8052593255898231E-002   6.5090930325247431E-002   0.0000000000000000     
  -5.0304631726232313E-002   7.0717554212471403E-002   0.0000000000000000     
  -5.2475977111918572E-002   7.6540644451472392E-002   0.0000000000000000     
  -5.4566629412957021E-002   8.2560201042250342E-002   0.0000000000000000     
  -3.4829701353297778E-002   8.0490435954423664E-002   0.0000000000000000     
  -3.6177267728002588E-002   8.6762669650500585E-002   0.0000000000000000     
  -3.7475401816970851E-002   9.3193194136050372E-002   0.0000000000000000     
  -3.8724103620202524E-002   9.9782009411072972E-002   0.0000000000000000     
  -3.9923373137697643E-002  0.10652911547556840        0.0000000000000000     
  -3.9564616872017483E-002   8.0928593738062216E-002   0.0000000000000000     
  -4.1075754514105840E-002   8.7184109339344645E-002   0.0000000000000000     
  -4.2532466925810412E-002   9.3597982542762220E-002   0.0000000000000000     
  -4.3934754107131255E-002  0.10017021334831494        0.0000000000000000     
  -4.5282616058068333E-002  0.10690080175600283        0.0000000000000000     
  -4.4432410054867276E-002   8.1419607180579515E-002   0.0000000000000000     
  -4.6109145136019589E-002   8.7656931371636937E-002   0.0000000000000000     
  -4.7725930291397559E-002   9.4052497523354622E-002   0.0000000000000000     
  -4.9282765521001193E-002  0.10060630563573261        0.0000000000000000     
  -5.0779650824830484E-002  0.10731835570877085        0.0000000000000000     
  -4.9433080901847115E-002   8.1963476281975547E-002   0.0000000000000000     
  -5.1277439593743861E-002   8.8181135747377473E-002   0.0000000000000000     
  -5.3055791913732268E-002   9.4556739077827606E-002   0.0000000000000000     
  -5.4768137861812352E-002  0.10109028627332593        0.0000000000000000     
  -5.6414477437984077E-002  0.10778177733387247        0.0000000000000000     
  -5.4566629412957021E-002   8.2560201042250342E-002   0.0000000000000000     
  -5.6580637887278663E-002   8.8756722466566282E-002   0.0000000000000000     
  -5.8522051792814563E-002   9.5110707206181144E-002   0.0000000000000000     
  -6.0390871129564719E-002  0.10162215526109496        0.0000000000000000     
  -6.2187095897529132E-002  0.10829106663130768        0.0000000000000000     
  -3.9923373137697643E-002  0.10652911547556840        0.0000000000000000     
  -4.1072092017383856E-002  0.11342249349392937        0.0000000000000000     
  -4.2169141907188838E-002  0.12045012463054861        0.0000000000000000     
  -4.3214522807112597E-002  0.12761200888542606        0.0000000000000000     
  -4.4208234717155126E-002  0.13490814625856179        0.0000000000000000     
  -4.5282616058068333E-002  0.10690080175600283        0.0000000000000000     
  -4.6574600180565279E-002  0.11377743944876495        0.0000000000000000     
  -4.7809253876565691E-002  0.12078781810954033        0.0000000000000000     
  -4.8986577146069570E-002  0.12793193773832898        0.0000000000000000     
  -5.0106569989076907E-002  0.13520979833513092        0.0000000000000000     
  -5.0779650824830484E-002  0.10731835570877085        0.0000000000000000     
  -5.2215118144318784E-002  0.11417627675006382        0.0000000000000000     
  -5.3587699420899464E-002  0.12116769776720593        0.0000000000000000     
  -5.4897394654572509E-002  0.12829261876019715        0.0000000000000000     
  -5.6144203845337928E-002  0.13555103972903751        0.0000000000000000     
  -5.6414477437984077E-002  0.10778177733387247        0.0000000000000000     
  -5.7993645908644371E-002  0.11461900539782603        0.0000000000000000     
  -5.9504478540190163E-002  0.12158976360354537        0.0000000000000000     
  -6.0946975332621445E-002  0.12869405195103056        0.0000000000000000     
  -6.2321136285938196E-002  0.13593187044028154        0.0000000000000000     
  -6.2187095897529132E-002  0.10829106663130768        0.0000000000000000     
  -6.3910183473542062E-002  0.11510562539205155        0.0000000000000000     
  -6.5559591234437817E-002  0.12205401561855872        0.0000000000000000     
  -6.7135319180216355E-002  0.12913623731082924        0.0000000000000000     
  -6.8637367310877717E-002  0.13635229046886307        0.0000000000000000     
  -4.4208234717155126E-002  0.13490814625856179        0.0000000000000000     
  -4.5149740209617852E-002  0.14232684901923395        0.0000000000000000     
  -4.6038501856802201E-002  0.14985642943672076        0.0000000000000000     
  -4.6874519658708168E-002  0.15749688751102214        0.0000000000000000     
  -4.7657793615335765E-002  0.16524822324213820        0.0000000000000000     
  -5.0106569989076907E-002  0.13520979833513092        0.0000000000000000     
  -5.1168726227835727E-002  0.14260989290595610        0.0000000000000000     
  -5.2172539684594017E-002  0.15012071445681463        0.0000000000000000     
  -5.3118010359351799E-002  0.15774226298770638        0.0000000000000000     
  -5.4005138252109064E-002  0.16547453849863150        0.0000000000000000     
  -5.6144203845337928E-002  0.13555103972903751        0.0000000000000000     
  -5.7327801684742774E-002  0.14293138896093677        0.0000000000000000     
  -5.8447862864334114E-002  0.15042209474310481        0.0000000000000000     
  -5.9504387384111922E-002  0.15802315707554165        0.0000000000000000     
  -6.0497375244076210E-002  0.16573457595824720        0.0000000000000000     
  -6.2321136285938196E-002  0.13593187044028154        0.0000000000000000     
  -6.3626966580339006E-002  0.14329133718417594        0.0000000000000000     
  -6.4864471396022458E-002  0.15076057029559137        0.0000000000000000     
  -6.6033650732988530E-002  0.15833956977452782        0.0000000000000000     
  -6.7134504591237210E-002  0.16602833562098529        0.0000000000000000     
  -6.8637367310877717E-002  0.13635229046886307        0.0000000000000000     
  -7.0066220914624444E-002  0.14368973757567360        0.0000000000000000     
  -7.1422365279659061E-002  0.15113614111427423        0.0000000000000000     
  -7.2705800405981610E-002  0.15869150108466495        0.0000000000000000     
  -7.3916526293592050E-002  0.16635581748684572        0.0000000000000000     
  -4.7657793615335765E-002  0.16524822324213820        0.0000000000000000     
  -4.8386716213778304E-002  0.17309917793427529        0.0000000000000000     
  -4.9059679941129135E-002  0.18103849289163981        0.0000000000000000     
  -4.9676684797388224E-002  0.18906616811423171        0.0000000000000000     
  -5.0237730782555598E-002  0.19718220360205102        0.0000000000000000     
  -5.4005138252109064E-002  0.16547453849863150        0.0000000000000000     
  -5.4832588417310812E-002  0.17330625906876745        0.0000000000000000     
  -5.5599025909402057E-002  0.18122614277729185        0.0000000000000000     
  -5.6304450728382797E-002  0.18923418962420469        0.0000000000000000     
  -5.6948862874253027E-002  0.19733039960950582        0.0000000000000000     
  -6.0497375244076210E-002  0.16573457595824720        0.0000000000000000     
  -6.1425714181061998E-002  0.17354535325828263        0.0000000000000000     
  -6.2288291931904258E-002  0.18144449084270914        0.0000000000000000     
  -6.3085108496603037E-002  0.18943198871152650        0.0000000000000000     
  -6.3816163875158302E-002  0.19750784686473488        0.0000000000000000     
  -6.7134504591237210E-002  0.16602833562098529        0.0000000000000000     
  -6.8166093505031847E-002  0.17381646050282082        0.0000000000000000     
  -6.9127478008635765E-002  0.18169353708789143        0.0000000000000000     
  -7.0018658102048922E-002  0.18965956537619724        0.0000000000000000     
  -7.0839633785271375E-002  0.19771454536773811        0.0000000000000000     
  -7.3916526293592050E-002  0.16635581748684572        0.0000000000000000     
  -7.5053726389220365E-002  0.17411958080238193        0.0000000000000000     
  -7.6116584139596530E-002  0.18197328151283901        0.0000000000000000     
  -7.7105099544720501E-002  0.18991691961821691        0.0000000000000000     
  -7.8019272604592307E-002  0.19795049511851559        0.0000000000000000     
  -5.0237730782555598E-002  0.19718220360205102        0.0000000000000000     
  -5.0740443953584687E-002  0.20537828850061668        0.0000000000000000     
  -5.1182450367428883E-002  0.21364611195544739        0.0000000000000000     
  -5.1563750024088195E-002  0.22198567396654326        0.0000000000000000     
  -5.1884342923562601E-002  0.23039697453390418        0.0000000000000000     
  -5.6948862874253027E-002  0.19733039960950582        0.0000000000000000     
  -5.7529043010934332E-002  0.20550807958550057        0.0000000000000000     
  -5.8041771802348228E-002  0.21376053640449391        0.0000000000000000     
  -5.8487049248494752E-002  0.22208777006648578        0.0000000000000000     
  -5.8864875349373867E-002  0.23048978057147629        0.0000000000000000     
  -6.3816163875158302E-002  0.19750784686473488        0.0000000000000000     
  -6.4478434845454374E-002  0.20566607695191436        0.0000000000000000     
  -6.5068898185375645E-002  0.21390069062264494        0.0000000000000000     
  -6.5587553894922060E-002  0.22221168787692674        0.0000000000000000     
  -6.6034401974093646E-002  0.23059906871475963        0.0000000000000000     
  -7.0839633785271375E-002  0.19771454536773811        0.0000000000000000     
  -7.1588619457144856E-002  0.20585228059985800        0.0000000000000000     
  -7.2263829516511099E-002  0.21406657460990058        0.0000000000000000     
  -7.2865263963370147E-002  0.22235742739786601        0.0000000000000000     
  -7.3392922797721943E-002  0.23072483896375423        0.0000000000000000     
  -7.8019272604592307E-002  0.19795049511851559        0.0000000000000000     
  -7.8859596846005742E-002  0.20606669052933144        0.0000000000000000     
  -7.9626565795754653E-002  0.21425818836626084        0.0000000000000000     
  -8.0320179453838972E-002  0.22252498862930370        0.0000000000000000     
  -8.0940437820258754E-002  0.23086709131846003        0.0000000000000000     
  -5.1884342923562601E-002  0.23039697453390418        0.0000000000000000     
  -5.2152378580209616E-002  0.23887157370291628        0.0000000000000000     
  -5.2376006508386648E-002  0.24740103151896559        0.0000000000000000     
  -5.2555226708093733E-002  0.25598534798205197        0.0000000000000000     
  -5.2690039179330850E-002  0.26462452309217566        0.0000000000000000     
  -5.8864875349373867E-002  0.23048978057147629        0.0000000000000000     
  -5.9181371879656747E-002  0.23896563439911228        0.0000000000000000     
  -5.9442660614014514E-002  0.24751439802904052        0.0000000000000000     
  -5.9648741552447197E-002  0.25613607146126105        0.0000000000000000     
  -5.9799614694954754E-002  0.26483065469577388        0.0000000000000000     
  -6.6034401974093646E-002  0.23059906871475963        0.0000000000000000     
  -6.6411772256557366E-002  0.23906924568980437        0.0000000000000000     
  -6.6721994575980215E-002  0.24762863135572147        0.0000000000000000     
  -6.6965068932362204E-002  0.25627722571251099        0.0000000000000000     
  -6.7140995325703293E-002  0.26501502876017291        0.0000000000000000     
  -7.3392922797721943E-002  0.23072483896375423        0.0000000000000000     
  -7.3843579710911489E-002  0.23918240757499259        0.0000000000000000     
  -7.4214008394283756E-002  0.24774373149900841        0.0000000000000000     
  -7.4504208847838732E-002  0.25640881073580180        0.0000000000000000     
  -7.4714181071576430E-002  0.26517764528537263        0.0000000000000000     
  -8.0940437820258754E-002  0.23086709131846003        0.0000000000000000     
  -8.1476794242719100E-002  0.23930512005467697        0.0000000000000000     
  -8.1918702068925112E-002  0.24785969845890138        0.0000000000000000     
  -8.2266161298876816E-002  0.25653082653113346        0.0000000000000000     
  -8.2519171932574187E-002  0.26531850427137305        0.0000000000000000     
  -5.2690039179330850E-002  0.26462452309217566        0.0000000000000000     
  -5.2811260039109298E-002  0.27326935907499750        0.0000000000000000     
  -5.2949705404440370E-002  0.28187065815617879        0.0000000000000000     
  -5.3105375275324065E-002  0.29042842033571953        0.0000000000000000     
  -5.3278269651760371E-002  0.29894264561361961        0.0000000000000000     
  -5.9799614694954754E-002  0.26483065469577388        0.0000000000000000     
  -5.9932148091883866E-002  0.27355403735406852        0.0000000000000000     
  -6.0083209793581172E-002  0.28226210905763460        0.0000000000000000     
  -6.0252799800046643E-002  0.29095486980647184        0.0000000000000000     
  -6.0440918111280315E-002  0.29963231960058040        0.0000000000000000     
  -6.7140995325703293E-002  0.26501502876017291        0.0000000000000000     
  -6.7290017805579153E-002  0.27381222283221601        0.0000000000000000     
  -6.7452380421565386E-002  0.28263899026214884        0.0000000000000000     
  -6.7628083173662076E-002  0.29149533104997150        0.0000000000000000     
  -6.7817126061869168E-002  0.30038124519568393        0.0000000000000000     
  -7.4714181071576430E-002  0.26517764528537263        0.0000000000000000     
  -7.4884869180195102E-002  0.27404391550943963        0.0000000000000000     
  -7.5057217288393083E-002  0.28300130176972160        0.0000000000000000     
  -7.5231225396170331E-002  0.29204980406621839        0.0000000000000000     
  -7.5406893503526876E-002  0.30118942239893004        0.0000000000000000     
  -8.2519171932574187E-002  0.26531850427137305        0.0000000000000000     
  -8.2716702215731810E-002  0.27424911538573971        0.0000000000000000     
  -8.2897720394064220E-002  0.28334904358035290        0.0000000000000000     
  -8.3062226467571471E-002  0.29261828885521263        0.0000000000000000     
  -8.3210220436253493E-002  0.30205685121031883        0.0000000000000000     
  -4.5719861700916298E-002   5.9660772789800427E-002   0.0000000000000000     
  -4.8052593255898231E-002   6.5090930325247431E-002   0.0000000000000000     
  -5.0304631726232313E-002   7.0717554212471403E-002   0.0000000000000000     
  -5.2475977111918572E-002   7.6540644451472392E-002   0.0000000000000000     
  -5.4566629412957021E-002   8.2560201042250342E-002   0.0000000000000000     
  -5.0287773519955878E-002   6.0422716853234804E-002   0.0000000000000000     
  -5.2813138172432078E-002   6.5817594110909136E-002   0.0000000000000000     
  -5.5251948603303985E-002   7.1412616679864760E-002   0.0000000000000000     
  -5.7604204812571572E-002   7.7207784560101647E-002   0.0000000000000000     
  -5.9869906800234858E-002   8.3203097751619812E-002   0.0000000000000000     
  -5.5116089636328969E-002   6.1114400691437740E-002   0.0000000000000000     
  -5.7813495474170695E-002   6.6523235288249633E-002   0.0000000000000000     
  -6.0423243193349532E-002   7.2121360488663952E-002   0.0000000000000000     
  -6.2945332793865466E-002   7.7908776292680670E-002   0.0000000000000000     
  -6.5379764275718510E-002   8.3885482700299815E-002   0.0000000000000000     
  -6.0204810050035584E-002   6.1735824304409249E-002   0.0000000000000000     
  -6.3053665161114075E-002   6.7207853857268865E-002   0.0000000000000000     
  -6.5818515496368982E-002   7.2843785638868952E-002   0.0000000000000000     
  -6.8499361055800262E-002   7.8643619649209476E-002   0.0000000000000000     
  -7.1096201839407958E-002   8.4607355888290423E-002   0.0000000000000000     
  -6.5553934761075711E-002   6.2286987692149333E-002   0.0000000000000000     
  -6.8533647233262190E-002   6.7871449817966889E-002   0.0000000000000000     
  -7.1437765512362278E-002   7.3579892130479801E-002   0.0000000000000000     
  -7.4266289598375945E-002   7.9412314629688022E-002   0.0000000000000000     
  -7.7019219491303220E-002   8.5368717315591591E-002   0.0000000000000000     
  -5.4566629412957021E-002   8.2560201042250342E-002   0.0000000000000000     
  -5.6580637887278663E-002   8.8756722466566282E-002   0.0000000000000000     
  -5.8522051792814563E-002   9.5110707206181144E-002   0.0000000000000000     
  -6.0390871129564719E-002  0.10162215526109496        0.0000000000000000     
  -6.2187095897529132E-002  0.10829106663130768        0.0000000000000000     
  -5.9869906800234858E-002   8.3203097751619812E-002   0.0000000000000000     
  -6.2052816949750719E-002   8.9377038516232382E-002   0.0000000000000000     
  -6.4156697644576072E-002   9.5708089115752584E-002   0.0000000000000000     
  -6.6181548884710922E-002  0.10219624955018038        0.0000000000000000     
  -6.8127370670155243E-002  0.10884151981951576        0.0000000000000000     
  -6.5379764275718510E-002   8.3885482700299815E-002   0.0000000000000000     
  -6.7728053714286779E-002   9.0035430883404877E-002   0.0000000000000000     
  -6.9991717184948482E-002   9.6342572013879232E-002   0.0000000000000000     
  -7.2170754687703551E-002  0.10280690609172298        0.0000000000000000     
  -7.4265166222552040E-002  0.10942843311693604        0.0000000000000000     
  -7.1096201839407958E-002   8.4607355888290423E-002   0.0000000000000000     
  -7.3606348180886863E-002   9.0731899568083710E-002   0.0000000000000000     
  -7.6027110413931745E-002   9.7014155900561144E-002   0.0000000000000000     
  -7.8358488538542631E-002  0.10345412488572274        0.0000000000000000     
  -8.0600482554719521E-002  0.11005180652356851        0.0000000000000000     
  -7.7019219491303220E-002   8.5368717315591591E-002   0.0000000000000000     
  -7.9687700349550916E-002   9.1466444570268882E-002   0.0000000000000000     
  -8.2262877331525902E-002   9.7722840775798223E-002   0.0000000000000000     
  -8.4744750437228136E-002  0.10413790593217968        0.0000000000000000     
  -8.7133319666657660E-002  0.11071164003941318        0.0000000000000000     
  -6.2187095897529132E-002  0.10829106663130768        0.0000000000000000     
  -6.3910183473542062E-002  0.11510562539205155        0.0000000000000000     
  -6.5559591234437817E-002  0.12205401561855872        0.0000000000000000     
  -6.7135319180216355E-002  0.12913623731082924        0.0000000000000000     
  -6.8637367310877717E-002  0.13635229046886307        0.0000000000000000     
  -6.8127370670155243E-002  0.10884151981951576        0.0000000000000000     
  -6.9994162685175332E-002  0.11563236900010557        0.0000000000000000     
  -7.1781924614037498E-002  0.12255726616829664        0.0000000000000000     
  -7.3490656456741715E-002  0.12961621132408893        0.0000000000000000     
  -7.5120358213288024E-002  0.13680920446748251        0.0000000000000000     
  -7.4265166222552040E-002  0.10942843311693604        0.0000000000000000     
  -7.6275015389707698E-002  0.11619546848935336        0.0000000000000000     
  -7.8200365789384357E-002  0.12309632760880983        0.0000000000000000     
  -8.0041217421581989E-002  0.13013101047530545        0.0000000000000000     
  -8.1797570286300608E-002  0.13729951708884022        0.0000000000000000     
  -8.0600482554719521E-002  0.11005180652356851        0.0000000000000000     
  -8.2752741587139175E-002  0.11679492385979490        0.0000000000000000     
  -8.4814914760478380E-002  0.12367119994009831        0.0000000000000000     
  -8.6787002074737163E-002  0.13068063476447880        0.0000000000000000     
  -8.8669003529915510E-002  0.13782322833293634        0.0000000000000000     
  -8.7133319666657660E-002  0.11071164003941318        0.0000000000000000     
  -8.9427341277469735E-002  0.11743073511143018        0.0000000000000000     
  -9.1625571527319566E-002  0.12428188316216211        0.0000000000000000     
  -9.3728010416207236E-002  0.13126508419160893        0.0000000000000000     
  -9.5734657944132689E-002  0.13838033819977069        0.0000000000000000     
  -6.8637367310877717E-002  0.13635229046886307        0.0000000000000000     
  -7.0066220914624444E-002  0.14368973757567360        0.0000000000000000     
  -7.1422365279659061E-002  0.15113614111427423        0.0000000000000000     
  -7.2705800405981610E-002  0.15869150108466495        0.0000000000000000     
  -7.3916526293592050E-002  0.16635581748684572        0.0000000000000000     
  -7.5120358213288024E-002  0.13680920446748251        0.0000000000000000     
  -7.6671987315728607E-002  0.14412342218965821        0.0000000000000000     
  -7.8146501196115742E-002  0.15154604108179698        0.0000000000000000     
  -7.9543899854449415E-002  0.15907706114389883        0.0000000000000000     
  -8.0864183290729627E-002  0.16671648237596370        0.0000000000000000     
  -8.1797570286300608E-002  0.13729951708884022        0.0000000000000000     
  -8.3470688411781069E-002  0.14458922308035813        0.0000000000000000     
  -8.5061835826264268E-002  0.15198750408080317        0.0000000000000000     
  -8.6571012529750205E-002  0.15949436009017520        0.0000000000000000     
  -8.7998218522238852E-002  0.16710979110847438        0.0000000000000000     
  -8.8669003529915510E-002  0.13782322833293634        0.0000000000000000     
  -9.0462324202781844E-002  0.14508714024777344        0.0000000000000000     
  -9.2168369170104653E-002  0.15246053011129268        0.0000000000000000     
  -9.3787138431883951E-002  0.15994339792349413        0.0000000000000000     
  -9.5318631988119698E-002  0.16753574368437776        0.0000000000000000     
  -9.5734657944132689E-002  0.13838033819977069        0.0000000000000000     
  -9.7646894688730931E-002  0.14561717369190408        0.0000000000000000     
  -9.9466101227636924E-002  0.15296511917326566        0.0000000000000000     
 -0.10119227756085068       0.16042417464385558        0.0000000000000000     
 -0.10282542368837219       0.16799434010367376        0.0000000000000000     
  -7.3916526293592050E-002  0.16635581748684572        0.0000000000000000     
  -7.5053726389220365E-002  0.17411958080238193        0.0000000000000000     
  -7.6116584139596530E-002  0.18197328151283901        0.0000000000000000     
  -7.7105099544720501E-002  0.18991691961821691        0.0000000000000000     
  -7.8019272604592307E-002  0.19795049511851559        0.0000000000000000     
  -8.0864183290729627E-002  0.16671648237596370        0.0000000000000000     
  -8.2106909968241687E-002  0.17445545610856888        0.0000000000000000     
  -8.3271638350270807E-002  0.18228513367229165        0.0000000000000000     
  -8.4358368436817002E-002  0.19020551506713188        0.0000000000000000     
  -8.5367100227880272E-002  0.19821660029308971        0.0000000000000000     
  -8.7998218522238852E-002  0.16710979110847438        0.0000000000000000     
  -8.9343941376709854E-002  0.17482482837298441        0.0000000000000000     
  -9.0608668666142797E-002  0.18263050312098919        0.0000000000000000     
  -9.1792400390537682E-002  0.19052681535248869        0.0000000000000000     
  -9.2895136549894508E-002  0.19851376506748289        0.0000000000000000     
  -9.5318631988119698E-002  0.16753574368437776        0.0000000000000000     
  -9.6764820614624922E-002  0.17522769759562856        0.0000000000000000     
  -9.8127675087212513E-002  0.18300938985893175        0.0000000000000000     
  -9.9407195405882567E-002  0.19088082047428723        0.0000000000000000     
 -0.10060338157063500       0.19884198944169512        0.0000000000000000     
 -0.10282542368837219       0.16799434010367376        0.0000000000000000     
 -0.10436954768198684       0.17566406377650129        0.0000000000000000     
 -0.10582865761347998       0.18342179388611923        0.0000000000000000     
 -0.10720275348285165       0.19126753043252762        0.0000000000000000     
 -0.10849183529010178       0.19920127341572638        0.0000000000000000     
  -7.8019272604592307E-002  0.19795049511851559        0.0000000000000000     
  -7.8859596846005742E-002  0.20606669052933144        0.0000000000000000     
  -7.9626565795754653E-002  0.21425818836626084        0.0000000000000000     
  -8.0320179453838972E-002  0.22252498862930370        0.0000000000000000     
  -8.0940437820258754E-002  0.23086709131846003        0.0000000000000000     
  -8.5367100227880272E-002  0.19821660029308971        0.0000000000000000     
  -8.6300690225615539E-002  0.20631015723262036        0.0000000000000000     
  -8.7161994932177730E-002  0.21447795376817930        0.0000000000000000     
  -8.7951014347566789E-002  0.22271998989976632        0.0000000000000000     
  -8.8667748471782784E-002  0.23103626562738167        0.0000000000000000     
  -9.2895136549894508E-002  0.19851376506748289        0.0000000000000000     
  -9.3921222809552757E-002  0.20658353120201034        0.0000000000000000     
  -9.4875004834851839E-002  0.21472829269210961        0.0000000000000000     
  -9.5756482625791825E-002  0.22294804953778066        0.0000000000000000     
  -9.6565656182372672E-002  0.23124280173902356        0.0000000000000000     
 -0.10060338157063500       0.19884198944169512        0.0000000000000000     
 -0.10172119459781735       0.20688681243750126        0.0000000000000000     
 -0.10276559550377705       0.21500920513805180        0.0000000000000000     
 -0.10373658428851408       0.22320916754334663        0.0000000000000000     
 -0.10463416095202846       0.23148669965338586        0.0000000000000000     
 -0.10849183529010178       0.19920127341572638        0.0000000000000000     
 -0.10970060559040937       0.20722000093909326        0.0000000000000000     
 -0.11083376693895328       0.21532069110600588        0.0000000000000000     
 -0.11189131933573356       0.22350334391646429        0.0000000000000000     
 -0.11287326278075016       0.23176795937046846        0.0000000000000000     
  -8.0940437820258754E-002  0.23086709131846003        0.0000000000000000     
  -8.1476794242719100E-002  0.23930512005467697        0.0000000000000000     
  -8.1918702068925112E-002  0.24785969845890138        0.0000000000000000     
  -8.2266161298876816E-002  0.25653082653113346        0.0000000000000000     
  -8.2519171932574187E-002  0.26531850427137305        0.0000000000000000     
  -8.8667748471782784E-002  0.23103626562738167        0.0000000000000000     
  -8.9297927729493909E-002  0.23945235160413453        0.0000000000000000     
  -8.9827282545368439E-002  0.24799381848313440        0.0000000000000000     
  -9.0255812919406389E-002  0.25666066626438128        0.0000000000000000     
  -9.0583518851607744E-002  0.26545289494787522        0.0000000000000000     
  -9.6565656182372672E-002  0.23124280173902356        0.0000000000000000     
  -9.7293492048749625E-002  0.23963907069864249        0.0000000000000000     
  -9.7930956769077857E-002  0.24816337781944153        0.0000000000000000     
  -9.8478050343357423E-002  0.25681572310142065        0.0000000000000000     
  -9.8934772771588270E-002  0.26559610654457999        0.0000000000000000     
 -0.10463416095202846       0.23148669965338586        0.0000000000000000     
 -0.10546348720048622       0.23986527733820071        0.0000000000000000     
 -0.10622972474005338       0.24836837646782264        0.0000000000000000     
 -0.10693287357072992       0.25699599704225162        0.0000000000000000     
 -0.10757293369251579       0.26574813906148770        0.0000000000000000     
 -0.11287326278075016       0.23176795937046846        0.0000000000000000     
 -0.11380791318470376       0.24013097152280932        0.0000000000000000     
 -0.11472358645829497       0.24860881442827787        0.0000000000000000     
 -0.11562028260152382       0.25720148808687404        0.0000000000000000     
 -0.11649800161439028       0.26590899249859795        0.0000000000000000     
  -8.2519171932574187E-002  0.26531850427137305        0.0000000000000000     
  -8.2716702215731810E-002  0.27424911538573971        0.0000000000000000     
  -8.2897720394064220E-002  0.28334904358035290        0.0000000000000000     
  -8.3062226467571471E-002  0.29261828885521263        0.0000000000000000     
  -8.3210220436253493E-002  0.30205685121031883        0.0000000000000000     
  -9.0583518851607744E-002  0.26545289494787522        0.0000000000000000     
  -9.0840716773866362E-002  0.27443350732915400        0.0000000000000000     
  -9.1057723118076167E-002  0.28366550620375580        0.0000000000000000     
  -9.1234537884237077E-002  0.29314889157168061        0.0000000000000000     
  -9.1371161072349175E-002  0.30288366343292827        0.0000000000000000     
  -9.8934772771588270E-002  0.26559610654457999        0.0000000000000000     
  -9.9312112716276033E-002  0.27460277620772061        0.0000000000000000     
  -9.9621058839926238E-002  0.28393398014964355        0.0000000000000000     
  -9.9861611142538928E-002  0.29358971837034875        0.0000000000000000     
 -0.10003376962411409       0.30356999086983649        0.0000000000000000     
 -0.10757293369251579       0.26574813906148770        0.0000000000000000     
 -0.10813089004296075       0.27475692202143953        0.0000000000000000     
 -0.10858772755961450       0.28415446541801603        0.0000000000000000     
 -0.10894344624247700       0.29394076925121732        0.0000000000000000     
 -0.10919804609154825       0.30411583352104327        0.0000000000000000     
 -0.11649800161439028       0.26590899249859795        0.0000000000000000     
 -0.11729704875392055       0.27489594477031065        0.0000000000000000     
 -0.11795772927714088       0.28432696200887342        0.0000000000000000     
 -0.11848004318405124       0.29420204421428608        0.0000000000000000     
 -0.11886399047465163       0.30452119138654882        0.0000000000000000     
 </DataArray>
 <DataArray  type="Float64" Name="stress" NumberOfComponents="3" format="ascii">
   6039981543.3221521        821210580.75138688        31861066.396490563     
   5793737093.9380636        484198591.89999700        34385700.213390715     
   5577361647.2989550        246749945.53187227        28942923.531997208     
   5390855203.4048100        108864641.64694858        15532736.352293395     
   5234217762.2556400        70542680.245275736       -5844861.3257066328     
   5728287192.6137991        592802653.73713613        126392049.46499018     
   5495463126.8632774        354353000.85172749        143191240.80966046     
   5283308731.8892717        184802250.55472827        155536060.22476164     
   5091824007.6917906        84150402.846117735        163426507.71029502     
   4921008954.2708302        52397457.725917816        166862583.26625547     
   5368127542.9222126        349855137.02790165        262649394.46734878     
   5158761113.8587694        212978996.02453852        282990589.37660313     
   4960865023.6033888        114337317.71472120        302390450.92501426     
   4774439272.1560812        53930102.098479986        320848979.11258465     
   4599483859.5168476        31757349.175808668        338366173.93931699     
   4959502594.2474041        92368030.623707056        440633101.40358305     
   4783631054.9245510        60076577.418417692        453783745.91422004     
   4610030522.4413071        35355147.011858940        469506095.63274831     
   4438700996.7976923        18203739.404037952        487800150.55916733     
   4269642477.9936943        8622354.5949409008        508665910.69347596     
   4502412346.5893679       -179658665.47545505        660343170.27367890     
   4370072950.0606165       -104354254.96660137        655570710.42251635     
   4230805228.4030318       -52144261.553857565        656882994.34796858     
   4084609181.6166182       -23028685.237211466        664280022.05004275     
   3931484809.7013721       -17007526.016666889        677761793.52873695     
   5234217762.2556400        70542680.245275736       -5844861.3257066328     
   5054777601.4600687        69553612.938610554       -4297321.0608387133     
   4874593960.9891748        66086280.047527075       -164736.45593420358     
   4693666840.8429413        60140681.571988344        6552892.4890030539     
   4511996241.0213804        51716817.512012959        15855565.773984589     
   4921008954.2708302        52397457.725917816        166862583.26625547     
   4748945371.4361830        50910472.943768263        165102786.83999303     
   4576414657.9319553        47866385.929673672        166547140.84567508     
   4403416813.7581358        43265196.683605909        171195645.28328851     
   4229951838.9147201        37106905.205562592        179048300.15285730     
   4599483859.5168476        31757349.175808668        338366173.93931699     
   4436565729.1914291        30303109.282675743        333621447.99529123     
   4273456817.2021618        28212930.510048389        332699978.57511342     
   4110157123.5490494        25486812.857925653        335601765.67877823     
   3946666648.2320910        22124756.326321125        342326809.30629510     
   4269642477.9936943        8622354.5949409008        508665910.69347596     
   4117638674.7258015        7731521.9553091526        501258662.40505582     
   3965720438.7998023        7125913.7886595726        498293776.73238915     
   3813887770.2156987        6805530.0949862003        499771253.67546368     
   3662140668.9734845        6770370.8742864132        505691093.23429644     
   3931484809.7013721       -17007526.016666889        677761793.52873695     
   3792164208.0393028       -16804289.038313866        668014430.06928778     
   3653205522.7248697       -15394664.234509945        663328535.31749010     
   3514608753.7580738       -12778651.605246067        663704109.27334845     
   3376373901.1389103       -8956251.1505415440        669141151.93686092     
   4511996241.0213804        51716817.512012959        15855565.773984589     
   4325125285.5001259        41878336.641516209        8924398.8950211853     
   4139093737.0603852        34837879.376074314        6250245.9157441305     
   3953901595.7021613        30595445.715672731        7833106.8361444566     
   3769548861.4254508        29151035.660337925        13672981.656228570     
   4229951838.9147201        37106905.205562592        179048300.15285730     
   4055052891.2523909        30659909.211560249        172455701.82705244     
   3880714362.6089020        26080976.613690615        170032676.06001598     
   3706936252.9842558        23370107.411957026        171779222.85174176     
   3533718562.3784523        22527301.606376648        177695342.20222375     
   3946666648.2320910        22124756.326321125        342326809.30629510     
   3783489876.0260577        18994295.488013268        335747293.46053636     
   3620594534.7761946        16801937.836937666        333249908.83261484     
   3457980624.4824996        15547683.373085737        334834655.42253822     
   3295648145.1449776        15231532.096486092        340501533.23030853     
   3662140668.9734845        6770370.8742864132        505691093.23429644     
   3510436239.8211255        6881495.4708859921        498799173.79546100     
   3358734253.5622597        7000763.0458173752        495901944.23354387     
   3207034710.1968956        7128173.5990803242        496999404.54855525     
   3055337609.7250266        7263727.1306589842        502091554.74048954     
   3376373901.1389103       -8956251.1505415440        669141151.93686092     
   3235891982.6375918       -5678490.8398121595        661611342.83182871     
   3095133518.9671001       -3322547.7596633434        657988782.26280451     
   2954098510.1274343       -1888421.9100923538        658273470.22977638     
   2812786956.1185884       -1376113.2911238670        662465406.73275828     
   3769548861.4254508        29151035.660337925        13672981.656228570     
   3590809674.4916821        28747063.274753094        8383496.9136775685     
   3410806711.3336968        24130503.475101948        7509460.4967531106     
   3229539971.9514751        15301356.261345029        11050872.405473772     
   3047009456.3450384        2259621.6335175037        19007732.639842756     
   3533718562.3784523        22527301.606376648        177695342.20222375     
   3366309055.7007499        23060129.247420073        170250645.61399004     
   3198097269.5216923        20918691.883917332        166889454.73711419     
   3029083203.8412905        16102989.515947938        167611769.57157439     
   2859266858.6595135        8613022.1434061527        172417590.11737198     
   3295648145.1449776        15231532.096486092        340501533.23030853     
   3138619911.2539272        16416637.523320198        331440037.63976109     
   2981250894.5843897        16465800.355184793        326130105.14625615     
   2823541095.1363688        15379020.592116714        324571735.74979866     
   2665490512.9098568        13156298.234075189        326764929.45039648     
   3055337609.7250266        7263727.1306589842        502091554.74048954     
   2907742241.1512065        8816588.1024444103        491951672.99095654     
   2760267586.5217776        10771828.888851881        485231411.72418344     
   2612913645.8367248        13129449.489855409        481930770.94016767     
   2465680419.0960617        15889449.905499697        482049750.63890690     
   2812786956.1185884       -1376113.2911238670        662465406.73275828     
   2673676045.3925967        259980.98481166363        651785551.66760349     
   2535147345.3338532        3836777.4849178791        644193374.47090888     
   2397200855.9423661        9354276.2092044353        639688875.14267683     
   2259836577.2181334        16812477.157677293        638272053.68290043     
   3047009456.3450384        2259621.6335175037        19007732.639842756     
   2881440138.0751696       -5548106.1901524067        12609902.447670616     
   2717230627.4162521       -8823141.9773199558        7209414.8221470462     
   2554380924.3683209       -7565485.7278753519        2806269.7632515496     
   2392891028.9313316       -1775137.4419362545       -599532.72900562605     
   2859266858.6595135        8613022.1434061527        172417590.11737198     
   2697781955.9882770        3668599.3656482697        165430106.06695411     
   2537129736.2304411        1499786.2992208004        159926374.89978385     
   2377310199.3860044        2106582.9441329241        155906396.61587399     
   2218323345.4549608        5488989.3003529310        153370171.21521178     
   2665490512.9098568        13156298.234075189        326764929.45039648     
   2509479769.5990248        11492103.630748034        318572812.72789359     
   2353774584.5040164        10846436.413525820        312350859.20526177     
   2198374957.6248660        11219296.582481623        308099068.88251597     
   2043280888.9615507        12610684.137557149        305817441.75963026     
   2465680419.0960617        15889449.905499697        482049750.63890690     
   2316533578.9073920        17922406.605123520        472038022.43050033     
   2167165172.2369952        19216808.365651011        464482867.73860145     
   2017575199.0849028        19772655.187189460        459384286.56318438     
   1867763659.4510806        19589947.069629788        456742278.90426844     
   2259836577.2181334        16812477.157677293        638272053.68290043     
   2118943383.9134054        22959508.288792729        625825735.17478168     
   1977301499.4293923        26610902.155636668        616322400.49978578     
   1834910923.7661071        27766658.758229733        609762049.65789235     
   1691771656.9235482        26426778.096583843        606144682.64912689     
   2392891028.9313316       -1775137.4419362545       -599532.72900562605     
   2250246717.8234959        6641116.7396681309       -6957599.6869750349     
   2104246267.6301601        3870240.6362953186       -11291320.297726400     
   1954889678.3512933       -10087765.752192140       -13600694.561249478     
   1802176949.9869304       -35232902.425665617       -13885722.477544263     
   2218323345.4549608        5488989.3003529310        153370171.21521178     
   2079584716.0509017        12864467.204519868        143199845.84576079     
   1938641054.8476005        12889839.111214161        134249723.81141460     
   1795492361.8450825        5565105.0205014944        126519805.11214761     
   1650138637.0433002       -9109735.0677139759        120010089.74796748     
   2043280888.9615507        12610684.137557149        305817441.75963026     
   1906150389.7980165        18256120.325277805        293177816.47936445     
   1767965966.1215284        20388474.803135753        280954251.52205884     
   1628727617.9320762        19007747.571117401        269146746.88770962     
   1488435345.2296555        14113938.629213393        257755302.57632181     
   1867763659.4510806        19589947.069629788        456742278.90426844     
   1729943739.0648375        22816076.101937413        442976312.21384561     
   1592221001.4519176        26366147.711994290        428822262.83423650     
   1454595446.6122928        30240161.899692953        414280130.76545590     
   1317067074.5459986        34438118.665160477        399349916.00749367     
   1691771656.9235482        26426778.096583843        606144682.64912689     
   1550964763.8513632        26544334.534538567        592595333.04918313     
   1411406160.8387544        30822857.837746918        577853757.74793017     
   1273095847.8857427        39262348.006268620        561919956.74536479     
   1136033824.9923065        51862805.040063620        544793930.04149151     
   1802176949.9869304       -35232902.425665617       -13885722.477544263     
   1771316996.8218160       -16645778.659654856       -8281012.8629394993     
   1748544893.4321074        28900844.357688069       -41464844.206728913     
   1733860639.8178148        101406966.62642765       -113437216.50891122     
   1727264235.9789286        200872588.14652264       -224198129.76951075     
   1650138637.0433002       -9109735.0677139759        120010089.74796748     
   1527553625.4237113       -13958703.565481305        135602096.65825197     
   1409148540.7478061       -4874582.2509534359        124833236.23819679     
   1294923383.0155842        18142628.875854790        87703508.487810284     
   1184878152.2270644        55092929.814980388        24212913.407098200     
   1488435345.2296555        14113938.629213393        257755302.57632181     
   1309632914.0929172       -3518830.4511280656        278775363.47859114     
   1131102487.0681467       -20244919.158232331        285862230.67859906     
   952844064.15534556       -36064327.492107987        279015904.17635834     
   774857645.35452187       -50977055.452731907        258236383.97183567     
   1317067074.5459986        34438118.665160477        399349916.00749367     
   1117554862.8294382        14673840.683426380        421238787.59809697     
   914406732.39314449       -17210166.364092410        441622139.11449391     
   707622683.23709011       -61213902.477482051        460499970.55670202     
   497202715.36129415       -117337367.65666649        477872281.92471480     
   1136033824.9923065        51862805.040063620        544793930.04149151     
   951319471.63327885        40619309.838183403        562992369.01674342     
   759061276.72278321        4229676.1314097643        592112961.54587042     
   559259240.26082432       -57306096.080246747        632155707.62886882     
   351913362.24739432       -143988006.79679596        683120607.26573205     
   1727264235.9789286        200872588.14652264       -224198129.76951075     
   1456721863.2428002        184611023.39604163       -96638509.264014035     
   1153997094.1809547        61074804.226481915        60097111.783246741     
   819089928.79336321       -169736069.36223096        246008733.37230617     
   452000367.07999372       -507821597.37018251        461096355.50312197     
   1184878152.2270644        55092929.814980388        24212913.407098200     
   977768754.26460648        11888806.194508493        155590271.58698654     
   732829863.81506240       -157413625.71629480        312803738.79022467     
   450061480.87844509       -452814365.91732097        495853315.01682025     
   129463605.45474994       -874313414.40860605        704739000.26676559     
   774857645.35452187       -50977055.452731907        258236383.97183567     
   621638674.97019279       -123986502.10201040        386843200.97123790     
   424943115.93747985       -341917910.91258025        537946235.47559166     
   184770968.25635931       -704771281.88450813        711545487.48484981     
  -98877768.073175907       -1212546615.0178075        907640956.99903834     
   497202715.36129415       -117337367.65666649        477872281.92471480     
   388331625.35961103       -223014901.49331984        597120278.88876307     
   230336850.54820764       -492438051.36238515        735524601.83930290     
   23218390.927060902       -925606817.26389909        893085250.77636170     
  -233023753.50379798       -1522521199.1978312        1069802225.6999208     
   351913362.24739432       -143988006.79679596        683120607.26573205     
   277847605.43284619       -285196391.97948420        786421505.33954155     
   149011067.64723584       -608974047.06571805        905538837.88143873     
  -34596251.109419346       -1115320972.0554323        1040472604.8913705     
  -272974350.83713108       -1804237166.9486682        1191222806.3694091     
   4502412346.5893679       -179658665.47545505        660343170.27367890     
   4370072950.0606165       -104354254.96660137        655570710.42251635     
   4230805228.4030318       -52144261.553857565        656882994.34796858     
   4084609181.6166182       -23028685.237211466        664280022.05004275     
   3931484809.7013721       -17007526.016666889        677761793.52873695     
   4125363890.3037872       -129030404.53815389        789732251.17241263     
   4001235061.9958696       -76511337.209946632        781895095.87825000     
   3872306156.9890690       -39992525.544681787        779547174.63441467     
   3738577175.2833872       -19473969.542350054        782688487.44090974     
   3600048116.8788271       -14955669.202955723        791319034.29772437     
   3759957225.8838654       -74909606.041154861        908168887.03306937     
   3642337509.4359469       -45686318.801843643        899749992.79752171     
   3522045964.7190957       -25369125.792305946        896224822.88600624     
   3399082591.7333069       -13958027.012546539        897593377.29852045     
   3273447390.4785910       -11453022.462559938        903855656.03506684     
   3406192353.3296123       -17296269.984455347        1015653077.8556619     
   3293380292.3808517       -11879199.742287159        1009135401.1803288     
   3180024651.5931048       -8274062.2967385054        1006915939.1027367     
   3066125430.9663763       -6480857.6477948427        1008994691.6228811     
   2951682630.5006614       -6499585.7954697609        1015371658.7407690     
   3064069272.6410236        43809603.631943583        1112184823.6401806     
   2954363410.8305817        24910019.968711972        1110051321.0266778     
   2846242217.6111040        11292664.942029238        1111620523.2846143     
   2739705692.9825940        2957538.5518987179        1116892430.4139965     
   2634753836.9450488       -95359.201681137085        1125867042.4148281     
   3931484809.7013721       -17007526.016666889        677761793.52873695     
   3792164208.0393028       -16804289.038313866        668014430.06928778     
   3653205522.7248697       -15394664.234509945        663328535.31749010     
   3514608753.7580738       -12778651.605246067        663704109.27334845     
   3376373901.1389103       -8956251.1505415440        669141151.93686092     
   3600048116.8788271       -14955669.202955723        791319034.29772437     
   3473695326.5324569       -13690854.311612844        783422788.40285695     
   3347588965.0615625       -11604609.835345268        780195333.75556552     
   3221729032.4661489       -8696935.7741497755        781636670.35585046     
   3096115528.7462111       -4967832.1280336380        787746798.20371366     
   3273447390.4785910       -11453022.462559938        903855656.03506684     
   3158940475.8476982       -9463210.3382779360        897675792.32060039     
   3044564502.6201258       -7036926.8696067333        895772042.39362741     
   2930319470.7958641       -4174172.0565513372        898144406.25415528     
   2816205380.3749228       -874945.89910769463        904792883.90218043     
   2951682630.5006614       -6499585.7954697609        1015371658.7407690     
   2847899655.9850230       -4121357.1183270216        1010773441.8225132     
   2744132135.4005384       -1691615.3373279572        1010058661.2316759     
   2640380068.7472162        789639.54753565788        1013227316.9682565     
   2536643456.0250473        3322407.5362495184        1020279409.0322564     
   2634753836.9450488       -95359.201681137085        1125867042.4148281     
   2540572866.9444351        2334705.3482570648        1122715736.9085984     
   2446291863.4028225        4431324.7615295649        1123055190.2697051     
   2351910826.3202043        6194499.0381102562        1126885402.4981556     
   2257429755.6965818        7624228.1780200005        1134206373.5939450     
   3376373901.1389103       -8956251.1505415440        669141151.93686092     
   3235891982.6375918       -5678490.8398121595        661611342.83182871     
   3095133518.9671001       -3322547.7596633434        657988782.26280451     
   2954098510.1274343       -1888421.9100923538        658273470.22977638     
   2812786956.1185884       -1376113.2911238670        662465406.73275828     
   3096115528.7462111       -4967832.1280336380        787746798.20371366     
   2965657862.9446096       -2477341.7149730921        780155423.49301720     
   2835095286.1080370       -336554.75181043148        776549441.53017700     
   2704427798.2364998        1454528.7614686489        776928852.31519401     
   2573655399.3299985        2895908.8248666525        781293655.84806132     
   2816205380.3749228       -874945.89910769463        904792883.90218043     
   2695995236.4497428        895255.36928212643        897340183.40906370     
   2575851815.6238112        2887866.9684869051        893951019.87565958     
   2455775117.8971200        5102888.8985025883        894625393.30195081     
   2335765143.2696733        7540321.1593351364        899363303.68795252     
   2536643456.0250473        3322407.5362495184        1020279409.0322564     
   2426904103.1530108        4439300.4129871130        1013165622.5799676     
   2317403107.5144324        6350717.4012484550        1010193517.2992356     
   2208140469.1093030        9056658.5010119677        1011363093.1900612     
   2099116187.9376280        12557123.712281823        1016674350.2524369     
   2257429755.6965818        7624228.1780200005        1134206373.5939450     
   2158384463.0544038        8154793.4161295891        1127631741.0057263     
   2059749161.7798908        10051996.546455383        1125276933.8009145     
   1961523851.8730371        13315837.568971992        1127141951.9795091     
   1863708533.3338521        17946316.483718991        1133226795.5415075     
   2812786956.1185884       -1376113.2911238670        662465406.73275828     
   2673676045.3925967        259980.98481166363        651785551.66760349     
   2535147345.3338532        3836777.4849178791        644193374.47090888     
   2397200855.9423661        9354276.2092044353        639688875.14267683     
   2259836577.2181334        16812477.157677293        638272053.68290043     
   2573655399.3299985        2895908.8248666525        781293655.84806132     
   2443073962.4410329        4907519.0712358952        771795922.47907937     
   2312935639.8250828        8396176.8943159580        765684987.43078542     
   2183240431.4821415        13361882.294097900        762960850.70318317     
   2053988337.4122221        19804635.270612359        763623512.29627466     
   2335765143.2696733        7540321.1593351364        899363303.68795252     
   2214567810.0812631        10183836.335196733        890885412.88852286     
   2093674494.7716272        13840744.440309167        886093440.86201704     
   1973085197.3407588        18511045.474647522        884987387.60843801     
   1852799917.7886696        24194739.438245058        887567253.12778306     
   2099116187.9376280        12557123.712281823        1016674350.2524369     
   1988157588.3132942        16088932.776698589        1009054022.8959420     
   1877363910.1734931        20170480.122898459        1005418734.7646075     
   1766735153.5182173        24801765.750857711        1005768485.8584307     
   1656271318.3474820        29982789.660595357        1010103276.1774107     
   1863708533.3338521        17946316.483718991        1133226795.5415075     
   1763843297.1371140        22622808.395747185        1126301752.5013390     
   1664003886.0306709        27385383.942087293        1123660869.1385615     
   1564190300.0145099        32234043.122697830        1125304145.4531765     
   1464402539.0886467        37168785.937644839        1131231581.4451766     
   2259836577.2181334        16812477.157677293        638272053.68290043     
   2118943383.9134054        22959508.288792729        625825735.17478168     
   1977301499.4293923        26610902.155636668        616322400.49978578     
   1834910923.7661071        27766658.758229733        609762049.65789235     
   1691771656.9235482        26426778.096583843        606144682.64912689     
   2053988337.4122221        19804635.270612359        763623512.29627466     
   1920743898.0494478        24964728.270962954        752192957.55358624     
   1787000329.2125869        28461056.357693315        743930830.80945790     
   1652757630.9016423        30293619.530804336        738837132.06390822     
   1518015803.1166058        30462417.790287018        736911861.31691217     
   1852799917.7886696        24194739.438245058        887567253.12778306     
   1727848358.5548637        28561132.163964987        877443617.47323787     
   1602647231.5521610        32095632.326682866        870713853.98270440     
   1477196536.7805562        34798239.926392376        867377962.65619433     
   1351496274.2400534        36668954.963114023        867435943.49369740     
   1656271318.3474820        29982789.660595357        1010103276.1774107     
   1540256765.4296513        33748719.967771888        1001577714.9337302     
   1424242206.4481039        37514630.062570274        996671470.01951122     
   1308227641.4028525        41280519.945008516        995384541.43476808     
   1192213070.2938831        45046389.615058780        997716929.17949677     
   1464402539.0886467        37168785.937644839        1131231581.4451766     
   1357969118.6737959        40527491.682386041        1124595249.9350736     
   1251785253.9004235        44718049.565387368        1121803678.9198868     
   1145850944.7685168        49740459.586607575        1122856868.3996255     
   1040166191.2780926        55594721.746104300        1127754818.3742859     
   1691771656.9235482        26426778.096583843        606144682.64912689     
   1550964763.8513632        26544334.534538567        592595333.04918313     
   1411406160.8387544        30822857.837746918        577853757.74793017     
   1273095847.8857427        39262348.006268620        561919956.74536479     
   1136033824.9923065        51862805.040063620        544793930.04149151     
   1518015803.1166058        30462417.790287018        736911861.31691217     
   1375660650.1146636        28109161.039704621        727704827.89054155     
   1233647665.6340766        26896466.026972771        719069238.64763582     
   1091976849.6748295        26824332.752036214        711005093.58819520     
   950648202.23692656        27892761.214921892        703512392.71223557     
   1351496274.2400534        36668954.963114023        867435943.49369740     
   1212631918.1220229        33356602.068119943        861514084.44628584     
   1073203608.9870934        28164405.783480346        857927339.46711695     
   933211346.83527589        21092366.109205008        856675708.55620027     
   792655131.66656494        12140483.045282245        857759191.71352947     
   1192213070.2938831        45046389.615058780        997716929.17949677     
   1061878567.8734082        42286657.619727373        994023102.71642017     
   930073990.89781189        34626677.107318401        994428060.20637894     
   796799339.36707747        22066448.077777058        998931801.64936388     
   662054613.28121376        4605970.5311441123        1007534327.0453762     
   1040166191.2780926        55594721.746104300        1127754818.3742859     
   923400599.36884415        54899327.694553256        1125231882.7009449     
   804258811.36622977        46283279.998449653        1128571400.8654101     
   682740827.27024174        29746578.657767028        1137773372.8676894     
   558846647.08088195        5289223.6725117862        1152837798.7077672     
   1136033824.9923065        51862805.040063620        544793930.04149151     
   951319471.63327885        40619309.838183403        562992369.01674342     
   759061276.72278321        4229676.1314097643        592112961.54587042     
   559259240.26082432       -57306096.080246747        632155707.62886882     
   351913362.24739432       -143988006.79679596        683120607.26573205     
   950648202.23692656        27892761.214921892        703512392.71223557     
   791549841.29659283        11025562.191786140        721429125.82888949     
   623798511.76769185       -34684865.459913224        749426092.74943686     
   447394213.65021789       -109238521.74018869        787503293.47384977     
   262336946.94417703       -212635406.64902598        835660728.00213420     
   792655131.66656494        12140483.045282245        857759191.71352947     
   656767278.14495862       -11072065.299065650        874100237.42830658     
   511117328.99766815       -66824932.395694196        899679597.19696116     
   355705284.22470206       -155118118.24457631        934497271.01950657     
   190531143.82605332       -275951622.84573114        978553258.89593518     
   662054613.28121376        4605970.5311441123        1007534327.0453762     
   546971782.17834795       -25673572.634438664        1021005703.8149760     
   421017728.41269988       -92190524.675972730        1042873474.8884593     
   284192451.98426259       -194944885.59345457        1073137640.2658391     
   136495952.89305130       -333936655.38687158        1111798199.9471149     
   558846647.08088195        5289223.6725117862        1152837798.7077672     
   462163353.39678931       -32778959.814269423        1162145524.9889035     
   353499710.01279265       -110781642.30071965        1179007725.8239248     
   232855716.92890579       -228718823.78680643        1203424401.2128577     
   100231374.14512813       -386590504.27253497        1235395551.1556783     
   351913362.24739432       -143988006.79679596        683120607.26573205     
   277847605.43284619       -285196391.97948420        786421505.33954155     
   149011067.64723584       -608974047.06571805        905538837.88143873     
  -34596251.109419346       -1115320972.0554323        1040472604.8913705     
  -272974350.83713108       -1804237166.9486682        1191222806.3694091     
   262336946.94417703       -212635406.64902598        835660728.00213420     
   223615068.92585862       -352332330.70571083        885035842.76657259     
   140666606.25162786       -639451203.61545622        945433323.41558003     
   13491558.921477795       -1073992025.3782785        1016853169.9491475     
  -157910073.06460732       -1655954795.9941733        1099295382.3672791     
   190531143.82605332       -275951622.84573114        978553258.89593518     
   173455805.79395947       -418246287.41939098        986304152.71865630     
   122698079.42108107       -672815579.79567015        1000283343.8424301     
   38257964.707402527       -1039659499.9746097        1020490832.2672719     
  -79864538.347064197       -1518778047.9561853        1046926617.9931576     
   136495952.89305130       -333936655.38687158        1111798199.9471149     
   127369816.03713575       -482938262.12055182        1090226435.1957688     
   95105487.155582666       -709067175.60638583        1070088899.1619700     
   39702966.248361528       -1012323395.8444409        1051385591.8457384     
  -38837746.684529364       -1392706922.8347003        1034116513.2470247     
   100231374.14512813       -386590504.27253497        1235395551.1556783     
   85357099.655390739       -546408254.80920243        1196802690.1979229     
   57888829.455146968       -748205991.04755759        1154849989.3742092     
   17826563.544349074       -991983712.98775697        1109537448.6845348     
  -34829698.076968372       -1277741420.6296940        1060865068.1289108     
   3064069272.6410236        43809603.631943583        1112184823.6401806     
   2954363410.8305817        24910019.968711972        1110051321.0266778     
   2846242217.6111040        11292664.942029238        1111620523.2846143     
   2739705692.9825940        2957538.5518987179        1116892430.4139965     
   2634753836.9450488       -95359.201681137085        1125867042.4148281     
   2698484974.9064169        42466061.679359674        1215829385.4173133     
   2600868133.3916402        26769427.278485537        1208194785.6961741     
   2504464113.4072361        15115531.312175155        1205417585.3474045     
   2409272914.9531970        7504373.7804206610        1207497784.3710086     
   2315294538.0295258        3935954.6832273006        1214435382.7669780     
   2310871209.7559805        34513679.502028465        1319527874.5850542     
   2228642515.6823721        23009732.507165194        1305958356.1855841     
   2147254796.0785351        14309033.744869351        1298400931.6594095     
   2066708050.9444695        8411583.2151468992        1296855601.0065281     
   1987002280.2801709        5317380.9179865122        1301322364.2269425     
   1901227977.1897171        19952457.099949002        1423280291.1433933     
   1837686557.7027726        13630935.654739976        1403342032.4948964     
   1774614265.6250045        8873172.2401189804        1390570562.2206168     
   1712011100.9564052        5679166.8560622931        1384965880.3205595     
   1649877063.6969845        4048919.5025979280        1386527986.7947202     
   1469555277.2076230       -1217605.5268810987        1527086635.0923297     
   1428000259.4528444       -1366963.2787787318        1500345814.6241121     
   1386542522.0466413       -1192053.2020879984        1481926477.0310357     
   1345182064.9890156       -692875.29680353403        1471828622.3131056     
   1303918888.2799647        130570.43705576658        1470052250.4703152     
   2634753836.9450488       -95359.201681137085        1125867042.4148281     
   2540572866.9444351        2334705.3482570648        1122715736.9085984     
   2446291863.4028225        4431324.7615295649        1123055190.2697051     
   2351910826.3202043        6194499.0381102562        1126885402.4981556     
   2257429755.6965818        7624228.1780200005        1134206373.5939450     
   2315294538.0295258        3935954.6832273006        1214435382.7669780     
   2230533040.1874146        4976552.3782340288        1208428360.4007170     
   2145774514.0464034        6027055.7435834408        1206496973.1786366     
   2061018959.6065004        7087464.7792823315        1208641221.1007433     
   1976266376.8676970        8157779.4853227139        1214861104.1670284     
   1987002280.2801709        5317380.9179865122        1301322364.2269425     
   1913331329.6732476        5469834.2810605764        1292579797.7831089     
   1839766356.0095363        5975544.1215122938        1288497742.7603030     
   1766307359.2890322        6834510.4393217564        1289076199.1585169     
   1692954339.5117435        8046733.2345114946        1294315166.9777551     
   1649877063.6969845        4048919.5025979280        1386527986.7947202     
   1588967735.4019389        3814551.0567511916        1375170049.0557764     
   1528267389.2922103        4276789.8952988386        1369057499.0146973     
   1467776025.3677990        5435636.0182332993        1368190336.6714840     
   1407493643.6287069        7291089.4255686402        1372568562.0261321     
   1303918888.2799647        130570.43705576658        1470052250.4703152     
   1257442257.3734853        10702.705291628838        1456199114.2187176     
   1211277613.8944328        930793.06495159864        1448176241.9418247     
   1165424957.8428035        2890841.5160198808        1445983633.6396375     
   1119884289.2186005        5890848.0585114956        1449621289.3121538     
   2257429755.6965818        7624228.1780200005        1134206373.5939450     
   2158384463.0544038        8154793.4161295891        1127631741.0057263     
   2059749161.7798908        10051996.546455383        1125276933.8009145     
   1961523851.8730371        13315837.568971992        1127141951.9795091     
   1863708533.3338521        17946316.483718991        1133226795.5415075     
   1976266376.8676970        8157779.4853227139        1214861104.1670284     
   1888531537.1918435        8814154.3659164906        1208072600.5148482     
   1801110695.4340081        10517188.973243594        1205735586.9204807     
   1714003851.5941911        13266883.307292700        1207850063.3839188     
   1627211005.6723881        17063237.368062615        1214416029.9051623     
   1692954339.5117435        8046733.2345114946        1294315166.9777551     
   1617191851.8719323        9027487.4785080552        1287200799.9037001     
   1541647368.7004964        10734923.283746243        1284769587.5618489     
   1466320889.9974356        13169040.650240302        1287021529.9522152     
   1391212415.7627473        16329839.577968121        1293956627.0747907     
   1407493643.6287069        7291089.4255686402        1372568562.0261321     
   1344365407.0946708        8794792.7538929582        1365016339.1722741     
   1281359181.5793571        10705199.477965593        1362378935.7250330     
   1218474967.0827780        13022309.597814023        1364656351.6844075     
   1155712763.6049244        15746123.113421559        1371848587.0503912     
   1119884289.2186005        5890848.0585114956        1449621289.3121538     
   1070052202.8600531        8116070.1920644045        1441519218.3205810     
   1020246134.0705869        10428017.555894077        1438563631.4100270     
   970466082.85021043        12826690.150017798        1440754528.5804882     
   920712049.19891226        15312087.974404931        1448091909.8319671     
   1863708533.3338521        17946316.483718991        1133226795.5415075     
   1763843297.1371140        22622808.395747185        1126301752.5013390     
   1664003886.0306709        27385383.942087293        1123660869.1385615     
   1564190300.0145099        32234043.122697830        1125304145.4531765     
   1464402539.0886467        37168785.937644839        1131231581.4451766     
   1627211005.6723881        17063237.368062615        1214416029.9051623     
   1538449453.0954962        20867065.546040952        1207814727.2206352     
   1449768245.0931520        24938708.972509563        1205671943.8895283     
   1361167381.6653514        29278167.647457778        1207987679.9118509     
   1272646862.8120978        33885441.570896327        1214761935.2875946     
   1391212415.7627473        16329839.577968121        1293956627.0747907     
   1314052717.3086452        19410455.172766626        1287742670.8108704     
   1237027882.9133482        22940617.630243480        1286161593.5764031     
   1160137912.5768533        26920326.950399220        1289213395.3713951     
   1083382806.2991652        31349583.133239329        1296898076.1958442     
   1155712763.6049244        15746123.113421559        1371848587.0503912     
   1090653089.7765617        18252977.275921524        1366085583.2720459     
   1025782799.4912598        21391109.915290177        1365129818.1991858     
   961101892.74902415        25160521.031549752        1368981291.8318181     
   896610369.54984844        29561210.624670327        1377640004.1699340     
   920712049.19891226        15312087.974404931        1448091909.8319671     
   868250570.49924123        17394631.855502039        1442843464.6041591     
   816032994.82688785        20290185.827656746        1442576617.7578728     
   764059322.18185997        23998749.890894234        1447291369.2931094     
   712329552.56414223        28520324.045171231        1456987719.2098680     
   1464402539.0886467        37168785.937644839        1131231581.4451766     
   1357969118.6737959        40527491.682386041        1124595249.9350736     
   1251785253.9004235        44718049.565387368        1121803678.9198868     
   1145850944.7685168        49740459.586607575        1122856868.3996255     
   1040166191.2780926        55594721.746104300        1127754818.3742859     
   1272646862.8120978        33885441.570896327        1214761935.2875946     
   1176591509.1754737        36491295.868214190        1209429675.5098948     
   1080626600.5086169        39398633.398081064        1208409518.4776266     
   984752136.81152773        42607454.160507262        1211701464.1907833     
   888968118.08420181        46117758.155485898        1219305512.6493711     
   1083382806.2991652        31349583.133239329        1296898076.1958442     
   999040783.01363838        33603165.054971695        1292684259.0335619     
   914630094.02616882        35627861.303568989        1293249886.8672202     
   830150739.33676755        37423671.879055649        1298594959.6968095     
   745602718.94542277        38990596.781400949        1308719477.5223315     
   896610369.54984844        29561210.624670327        1377640004.1699340     
   825316940.18829286        31863099.242691308        1374359000.5060852     
   753795734.45309174        33405733.281888306        1376324784.0886686     
   682046752.34424829        34189112.742279589        1383537354.9176984     
   610069993.86175704        34213237.623846650        1395996712.9931691     
   712329552.56414223        28520324.045171231        1456987719.2098680     
   655419980.69943571        31271098.431344002        1454453899.9274499     
   598123521.78937495        32732249.333005637        1457634210.1419802     
   540440175.83396459        32903776.750168353        1466528649.8534598     
   482369942.83320576        31785680.682833359        1481137219.0618823     
   1040166191.2780926        55594721.746104300        1127754818.3742859     
   923400599.36884415        54899327.694553256        1125231882.7009449     
   804258811.36622977        46283279.998449653        1128571400.8654101     
   682740827.27024174        29746578.657767028        1137773372.8676894     
   558846647.08088195        5289223.6725117862        1152837798.7077672     
   888968118.08420181        46117758.155485898        1219305512.6493711     
   787126125.22836196        44425955.657420009        1216775687.9243433     
   682962007.67451024        34993737.499306798        1220093041.3517840     
   576475765.42266619        17821103.681221992        1229257572.9316955     
   467667398.47280687       -7091945.7969112694        1244269282.6640849     
   745602718.94542277        38990596.781400949        1308719477.5223315     
   658640680.32773197        36289292.392227441        1306245847.0402153     
   569410588.40739989        26027810.327581644        1309604119.0252230     
   477912443.18443120        8206150.5874795020        1318794293.4773664     
   384146244.65881860       -17175686.828098297        1333816370.3966386     
   610069993.86175704        34213237.623846650        1395996712.9931691     
   537944264.66696203        30489337.899000406        1393642360.0485506     
   463604553.56488711        19385498.483221695        1397104633.8857274     
   387050860.55554163        901719.37654048204        1406383534.5046878     
   308283185.63891619       -24961999.421067864        1421479061.9054513     
   482369942.83320576        31785680.682833359        1481137219.0618823     
   425036878.24604487        27026092.177722543        1478965226.9493606     
   365543903.14696848        15066801.966226593        1482594585.9332902     
   303891017.53599441       -4092189.9515908808        1492025296.0136685     
   240078221.41310421       -30450883.575803667        1507257357.1905031     
   558846647.08088195        5289223.6725117862        1152837798.7077672     
   462163353.39678931       -32778959.814269423        1162145524.9889035     
   353499710.01279265       -110781642.30071965        1179007725.8239248     
   232855716.92890579       -228718823.78680643        1203424401.2128577     
   100231374.14512813       -386590504.27253497        1235395551.1556783     
   467667398.47280687       -7091945.7969112694        1244269282.6640849     
   390152347.49221599       -41515188.912491977        1242752199.9709239     
   302499077.19100666       -109732496.43014526        1247584304.7178192     
   204707587.56918621       -211743868.34982610        1258765596.9047732     
   96777878.626756102       -347549304.67155278        1276296076.5317807     
   384146244.65881860       -17175686.828098297        1333816370.3966386     
   322355758.91361529       -48987092.812916040        1323623630.8383501     
   252269184.22707140       -108452128.60220237        1318574791.6062753     
   173886520.59919578       -195570794.19592708        1318669852.7004220     
   87207768.029983938       -310343089.59410739        1323908814.1207840     
   308283185.63891619       -24961999.421067864        1421479061.9054513     
   258773587.66098404       -55194671.515542641        1404759817.5911922     
   202810031.12098601       -106940538.81689781        1391979186.4893000     
   140392516.01893294       -180199601.32510310        1383137168.5997915     
   71521042.354816467       -274971859.04019225        1378233763.9226501     
   240078221.41310421       -30450883.575803667        1507257357.1905031     
   199405833.73431417       -60137925.020394132        1486160760.2294328     
   154121617.87273902       -105197727.07426842        1467797489.3668878     
   104225573.82839146       -165630289.73738271        1452167544.6028755     
   49717701.601264060       -241435613.00976589        1439270925.9374063     
   100231374.14512813       -386590504.27253497        1235395551.1556783     
   85357099.655390739       -546408254.80920243        1196802690.1979229     
   57888829.455146968       -748205991.04755759        1154849989.3742092     
   17826563.544349074       -991983712.98775697        1109537448.6845348     
  -34829698.076968372       -1277741420.6296940        1060865068.1289108     
   96777878.626756102       -347549304.67155278        1276296076.5317807     
   79820717.092550844       -488705660.33021474        1221980477.3707807     
   51479126.378267765       -667810113.25581110        1165116021.5312066     
   11753106.483902514       -884862663.44833696        1105702709.0130754     
  -39357342.590530336       -1139863310.9077630        1043740539.8163991     
   87207768.029983938       -310343089.59410739        1323908814.1207840     
   70484814.272453636       -432142921.92843777        1255281637.7086976     
   43586997.865303099       -587858963.09484959        1184916587.8054645     
   6514318.8085216582       -777491213.09336340        1112813664.4110723     
  -40733222.897896230       -1001039671.9239866        1038972867.5255219     
   71521042.354816467       -274971859.04019225        1378233763.9226501     
   57349391.195125267       -376720039.60380012        1296706171.2116892     
   34212443.916239828       -508352540.56473118        1214251688.1969755     
   2110200.5181884170       -669869361.92287922        1130870314.8785038     
  -38957338.999054432       -861270503.67833436        1046562051.2563034     
   49717701.601264060       -241435613.00976589        1439270925.9374063     
   40414447.860541895       -322437013.35637224        1346254077.8797553     
   23355464.531077594       -429290845.66545254        1253121322.7057586     
  -1459248.3870981932       -561997109.93690014        1159872660.4154093     
  -34029690.894018322       -720555806.17083728        1066508091.0087067     
   1469555277.2076230       -1217605.5268810987        1527086635.0923297     
   1428000259.4528444       -1366963.2787787318        1500345814.6241121     
   1386542522.0466413       -1192053.2020879984        1481926477.0310357     
   1345182064.9890156       -692875.29680353403        1471828622.3131056     
   1303918888.2799647        130570.43705576658        1470052250.4703152     
   1046233805.2697344       -17693005.343755722        1496092981.5807331     
   1024346363.6336894       -15021375.148742259        1481419890.3576257     
   1002531882.1065375       -12106544.590749145        1472903223.7475772     
   980790360.68828332       -8948513.6697646976        1470542981.7505827     
   959121799.37892032       -5547282.3858093619        1474339164.3666444     
   660200766.02507699       -22981875.352659285        1463929174.5338094     
   651795019.75894547       -19345021.435380012        1461295438.9428511     
   643437913.36202586       -15546034.620725751        1462653069.7028623     
   635129446.83432055       -11584914.908691645        1468002066.8138447     
   626869620.17582846       -7461662.2992821336        1477342430.2757943     
   311456159.47365344       -17084215.553594440        1430595213.9515514     
   310346227.82861352       -14337902.138695404        1439972460.3797827     
   309260615.81310570       -11510523.292026639        1451176014.8968937     
   308199323.42712891       -8602079.0135888755        1464205877.5028892     
   307162350.67068452       -5612569.3033738136        1479062048.1977665     
  -14.384541177240148       -25.946559186909976        1396091099.8339665     
  -12.157308127236000       -17.258687702413788        1417450954.6684196     
  -10.540224370958594       -10.604651360343091        1438472059.3296726     
  -9.5332921502044261       -5.9844510414036414        1459154413.8177197     
  -9.1365085826637156       -3.3980802603984492        1479498018.1325622     
   1303918888.2799647        130570.43705576658        1470052250.4703152     
   1257442257.3734853        10702.705291628838        1456199114.2187176     
   1211277613.8944328        930793.06495159864        1448176241.9418247     
   1165424957.8428035        2890841.5160198808        1445983633.6396375     
   1119884289.2186005        5890848.0585114956        1449621289.3121538     
   959121799.37892032       -5547282.3858093619        1474339164.3666444     
   927188929.67672956       -4759801.8128029704        1464854029.9523873     
   895490050.50755215       -3192352.7964161038        1460516752.1117740     
   864025161.87138569       -844935.33666038513        1461327330.8448102     
   832794263.76823199        2282450.5664684772        1467285766.1514885     
   626869620.17582846       -7461662.2992821336        1477342430.2757943     
   607530776.24632323       -6351754.0509894788        1472134301.3220639     
   588347925.95541728       -4721867.0073667467        1471391621.5409188     
   569321069.30311394       -2572001.1684035361        1475114390.9323595     
   550450206.28941083        97843.465896248817        1483302609.4963822     
   307162350.67068452       -5612569.3033738136        1479062048.1977665     
   298467797.08226514       -4765154.0092747509        1478039928.3277495     
   289851240.23803157       -3657749.5678909272        1480800850.2292585     
   281312680.13799226       -2290355.9791917205        1487344813.9022927     
   272852116.78213924       -662973.24320608377        1497671819.3468499     
  -9.1365085826637156       -3.3980802603984492        1479498018.1325622     
  -7.8154433931880050       -1.6876552124653910        1482570910.9694445     
  -6.6446055617382109      -0.47798802461872292        1488744438.1767917     
  -5.6239850002301193       0.23095493008893619        1498018599.7546031     
  -4.7535916594950987       0.43914048221969360        1510393395.7028804     
   1119884289.2186005        5890848.0585114956        1449621289.3121538     
   1070052202.8600531        8116070.1920644045        1441519218.3205810     
   1020246134.0705869        10428017.555894077        1438563631.4100270     
   970466082.85021043        12826690.150017798        1440754528.5804882     
   920712049.19891226        15312087.974404931        1448091909.8319671     
   832794263.76823199        2282450.5664684772        1467285766.1514885     
   796043230.92911398        4138276.6672252417        1460798656.5172925     
   759311711.26142859        6059146.6727554500        1459312656.9015181     
   722599704.76518059        8045060.5830775499        1462827767.3041663     
   685907211.44036949        10096018.398186892        1471343987.7252333     
   550450206.28941083        97843.465896248817        1483302609.4963822     
   526364872.50516224        1459667.1944855750        1478422872.7556436     
   502292547.49469680        2864853.5023521781        1478398871.9707274     
   478233231.25801694        4313402.3895040751        1483230607.1416345     
   454186923.79512286        5805313.8559411168        1492918078.2683692     
   272852116.78213924       -662973.24320608377        1497671819.3468499     
   261017127.58819562        80241.773841470480        1494391867.0356359     
   249188642.77039102        845138.04468297958        1495822276.6176560     
   237366662.32871580        1631715.5692892373        1501963048.0929008     
   225551186.26317948        2439974.3476946205        1512814181.4613729     
  -4.7535916594950987       0.43914048221969360        1510393395.7028804     
  -3.8217854247591196       0.40529303814139661        1508705639.3572738     
  -2.9114943514704508       0.29972908312812241        1511582870.8422985     
  -2.0227229918484997       0.12243205533639867        1519025090.1579545     
  -1.1554628133413116      -0.12656821561514567        1531032297.3042433     
   920712049.19891226        15312087.974404931        1448091909.8319671     
   868250570.49924123        17394631.855502039        1442843464.6041591     
   816032994.82688785        20290185.827656746        1442576617.7578728     
   764059322.18185997        23998749.890894234        1447291369.2931094     
   712329552.56414223        28520324.045171231        1456987719.2098680     
   685907211.44036949        10096018.398186892        1471343987.7252333     
   646297856.80535674        11578952.509266078        1467454831.3861210     
   606871429.45321512        13671644.229914516        1468608697.4313850     
   567627929.38395739        16374093.560175121        1474805585.8610232     
   528567356.59757543        19686300.500021309        1486045496.6750305     
   454186923.79512286        5805313.8559411168        1492918078.2683692     
   427605190.37577623        6741287.3423029929        1490317072.4494383     
   401145408.49486351        8083765.9567727447        1492820513.0177343     
   374807578.15238822        9832749.6993695199        1500428399.9732566     
   348591699.34834015        11988238.570057541        1513140733.3160079     
   225551186.26317948        2439974.3476946205        1512814181.4613729     
   212172571.21050888        2881636.3546396941        1511430187.7941020     
   198854931.95183125        3526551.0082313865        1515212064.5169144     
   185598268.48713923        4374718.3084398806        1524159811.6298053     
   172402580.81644490        5426138.2553091124        1538273429.1327786     
  -1.1554628133413116      -0.12656821561514567        1531032297.3042433     
 -0.69044673824445968      -0.45372343702678214        1530794177.4201198     
 -0.17588490188101349      -0.61572681477249447        1535783351.9289312     
  0.38822601269281631      -0.61256694542829004        1545999820.8306749     
   1.0018806297405438      -0.44426001339231264        1561443584.1253531     
   712329552.56414223        28520324.045171231        1456987719.2098680     
   655419980.69943571        31271098.431344002        1454453899.9274499     
   598123521.78937495        32732249.333005637        1457634210.1419802     
   540440175.83396459        32903776.750168353        1466528649.8534598     
   482369942.83320576        31785680.682833359        1481137219.0618823     
   528567356.59757543        19686300.500021309        1486045496.6750305     
   486233833.44333351        21853978.030230135        1484401342.2429640     
   443610145.00670552        23054437.952483863        1488389964.2887588     
   400696291.28767574        23287680.266729265        1498011362.8124163     
   357492272.28625929        22553704.973024830        1513265537.8139377     
   348591699.34834015        11988238.570057541        1513140733.3160079     
   320601787.70719558        13503088.085105538        1512499085.7910628     
   292418432.54661864        14373125.868710190        1517408861.7249033     
   264041633.86660808        14598351.920869842        1527870061.1175275     
   235471391.66715950        14178766.241570324        1543882683.9689386     
   172402580.81644490        5426138.2553091124        1538273429.1327786     
   158523843.49102074        6218428.5959698632        1538747130.5717463     
   144548384.40912256        6688313.0817170814        1544690902.4504201     
   130476203.57075292        6835791.7125608474        1556104744.7687984     
   116307300.97590360        6660864.4884723090        1572988657.5268853     
   1.0018806297405438      -0.44426001339231264        1561443584.1253531     
  0.79480698579435971      -0.43718412589733108        1563145476.5850196     
  0.59422224466983520      -0.40848064399832157        1570236086.4653132     
  0.40011522025998486      -0.35818373221631294        1582715413.7662253     
  0.21249037328231823      -0.28627956232702539        1600583458.4877656     
   482369942.83320576        31785680.682833359        1481137219.0618823     
   425036878.24604487        27026092.177722543        1478965226.9493606     
   365543903.14696848        15066801.966226593        1482594585.9332902     
   303891017.53599441       -4092189.9515908808        1492025296.0136685     
   240078221.41310421       -30450883.575803667        1507257357.1905031     
   357492272.28625929        22553704.973024830        1513265537.8139377     
   315405014.38111115        19257775.785122544        1509782050.4639480     
   271697823.58929574        10562070.308332160        1511886988.0843146     
   226370699.91082221       -3533411.4573182166        1519580350.6750376     
   179423643.34567806       -23028669.511871822        1532862138.2361155     
   235471391.66715950        14178766.241570324        1543882683.9689386     
   208021580.08375090        12163988.262791246        1539717675.2775991     
   179491813.23892394        6549359.4126146436        1540928165.4305184     
   149882091.13267785       -2665120.3089571893        1547514154.4277036     
   119192413.76501542       -15479450.901917592        1559475642.2691476     
   116307300.97590360        6660864.4884723090        1572988657.5268853     
   102886575.35396633        5744729.6107342988        1568772101.3903098     
   88925872.095860109        3028669.2790995277        1569718117.9719062     
   74425191.201575950       -1487316.5064601190        1575826707.2716677     
   59384532.671115391       -7803227.7459412441        1587097869.2895987     
  0.21249037328231823      -0.28627956232702539        1600583458.4877656     
  0.19175695829744344      -0.17104673904361883        1596945328.8020840     
  0.16009634094617453       -9.2237229758802219E-002   1598256845.7084713     
  0.11750339712224399       -4.9868808716191003E-002   1604518009.2069328     
   6.3986728004029464E-002  -4.3913499210583559E-002   1615728819.2974684     
   240078221.41310421       -30450883.575803667        1507257357.1905031     
   199405833.73431417       -60137925.020394132        1486160760.2294328     
   154121617.87273902       -105197727.07426842        1467797489.3668878     
   104225573.82839146       -165630289.73738271        1452167544.6028755     
   49717701.601264060       -241435613.00976589        1439270925.9374063     
   179423643.34567806       -23028669.511871822        1532862138.2361155     
   148231230.91978893       -45500387.094093017        1507286086.1695590     
   113579947.35675676       -79501675.133463174        1484603921.9230807     
   75469792.656590119       -125032533.62994474        1464815645.4966755     
   33900766.819275804       -182092962.58358669        1447921256.8903456     
   119192413.76501542       -15479450.901917592        1559475642.2691476     
   97938724.367869914       -30598220.289006673        1530765251.6503527     
   74379120.879220277       -53403369.981110841        1505109310.5731771     
   48513603.299063995       -83894899.978237540        1482507819.0376194     
   20342171.627402455       -122072810.28037965        1462960777.0436809     
   59384532.671115391       -7803227.7459412441        1587097869.2895987     
   48528314.078557312       -15431424.605130088        1556598256.6718056     
   36519138.440129913       -26902811.617218040        1529313655.3171816     
   23357005.755826544       -42217388.782223746        1505244065.2257085     
   9041916.0256567486       -61375156.100117698        1484389486.3974116     
   6.3986728004029464E-002  -4.3913499210583559E-002   1615728819.2974684     
   5.1842321644359847E-002  -4.2490873457119854E-002   1584785101.2339225     
   3.9470304314325813E-002  -4.1827644827594629E-002   1557216956.1550882     
   2.6860473552341151E-002  -4.1956433748514411E-002   1533024384.0609579     
   1.4023855337070772E-002  -4.2841874736443651E-002   1512207384.9515326     
   49717701.601264060       -241435613.00976589        1439270925.9374063     
   40414447.860541895       -322437013.35637224        1346254077.8797553     
   23355464.531077594       -429290845.66545254        1253121322.7057586     
  -1459248.3870981932       -561997109.93690014        1159872660.4154093     
  -34029690.894018322       -720555806.17083728        1066508091.0087067     
   33900766.819275804       -182092962.58358669        1447921256.8903456     
   29765029.608298197       -241991501.91536373        1347445988.3726501     
   19812495.205225855       -321279365.22079557        1246191748.6830804     
   4043163.6100439727       -419956552.49992239        1144158537.8216245     
  -17542965.177233309       -538023063.75269914        1041346355.7882700     
   20342171.627402455       -122072810.28037965        1462960777.0436809     
   19479482.216087103       -161436829.21632883        1357289175.8620107     
   14738928.009292945       -213727064.13720462        1250175539.4529312     
   6120509.0070331395       -278943515.04296762        1141619867.8164382     
  -6375774.7907072604       -357086181.93366528        1031622160.9525141     
   9041916.0256567486       -61375156.100117698        1484389486.3974116     
   9557805.6839017831       -80772995.259287849        1375783640.3478348     
   8134762.9432993308       -106633942.41461769        1265072695.0153055     
   4772787.8038537577       -138957997.56608823        1152256650.3998315     
  -528119.73443031311       -177745160.71368620        1037335506.5014095     
   1.4023855337070772E-002  -4.2841874736443651E-002   1512207384.9515326     
   1.1739876470229959E-002  -4.4253154254600746E-002   1402929381.8301127     
   7.2428327072146387E-003  -5.3041316760006202E-002   1290883215.3702168     
   5.2593003212548714E-004  -6.9227968138238838E-002   1176068885.5718501     
  -8.4051813128585978E-003  -9.2796008972178309E-002   1058486392.4349883     
  -14.384541177240148       -25.946559186909976        1396091099.8339665     
  -12.157308127236000       -17.258687702413788        1417450954.6684196     
  -10.540224370958594       -10.604651360343091        1438472059.3296726     
  -9.5332921502044261       -5.9844510414036414        1459154413.8177197     
  -9.1365085826637156       -3.3980802603984492        1479498018.1325622     
  -311456185.15879089        17084171.952475011        1430595215.8952749     
  -310346249.96066666        14337872.788183361        1439972461.4974399     
  -309260635.39811200        11510504.838661000        1451176015.2163057     
  -308199341.47112262        8602068.1039212346        1464205877.0518680     
  -307162368.17969936        5612562.5839609355        1479062047.0041239     
  -660200787.31562448        22981840.436737388        1463929177.1982944     
  -651795038.31832325        19344997.668760896        1461295440.2051883     
  -643437929.98200452        15546019.364175647        1462653069.6186800     
  -635129462.30666912        11584905.522980481        1468002065.4387660     
  -626869635.29231668        7461656.1451741755        1477342427.6654539     
  -1046233820.8550447        17692979.506221235        1496092983.7430265     
  -1024346377.2302756        15021357.383047521        1481419890.7916594     
  -1002531894.2919035        12106532.971886456        1472903222.5367901     
  -980790372.03993285        8948506.2727203369        1470542978.9784203     
  -959121810.47435999        5547277.2855612040        1474339160.1165519     
  -1469555285.7770500        1217589.1609312892        1527086635.5294685     
  -1428000266.6965210        1366951.9310563207        1500345813.2568533     
  -1386542528.3278096        1192045.6617926955        1481926473.9706395     
  -1345182070.6709113        692870.35315096378        1471828617.6708288     
  -1303918893.7258310       -130573.99488335848        1470052244.3574166     
  -9.1365085826637156       -3.3980802603984492        1479498018.1325622     
  -7.8154433931880050       -1.6876552124653910        1482570910.9694445     
  -6.6446055617382109      -0.47798802461872292        1488744438.1767917     
  -5.6239850002301193       0.23095493008893619        1498018599.7546031     
  -4.7535916594950987       0.43914048221969360        1510393395.7028804     
  -307162368.17969936        5612562.5839609355        1479062047.0041239     
  -298467812.18889457        4765150.1485331506        1478039927.3607256     
  -289851253.18358797        3657747.7614453137        1480800849.4341633     
  -281312691.16377950        2290355.4226959199        1487344813.2244432     
  -272852126.12946802        662973.13229136169        1497671818.7315607     
  -626869635.29231668        7461656.1451741755        1477342427.6654539     
  -607530789.35641503        6351750.1465040743        1472134299.2339511     
  -588347937.24128711        4721864.7452540100        1471391619.8656628     
  -569321078.94693041        2571999.9414333999        1475114389.5605874     
  -550450214.47334826       -97844.264970570803        1483302608.3187284     
  -959121810.47435999        5547277.2855612040        1474339160.1165519     
  -927188939.31800580        4759798.3062523007        1464854026.5891235     
  -895490058.81769824        3192350.4734539390        1460516749.4712856     
  -864025168.97344053        844933.78715807199        1461327328.7630351     
  -832794269.78522813       -2282451.7526248693        1467285764.4643741     
  -1303918893.7258310       -130573.99488335848        1470052244.3574166     
  -1257442262.0736673       -10705.372219085693        1456199109.4262447     
  -1211277617.9128246       -930795.05396234989        1448176238.2510347     
  -1165424961.2433054       -2890843.0401191115        1445983630.8317893     
  -1119884292.0651112       -5890849.3306868076        1449621287.1685071     
  -4.7535916594950987       0.43914048221969360        1510393395.7028804     
  -3.8217854247591196       0.40529303814139661        1508705639.3572738     
  -2.9114943514704508       0.29972908312812241        1511582870.8422985     
  -2.0227229918484997       0.12243205533639867        1519025090.1579545     
  -1.1554628133413116      -0.12656821561514567        1531032297.3042433     
  -272852126.12946802        662973.13229136169        1497671818.7315607     
  -261017135.12225226       -80241.815383210778        1494391866.6918321     
  -249188648.52455938       -845138.12813466787        1495822276.4749792     
  -237366666.33640185       -1631715.8060042113        1501963048.0809982     
  -225551188.55777040       -2439974.8489598930        1512814181.5098956     
  -550450214.47334826       -97844.264970570803        1483302608.3187284     
  -526364879.12716395       -1459667.8473779559        1478422872.1321929     
  -502292552.57852161       -2864854.0882605314        1478398871.7607732     
  -478233234.82742834       -4313402.9876379967        1483230607.2044723     
  -454186925.87387806       -5805314.5454949439        1492918078.4632864     
  -832794269.78522813       -2282451.7526248693        1467285764.4643741     
  -796043235.83652282       -4138277.6906960011        1460798655.6783488     
  -759311715.07338500       -6059147.5806602240        1459312656.6996818     
  -722599707.49580455       -8045061.4224800766        1462827767.5283759     
  -685907213.10378146       -10096019.216160357        1471343988.1644301     
  -1119884292.0651112       -5890849.3306868076        1449621287.1685071     
  -1070052205.2503436       -8116071.3453859091        1441519217.3303051     
  -1020246136.0091498       -10428018.605333805        1438563631.2917082     
  -970466084.34153080       -12826691.110531390        1440754529.0527105     
  -920712050.24748945       -15312088.860983849        1448091910.6133177     
  -1.1554628133413116      -0.12656821561514567        1531032297.3042433     
 -0.69044673824445968      -0.45372343702678214        1530794177.4201198     
 -0.17588490188101349      -0.61572681477249447        1535783351.9289312     
  0.38822601269281631      -0.61256694542829004        1545999820.8306749     
   1.0018806297405438      -0.44426001339231264        1561443584.1253531     
  -225551188.55777040       -2439974.8489598930        1512814181.5098956     
  -212172572.56124076       -2881637.2809699103        1511430187.9956250     
  -198854932.27897954       -3526552.0938730389        1515212064.8291762     
  -185598267.71098197       -4374719.2876561806        1524159812.0105395     
  -172402578.85724878       -5426138.8623212278        1538273429.5397117     
  -454186925.87387806       -5805314.5454949439        1492918078.4632864     
  -427605191.61760885       -6741288.2638952434        1490317072.9277673     
  -401145408.83941942       -8083766.9092269987        1492820513.6949382     
  -374807577.53930813       -9832750.4814843982        1500428400.7648010     
  -348591697.71727335       -11988238.980667651        1513140734.1373591     
  -685907213.10378146       -10096019.216160357        1471343988.1644301     
  -646297857.85954726       -11578953.402488381        1467454832.2165377     
  -606871429.85720479       -13671645.061785877        1468608698.5262148     
  -567627929.09675193       -16374094.194049478        1474805587.0934653     
  -528567355.57818890       -19686300.799279690        1486045497.9182847     
  -920712050.24748945       -15312088.860983849        1448091910.6133177     
  -868250571.28706086       -17394632.696760774        1442843465.8619375     
  -816032995.33233356       -20290186.551545233        1442576619.3230073     
  -764059322.38331020       -23998750.425339967        1447291370.9965317     
  -712329552.43999147       -28520324.318151176        1456987720.8825018     
   1.0018806297405438      -0.44426001339231264        1561443584.1253531     
  0.79480698579435971      -0.43718412589733108        1563145476.5850196     
  0.59422224466983520      -0.40848064399832157        1570236086.4653132     
  0.40011522025998486      -0.35818373221631294        1582715413.7662253     
  0.21249037328231823      -0.28627956232702539        1600583458.4877656     
  -172402578.85724878       -5426138.8623212278        1538273429.5397117     
  -158523841.91771263       -6218429.1722389162        1538747130.8991599     
  -144548383.21619835       -6688313.6088968366        1544690902.7162204     
  -130476202.75272660       -6835792.1723642647        1556104744.9909000     
  -116307300.52727415       -6660864.8625599109        1572988657.7231853     
  -348591697.71727335       -11988238.980667651        1513140734.1373591     
  -320601786.38258296       -13503088.433002263        1512499086.4446535     
  -292418431.53043270       -14373126.160470486        1517408862.2465527     
  -264041633.16082940       -14598352.163096428        1527870061.5430532     
  -235471391.27376905       -14178766.440866031        1543882684.3341534     
  -528567355.57818890       -19686300.799279690        1486045497.9182847     
  -486233832.59980035       -21853978.219461411        1484401343.2215011     
  -443610144.34847838       -23054438.063194215        1488389965.0563059     
  -400696290.82420313       -23287680.330419883        1498011363.4227028     
  -357492272.02699256       -22553705.021190748        1513265538.3206906     
  -712329552.43999147       -28520324.318151176        1456987720.8825018     
  -655419980.56937802       -31271098.531655252        1454453901.2296994     
  -598123521.67032456       -32732249.317031384        1457634211.1454775     
  -540440175.74284470       -32903776.674317032        1466528650.6298342     
  -482369942.78694212       -31785680.603526592        1481137219.6827779     
  0.21249037328231823      -0.28627956232702539        1600583458.4877656     
  0.19175695829744344      -0.17104673904361883        1596945328.8020840     
  0.16009634094617453       -9.2237229758802219E-002   1598256845.7084713     
  0.11750339712224399       -4.9868808716191003E-002   1604518009.2069328     
   6.3986728004029464E-002  -4.3913499210583559E-002   1615728819.2974684     
  -116307300.52727415       -6660864.8625599109        1572988657.7231853     
  -102886574.96002159       -5744729.8212795965        1568772101.5393124     
  -88925871.773009747       -3028669.3808005899        1569718118.0788870     
  -74425190.966238201        1487316.4588763937        1575826707.3419056     
  -59384532.539713398        7803227.6977319382        1587097869.3283632     
  -235471391.27376905       -14178766.440866031        1543882684.3341534     
  -208021579.74318263       -12163988.360922202        1539717675.5545685     
  -179491812.96215409       -6549359.4461695999        1540928165.6297932     
  -149882090.93068045        2665120.3033978716        1547514154.5598311     
  -119192413.64876348        15479450.887779050        1559475642.3446827     
  -357492272.02699256       -22553705.021190748        1513265538.3206906     
  -315405014.15773165       -19257775.789990351        1509782050.8478465     
  -271697823.40733343       -10562070.288335368        1511886988.3611896     
  -226370699.77582100        3533411.4837033004        1519580350.8607209     
  -179423643.26316619        23028669.526213706        1532862138.3464286     
  -482369942.78694212       -31785680.603526592        1481137219.6827779     
  -425036878.20366257       -27026092.108469769        1478965227.4191489     
  -365543903.10856467       -15066801.907351673        1482594586.2730813     
  -303891017.50164592        4092189.9998363107        1492025296.2445664     
  -240078221.38291711        30450883.613057256        1507257357.3336041     
   6.3986728004029464E-002  -4.3913499210583559E-002   1615728819.2974684     
   5.1842321644359847E-002  -4.2490873457119854E-002   1584785101.2339225     
   3.9470304314325813E-002  -4.1827644827594629E-002   1557216956.1550882     
   2.6860473552341151E-002  -4.1956433748514411E-002   1533024384.0609579     
   1.4023855337070772E-002  -4.2841874736443651E-002   1512207384.9515326     
  -59384532.539713398        7803227.6977319382        1587097869.3283632     
  -48528313.971475132        15431424.554419335        1556598256.7040551     
  -36519138.357956454        26902811.562037267        1529313655.3441241     
  -23357005.699162014        42217388.720576845        1505244065.2485714     
  -9041915.9950754866        61375156.030092090        1484389486.4173787     
  -119192413.64876348        15479450.887779050        1559475642.3446827     
  -97938724.272528976        30598220.267993636        1530765251.7127156     
  -74379120.805497617        53403369.950867027        1505109310.6247907     
  -48513603.247675210        83894899.936376035        1482507819.0809045     
  -20342171.599053703        122072810.22454575        1462960777.0810595     
  -179423643.26316619        23028669.526213706        1532862138.3464286     
  -148231230.85130948        45500387.098270766        1507286086.2598987     
  -113579947.30315387        79501675.124656007        1484603921.9970760     
  -75469792.618688717        125032533.60540524        1464815645.5579572     
  -33900766.797909789        182092962.54053769        1447921256.9425454     
  -240078221.38291711        30450883.613057256        1507257357.3336041     
  -199405833.70783153        60137925.045195445        1486160760.3456142     
  -154121617.85091648        105197727.08343473        1467797489.4609880     
  -104225573.81219152        165630289.72770640        1452167544.6797390     
  -49717701.591639265        241435612.97806767        1439270926.0018625     
   1.4023855337070772E-002  -4.2841874736443651E-002   1512207384.9515326     
   1.1739876470229959E-002  -4.4253154254600746E-002   1402929381.8301127     
   7.2428327072146387E-003  -5.3041316760006202E-002   1290883215.3702168     
   5.2593003212548714E-004  -6.9227968138238838E-002   1176068885.5718501     
  -8.4051813128585978E-003  -9.2796008972178309E-002   1058486392.4349883     
  -9041915.9950754866        61375156.030092090        1484389486.4173787     
  -9557805.6590562500        80772995.180925146        1375783640.3617547     
  -8134762.9276114404        106633942.31651047        1265072695.0235550     
  -4772787.8007345721        138957997.43686914        1152256650.4027736     
   528119.72156065702        177745160.54195297        1037335506.4994329     
  -20342171.599053703        122072810.22454575        1462960777.0810595     
  -19479482.193570875        161436829.14696795        1357289175.8884678     
  -14738927.995014817        213727064.04629669        1250175539.4692154     
  -6120509.0033864975        278943514.92253530        1141619867.8232958     
   6375774.7813087553        357086181.77566320        1031622160.9507028     
  -33900766.797909789        182092962.54053769        1447921256.9425454     
  -29765029.591801479        241991501.85388595        1347445988.4102473     
  -19812495.194967434        321279365.13631856        1246191748.7071941     
  -4043163.6074310839        419956552.38776380        1144158537.8333802     
   17542965.170830786        538023063.60828578        1041346355.7887985     
  -49717701.591639265        241435612.97806767        1439270926.0018625     
  -40414447.853737652        322437013.30171221        1346254077.9271021     
  -23355464.527465403        429290845.58659017        1253121322.7374868     
   1459248.3871601522        561997109.83264959        1159872660.4330261     
   34029690.890131146        720555806.03985500        1066508091.0137079     
  -1469555285.7770500        1217589.1609312892        1527086635.5294685     
  -1428000266.6965210        1366951.9310563207        1500345813.2568533     
  -1386542528.3278096        1192045.6617926955        1481926473.9706395     
  -1345182070.6709113        692870.35315096378        1471828617.6708288     
  -1303918893.7258310       -130573.99488335848        1470052244.3574166     
  -1901227976.5123553       -19952455.799145103        1423280295.7681885     
  -1837686557.0038915       -13630934.898213625        1403342034.5019319     
  -1774614264.8987458       -8873172.0083432198        1390570561.7790370     
  -1712011100.1969168       -5679167.1295288801        1384965877.5995088     
  -1649877062.8984041       -4048920.2617715597        1386527981.9633415     
  -2310871201.6427994       -34513661.077763319        1319527881.1932762     
  -2228642508.6865077       -23009720.140058875        1305958359.7932868     
  -2147254789.8250299       -14309026.185082197        1298400932.4936273     
  -2066708045.0583782       -8411579.2128422260        1296855599.2942924     
  -1987002274.3865395       -5317379.2233284712        1301322360.1952858     
  -2698484961.1683860       -42466026.674924970        1215829391.8047178     
  -2600868121.7443647       -26769403.794474721        1208194789.1309168     
  -2504464103.1066689       -15115516.868429899        1205417586.1144025     
  -2409272905.2552910       -7504365.8967877626        1207497782.7551804     
  -2315294528.1902380       -3935950.8795541525        1214435379.0532455     
  -3064069255.0891066       -43809552.590625167        1112184827.6025252     
  -2954363396.1774693       -24909985.861466527        1110051322.5148232     
  -2846242204.7436543       -11292644.058377385        1111620522.6413691     
  -2739705680.7876654       -2957527.1813789606        1116892427.9821727     
  -2634753824.3094964        95364.769551992416        1125867038.5372260     
  -1303918893.7258310       -130573.99488335848        1470052244.3574166     
  -1257442262.0736673       -10705.372219085693        1456199109.4262447     
  -1211277617.9128246       -930795.05396234989        1448176238.2510347     
  -1165424961.2433054       -2890843.0401191115        1445983630.8317893     
  -1119884292.0651112       -5890849.3306868076        1449621287.1685071     
  -1649877062.8984041       -4048920.2617715597        1386527981.9633415     
  -1588967734.7660313       -3814552.2748518586        1375170045.1605518     
  -1528267388.7672522       -4276791.3999112844        1369057495.8871331     
  -1467776024.9020755       -5435637.6369857788        1368190334.1430824     
  -1407493643.1705010       -7291090.9860519171        1372568559.9283974     
  -1987002274.3865395       -5317379.2233284712        1301322360.1952858     
  -1913331324.7070842       -5469834.3520838022        1292579794.4382257     
  -1839766351.8035004       -5975545.4004129171        1288497739.9839389     
  -1766307355.6757941       -6834512.3683335781        1289076196.8324285     
  -1692954336.3239594       -8046735.2558294535        1294315164.9836898     
  -2315294528.1902380       -3935950.8795541525        1214435379.0532455     
  -2230533031.8968248       -4976551.6039156914        1208428357.2592585     
  -2145774507.0215688       -6027057.0554622412        1206496970.5414548     
  -2061018953.5644553       -7087467.2341626883        1208641218.8998303     
  -1976266371.5254986       -8157782.1400352716        1214861102.3343778     
  -2634753824.3094964        95364.769551992416        1125867038.5372260     
  -2540572856.3352623       -2334704.0303767920        1122715733.6236620     
  -2446291854.4214506       -4431326.3650491238        1123055187.5596786     
  -2351910818.5680685       -6194502.2344830036        1126885400.3452818     
  -2257429748.7751098       -7624231.6386625767        1134206371.9804704     
  -1119884292.0651112       -5890849.3306868076        1449621287.1685071     
  -1070052205.2503436       -8116071.3453859091        1441519217.3303051     
  -1020246136.0091498       -10428018.605333805        1438563631.2917082     
  -970466084.34153080       -12826691.110531390        1440754529.0527105     
  -920712050.24748945       -15312088.860983849        1448091910.6133177     
  -1407493643.1705010       -7291090.9860519171        1372568559.9283974     
  -1344365406.8643806       -8794794.2171568274        1365016338.0550168     
  -1281359181.5594230       -10705200.785470366        1362378935.3483999     
  -1218474967.2556350       -13022310.691015065        1364656351.8085432     
  -1155712763.9530089       -15746123.933768392        1371848587.4354477     
  -1692954336.3239594       -8046735.2558294535        1294315164.9836898     
  -1617191849.4774580       -9027489.3886216283        1287200798.7429407     
  -1541647367.0597148       -10734924.950609267        1284769587.0361114     
  -1466320889.0707293       -13169041.941785753        1287021529.8632030     
  -1391212415.5105009       -16329840.362156391        1293956627.2242167     
  -1976266371.5254986       -8157782.1400352716        1214861102.3343778     
  -1888531533.0895896       -8814156.8598102331        1208072599.3940694     
  -1801110692.5100300       -10517191.100755095        1205735586.3548417     
  -1714003849.7868199       -13266884.862860203        1207850063.2166955     
  -1627211004.9199598       -17063238.146135330        1214416029.9796281     
  -2257429748.7751098       -7624231.6386625767        1134206371.9804704     
  -2158384457.7007670       -8154796.6307190657        1127631740.0084112     
  -2059749157.9103673       -10051999.235912561        1125276933.3045917     
  -1961523849.4039044       -13315839.454233646        1127141951.8690164     
  -1863708532.1813858       -17946317.285697699        1133226795.7016754     
  -920712050.24748945       -15312088.860983849        1448091910.6133177     
  -868250571.28706086       -17394632.696760774        1442843465.8619375     
  -816032995.33233356       -20290186.551545233        1442576619.3230073     
  -764059322.38331020       -23998750.425339967        1447291370.9965317     
  -712329552.43999147       -28520324.318151176        1456987720.8825018     
  -1155712763.9530089       -15746123.933768392        1371848587.4354477     
  -1090653090.1840572       -18252977.793589771        1366085584.1151810     
  -1025782799.9789674       -21391110.199627280        1365129819.3638020     
  -961101893.33774269       -25160521.151875377        1368981293.1813092     
  -896610370.26037586       -29561210.650318533        1377640005.5676990     
  -1391212415.5105009       -16329840.362156391        1293956627.2242167     
  -1314052717.3432159       -19410455.369094014        1287742671.3505468     
  -1237027883.2979476       -22940617.449419439        1286161594.4022009     
  -1160137913.3747046       -26920326.603162766        1289213396.3791685     
  -1083382807.5734773       -31349582.830291033        1296898077.2814624     
  -1627211004.9199598       -17063238.146135330        1214416029.9796281     
  -1538449452.7645314       -20867065.423238814        1207814727.5680375     
  -1449768245.2892745       -24938708.300925851        1205671944.4382050     
  -1361167382.4941988       -29278166.779210031        1207987680.5901244     
  -1272646864.3792980       -33885440.858077645        1214761936.0237968     
  -1863708532.1813858       -17946317.285697699        1133226795.7016754     
  -1763843296.4479971       -22622807.956021786        1126301752.7676518     
  -1664003885.9529397       -27385382.754113734        1123660869.4718137     
  -1564190300.6962247       -32234041.680015087        1125304145.8141651     
  -1464402540.6778409       -37168784.733687639        1131231581.7947023     
  -712329552.43999147       -28520324.318151176        1456987720.8825018     
  -655419980.56937802       -31271098.531655252        1454453901.2296994     
  -598123521.67032456       -32732249.317031384        1457634211.1454775     
  -540440175.74284470       -32903776.674317032        1466528650.6298342     
  -482369942.78694212       -31785680.603526592        1481137219.6827779     
  -896610370.26037586       -29561210.650318533        1377640005.5676990     
  -825316940.74204707       -31863099.142515540        1374359001.6021700     
  -753795734.86383474       -33405733.101761341        1376324784.9383075     
  -682046752.62573445       -34189112.528052896        1383537355.5761116     
  -610069994.02775383       -34213237.421410799        1395996713.5155861     
  -1083382807.5734773       -31349582.830291033        1296898077.2814624     
  -999040784.02719009       -33603164.687111437        1292684259.8899043     
  -914630094.78956056       -35627860.906129301        1293249887.5330951     
  -830150739.86059880       -37423671.487371087        1298594960.2110438     
  -745602719.24030042       -38990596.430828750        1308719477.9237437     
  -1272646864.3792980       -33885440.858077645        1214761936.0237968     
  -1176591510.4248021       -36491295.165444613        1209429676.0929012     
  -1080626601.4475164       -39398632.730183065        1208409518.9298518     
  -984752137.44743848       -42607453.552280307        1211701464.5346341     
  -888968118.42457390       -46117757.631751478        1219305512.9072626     
  -1464402540.6778409       -37168784.733687639        1131231581.7947023     
  -1357969119.9348898       -40527490.577530503        1124595250.2111654     
  -1251785254.8376951       -44718048.573898494        1121803679.1285584     
  -1145850945.3862588       -49740458.722790718        1122856868.5468814     
  -1040166191.5805783       -55594721.024206758        1127754818.4661303     
  -482369942.78694212       -31785680.603526592        1481137219.6827779     
  -425036878.20366257       -27026092.108469769        1478965227.4191489     
  -365543903.10856467       -15066801.907351673        1482594586.2730813     
  -303891017.50164592        4092189.9998363107        1492025296.2445664     
  -240078221.38291711        30450883.613057256        1507257357.3336041     
  -610069994.02775383       -34213237.421410799        1395996713.5155861     
  -537944264.80203366       -30489337.749036819        1393642360.4483123     
  -463604553.66535872       -19385498.373480886        1397104634.1782920     
  -387050860.61773813       -901719.29477287829        1406383534.7055199     
  -308283185.65917039        24961999.487092257        1421479062.0299942     
  -745602719.24030042       -38990596.430828750        1308719477.9237437     
  -658640680.57300186       -36289292.141364604        1306245847.3518171     
  -569410588.59562504       -26027810.151637644        1309604119.2568297     
  -477912443.30817014       -8206150.4616505206        1318794293.6387904     
  -384146244.71063828        17175686.928586215        1333816370.4976943     
  -888968118.42457390       -46117757.631751478        1219305512.9072626     
  -787126125.51657915       -44425955.285491019        1216775688.1296604     
  -682962007.89936912       -34993737.241844803        1220093041.5086913     
  -576475765.57295096       -17821103.500842869        1229257573.0443649     
  -467667398.53733039        7091945.9375079274        1244269282.7366750     
  -1040166191.5805783       -55594721.024206758        1127754818.4661303     
  -923400599.63275123       -54899327.181382507        1125231882.7818365     
  -804258811.57658947       -46283279.644098133        1128571400.9338810     
  -682740827.41209185       -29746578.412364095        1137773372.9222560     
  -558846647.13924706       -5289223.4861443937        1152837798.7469614     
  -240078221.38291711        30450883.613057256        1507257357.3336041     
  -199405833.70783153        60137925.045195445        1486160760.3456142     
  -154121617.85091648        105197727.08343473        1467797489.4609880     
  -104225573.81219152        165630289.72770640        1452167544.6797390     
  -49717701.591639265        241435612.97806767        1439270926.0018625     
  -308283185.65917039        24961999.487092257        1421479062.0299942     
  -258773587.67668000        55194671.560144424        1404759817.6942062     
  -202810031.13217902        106940538.83989051        1391979186.5743711     
  -140392516.02566278        180199601.32635611        1383137168.6704996     
  -71521042.357131526        274971859.01954198        1378233763.9825854     
  -384146244.71063828        17175686.928586215        1333816370.4976943     
  -322355758.95622182        48987092.881867036        1323623630.9243267     
  -252269184.25959098        108452128.64252059        1318574791.6795099     
  -173886520.62075454        195570794.21053284        1318669852.7632368     
  -87207768.039710984        310343089.58589685        1323908814.1755087     
  -467667398.53733039        7091945.9375079274        1244269282.7366750     
  -390152347.54644752        41515189.010403678        1242752200.0359724     
  -302499077.23316109        109732496.49129701        1247584304.7763906     
  -204707587.59747386        211743868.38020137        1258765596.9579544     
  -96777878.639381185        347549304.67712110        1276296076.5806420     
  -558846647.13924706       -5289223.4861443937        1152837798.7469614     
  -462163353.44736695        32778959.945712179        1162145525.0291381     
  -353499710.05289000        110781642.38622241        1179007725.8650303     
  -232855716.95580876        228718823.83541936        1203424401.2546411     
  -100231374.15614241        386590504.29322481        1235395551.1979775     
  -49717701.591639265        241435612.97806767        1439270926.0018625     
  -40414447.853737652        322437013.30171221        1346254077.9271021     
  -23355464.527465403        429290845.58659017        1253121322.7374868     
   1459248.3871601522        561997109.83264959        1159872660.4330261     
   34029690.890131146        720555806.03985500        1066508091.0137079     
  -71521042.357131526        274971859.01954198        1378233763.9825854     
  -57349391.196987569        376720039.56007594        1296706171.2556734     
  -34212443.917608947        508352540.49806631        1214251688.2260573     
  -2110200.5190107822        669869361.83344710        1130870314.8937256     
   38957338.998798251        861270503.56621385        1046562051.2587054     
  -87207768.039710984        310343089.58589685        1323908814.1755087     
  -70484814.279770553        432142921.89658976        1255281637.7491243     
  -43586997.869730473        587858963.04094255        1184916587.8321767     
  -6514318.8096044362        777491213.01891434        1112813664.4246774     
   40733222.900612891        1001039671.8305303        1038972867.5266031     
  -96777878.639381185        347549304.67712110        1276296076.5806420     
  -79820717.102084100        488705660.31123936        1221980477.4074621     
  -51479126.383829117        667810113.21520889        1165116021.5558655     
  -11753106.484607577        884862663.38906729        1105702709.0258567     
   39357342.595568657        1139863310.8327823        1043740539.8174329     
  -100231374.15614241        386590504.29322481        1235395551.1979775     
  -85357099.663928241        546408254.80403650        1196802690.2306788     
  -57888829.459892392        748205991.02091742        1154849989.3971062     
  -17826563.544029474        991983712.94390571        1109537448.6972656     
   34829698.083667755        1277741420.5729775        1060865068.1311654     
  -3064069255.0891066       -43809552.590625167        1112184827.6025252     
  -2954363396.1774693       -24909985.861466527        1110051322.5148232     
  -2846242204.7436543       -11292644.058377385        1111620522.6413691     
  -2739705680.7876654       -2957527.1813789606        1116892427.9821727     
  -2634753824.3094964        95364.769551992416        1125867038.5372260     
  -3406192337.2435560        17296321.283057928        1015653077.0216973     
  -3293380278.4157047        11879234.333845854        1009135399.3058314     
  -3180024638.6513801        8274083.8395348787        1006915936.3908837     
  -3066125417.9505920        6480869.8001194000        1008994688.2768608     
  -2951682616.3133297        6499592.2156041861        1015371654.9637554     
  -3759957210.6524215        74909657.780416250        908168881.40949631     
  -3642337495.9464383        45686353.941408873        899749987.54880655     
  -3522045951.8896971        25369147.938274622        896224818.07570434     
  -3399082578.4821897        13958039.771016121        897593372.99019563     
  -3273447375.7239251        11453029.439624310        903855652.29227614     
  -4125363875.3156834        129030456.90145469        789732240.76591706     
  -4001235048.7696700        76511372.961220503        781895087.24374688     
  -3872306144.4585924        39992548.237836838        779547167.69583106     
  -3738577162.3824639        19473982.731306791        782688482.12217951     
  -3600048102.5412798        14955676.441622019        791319030.52278471     
  -4502412331.2333641        179658718.64616919        660343155.09096479     
  -4370072936.8853960        104354291.39328742        655570698.39065230     
  -4230805216.3580799        52144284.738225698        656882985.25126374     
  -4084609169.6514106        23028698.681003332        664280015.67280722     
  -3931484796.7654023        17007533.221578836        677761789.65528023     
  -2634753824.3094964        95364.769551992416        1125867038.5372260     
  -2540572856.3352623       -2334704.0303767920        1122715733.6236620     
  -2446291854.4214506       -4431326.3650491238        1123055187.5596786     
  -2351910818.5680685       -6194502.2344830036        1126885400.3452818     
  -2257429748.7751098       -7624231.6386625767        1134206371.9804704     
  -2951682616.3133297        6499592.2156041861        1015371654.9637554     
  -2847899643.9054346        4121359.1192370653        1010773438.7752626     
  -2744132125.0118465        1691614.3085284233        1010058658.9084055     
  -2640380059.6325583       -789642.21652233601        1013227315.3631884     
  -2536643447.7675734       -3322410.4559161663        1020279408.1396114     
  -3273447375.7239251        11453029.439624310        903855652.29227614     
  -3158940463.2479329        9463212.7371448278        897675789.46599472     
  -3044564491.7401190        7036926.1407332420        895772040.43340957     
  -2930319461.2004814        4174169.6504051685        898144405.19451582     
  -2816205371.6290226        874943.26614105701        904792883.74932003     
  -3600048102.5412798        14955676.441622019        791319030.52278471     
  -3473695314.3627458        13690856.823359013        783422785.69586372     
  -3347588954.6062675        11604609.131579876        780195332.13469100     
  -3221729023.2718387        8696933.3662974834        781636669.83926773     
  -3096115520.3594651        4967829.5275003910        787746798.80959487     
  -3931484796.7654023        17007533.221578836        677761789.65528023     
  -3792164197.2498789        16804291.377880573        668014427.46486080     
  -3653205513.6102929        15394663.281065464        663328534.01224899     
  -3514608745.8466296        12778648.931166887        663704109.29744077     
  -3376373893.9589005        8956248.3281552792        669141153.32043624     
  -2257429748.7751098       -7624231.6386625767        1134206371.9804704     
  -2158384457.7007670       -8154796.6307190657        1127631740.0084112     
  -2059749157.9103673       -10051999.235912561        1125276933.3045917     
  -1961523849.4039044       -13315839.454233646        1127141951.8690164     
  -1863708532.1813858       -17946317.285697699        1133226795.7016754     
  -2536643447.7675734       -3322410.4559161663        1020279408.1396114     
  -2426904096.6931152       -4439303.1188678741        1013165622.1301752     
  -2317403102.7767115       -6350719.6419912577        1010193517.2381835     
  -2208140466.0183578       -9056660.0252835751        1011363093.4636281     
  -2099116186.4180584       -12557124.268760204        1016674350.8065145     
  -2816205371.6290226        874943.26614105701        904792883.74932003     
  -2695995229.5567389       -895257.76838445663        897340183.51604736     
  -2575851810.5166125       -2887868.9101262093        893951020.24941373     
  -2455775114.5086546       -5102890.1590733528        894625393.94942212     
  -2335765141.5328579       -7540321.5152441263        899363304.61606550     
  -3096115520.3594651        4967829.5275003910        787746798.80959487     
  -2965657856.2916365        2477339.4207026958        780155424.16601813     
  -2835095281.1300812        336552.95966494083        776549442.33828449     
  -2704427794.8748040       -1454529.8556388617        776928853.32638669     
  -2573655397.5257940       -2895909.0251706839        781293657.13033020     
  -3376373893.9589005        8956248.3281552792        669141153.32043624     
  -3235891976.8978100        5678488.4484187365        661611344.08009553     
  -3095133514.6171112        3322545.9673818350        657988783.50479496     
  -2954098507.1167974        1888420.8850651979        658273471.59453404     
  -2812786954.3968692        1376113.2014511824        662465408.34931135     
  -1863708532.1813858       -17946317.285697699        1133226795.7016754     
  -1763843296.4479971       -22622807.956021786        1126301752.7676518     
  -1664003885.9529397       -27385382.754113734        1123660869.4718137     
  -1564190300.6962247       -32234041.680015087        1125304145.8141651     
  -1464402540.6778409       -37168784.733687639        1131231581.7947023     
  -2099116186.4180584       -12557124.268760204        1016674350.8065145     
  -1988157587.3472729       -16088932.169472098        1009054023.3447837     
  -1877363909.9085898       -20170478.843850732        1005418735.0960249     
  -1766735154.1020155       -24801764.291916728        1005768486.0602409     
  -1656271319.9275274       -29982788.513624012        1010103276.2374365     
  -2335765141.5328579       -7540321.5152441263        899363304.61606550     
  -2214567808.9110079       -10183835.582266569        890885413.50057077     
  -2093674494.3150232       -13840743.068829179        886093441.17283356     
  -1973085197.7448974       -18511043.974929094        884987387.63286102     
  -1852799919.2006397       -24194738.300584912        887567252.88064933     
  -2573655397.5257940       -2895909.0251706839        781293657.13033020     
  -2443073961.1391973       -4907518.1943808794        771795923.23501420     
  -2312935639.1722317       -8396175.4290304184        765684987.70223951     
  -2183240431.6248899       -13361880.729082942        762960850.53201962     
  -2053988338.4971695       -19804634.094565988        763623511.72434485     
  -2812786954.3968692        1376113.2014511824        662465408.34931135     
  -2673676044.0318470       -259980.00584995747        651785552.54810941     
  -2535147344.4802227       -3836775.9244771004        644193374.68424594     
  -2397200855.7419815       -9354274.5543760061        639688874.75771940     
  -2259836577.8171320       -16812475.895590186        638272052.76852930     
  -1464402540.6778409       -37168784.733687639        1131231581.7947023     
  -1357969119.9348898       -40527490.577530503        1124595250.2111654     
  -1251785254.8376951       -44718048.573898494        1121803679.1285584     
  -1145850945.3862588       -49740458.722790718        1122856868.5468814     
  -1040166191.5805783       -55594721.024206758        1127754818.4661303     
  -1656271319.9275274       -29982788.513624012        1010103276.2374365     
  -1540256766.6891763       -33748718.959684730        1001577714.9698423     
  -1424242207.3858795       -37514629.189239502        996671470.02905977     
  -1308227642.0176308       -41280519.202298522        995384541.41509402     
  -1192213070.5844297       -45046388.998848796        997716929.12794185     
  -1852799919.2006397       -24194738.300584912        887567252.88064933     
  -1727848359.6786497       -28561131.212396622        877443617.25815606     
  -1602647232.3810031       -32095631.538674831        870713853.78836119     
  -1477196537.3076954       -34798239.279417276        867377962.47126400     
  -1351496274.4587293       -36668954.434638560        867435943.30686486     
  -2053988338.4971695       -19804634.094565988        763623511.72434485     
  -1920743898.9032922       -24964727.335635066        752192957.07611465     
  -1787000329.8230588       -28461055.622180104        743930830.40646327     
  -1652757631.2564485       -30293618.954141021        738837131.71540022     
  -1518015803.2034719       -30462417.331551313        736911861.00291586     
  -2259836577.8171320       -16812475.895590186        638272052.76852930     
  -2118943384.3631334       -22959507.329486609        625825734.42371190     
  -1977301499.7120507       -26610901.439767957        616322399.88336861     
  -1834910923.8638957       -27766658.226475239        609762049.14749229     
  -1691771656.8186700       -26426777.689613998        606144682.21608615     
  -1040166191.5805783       -55594721.024206758        1127754818.4661303     
  -923400599.63275123       -54899327.181382507        1125231882.7818365     
  -804258811.57658947       -46283279.644098133        1128571400.9338810     
  -682740827.41209185       -29746578.412364095        1137773372.9222560     
  -558846647.13924706       -5289223.4861443937        1152837798.7469614     
  -1192213070.5844297       -45046388.998848796        997716929.12794185     
  -1061878568.1292896       -42286657.193007052        994023102.68985009     
  -930073991.10451102       -34626676.821699619        994428060.19881582     
  -796799339.51007450       -22066447.884873062        998931801.65484023     
  -662054613.34599996       -4605970.3825760484        1007534327.0579300     
  -1351496274.4587293       -36668954.434638560        867435943.30686486     
  -1212631918.3227777       -33356601.713736415        861514084.31983125     
  -1073203609.1558640       -28164405.556315422        857927339.39058340     
  -933211346.95800471       -21092365.962392628        856675708.51912284     
  -792655131.72918773       -12140482.931954771        857759191.70544112     
  -1518015803.2034719       -30462417.331551313        736911861.00291586     
  -1375660650.2131975       -28109160.743541956        727704827.67179346     
  -1233647665.7306597       -26896465.847971618        719069238.50918865     
  -1091976849.7558689       -26824332.644899189        711005093.51508904     
  -950648202.28880394       -27892761.134247005        703512392.68950784     
  -1691771656.8186700       -26426777.689613998        606144682.21608615     
  -1550964763.8005629       -26544334.282414615        592595332.74573350     
  -1411406160.8288920       -30822857.696653724        577853757.55462587     
  -1273095847.9036489       -39262347.932332695        561919956.64275587     
  -1136033825.0248528       -51862804.989489019        544793930.01012170     
  -558846647.13924706       -5289223.4861443937        1152837798.7469614     
  -462163353.44736695        32778959.945712179        1162145525.0291381     
  -353499710.05289000        110781642.38622241        1179007725.8650303     
  -232855716.95580876        228718823.83541936        1203424401.2546411     
  -100231374.15614241        386590504.29322481        1235395551.1979775     
  -662054613.34599996       -4605970.3825760484        1007534327.0579300     
  -546971782.23216975        25673572.742857486        1021005703.8337597     
  -421017728.45399541        92190524.749444574        1042873474.9127029     
  -284192452.01147485        194944885.63717836        1073137640.2947519     
  -136495952.90461746        333936655.40603197        1111798199.9799092     
  -792655131.72918773       -12140482.931954771        857759191.70544112     
  -656767278.19514203        11072065.386571914        874100237.43029857     
  -511117329.03502119        66824932.458688945        899679597.20765829     
  -355705284.24880153        155118118.28445214        934497271.03751302     
  -190531143.83651155        275951622.86381006        978553258.91986096     
  -950648202.28880394       -27892761.134247005        703512392.68950784     
  -791549841.33630121       -11025562.123199731        721429125.81876171     
  -623798511.79596674        34684865.513954908        749426092.74990296     
  -447394213.66780144        109238521.77721748        787503293.48293006     
  -262336946.95180577        212635406.66656980        835660728.01784337     
  -1136033825.0248528       -51862804.989489019        544793930.01012170     
  -951319471.65562069       -40619309.786379397        562992368.99913704     
  -759061276.73683250       -4229676.0847485363        592112961.53942823     
  -559259240.26846099        57306096.115498215        632155707.63099396     
  -351913362.25051641        143988006.81431130        683120607.27383840     
  -100231374.15614241        386590504.29322481        1235395551.1979775     
  -85357099.663928241        546408254.80403650        1196802690.2306788     
  -57888829.459892392        748205991.02091742        1154849989.3971062     
  -17826563.544029474        991983712.94390571        1109537448.6972656     
   34829698.083667755        1277741420.5729775        1060865068.1311654     
  -136495952.90461746        333936655.40603197        1111798199.9799092     
  -127369816.04662770        482938262.11574250        1090226435.2212160     
  -95105487.161432981        709067175.58278370        1070088899.1796421     
  -39702966.249026597        1012323395.8072022        1051385591.8552048     
   38837746.690572381        1392706922.7889380        1034116513.2478855     
  -190531143.83651155        275951622.86381006        978553258.91986096     
  -173455805.80303350        418246287.41533983        986304152.73771286     
  -122698079.42697737        672815579.77546263        1000283343.8560872     
  -38257964.708345115        1039659499.9441961        1020490832.2749751     
   79864538.352873504        1518778047.9215043        1046926617.9943874     
  -262336946.95180577        212635406.66656980        835660728.01784337     
  -223615068.93315151        352332330.70282185        885035842.78017485     
  -140666606.25654125        639451203.59892213        945433323.42641652     
  -13491558.921970189        1073992025.3548946        1016853169.9565773     
   157910073.07055104        1655954795.9706898        1099295382.3706462     
  -351913362.25051641        143988006.81431130        683120607.27383840     
  -277847605.43698281        285196391.97819656        786421505.34859073     
  -149011067.65010497        608974047.05320680        905538837.89064932     
   34596251.110094488        1115320972.0393198        1040472604.9000174     
   272974350.84362406        1804237166.9364941        1191222806.3766956     
  -4502412331.2333641        179658718.64616919        660343155.09096479     
  -4370072936.8853960        104354291.39328742        655570698.39065230     
  -4230805216.3580799        52144284.738225698        656882985.25126374     
  -4084609169.6514106        23028698.681003332        664280015.67280722     
  -3931484796.7654023        17007533.221578836        677761789.65528023     
  -4959502582.2229834       -92367989.095068216        440633083.81098515     
  -4783631044.6918116       -60076548.925420523        453783732.31660724     
  -4610030513.1763268       -35355128.808058262        469506085.68933582     
  -4438700987.6765337       -18203728.742999792        487800143.92916548     
  -4269642468.1924329       -8622348.7302303314        508665907.03609580     
  -5368127534.7629271       -349855107.30140185        262649375.97845665     
  -5158761107.4594955       -212978975.73250890        282990575.46247816     
  -4960865018.3667765       -114337304.86600327        302390441.11977476     
  -4774439267.4847879       -53930094.701930523        320848972.95034927     
  -4599483854.8135223       -31757345.240258694        338366170.95419973     
  -5728287188.8532019       -592802635.97283363        126392031.59338030     
  -5495463125.1884432       -354352989.02797008        143191227.82825908     
  -5283308731.9294271       -184802243.43561983        155536051.54258963     
  -5091824009.0761738       -84150399.195796490        163426502.73636064     
  -4921008956.6286783       -52397456.308506012        166862581.40959346     
  -6039981544.4938164       -821210575.10937405        31861050.655756209     
  -5793737097.8786507       -484198588.81182241        34385689.413951166     
  -5577361653.8642664       -246749944.51687145        28942916.957770146     
  -5390855212.4506903       -108864642.22461772        15532733.287208991     
  -5234217773.6378984       -70542681.934979677       -5844861.5977262193     
  -3931484796.7654023        17007533.221578836        677761789.65528023     
  -3792164197.2498789        16804291.377880573        668014427.46486080     
  -3653205513.6102929        15394663.281065464        663328534.01224899     
  -3514608745.8466296        12778648.931166887        663704109.29744077     
  -3376373893.9589005        8956248.3281552792        669141153.32043624     
  -4269642468.1924329       -8622348.7302303314        508665907.03609580     
  -4117638666.5033641       -7731519.7859656811        501258659.86141086     
  -3965720431.8073959       -7125914.1520361900        498293775.43904042     
  -3813887764.1045284       -6805531.8284461498        499771253.76898611     
  -3662140663.3947639       -6770372.8151924610        505691094.85125077     
  -4599483854.8135223       -31757345.240258694        338366170.95419973     
  -4436565725.1951599       -30303107.781301737        333621445.82521546     
  -4273456813.6870723       -28212930.689923048        332699977.46305716     
  -4110157120.2892532       -25486813.966103554        335601765.86772370     
  -3946666645.0017033       -22124757.609862804        342326811.03922045     
  -4921008956.6286783       -52397456.308506012        166862581.40959346     
  -4748945373.3252707       -50910472.608132124        165102785.35627311     
  -4576414659.2493153       -47866386.332568645        166547140.08429509     
  -4403416814.4007959       -43265197.481808424        171195645.59364897     
  -4229951838.7797236       -37106906.055867434        179048301.88434708     
  -5234217773.6378984       -70542681.934979677       -5844861.5977262193     
  -5054777610.8937044       -69553614.266452789       -4297321.5454062279     
  -4874593968.4941301       -66086281.079995632       -164736.69725110594     
  -4693666846.4391565       -60140682.375541687        6552892.9467654880     
  -4511996244.7288122       -51716818.153179407        15855567.386627940     
  -3376373893.9589005        8956248.3281552792        669141153.32043624     
  -3235891976.8978100        5678488.4484187365        661611344.08009553     
  -3095133514.6171112        3322545.9673818350        657988783.50479496     
  -2954098507.1167974        1888420.8850651979        658273471.59453404     
  -2812786954.3968692        1376113.2014511824        662465408.34931135     
  -3662140663.3947639       -6770372.8151924610        505691094.85125077     
  -3510436235.2791681       -6881497.1739969254        498799175.11946952     
  -3358734250.0125346       -7000764.3626823425        495901945.49052048     
  -3207034707.5948796       -7128174.3812873363        496999405.96439409     
  -3055337608.0261889       -7263727.2297742367        502091556.54110020     
  -3946666645.0017033       -22124757.609862804        342326811.03922045     
  -3783489873.1522074       -18994296.643919706        335747294.73598790     
  -3620594532.2202482       -16801938.736450672        333249909.97337508     
  -3457980622.2058506       -15547683.887513161        334834656.75137615     
  -3295648143.1089945       -15231532.097040296        340501535.06999236     
  -4229951838.7797236       -37106906.055867434        179048301.88434708     
  -4055052890.5169106       -30659909.961310148        172455702.92965156     
  -3880714361.2402344       -26080977.153861761        170032676.95336285     
  -3706936250.9497004       -23370107.633562565        171779223.95547354     
  -3533718559.6452932       -22527301.400350332        177695343.93599561     
  -4511996244.7288122       -51716818.153179407        15855567.386627940     
  -4325125287.3733120       -41878337.126253605        8924399.7004551105     
  -4139093737.0725198       -34837879.615017891        6250246.4304778986     
  -3953901593.8264527       -30595445.619536400        7833107.5766916638     
  -3769548857.6350884       -29151035.139729261        13672983.139103930     
  -2812786954.3968692        1376113.2014511824        662465408.34931135     
  -2673676044.0318470       -259980.00584995747        651785552.54810941     
  -2535147344.4802227       -3836775.9244771004        644193374.68424594     
  -2397200855.7419815       -9354274.5543760061        639688874.75771940     
  -2259836577.8171320       -16812475.895590186        638272052.76852930     
  -3055337608.0261889       -7263727.2297742367        502091556.54110020     
  -2907742239.7422795       -8816587.4255280495        491951674.02751297     
  -2760267585.5073171       -10771827.784452796        485231412.04998952     
  -2612913645.3213048       -13129448.306528807        481930770.60853463     
  -2465680419.1842413       -15889448.991775632        482049749.70315063     
  -3295648143.1089945       -15231532.097040296        340501535.06999236     
  -3138619909.4812465       -16416637.053747773        331440038.73586959     
  -2981250893.1380181       -16465799.625523806        326130105.53654027     
  -2823541094.0792923       -15379019.812290788        324571735.47200829     
  -2665490512.3050594       -13156297.614060283        326764928.54226971     
  -3533718559.6452932       -22527301.400350332        177695343.93599561     
  -3366309053.2487803       -23060128.890577316        170250646.67317972     
  -3198097267.3723230       -20918691.447662354        166889455.14389196     
  -3029083202.0159302       -16102989.071626186        167611769.34813496     
  -2859266857.1796007       -8613021.7624652386        172417589.28590471     
  -3769548857.6350884       -29151035.139729261        13672983.139103930     
  -3590809671.0448427       -28747062.935925007        8383497.8394472860     
  -3410806708.2102337       -24130503.250897884        7509460.8720580256     
  -3229539969.1312337       -15301356.084568620        11050872.236923343     
  -3047009453.8078561       -2259621.4369912148        19007731.934043232     
  -2259836577.8171320       -16812475.895590186        638272052.76852930     
  -2118943384.3631334       -22959507.329486609        625825734.42371190     
  -1977301499.7120507       -26610901.439767957        616322399.88336861     
  -1834910923.8638957       -27766658.226475239        609762049.14749229     
  -1691771656.8186700       -26426777.689613998        606144682.21608615     
  -2465680419.1842413       -15889448.991775632        482049749.70315063     
  -2316533578.9296641       -17922405.900520802        472038021.72496438     
  -2167165172.1813755       -19216807.830237389        464482867.20617270     
  -2017575198.9393713       -19772654.780899525        459384286.14679384     
  -1867763659.2036550       -19589946.752516270        456742278.54681140     
  -2665490512.3050594       -13156297.614060283        326764928.54226971     
  -2509479769.0929627       -11492103.150615335        318572812.11012173     
  -2353774584.0905046       -10846436.052647471        312350858.79231262     
  -2198374957.2976928       -11219296.320164084        308099068.58883727     
  -2043280888.7145369       -12610683.953191161        305817441.49970227     
  -2859266857.1796007       -8613021.7624652386        172417589.28590471     
  -2697781954.8530130       -3668599.0797138214        165430105.57920611     
  -2537129735.4394412       -1499786.1069934368        159926374.64178228     
  -2377310198.9388714       -2106582.8442926407        155906396.47362974     
  -2218323345.3513069       -5488989.2916072607        153370171.07474929     
  -3047009453.8078561       -2259621.4369912148        19007731.934043232     
  -2881440136.2098312        5548106.3121575117        12609902.132211419     
  -2717230626.2281904        8823142.0067034960        7209414.7545812214     
  -2554380923.8628907        7565485.6467664242        2806269.8011617693     
  -2392891029.1139932        1775137.2321684361       -599532.72805254220     
  -1691771656.8186700       -26426777.689613998        606144682.21608615     
  -1550964763.8005629       -26544334.282414615        592595332.74573350     
  -1411406160.8288920       -30822857.696653724        577853757.55462587     
  -1273095847.9036489       -39262347.932332695        561919956.64275587     
  -1136033825.0248528       -51862804.989489019        544793930.01012170     
  -1867763659.2036550       -19589946.752516270        456742278.54681140     
  -1729943738.8945408       -22816075.896648526        442976311.95417833     
  -1592221001.3502741       -26366147.590245783        428822262.66415906     
  -1454595446.5708499       -30240161.833337843        414280130.67674655     
  -1317067074.5562656       -34438118.625884473        399349915.99195290     
  -2043280888.7145369       -12610683.953191161        305817441.49970227     
  -1906150389.6190684       -18256120.200062156        293177816.27997011     
  -1767965966.0068510       -20388474.724435568        280954251.38623065     
  -1628727617.8778720       -19007747.526275873        269146746.81847191     
  -1488435345.2321477       -14113938.605610609        257755302.57670739     
  -2218323345.3513069       -5488989.2916072607        153370171.07474929     
  -2079584715.9741223       -12864467.192596316        143199845.72311291     
  -1938641054.7986131       -12889839.099177837        134249723.72084218     
  -1795492361.8247247       -5565105.0111364126        126519805.06793070     
  -1650138637.0524981        9109735.0713212490        120010089.76438560     
  -2392891029.1139932        1775137.2321684361       -599532.72805254220     
  -2250246717.9597359       -6641116.8743450642       -6957599.7163938098     
  -2104246267.7255540       -3870240.7144339085       -11291320.331998345     
  -1954889678.4114115        10087765.711997747       -13600694.574867269     
  -1802176950.0173340        35232902.404900551       -13885722.445003625     
  -1136033825.0248528       -51862804.989489019        544793930.01012170     
  -951319471.65562069       -40619309.786379397        562992368.99913704     
  -759061276.73683250       -4229676.0847485363        592112961.53942823     
  -559259240.26846099        57306096.115498215        632155707.63099396     
  -351913362.25051641        143988006.81431130        683120607.27383840     
  -1317067074.5562656       -34438118.625884473        399349915.99195290     
  -1117554862.8353510       -14673840.643690050        421238787.58975780     
  -914406732.39608252        17210166.399683535        441622139.11163849     
  -707622683.23845887        61213902.504230112        460499970.55759060     
  -497202715.36248434        117337367.66996846        477872281.92761856     
  -1488435345.2321477       -14113938.605610609        257755302.57670739     
  -1309632914.0944121        3518830.4752133489        278775363.48021930     
  -1131102487.0695324        20244919.179848969        285862230.68060064     
  -952844064.15753436        36064327.508225441        279015904.17785329     
  -774857645.35838795        50977055.460428357        258236383.97198236     
  -1650138637.0524981        9109735.0713212490        120010089.76438560     
  -1527553625.4327984        13958703.570345819        135602096.67051780     
  -1409148540.7571888        4874582.2557425499        124833236.24631241     
  -1294923383.0256550       -18142628.872446179        87703508.491777137     
  -1184878152.2382145       -55092929.814287007        24212913.406917736     
  -1802176950.0173340        35232902.404900551       -13885722.445003625     
  -1771316996.8505490        16645778.641615748       -8281012.8393429900     
  -1748544893.4590375       -28900844.372614980       -41464844.191227853     
  -1733860639.8428581       -101406966.63792408       -113437216.50063306     
  -1727264236.0019462       -200872588.15414727       -224198129.76757383     
  -351913362.25051641        143988006.81431130        683120607.27383840     
  -277847605.43698281        285196391.97819656        786421505.34859073     
  -149011067.65010497        608974047.05320680        905538837.89064932     
   34596251.110094488        1115320972.0393198        1040472604.9000174     
   272974350.84362406        1804237166.9364941        1191222806.3766956     
  -497202715.36248434        117337367.66996846        477872281.92761856     
  -388331625.36173576        223014901.49315533        597120278.89344525     
  -230336850.54963663        492438051.35417175        735524601.84536266     
  -23218390.926213086        925606817.25291133        893085250.78338301     
   233023753.50853688        1522521199.1894608        1069802225.7074878     
  -774857645.35838795        50977055.460428357        258236383.97198236     
  -621638674.97387838        123986502.10190725        386843200.97321963     
  -424943115.94003898        341917910.90782988        537946235.47933900     
  -184770968.25686321        704771281.87820375        711545487.49033427     
   98877768.075668454        1212546615.0130930        907640957.00621462     
  -1184878152.2382145       -55092929.814287007        24212913.406917736     
  -977768754.27342641       -11888806.195600808        155590271.58791003     
  -732829863.82129776        157413625.71426058        312803738.79256213     
  -450061480.88183248        452814365.91523874        495853315.02088797     
  -129463605.45501751        874313414.40735328        704739000.27286971     
  -1727264236.0019462       -200872588.15414727       -224198129.76757383     
  -1456721863.2603643       -184611023.39929909       -96638509.262484491     
  -1153997094.1934156       -61074804.226563156        60097111.785044022     
  -819089928.80114627        169736069.36392117        246008733.37503058     
  -452000367.08349264        507821597.37233025        461096355.50747234     
 </DataArray>
 <DataArray  type="Float64" Name="VM" NumberOfComponents="1" format="ascii">
   5674390935.8931913     
   5567770251.7691698     
   5458401586.1941175     
   5337323450.2027464     
   5199315203.9209385     
   5460482593.0218878     
   5332903371.7278566     
   5200356726.4496050     
   5058201127.3182878     
   4903545210.1538153     
   5221884626.2738104     
   5079342431.9370394     
   4932581753.8812237     
   4780117678.9071875     
   4621002909.6751823     
   4972883563.6964054     
   4818413654.6739511     
   4663898693.0377846     
   4509483775.2806692     
   4355379419.7007542     
   4735087208.9107866     
   4566594132.9754782     
   4406532641.8738079     
   4254694996.0173903     
   4111181100.5282702     
   5199315203.9209385     
   5020367681.8951616     
   4841889092.1532927     
   4663901136.6803522     
   4486445454.7994766     
   4903545210.1538153     
   4732344001.9681120     
   4561800053.9718142     
   4391965467.2249718     
   4222923624.8604045     
   4621002909.6751823     
   4459092040.2503510     
   4298224078.0291834     
   4138498760.1600447     
   3980064199.5231881     
   4355379419.7007542     
   4204396883.9918108     
   4055073372.8498292     
   3907575287.6998649     
   3762139884.7036610     
   4111181100.5282702     
   3972813389.1034279     
   3836978198.6161623     
   3703924861.6463237     
   3573999192.9223423     
   4486445454.7994766     
   4304366667.9682865     
   4121799435.9740472     
   3938716364.6099653     
   3755132887.0698171     
   4222923624.8604045     
   4050838102.7475471     
   3878936025.9933286     
   3707265211.9073606     
   3535929314.5494361     
   3980064199.5231881     
   3818569160.7943726     
   3658048740.9643812     
   3498635574.2361507     
   3340532114.5084968     
   3762139884.7036610     
   3611849214.0566082     
   3463435766.5440283     
   3317120342.6283531     
   3173205842.7508531     
   3573999192.9223423     
   3435490191.8692331     
   3299847569.3958421     
   3167373050.7868176     
   3038457554.9227071     
   3755132887.0698171     
   3576552268.3460507     
   3398830592.4342670     
   3221973399.2706170     
   3046058194.8087020     
   3535929314.5494361     
   3367773263.3208113     
   3200768657.0421906     
   3034980754.9450989     
   2870546585.6796665     
   3340532114.5084968     
   3182646126.0329571     
   3026238898.9388700     
   2871452240.3300352     
   2718505238.5132356     
   3173205842.7508531     
   3025798349.7299194     
   2880244541.7260051     
   2736778359.5399642     
   2595721476.6809878     
   3038457554.9227071     
   2902123666.2921319     
   2768070681.5932059     
   2636634396.0099387     
   2508251225.0219965     
   3046058194.8087020     
   2884300888.5306640     
   2721681570.0960169     
   2558176675.1395168     
   2393779316.5267749     
   2870546585.6796665     
   2711133567.2527852     
   2551461097.4051132     
   2391551930.0643930     
   2231452322.8475785     
   2718505238.5132356     
   2563834528.9681277     
   2409882061.6818838     
   2256787365.9292011     
   2104747389.5240102     
   2595721476.6809878     
   2448181133.4149075     
   2302729071.1104512     
   2159678122.1639032     
   2019449427.5373800     
   2508251225.0219965     
   2369972965.5601521     
   2235480146.8810244     
   2105266969.2064722     
   1979978729.3085341     
   2393779316.5267749     
   2246965836.1757655     
   2102404784.0333900     
   1960094595.5148506     
   1820208087.2736433     
   2231452322.8475785     
   2087966456.6082129     
   1946169437.9554605     
   1806060207.0633175     
   1667717032.1935711     
   2104747389.5240102     
   1963874583.5233617     
   1823973435.1302154     
   1685074603.2562988     
   1547237759.0710044     
   2019449427.5373800     
   1882136930.5136864     
   1745149780.5065682     
   1608620296.7555623     
   1472730598.8919821     
   1979978729.3085341     
   1848927975.6433079     
   1717922793.3764181     
   1587322258.0862386     
   1457650842.9383702     
   1820208087.2736433     
   1779756067.9386184     
   1735761527.1833401     
   1696860203.2638996     
   1681554609.3549802     
   1667717032.1935711     
   1552450120.9515107     
   1428055458.4884241     
   1294889232.6008232     
   1159073704.8124464     
   1547237759.0710044     
   1397464217.0263329     
   1244127572.3170331     
   1084954262.1890547     
   917911260.37474000     
   1472730598.8919821     
   1328560017.2944102     
   1198859164.0928071     
   1088105701.7858520     
   1002199984.6933162     
   1457650842.9383702     
   1348665246.7459214     
   1274666468.6527338     
   1243771026.4692988     
   1263015501.2659380     
   1681554609.3549802     
   1383911090.8040950     
   1129510631.6535597     
   1010103282.0197998     
   1153062098.1513996     
   1159073704.8124464     
   1008550234.3185142     
   985248497.46654749     
   1161465462.5424287     
   1544133321.3715613     
   917911260.37474000     
   963236775.78054106     
   1144962282.7109132     
   1476467095.7772000     
   1957444385.9530265     
   1002199984.6933162     
   1164817032.4559174     
   1425470535.9015856     
   1808751494.8807819     
   2334741457.5098314     
   1263015501.2659380     
   1446773569.2270579     
   1715750367.0227463     
   2110521634.9208486     
   2663514896.6457286     
   4735087208.9107866     
   4566594132.9754782     
   4406532641.8738079     
   4254694996.0173903     
   4111181100.5282702     
   4408923284.6553593     
   4260980600.0528502     
   4119987751.3041959     
   3985968799.9532132     
   3859140926.0041943     
   4110822166.6961880     
   3982934209.0508027     
   3860629404.2207589     
   3744118506.6028934     
   3633723296.7422719     
   3841355679.3236046     
   3733722052.0140162     
   3630506313.4742823     
   3532031872.1031432     
   3438691048.4128542     
   3600981723.6948977     
   3514531579.9875731     
   3431644094.1986694     
   3352646618.6187773     
   3277942774.0581880     
   4111181100.5282702     
   3972813389.1034279     
   3836978198.6161623     
   3703924861.6463237     
   3573999192.9223423     
   3859140926.0041943     
   3735713896.1476188     
   3615445793.5698466     
   3498642653.8214989     
   3385701121.3537288     
   3633723296.7422719     
   3525103358.0340710     
   3420244079.3766742     
   3319489630.3116179     
   3223263567.5060248     
   3438691048.4128542     
   3344738480.0227318     
   3255082418.5411410     
   3170080656.7021976     
   3090154286.6881404     
   3277942774.0581880     
   3198445924.4686141     
   3123664848.3883386     
   3053942718.6048284     
   2989666932.1029291     
   3573999192.9223423     
   3435490191.8692331     
   3299847569.3958421     
   3167373050.7868176     
   3038457554.9227071     
   3385701121.3537288     
   3260123785.9351416     
   3138121518.4874496     
   3020075079.8931808     
   2906461208.9980793     
   3223263567.5060248     
   3111532697.3234148     
   3004168350.1868286     
   2901618462.9605246     
   2804426197.5821853     
   3090154286.6881404     
   2993095924.4961109     
   2901233039.4624734     
   2815054866.0783463     
   2735135790.6954060     
   2989666932.1029291     
   2907877033.4338984     
   2832085378.9848781     
   2762784960.8202100     
   2700535831.0387135     
   3038457554.9227071     
   2902123666.2921319     
   2768070681.5932059     
   2636634396.0099387     
   2508251225.0219965     
   2906461208.9980793     
   2782741791.0225954     
   2662544356.9850650     
   2546345007.8512073     
   2434737034.9847193     
   2804426197.5821853     
   2694975316.4977636     
   2590399814.7885647     
   2491283206.2281637     
   2398322704.7264681     
   2735135790.6954060     
   2641138424.8662968     
   2553357645.2787981     
   2472420033.1411967     
   2399041454.1500659     
   2700535831.0387135     
   2622483325.4811635     
   2551848497.3012085     
   2489224459.5325384     
   2435257876.1216006     
   2508251225.0219965     
   2369972965.5601521     
   2235480146.8810244     
   2105266969.2064722     
   1979978729.3085341     
   2434737034.9847193     
   2310695186.7865543     
   2191716116.2752137     
   2078484640.8357174     
   1971845526.3664179     
   2398322704.7264681     
   2290556327.3224287     
   2189177505.0633111     
   2094982166.1718149     
   2008896260.0702682     
   2399041454.1500659     
   2308900591.7215104     
   2226321034.3647780     
   2152099087.3553591     
   2087106489.8663869     
   2435257876.1216006     
   2363224693.3419924     
   2299634560.7345786     
   2245189521.8606596     
   2200613896.0956883     
   1979978729.3085341     
   1848927975.6433079     
   1717922793.3764181     
   1587322258.0862386     
   1457650842.9383702     
   1971845526.3664179     
   1855593336.9312916     
   1743734764.8622017     
   1637200709.7497954     
   1537134628.8920786     
   2008896260.0702682     
   1912526889.8762956     
   1824952338.4405489     
   1747376456.0838869     
   1681094532.0850639     
   2087106489.8663869     
   2012142327.2447891     
   1949536551.1630731     
   1900365179.9418347     
   1865653875.2986920     
   2200613896.0956883     
   2145560276.6033158     
   2105414653.3317122     
   2080936192.3092184     
   2072796819.8339338     
   1457650842.9383702     
   1348665246.7459214     
   1274666468.6527338     
   1243771026.4692988     
   1263015501.2659380     
   1537134628.8920786     
   1476253834.2229290     
   1448061599.5569315     
   1456520384.7768228     
   1504926300.6076071     
   1681094532.0850639     
   1652540859.9119420     
   1651705787.7798319     
   1680957959.8551588     
   1742907982.2950709     
   1865653875.2986920     
   1855057391.1008956     
   1867437848.9352367     
   1905004962.7464147     
   1970789575.0604725     
   2072796819.8339338     
   2069194365.7310917     
   2084843770.7261252     
   2122376837.2399099     
   2185601415.4637470     
   1263015501.2659380     
   1446773569.2270579     
   1715750367.0227463     
   2110521634.9208486     
   2663514896.6457286     
   1504926300.6076071     
   1613317674.1334651     
   1788901024.0003769     
   2066422470.6329405     
   2476081773.2470617     
   1742907982.2950709     
   1787722507.9185522     
   1884672148.2689490     
   2060663830.0395823     
   2340926018.9452991     
   1970789575.0604725     
   1968945208.1406336     
   2003628770.1818986     
   2093514321.2175593     
   2257264325.1765924     
   2185601415.4637470     
   2156269388.7913108     
   2146511491.8166754     
   2166853290.8333859     
   2228370924.3051138     
   3600981723.6948977     
   3514531579.9875731     
   3431644094.1986694     
   3352646618.6187773     
   3277942774.0581880     
   3406428302.5095015     
   3327883985.3158112     
   3254812949.1722589     
   3187589199.9507627     
   3126667761.6813951     
   3238058323.9448767     
   3167440311.4549789     
   3104467378.5361524     
   3049503563.7632804     
   3002991903.9652548     
   3107138895.1272836     
   3043079834.6489997     
   2989088077.0647092     
   2945451227.7389159     
   2912526407.4575338     
   3026113730.0492229     
   2965510297.3827333     
   2917614208.3668952     
   2882583180.3864923     
   2860628442.9022384     
   3277942774.0581880     
   3198445924.4686141     
   3123664848.3883386     
   3053942718.6048284     
   2989666932.1029291     
   3126667761.6813951     
   3056975523.5522747     
   2993051407.3083229     
   2935248335.1090589     
   2883961841.5733166     
   3002991903.9652548     
   2943244585.7946048     
   2890408560.4104023     
   2844814386.4998174     
   2806829465.4369531     
   2912526407.4575338     
   2862175712.2605362     
   2819935944.7340522     
   2786081854.9778676     
   2760917008.3879852     
   2860628442.9022384     
   2818278757.2316737     
   2785266622.5460382     
   2761785769.5224481     
   2748050964.3053727     
   2989666932.1029291     
   2907877033.4338984     
   2832085378.9848781     
   2762784960.8202100     
   2700535831.0387135     
   2883961841.5733166     
   2815723969.4500928     
   2754371551.4840212     
   2700361281.6130123     
   2654196715.4837942     
   2806829465.4369531     
   2751626700.6838341     
   2704097087.9643011     
   2664626351.3576288     
   2633627086.7602124     
   2760917008.3879852     
   2717605766.0472631     
   2682630768.7405796     
   2656283934.7994957     
   2638868616.3334136     
   2748050964.3053727     
   2714834422.0258012     
   2690495816.3664770     
   2675227449.9699216     
   2669224166.6154885     
   2700535831.0387135     
   2622483325.4811635     
   2551848497.3012085     
   2489224459.5325384     
   2435257876.1216006     
   2654196715.4837942     
   2590677223.1311431     
   2535198032.5392318     
   2488269292.0321751     
   2450427256.2018061     
   2633627086.7602124     
   2583882448.3620801     
   2542640557.7185798     
   2510304149.8396754     
   2487281922.5245719     
   2638868616.3334136     
   2601637778.3669591     
   2573224350.9480529     
   2553918050.3365612     
   2544003749.0623698     
   2669224166.6154885     
   2642811101.3483882     
   2625423008.4856339     
   2617247226.0230694     
   2618463399.1062222     
   2435257876.1216006     
   2363224693.3419924     
   2299634560.7345786     
   2245189521.8606596     
   2200613896.0956883     
   2450427256.2018061     
   2393934891.6109891     
   2346804547.4237475     
   2309600766.2673035     
   2282873571.9354124     
   2487281922.5245719     
   2445145907.1305761     
   2413030677.1592407     
   2391344830.9286289     
   2380464702.2591267     
   2544003749.0623698     
   2514449072.8784862     
   2495386260.0671210     
   2487079599.0197058     
   2489759816.0134273     
   2618463399.1062222     
   2599301054.3238993     
   2591010939.9509840     
   2593741421.5396347     
   2607615964.6969848     
   2200613896.0956883     
   2145560276.6033158     
   2105414653.3317122     
   2080936192.3092184     
   2072796819.8339338     
   2282873571.9354124     
   2242365179.0884051     
   2215771504.6993327     
   2203540561.7552233     
   2206059361.5029154     
   2380464702.2591267     
   2351607427.4896536     
   2335652842.3571038     
   2332852543.1983423     
   2343429036.0307755     
   2489759816.0134273     
   2469945171.5215096     
   2462117350.6440573     
   2466415234.4793129     
   2482975062.0920510     
   2607615964.6969848     
   2594593243.5072079     
   2592798082.1434679     
   2602312150.4077921     
   2623232666.9762754     
   2072796819.8339338     
   2069194365.7310917     
   2084843770.7261252     
   2122376837.2399099     
   2185601415.4637470     
   2206059361.5029154     
   2191674863.0151854     
   2192291194.9640541     
   2209877535.6380486     
   2247351015.3744884     
   2343429036.0307755     
   2319060756.0796685     
   2306226176.8303871     
   2306330879.0771823     
   2321462039.4378023     
   2482975062.0920510     
   2450376211.9231839     
   2426329525.9361482     
   2411780651.6709261     
   2408106305.9569278     
   2623232666.9762754     
   2584838974.7463875     
   2552316925.4905906     
   2526248405.8190756     
   2507442725.8846030     
   2185601415.4637470     
   2156269388.7913108     
   2146511491.8166754     
   2166853290.8333859     
   2228370924.3051138     
   2247351015.3744884     
   2182641121.8513846     
   2134358161.1160090     
   2112168410.8850331     
   2127006892.4440062     
   2321462039.4378023     
   2224718206.3158112     
   2141304031.2886469     
   2079582314.6775985     
   2049721421.6790125     
   2408106305.9569278     
   2282794841.6814108     
   2167995910.1595883     
   2070445841.0893195     
   1998906733.4860673     
   2507442725.8846030     
   2357080863.2005525     
   2214904409.5117440     
   2085889870.7133155     
   1976905896.3122325     
   3026113730.0492229     
   2965510297.3827333     
   2917614208.3668952     
   2882583180.3864923     
   2860628442.9022384     
   2797912054.8437757     
   2765630647.8004098     
   2743298317.6414466     
   2730988174.0852389     
   2728789810.9977751     
   2623133956.5338755     
   2616098821.8894081     
   2615782663.4785886     
   2622207419.2550540     
   2635397627.5686860     
   2498484699.2532010     
   2514265723.8974409     
   2533193607.0496602     
   2555270734.9316955     
   2580499526.8050656     
   2418100716.9071436     
   2455097070.7227120     
   2491506692.0272250     
   2527329580.8206730     
   2562565737.1030579     
   2860628442.9022384     
   2818278757.2316737     
   2785266622.5460382     
   2761785769.5224481     
   2748050964.3053727     
   2728789810.9977751     
   2702130120.8083801     
   2684045247.6511402     
   2674640712.9324269     
   2674029401.9062419     
   2635397627.5686860     
   2621932699.0451360     
   2616091280.9928751     
   2617916115.6548033     
   2627451517.2002211     
   2580499526.8050656     
   2577660580.2163081     
   2581356387.2443581     
   2591596064.6370115     
   2608388821.9005818     
   2562565737.1030579     
   2567888143.6227522     
   2578581006.4077864     
   2594644325.4581594     
   2616078100.7738729     
   2748050964.3053727     
   2714834422.0258012     
   2690495816.3664770     
   2675227449.9699216     
   2669224166.6154885     
   2674029401.9062419     
   2651830659.8199968     
   2638327216.0342793     
   2633628092.2546062     
   2637840990.4906745     
   2627451517.2002211     
   2614095706.7712955     
   2609186978.7394242     
   2612772840.9569850     
   2624899223.0245924     
   2608388821.9005818     
   2601486144.4264078     
   2602755836.5737338     
   2612209270.6197515     
   2629857257.5109282     
   2616078100.7738729     
   2613154821.0324855     
   2618138332.1496854     
   2631028634.1254721     
   2651825726.9598479     
   2669224166.6154885     
   2642811101.3483882     
   2625423008.4856339     
   2617247226.0230694     
   2618463399.1062222     
   2637840990.4906745     
   2621187247.4390349     
   2613544993.6779513     
   2615020025.2759371     
   2625711164.5487318     
   2624899223.0245924     
   2615940359.3424573     
   2615966259.8533726     
   2625023459.8655744     
   2643154465.1653571     
   2629857257.5109282     
   2626343034.9696217     
   2631816340.4454432     
   2646288591.4889836     
   2669770035.2159934     
   2651825726.9598479     
   2651413291.2222538     
   2660054794.9593430     
   2677750238.1711102     
   2704499620.8575602     
   2618463399.1062222     
   2599301054.3238993     
   2591010939.9509840     
   2593741421.5396347     
   2607615964.6969848     
   2625711164.5487318     
   2614692492.0887465     
   2614002360.8798642     
   2623715433.5281239     
   2643891900.7627831     
   2643154465.1653571     
   2638484257.8733788     
   2643690814.0754161     
   2658803733.7454300     
   2683846185.1350904     
   2669770035.2159934     
   2669721128.5331302     
   2679212969.5968671     
   2698252173.1060314     
   2726843779.5975609     
   2704499620.8575602     
   2707447385.0667205     
   2719728681.6360393     
   2741343510.5655003     
   2772291871.8551211     
   2607615964.6969848     
   2594593243.5072079     
   2592798082.1434679     
   2602312150.4077921     
   2623232666.9762754     
   2643891900.7627831     
   2632888661.8476396     
   2632198390.5801950     
   2641860966.4538212     
   2661926756.2631273     
   2683846185.1350904     
   2674524654.4048185     
   2674782884.9802332     
   2684636171.3230085     
   2704105085.6999669     
   2726843779.5975609     
   2719037570.9158731     
   2720237593.6995773     
   2730447115.2291431     
   2749670842.8878527     
   2772291871.8551211     
   2765990446.3949957     
   2768262060.3118443     
   2779106713.6056752     
   2798524406.2764888     
   2623232666.9762754     
   2584838974.7463875     
   2552316925.4905906     
   2526248405.8190756     
   2507442725.8846030     
   2661926756.2631273     
   2616585828.5393648     
   2576896802.7135277     
   2543190836.2003546     
   2515930861.2404542     
   2704105085.6999669     
   2653912538.5850973     
   2609294613.4121156     
   2570398853.9459810     
   2537432069.3407307     
   2749670842.8878527     
   2696726976.3870578     
   2649422700.3756871     
   2607794665.4439459     
   2571894254.6342688     
   2798524406.2764888     
   2744928314.4153404     
   2697178886.4683695     
   2655276122.4355626     
   2619220022.3169222     
   2507442725.8846030     
   2357080863.2005525     
   2214904409.5117440     
   2085889870.7133155     
   1976905896.3122325     
   2515930861.2404542     
   2348080237.7582726     
   2183794847.2380118     
   2026172274.3194416     
   1879772526.4046230     
   2537432069.3407307     
   2357177915.7787600     
   2176663327.2269759     
   1997358753.2766795     
   1821539826.5369513     
   2571894254.6342688     
   2384476780.3759518     
   2193976113.1120238     
   2000770223.3887198     
   1805462436.4649968     
   2619220022.3169222     
   2429944968.7609525     
   2235875315.6590929     
   2037011063.0113525     
   1833352210.8176889     
   2418100716.9071436     
   2455097070.7227120     
   2491506692.0272250     
   2527329580.8206730     
   2562565737.1030579     
   2498484702.8659649     
   2514265726.6339121     
   2533193608.8238239     
   2555270735.6684351     
   2580499526.4412379     
   2623133961.7468553     
   2616098825.5609517     
   2615782665.5078945     
   2622207419.5492368     
   2635397626.0465374     
   2797912059.1954265     
   2765630650.1842108     
   2743298317.9968796     
   2730988172.3499546     
   2728789807.1133595     
   3026113730.8938208     
   2965510296.0598760     
   2917614204.8950672     
   2882583174.7730427     
   2860628435.1496329     
   2562565737.1030579     
   2567888143.6227522     
   2578581006.4077864     
   2594644325.4581594     
   2616078100.7738729     
   2580499526.4412379     
   2577660580.0853310     
   2581356387.2348361     
   2591596064.6409407     
   2608388821.8138723     
   2635397626.0465374     
   2621932698.1197214     
   2616091280.4560642     
   2617916115.3033185     
   2627451516.8364282     
   2728789807.1133595     
   2702130118.0475397     
   2684045245.7279143     
   2674640711.5648317     
   2674029400.8166542     
   2860628435.1496329     
   2818278751.3050323     
   2785266618.1040950     
   2761785766.2253428     
   2748050961.8134618     
   2616078100.7738729     
   2613154821.0324855     
   2618138332.1496854     
   2631028634.1254721     
   2651825726.9598479     
   2608388821.8138723     
   2601486144.5876479     
   2602755836.8737459     
   2612209270.9515324     
   2629857257.7693677     
   2627451516.8364282     
   2614095706.9796686     
   2609186979.3026748     
   2612772841.6606355     
   2624899223.6564283     
   2674029400.8166542     
   2651830659.7508540     
   2638327216.6635027     
   2633628093.2606640     
   2637840991.5517354     
   2748050961.8134618     
   2714834421.1630721     
   2690495816.7131329     
   2675227451.1006770     
   2669224168.0980339     
   2651825726.9598479     
   2651413291.2222538     
   2660054794.9593430     
   2677750238.1711102     
   2704499620.8575602     
   2629857257.7693677     
   2626343035.3895230     
   2631816340.9697170     
   2646288592.0603337     
   2669770035.7765050     
   2624899223.6564283     
   2615940360.2884221     
   2615966260.9949465     
   2625023461.0835876     
   2643154466.3393388     
   2637840991.5517354     
   2621187248.9851718     
   2613544995.5240993     
   2615020027.2348666     
   2625711166.4303627     
   2669224168.0980339     
   2642811103.5320206     
   2625423011.1138353     
   2617247228.8337321     
   2618463401.8310704     
   2704499620.8575602     
   2707447385.0667205     
   2719728681.6360393     
   2741343510.5655003     
   2772291871.8551211     
   2669770035.7765050     
   2669721128.9919090     
   2679212969.9808292     
   2698252173.4418225     
   2726843779.9116182     
   2643154466.3393388     
   2638484258.8204622     
   2643690814.8494678     
   2658803734.4001594     
   2683846185.7241940     
   2625711166.4303627     
   2614692493.5859852     
   2614002362.0737481     
   2623715434.5004306     
   2643891901.5961261     
   2618463401.8310704     
   2599301056.4664912     
   2591010941.6195188     
   2593741422.8450775     
   2607615965.7530913     
   2772291871.8551211     
   2765990446.3949957     
   2768262060.3118443     
   2779106713.6056752     
   2798524406.2764888     
   2726843779.9116182     
   2719037571.1557488     
   2720237593.8728542     
   2730447115.3435998     
   2749670842.9512949     
   2683846185.7241940     
   2674524654.8540859     
   2674782885.3053589     
   2684636171.5399590     
   2704105085.8248019     
   2643891901.5961261     
   2632888662.4818597     
   2632198391.0398254     
   2641860966.7637401     
   2661926756.4483867     
   2607615965.7530913     
   2594593244.3088007     
   2592798082.7248640     
   2602312150.8038001     
   2623232667.2221437     
   2798524406.2764888     
   2744928314.4153404     
   2697178886.4683695     
   2655276122.4355626     
   2619220022.3169222     
   2749670842.9512949     
   2696726976.4399228     
   2649422700.4198518     
   2607794665.4812956     
   2571894254.6665750     
   2704105085.8248019     
   2653912538.6883111     
   2609294613.4975257     
   2570398854.0173068     
   2537432069.4015636     
   2661926756.4483867     
   2616585828.6912017     
   2576896802.8377633     
   2543190836.3026180     
   2515930861.3261104     
   2623232667.2221437     
   2584838974.9459667     
   2552316925.6518245     
   2526248405.9495931     
   2507442725.9915762     
   2619220022.3169222     
   2429944968.7609525     
   2235875315.6590929     
   2037011063.0113525     
   1833352210.8176889     
   2571894254.6665750     
   2384476780.3967137     
   2193976113.1209044     
   2000770223.3845587     
   1805462436.4453380     
   2537432069.4015636     
   2357177915.8184686     
   2176663327.2450032     
   1997358753.2711685     
   1821539826.5040646     
   2515930861.3261104     
   2348080237.8152137     
   2183794847.2656345     
   2026172274.3157220     
   1879772526.3656981     
   2507442725.9915762     
   2357080863.2731509     
   2214904409.5495076     
   2085889870.7146435     
   1976905896.2743542     
   3026113730.8938208     
   2965510296.0598760     
   2917614204.8950672     
   2882583174.7730427     
   2860628435.1496329     
   3107138901.4600177     
   3043079837.2302423     
   2989088076.0864339     
   2945451223.3809013     
   2912526399.8917089     
   3238058332.6546807     
   3167440315.2814445     
   3104467377.8515072     
   3049503558.9429841     
   3002991895.3872061     
   3406428311.9800615     
   3327883988.9887571     
   3254812947.6123238     
   3187589193.7567115     
   3126667751.4777498     
   3600981733.6326675     
   3514531583.2257361     
   3431644091.5141764     
   3352646610.8641787     
   3277942762.1441145     
   2860628435.1496329     
   2818278751.3050323     
   2785266618.1040950     
   2761785766.2253428     
   2748050961.8134618     
   2912526399.8917089     
   2862175705.9568958     
   2819935939.4892912     
   2786081850.5847802     
   2760917004.6327424     
   3002991895.3872061     
   2943244578.1409845     
   2890408553.6202312     
   2844814380.5044570     
   2806829460.1564298     
   3126667751.4777498     
   3056975514.0655227     
   2993051398.6224084     
   2935248327.2991304     
   2883961834.7019987     
   3277942762.1441145     
   3198445913.1086807     
   3123664837.8123260     
   3053942709.0350871     
   2989666923.7514687     
   2748050961.8134618     
   2714834421.1630721     
   2690495816.7131329     
   2675227451.1006770     
   2669224168.0980339     
   2760917004.6327424     
   2717605763.8929715     
   2682630767.8502293     
   2656283934.8243127     
   2638868616.9106064     
   2806829460.1564298     
   2751626697.0964379     
   2704097085.8142238     
   2664626350.3720007     
   2633627086.6457329     
   2883961834.7019987     
   2815723964.4339690     
   2754371548.1472774     
   2700361279.7598228     
   2654196714.8936300     
   2989666923.7514687     
   2907877027.1234059     
   2832085374.6174002     
   2762784958.2777262     
   2700535830.1774273     
   2669224168.0980339     
   2642811103.5320206     
   2625423011.1138353     
   2617247228.8337321     
   2618463401.8310704     
   2638868616.9106064     
   2601637779.7596407     
   2573224352.9396677     
   2553918052.7038655     
   2544003751.5752101     
   2633627086.6457329     
   2583882449.1379685     
   2542640559.1994700     
   2510304151.8333211     
   2487281924.8319135     
   2654196714.8936300     
   2590677223.4573026     
   2535198033.6186466     
   2488269293.6958208     
   2450427258.2750363     
   2700535830.1774273     
   2622483325.5078564     
   2551848498.0657406     
   2489224460.8806777     
   2435257877.8958106     
   2618463401.8310704     
   2599301056.4664912     
   2591010941.6195188     
   2593741422.8450775     
   2607615965.7530913     
   2544003751.5752101     
   2514449074.8692160     
   2495386261.6190910     
   2487079600.2202001     
   2489759816.9537320     
   2487281924.8319135     
   2445145908.9660015     
   2413030678.5830293     
   2391344832.0059824     
   2380464703.0602918     
   2450427258.2750363     
   2393934893.2611012     
   2346804548.6893339     
   2309600767.1922088     
   2282873572.5691376     
   2435257877.8958106     
   2363224694.7484818     
   2299634561.7916160     
   2245189522.5913124     
   2200613896.5284195     
   2607615965.7530913     
   2594593244.3088007     
   2592798082.7248640     
   2602312150.8038001     
   2623232667.2221437     
   2489759816.9537320     
   2469945172.2412586     
   2462117351.1700864     
   2466415234.8389997     
   2482975062.3133287     
   2380464703.0602918     
   2351607428.1069717     
   2335652842.8110151     
   2332852543.5096860     
   2343429036.2209868     
   2282873572.5691376     
   2242365179.5788646     
   2215771505.0616760     
   2203540562.0046277     
   2206059361.6548796     
   2200613896.5284195     
   2145560276.9380867     
   2105414653.5797553     
   2080936192.4809985     
   2072796819.9396391     
   2623232667.2221437     
   2584838974.9459667     
   2552316925.6518245     
   2526248405.9495931     
   2507442725.9915762     
   2482975062.3133287     
   2450376212.1055465     
   2426329526.0857201     
   2411780651.7933512     
   2408106306.0573726     
   2343429036.2209868     
   2319060756.2395053     
   2306226176.9644246     
   2306330879.1892562     
   2321462039.5311933     
   2206059361.6548796     
   2191674863.1465764     
   2192291195.0782003     
   2209877535.7372189     
   2247351015.4602356     
   2072796819.9396391     
   2069194365.8273427     
   2084843770.8155184     
   2122376837.3232923     
   2185601415.5410881     
   2507442725.9915762     
   2357080863.2731509     
   2214904409.5495076     
   2085889870.7146435     
   1976905896.2743542     
   2408106306.0573726     
   2282794841.7488003     
   2167995910.1924772     
   2070445841.0854154     
   1998906733.4426734     
   2321462039.5311933     
   2224718206.3784947     
   2141304031.3183415     
   2079582314.6716945     
   2049721421.6353340     
   2247351015.4602356     
   2182641121.9098144     
   2134358161.1442025     
   2112168410.8802624     
   2127006892.4047825     
   2185601415.5410881     
   2156269388.8458610     
   2146511491.8449421     
   2166853290.8326106     
   2228370924.2744403     
   3600981733.6326675     
   3514531583.2257361     
   3431644091.5141764     
   3352646610.8641787     
   3277942762.1441145     
   3841355687.3367543     
   3733722053.5197916     
   3630506309.3512182     
   3532031863.2217054     
   3438691035.6431708     
   4110822173.5033278     
   3982934209.5507851     
   3860629399.3717003     
   3744118497.2885880     
   3633723283.7989345     
   4408923290.8500509     
   4260980600.1887493     
   4119987746.4123640     
   3985968790.9379311     
   3859140913.6836839     
   4735087214.9624033     
   4566594133.2968521     
   4406532637.5740347     
   4254694988.0370607     
   4111181089.6900525     
   3277942762.1441145     
   3198445913.1086807     
   3123664837.8123260     
   3053942709.0350871     
   2989666923.7514687     
   3438691035.6431708     
   3344738467.8217340     
   3255082407.1835270     
   3170080646.4617891     
   3090154277.8348060     
   3633723283.7989345     
   3525103345.6266580     
   3420244067.8144679     
   3319489619.9099817     
   3223263558.5837669     
   3859140913.6836839     
   3735713884.2831054     
   3615445782.4949694     
   3498642643.8826265     
   3385701112.9082055     
   4111181089.6900525     
   3972813378.5945067     
   3836978188.7851877     
   3703924852.8606296     
   3573999185.5672421     
   2989666923.7514687     
   2907877027.1234059     
   2832085374.6174002     
   2762784958.2777262     
   2700535830.1774273     
   3090154277.8348060     
   2993095917.7132363     
   2901233034.7295513     
   2815054863.3607025     
   2735135789.9395633     
   3223263558.5837669     
   3111532690.4058418     
   3004168345.3133535     
   2901618460.1633492     
   2804426196.8836150     
   3385701112.9082055     
   3260123779.3184476     
   3138121513.7800903     
   3020075077.1746707     
   2906461208.3469510     
   3573999185.5672421     
   3435490186.0491805     
   3299847565.2141318     
   3167373048.3502994     
   3038457554.3442817     
   2700535830.1774273     
   2622483325.5078564     
   2551848498.0657406     
   2489224460.8806777     
   2435257877.8958106     
   2735135789.9395633     
   2641138424.8813462     
   2553357645.9366813     
   2472420034.3083510     
   2399041455.6884522     
   2804426196.8836150     
   2694975316.4518199     
   2590399815.2866154     
   2491283207.1555076     
   2398322705.9637394     
   2906461208.3469510     
   2782741790.8931565     
   2662544357.2849798     
   2546345008.4820790     
   2434737035.8439541     
   3038457554.3442817     
   2902123666.0826764     
   2768070681.6733470     
   2636634396.2943220     
   2508251225.4217119     
   2435257877.8958106     
   2363224694.7484818     
   2299634561.7916160     
   2245189522.5913124     
   2200613896.5284195     
   2399041455.6884522     
   2308900592.9210339     
   2226321035.2342548     
   2152099087.9073730     
   2087106490.1179821     
   2398322705.9637394     
   2290556328.2629962     
   2189177505.7090087     
   2094982166.5267789     
   2008896260.1414876     
   2434737035.8439541     
   2310695187.4040389     
   2191716116.6489267     
   2078484640.9644823     
   1971845526.2500741     
   2508251225.4217119     
   2369972965.7846279     
   2235480146.9275908     
   2105266969.0722868     
   1979978728.9903464     
   2200613896.5284195     
   2145560276.9380867     
   2105414653.5797553     
   2080936192.4809985     
   2072796819.9396391     
   2087106490.1179821     
   2012142327.4413900     
   1949536551.3113325     
   1900365180.0477986     
   1865653875.3679352     
   2008896260.1414876     
   1912526889.9371123     
   1824952338.4938474     
   1747376456.1315897     
   1681094532.1278834     
   1971845526.2500741     
   1855593336.8515310     
   1743734764.8190694     
   1637200709.7419109     
   1537134628.9159687     
   1979978728.9903464     
   1848927975.4114122     
   1717922793.2287679     
   1587322258.0192275     
   1457650842.9458916     
   2072796819.9396391     
   2069194365.8273427     
   2084843770.8155184     
   2122376837.3232923     
   2185601415.5410881     
   1865653875.3679352     
   1855057391.1656373     
   1867437848.9980922     
   1905004962.8084643     
   1970789575.1216650     
   1681094532.1278834     
   1652540859.9531903     
   1651705787.8219221     
   1680957959.8993003     
   1742907982.3411918     
   1537134628.9159687     
   1476253834.2470994     
   1448061599.5831084     
   1456520384.8060756     
   1504926300.6396532     
   1457650842.9458916     
   1348665246.7560058     
   1274666468.6658378     
   1243771026.4856985     
   1263015501.2845762     
   2185601415.5410881     
   2156269388.8458610     
   2146511491.8449421     
   2166853290.8326106     
   2228370924.2744403     
   1970789575.1216650     
   1968945208.1833477     
   2003628770.2026134     
   2093514321.2136354     
   2257264325.1481743     
   1742907982.3411918     
   1787722507.9508905     
   1884672148.2842588     
   2060663830.0356553     
   2340926018.9233537     
   1504926300.6396532     
   1613317674.1568270     
   1788901024.0122626     
   2066422470.6318104     
   2476081773.2349815     
   1263015501.2845762     
   1446773569.2426393     
   1715750367.0331042     
   2110521634.9250870     
   2663514896.6463485     
   4735087214.9624033     
   4566594133.2968521     
   4406532637.5740347     
   4254694988.0370607     
   4111181089.6900525     
   4972883567.0766020     
   4818413654.5255270     
   4663898689.7707548     
   4509483769.3733616     
   4355379411.6837168     
   5221884628.6573868     
   5079342432.7000360     
   4932581753.0353165     
   4780117676.6373701     
   4621002906.2857418     
   5460482595.4292145     
   5332903374.3183804     
   5200356729.0740147     
   5058201129.9948111     
   4903545213.0140066     
   5674390938.9766464     
   5567770256.8364439     
   5458401593.1222181     
   5337323458.9403915     
   5199315214.4757099     
   4111181089.6900525     
   3972813378.5945067     
   3836978188.7851877     
   3703924852.8606296     
   3573999185.5672421     
   4355379411.6837168     
   4204396876.0951252     
   4055073365.3638110     
   3907575280.9334898     
   3762139878.9891124     
   4621002906.2857418     
   4459092036.5374575     
   4298224074.1994133     
   4138498756.4351068     
   3980064196.1467843     
   4903545213.0140066     
   4732344003.8631678     
   4561800055.0052261     
   4391965467.5101566     
   4222923624.5276289     
   5199315214.4757099     
   5020367690.6792774     
   4841889099.1521196     
   4663901141.8841524     
   4486445458.2087345     
   3573999185.5672421     
   3435490186.0491805     
   3299847565.2141318     
   3167373048.3502994     
   3038457554.3442817     
   3762139878.9891124     
   3611849209.3706450     
   3463435763.0092645     
   3317120340.3754425     
   3173205841.9242964     
   3980064196.1467843     
   3818569157.7236080     
   3658048738.3112268     
   3498635572.1206031     
   3340532113.0667992     
   4222923624.5276289     
   4050838101.7853169     
   3878936024.4795365     
   3707265209.9234295     
   3535929312.1897163     
   4486445458.2087345     
   4304366669.6075830     
   4121799435.8705697     
   3938716362.7862353     
   3755132883.5530758     
   3038457554.3442817     
   2902123666.0826764     
   2768070681.6733470     
   2636634396.2943220     
   2508251225.4217119     
   3173205841.9242964     
   3025798349.2068844     
   2880244541.4454308     
   2736778359.4331207     
   2595721476.6715245     
   3340532113.0667992     
   3182646124.8609319     
   3026238897.9995513     
   2871452239.5784588     
   2718505237.8951859     
   3535929312.1897163     
   3367773261.2148376     
   3200768655.1803617     
   3034980753.3104801     
   2870546584.2465429     
   3755132883.5530758     
   3576552265.0731993     
   3398830589.4242783     
   3221973396.5364714     
   3046058192.3566031     
   2508251225.4217119     
   2369972965.7846279     
   2235480146.9275908     
   2105266969.0722868     
   1979978728.9903464     
   2595721476.6715245     
   2448181133.3559923     
   2302729070.9836283     
   2159678121.9489617     
   2019449427.2107704     
   2718505237.8951859     
   2563834528.4764671     
   2409882061.2929740     
   2256787365.6174893     
   2104747389.2600348     
   2870546584.2465429     
   2711133566.1764712     
   2551461096.6657352     
   2391551929.6418357     
   2231452322.7200251     
   3046058192.3566031     
   2884300886.7224207     
   2721681568.9221983     
   2558176674.5934801     
   2393779316.6044354     
   1979978728.9903464     
   1848927975.4114122     
   1717922793.2287679     
   1587322258.0192275     
   1457650842.9458916     
   2019449427.2107704     
   1882136930.2667038     
   1745149780.3429244     
   1608620296.6786923     
   1472730598.9050455     
   2104747389.2600348     
   1963874583.3208089     
   1823973434.9941957     
   1685074603.1922014     
   1547237759.0847208     
   2231452322.7200251     
   2087966456.5126081     
   1946169437.8939967     
   1806060207.0384440     
   1667717032.2080460     
   2393779316.6044354     
   2246965836.2452378     
   2102404784.0903718     
   1960094595.5549965     
   1820208087.2926135     
   1457650842.9458916     
   1348665246.7560058     
   1274666468.6658378     
   1243771026.4856985     
   1263015501.2845762     
   1472730598.9050455     
   1328560017.3076928     
   1198859164.1059976     
   1088105701.7981110     
   1002199984.7029871     
   1547237759.0847208     
   1397464217.0400565     
   1244127572.3298619     
   1084954262.1997800     
   917911260.38191056     
   1667717032.2080460     
   1552450120.9661443     
   1428055458.5022061     
   1294889232.6132863     
   1159073704.8238902     
   1820208087.2926135     
   1779756067.9578748     
   1735761527.2018633     
   1696860203.2818940     
   1681554609.3734689     
   1263015501.2845762     
   1446773569.2426393     
   1715750367.0331042     
   2110521634.9250870     
   2663514896.6463485     
   1002199984.7029871     
   1164817032.4639707     
   1425470535.9079428     
   1808751494.8852613     
   2334741457.5141201     
   917911260.38191056     
   963236775.78549790     
   1144962282.7152269     
   1476467095.7819088     
   1957444385.9595618     
   1159073704.8238902     
   1008550234.3269237     
   985248497.47282827     
   1161465462.5483963     
   1544133321.3792555     
   1681554609.3734689     
   1383911090.8198113     
   1129510631.6662037     
   1010103282.0297250     
   1153062098.1601276     
 </DataArray>
 <DataArray  type="Float64" Name="strain" NumberOfComponents="3" format="ascii">
   9.6560306151612263E-002  -1.6513064704087643E-002   1.3806462105145911E-003
   9.4141291939467742E-002  -2.0898708938023702E-002   1.4900470092469309E-003
   9.1722277727323220E-002  -2.3774309144296901E-002   1.2541933530532123E-003
   8.9303263515178755E-002  -2.5139865322908239E-002   6.7308524193271380E-004
   8.6884249303034289E-002  -2.4995377473856939E-002  -2.5327732411395409E-004
   9.2507439941544312E-002  -1.8761391734116728E-002   5.4769888101495745E-003
   8.9819287110129320E-002  -2.1571432286787595E-002   6.2049537684186196E-003
   8.7131134278714217E-002  -2.3336506150200886E-002   6.7398959430730043E-003
   8.4442981447299253E-002  -2.4056613324356990E-002   7.0818153341127843E-003
   8.1754828615884234E-002  -2.3731753809255518E-002   7.2307119415377374E-003
   8.7719516696897371E-002  -2.1009718764146035E-002   1.1381473760251781E-002
   8.4914456917523473E-002  -2.2244155635551544E-002   1.2262925539652803E-002
   8.2109397138149548E-002  -2.2898703156104927E-002   1.3103586206750617E-002
   7.9304337358775623E-002  -2.2973361325805741E-002   1.3903455761545336E-002
   7.6499277579401753E-002  -2.2468130144654097E-002   1.4662534204037070E-002
   8.2196536417671523E-002  -2.3258045794175231E-002   1.9094101060821933E-002
   7.9426801361650437E-002  -2.2916878984315797E-002   1.9663962322949535E-002
   7.6657066305629157E-002  -2.2460900162008884E-002   2.0345264144085759E-002
   7.3887331249608015E-002  -2.1890109327254492E-002   2.1138006524230583E-002
   7.1117596193586860E-002  -2.1204506480052787E-002   2.2042189463383960E-002
   7.5938499103866741E-002  -2.5506372824204426E-002   2.8614870711859419E-002
   7.3356320442509948E-002  -2.3589602333079773E-002   2.8408064118309040E-002
   7.0774141781153155E-002  -2.2023097167912786E-002   2.8464929755078638E-002
   6.8191963119796362E-002  -2.0806857328703285E-002   2.8785467622168520E-002
   6.5609784458439541E-002  -1.9940882815451311E-002   2.9369677719578602E-002
   8.6884249303034289E-002  -2.4995377473856939E-002  -2.5327732411395409E-004
   8.3898525292974757E-002  -2.4114661124990167E-002  -1.8621724596967759E-004
   8.0912801282915281E-002  -2.3271531804153756E-002  -7.1385797571488219E-006
   7.7927077272855749E-002  -2.2465989511348233E-002   2.8395867452346568E-004
   7.4941353262796273E-002  -2.1698034246573350E-002   6.8707451687266552E-004
   8.1754828615884234E-002  -2.3731753809255518E-002   7.2307119415377374E-003
   7.8894537159217543E-002  -2.2896218974784777E-002   7.1544540963996983E-003
   7.6034245702550879E-002  -2.2084300190831879E-002   7.2170427699792539E-003
   7.3173954245884243E-002  -2.1295997457397249E-002   7.4184779622758351E-003
   7.0313662789217524E-002  -2.0531310774480893E-002   7.7587596732904829E-003
   7.6499277579401753E-002  -2.2468130144654097E-002   1.4662534204037070E-002
   7.3791246606777119E-002  -2.1677776824579220E-002   1.4456929413129288E-002
   7.1083215634152458E-002  -2.0897068577510003E-002   1.4416999071588249E-002
   6.8375184661527866E-002  -2.0126005403446487E-002   1.4542743179413724E-002
   6.5667153688903246E-002  -1.9364587302388436E-002   1.4834161736606122E-002
   7.1117596193586860E-002  -2.1204506480052787E-002   2.2042189463383960E-002
   6.8588653635653488E-002  -2.0459334674373858E-002   2.1721208704219085E-002
   6.6059711077720074E-002  -1.9709836964188016E-002   2.1592730325070197E-002
   6.3530768519786715E-002  -1.8956013349495392E-002   2.1656754325936761E-002
   6.1001825961853308E-002  -1.8197863830295979E-002   2.1913280706819513E-002
   6.5609784458439541E-002  -1.9940882815451311E-002   2.9369677719578602E-002
   6.3286758245846619E-002  -1.9240892524168413E-002   2.8947291969669137E-002
   6.0963732033253712E-002  -1.8522605350866181E-002   2.8744236530424572E-002
   5.8640705820660798E-002  -1.7786021295544473E-002   2.8760511401845101E-002
   5.6317679608067883E-002  -1.7031140358203578E-002   2.8996116583930642E-002
   7.4941353262796273E-002  -2.1698034246573350E-002   6.8707451687266552E-004
   7.1876029741794523E-002  -2.0927654150142028E-002   3.8672395211758470E-004
   6.8810706220792717E-002  -2.0114837362367355E-002   2.7084398968224566E-004
   6.5745382699790994E-002  -1.9259583883249595E-002   3.3943462956625980E-004
   6.2680059178789160E-002  -1.8361893712788291E-002   5.9249587176990470E-004
   7.0313662789217524E-002  -2.0531310774480893E-002   7.7587596732904829E-003
   6.7430915308148709E-002  -1.9764265969402617E-002   7.4730804125056061E-003
   6.4548167827079922E-002  -1.8968888869483003E-002   7.3680826292673585E-003
   6.1665420346011149E-002  -1.8145179474721995E-002   7.4437663235754764E-003
   5.8782672864942320E-002  -1.7293137785119317E-002   7.7001314954296962E-003
   6.5667153688903246E-002  -1.9364587302388436E-002   1.4834161736606122E-002
   6.2963193122994227E-002  -1.8600877788663400E-002   1.4549049383289908E-002
   6.0259232557085221E-002  -1.7822940376598678E-002   1.4440829382746642E-002
   5.7555271991176236E-002  -1.7030775066194402E-002   1.4509501734976657E-002
   5.4851311425267196E-002  -1.6224381857450121E-002   1.4755066439980036E-002
   6.1001825961853308E-002  -1.8197863830295979E-002   2.1913280706819513E-002
   5.8472863186330999E-002  -1.7437489607924198E-002   2.1614630864469978E-002
   5.5943900410808572E-002  -1.6676991883714340E-002   2.1489084250120236E-002
   5.3414937635286194E-002  -1.5916370657666472E-002   2.1536640863770728E-002
   5.0885974859763809E-002  -1.5155625929780814E-002   2.1757300705421215E-002
   5.6317679608067883E-002  -1.7031140358203578E-002   2.8996116583930642E-002
   5.3959925498158923E-002  -1.6274101427184828E-002   2.8669824856045911E-002
   5.1602171388249990E-002  -1.5531043390829891E-002   2.8512847231388194E-002
   4.9244417278341029E-002  -1.4801966249138709E-002   2.8525183709956978E-002
   4.6886663168432097E-002  -1.4086870002111673E-002   2.8706834291752859E-002
   6.2680059178789160E-002  -1.8361893712788291E-002   5.9249587176990470E-004
   5.9703092591820939E-002  -1.7474930651212528E-002   3.6328486625936129E-004
   5.6726126004852773E-002  -1.6651858498750116E-002   3.2540995485930146E-004
   5.3749159417884523E-002  -1.5892677255401624E-002   4.7887113757053013E-004
   5.0772192830916385E-002  -1.5197386921166567E-002   8.2366841439318605E-004
   5.8782672864942320E-002  -1.7293137785119317E-002   7.7001314954296962E-003
   5.5989850282108733E-002  -1.6447209791046746E-002   7.3775279766062352E-003
   5.3197027699275284E-002  -1.5641841482876506E-002   7.2318763719416146E-003
   5.0404205116441766E-002  -1.4877032860607320E-002   7.2631766814348908E-003
   4.7611382533608193E-002  -1.4152783924240797E-002   7.4714289050861193E-003
   5.4851311425267196E-002  -1.6224381857450121E-002   1.4755066439980036E-002
   5.2228248666615518E-002  -1.5419488930880965E-002   1.4362401631056315E-002
   4.9605185907963908E-002  -1.4631824467002202E-002   1.4132304556337766E-002
   4.6982123149312223E-002  -1.3861388465813231E-002   1.4064775215824610E-002
   4.4359060390660565E-002  -1.3108180927314694E-002   1.4159813609517180E-002
   5.0885974859763809E-002  -1.5155625929780814E-002   2.1757300705421215E-002
   4.8418287745341224E-002  -1.4391768070715294E-002   2.1317905829608116E-002
   4.5950600630918700E-002  -1.3621807451128023E-002   2.1026694508047949E-002
   4.3482913516496136E-002  -1.2845744071019367E-002   2.0883666740740599E-002
   4.1015226402073529E-002  -1.2063577930388647E-002   2.0888822527685966E-002
   4.6886663168432097E-002  -1.4086870002111673E-002   2.8706834291752859E-002
   4.4559967518285892E-002  -1.3364047210549457E-002   2.8244040572262819E-002
   4.2233271868139632E-002  -1.2611790435253969E-002   2.7915046227072721E-002
   3.9906576217993414E-002  -1.1830099676225090E-002   2.7719851256182662E-002
   3.7579880567847168E-002  -1.1018974933462711E-002   2.7658455659592351E-002
   5.0772192830916385E-002  -1.5197386921166567E-002   8.2366841439318605E-004
   4.8051742832203592E-002  -1.4499669126878389E-002   5.4642910606572670E-004
   4.5331292833490799E-002  -1.3733205503369927E-002   3.1240797562637201E-004
   4.2610842834778062E-002  -1.2897996050639529E-002   1.2160502307423382E-004
   3.9890392836065214E-002  -1.1994040768688929E-002  -2.5979751590243794E-005
   4.7611382533608193E-002  -1.4152783924240797E-002   7.4714289050861193E-003
   4.4944689602976373E-002  -1.3427766457180579E-002   7.1686379295680114E-003
   4.2277996672344581E-002  -1.2660652242831860E-002   6.9301429123239666E-003
   3.9611303741712747E-002  -1.1851441281194475E-002   6.7559438533545402E-003
   3.6944610811080913E-002  -1.1000133572268922E-002   6.6460407526591769E-003
   4.4359060390660565E-002  -1.3108180927314694E-002   1.4159813609517180E-002
   4.1767202308496676E-002  -1.2355863787482657E-002   1.3804821884875390E-002
   3.9175344226332648E-002  -1.1588098982294653E-002   1.3535203898894677E-002
   3.6583486144168689E-002  -1.0804886511749635E-002   1.3350959651575692E-002
   3.3991628062004731E-002  -1.0006226375848470E-002   1.3252089142917312E-002
   4.1015226402073529E-002  -1.2063577930388647E-002   2.0888822527685966E-002
   3.8519280948764251E-002  -1.1283961117784902E-002   2.0454980971988349E-002
   3.6023335495455000E-002  -1.0515545721757460E-002   2.0127590935339397E-002
   3.3527390042145763E-002  -9.7583317423046885E-003   1.9906652417737990E-002
   3.1031444588836526E-002  -9.0123191794282409E-003   1.9792165419184965E-002
   3.7579880567847168E-002  -1.1018974933462711E-002   2.7658455659592351E-002
   3.5200925523779458E-002  -1.0212058448087147E-002   2.7119115190907206E-002
   3.2821970479711693E-002  -9.4429924612196847E-003   2.6707304021657385E-002
   3.0443015435643969E-002  -8.7117769728600400E-003   2.6423022151842002E-002
   2.8064060391576218E-002  -8.0184119830080114E-003   2.6266269581462165E-002
   3.9890392836065214E-002  -1.1994040768688929E-002  -2.5979751590243794E-005
   3.7470906380026592E-002  -1.1140548310123011E-002  -3.0149598643558484E-004
   3.5051419923987859E-002  -1.0456727327545878E-002  -4.8929054623481072E-004
   3.2631933467949181E-002  -9.9425778209596694E-003  -5.8936343098747734E-004
   3.0212447011910504E-002  -9.5980997903624132E-003  -6.0171464069358471E-004
   3.6944610811080913E-002  -1.1000133572268922E-002   6.6460407526591769E-003
   3.4595422931492426E-002  -1.0183515793512510E-002   6.2053266533163010E-003
   3.2246235051903938E-002  -9.4783746223844334E-003   5.8174880318279665E-003
   2.9897047172315533E-002  -8.8847100588837213E-003   5.4825248881930633E-003
   2.7547859292726906E-002  -8.4025221030117336E-003   5.2004372224119244E-003
   3.3991628062004731E-002  -1.0006226375848470E-002   1.3252089142917312E-002
   3.1677892561673887E-002  -9.2264832769021199E-003   1.2704372047439128E-002
   2.9364157061343127E-002  -8.5000219172220448E-003   1.2174684232622551E-002
   2.7050421561012353E-002  -7.8268422968084256E-003   1.1663025698467416E-002
   2.4736686060681523E-002  -7.2069444156613871E-003   1.1169396444973945E-002
   3.1031444588836526E-002  -9.0123191794282409E-003   1.9792165419184965E-002
   2.8718315270570935E-002  -8.2694507602918965E-003   1.9195640195933311E-002
   2.6405185952305323E-002  -7.5216692120596840E-003   1.8582298056150248E-002
   2.4092056634039748E-002  -6.7689745347332478E-003   1.7952138999836421E-002
   2.1778927315774174E-002  -6.0113667283106520E-003   1.7305163026991394E-002
   2.8064060391576218E-002  -8.0184119830080114E-003   2.6266269581462165E-002
   2.5716691058183361E-002  -7.3124182436811735E-003   2.5679131098797936E-002
   2.3369321724790504E-002  -6.5433165068979893E-003   2.5040329502410308E-002
   2.1021952391397702E-002  -5.7111067726575704E-003   2.4349864792299142E-002
   1.8674583058004790E-002  -4.8157890409604720E-003   2.3607736968464632E-002
   3.0212447011910504E-002  -9.5980997903624132E-003  -6.0171464069358471E-004
   2.9605178840328539E-002  -9.1340146284366597E-003  -3.5884389072737832E-004
   2.8997910668746685E-002  -8.2610437278657356E-003  -1.7968099156249195E-003
   2.8390642497164775E-002  -6.9791870886486140E-003  -4.9156127153861529E-003
   2.7783374325582866E-002  -5.2884447107859334E-003  -9.7152522900121330E-003
   2.7547859292726906E-002  -8.4025221030117336E-003   5.2004372224119244E-003
   2.5529020608222597E-002  -7.8704131865432458E-003   5.8760908551909186E-003
   2.3510181923718204E-002  -7.1269857412549209E-003   5.4094402369885275E-003
   2.1491343239213798E-002  -6.1722397671470086E-003   3.8004853678051120E-003
   1.9472504554709502E-002  -5.0061752642189816E-003   1.0492262476409220E-003
   2.4736686060681523E-002  -7.2069444156613871E-003   1.1169396444973945E-002
   2.1844809387137593E-002  -6.6068117446500541E-003   1.2080265750738950E-002
   1.8952932713593607E-002  -5.9929277546446058E-003   1.2387363329405959E-002
   1.6061056040049634E-002  -5.3652924456451950E-003   1.2090689180975528E-002
   1.3169179366505690E-002  -4.7239058176514748E-003   1.1190243305446212E-002
   2.1778927315774174E-002  -6.0113667283106520E-003   1.7305163026991394E-002
   1.8552545177073505E-002  -5.3432103027567512E-003   1.8253680795917535E-002
   1.5326163038372871E-002  -4.8588697680339299E-003   1.9136959361628070E-002
   1.2099780899672247E-002  -4.5583451241434855E-003   1.9954998724123756E-002
   8.8733987609715681E-003  -4.4416363710842455E-003   2.0707798883404308E-002
   1.8674583058004790E-002  -4.8157890409604720E-003   2.3607736968464632E-002
   1.5652227978030397E-002  -4.0796088608633374E-003   2.4396335990725548E-002
   1.2629872898056005E-002  -3.7248117814237536E-003   2.5658228333654387E-002
   9.6075178180816401E-003  -3.7513978026415679E-003   2.7393413997250982E-002
   6.5851627381072197E-003  -4.1593669245169052E-003   2.9601892981515054E-002
   2.7783374325582866E-002  -5.2884447107859334E-003  -9.7152522900121330E-003
   2.3355642603733129E-002  -4.2067589262799743E-003  -4.1876687347739416E-003
   1.8927910881883503E-002  -4.7520720671300754E-003   2.6042081772740255E-003
   1.4500179160033877E-002  -6.9243841333373329E-003   1.0660378446133267E-002
   1.0072447438184140E-002  -1.0723695124903010E-002   1.9980842071801952E-002
   1.9472504554709502E-002  -5.0061752642189816E-003   1.0492262476409220E-003
   1.6236701873437565E-002  -4.6906970014145566E-003   6.7422451021027507E-003
   1.3000899192165849E-002  -6.2877097476802257E-003   1.3554828680909736E-002
   9.7650965108940224E-003  -9.7972135030142404E-003   2.1486976984062212E-002
   6.5292938296221958E-003  -1.5219208267417184E-002   3.0538690011559844E-002
   1.3169179366505690E-002  -4.7239058176514748E-003   1.1190243305446212E-002
   1.0980577093346600E-002  -5.1746350765511373E-003   1.6763205375420309E-002
   8.7919748201875647E-003  -7.8233474282304039E-003   2.3311003537275637E-002
   6.6033725470285298E-003  -1.2670042872690267E-002   3.0833637791010157E-002
   4.4147702738694394E-003  -1.9714721409930913E-002   3.9331108136624993E-002
   8.8733987609715681E-003  -4.4416363710842455E-003   2.0707798883404308E-002
   7.5872682634601160E-003  -5.6585731516867188E-003   2.5875212085179733E-002
   6.3011377659487194E-003  -9.3589851087807902E-003   3.1872732746369793E-002
   5.0150072684371771E-003  -1.5542872242366956E-002   3.8700360866975675E-002
   3.7288767709258569E-003  -2.4210234552444865E-002   4.6358096446996566E-002
   6.5851627381072197E-003  -4.1593669245169052E-003   2.9601892981515054E-002
   6.0567753837781901E-003  -6.1425112268223003E-003   3.4078265231380134E-002
   5.5283880294491883E-003  -1.0894622789331482E-002   3.9240016308195680E-002
   5.0000006751201725E-003  -1.8415701612043443E-002   4.5087146211959389E-002
   4.4716133207911568E-003  -2.8705747694958816E-002   5.1619654942674398E-002
   7.5938499103866741E-002  -2.5506372824204426E-002   2.8614870711859419E-002
   7.3356320442509948E-002  -2.3589602333079773E-002   2.8408064118309040E-002
   7.0774141781153155E-002  -2.2023097167912786E-002   2.8464929755078638E-002
   6.8191963119796362E-002  -2.0806857328703285E-002   2.8785467622168520E-002
   6.5609784458439541E-002  -1.9940882815451311E-002   2.9369677719578602E-002
   6.9401216861087217E-002  -2.2777326193821501E-002   3.4221730884137880E-002
   6.7069807719314228E-002  -2.1281364263478458E-002   3.3882120821390832E-002
   6.4738398577541226E-002  -2.0028072877356709E-002   3.3780377567491304E-002
   6.2406989435768202E-002  -1.9017452035456104E-002   3.3916501122439421E-002
   6.0075580293995234E-002  -1.8249501737776730E-002   3.4290491486234725E-002
   6.3040501794936865E-002  -2.0048279563438576E-002   3.9353985104766342E-002
   6.0934056751275001E-002  -1.8973126193877130E-002   3.8989166354559276E-002
   5.8827611707613123E-002  -1.8033048586800576E-002   3.8836408991726939E-002
   5.6721166663951189E-002  -1.7228046742208979E-002   3.8895713016269221E-002
   5.4614721620289318E-002  -1.6558120660102288E-002   3.9167078428186231E-002
   5.6856353905415810E-002  -1.7319232933055650E-002   4.4011633373745349E-002
   5.4949067538392300E-002  -1.6664888124275710E-002   4.3729200717814248E-002
   5.3041781171368776E-002  -1.6038024296244499E-002   4.3633024027785260E-002
   5.1134494804345253E-002  -1.5438641448961798E-002   4.3723103303658181E-002
   4.9227208437321708E-002  -1.4866739582427804E-002   4.3999438545433325E-002
   5.0848773192524011E-002  -1.4590186302672725E-002   4.8194675691074496E-002
   4.9114840080666133E-002  -1.4356650054674375E-002   4.8102223911156039E-002
   4.7380906968808256E-002  -1.4043000005688366E-002   4.8170222675666619E-002
   4.5646973856950407E-002  -1.3649236155714659E-002   4.8398671984606512E-002
   4.3913040745092558E-002  -1.3175358504753265E-002   4.8787571837975885E-002
   6.5609784458439541E-002  -1.9940882815451311E-002   2.9369677719578602E-002
   6.3286758245846619E-002  -1.9240892524168413E-002   2.8947291969669137E-002
   6.0963732033253712E-002  -1.8522605350866181E-002   2.8744236530424572E-002
   5.8640705820660798E-002  -1.7786021295544473E-002   2.8760511401845101E-002
   5.6317679608067883E-002  -1.7031140358203578E-002   2.8996116583930642E-002
   6.0075580293995234E-002  -1.8249501737776730E-002   3.4290491486234725E-002
   5.7963376380432349E-002  -1.7596657537855831E-002   3.3948320830790468E-002
   5.5851172466869436E-002  -1.6931354989230235E-002   3.3808464462741175E-002
   5.3738968553306558E-002  -1.6253594091899908E-002   3.3870922382086853E-002
   5.1626764639743694E-002  -1.5563374845864952E-002   3.4135694588827592E-002
   5.4614721620289318E-002  -1.6558120660102288E-002   3.9167078428186231E-002
   5.2696323982486359E-002  -1.5952422551543124E-002   3.8899284333892684E-002
   5.0777926344683463E-002  -1.5340104627594074E-002   3.8816788503723852E-002
   4.8859528706880491E-002  -1.4721166888255177E-002   3.8919590937680063E-002
   4.6941131069077588E-002  -1.4095609333526410E-002   3.9207691635761155E-002
   4.9227208437321708E-002  -1.4866739582427804E-002   4.3999438545433325E-002
   4.7485601052008684E-002  -1.4308187565230564E-002   4.3800182478975574E-002
   4.5743993666695619E-002  -1.3748854265958160E-002   4.3769208653372624E-002
   4.4002386281382595E-002  -1.3188739684610488E-002   4.3906517068624445E-002
   4.2260778896069537E-002  -1.2627843821187743E-002   4.4212107724731109E-002
   4.3913040745092558E-002  -1.3175358504753265E-002   4.8787571837975885E-002
   4.2331207588999303E-002  -1.2663952578917892E-002   4.8651015266039266E-002
   4.0749374432906063E-002  -1.2157603904321954E-002   4.8665724911687219E-002
   3.9167541276812851E-002  -1.1656312480965849E-002   4.8831700774920078E-002
   3.7585708120719596E-002  -1.1160078308849242E-002   4.9148942855737621E-002
   5.6317679608067883E-002  -1.7031140358203578E-002   2.8996116583930642E-002
   5.3959925498158923E-002  -1.6274101427184828E-002   2.8669824856045911E-002
   5.1602171388249990E-002  -1.5531043390829891E-002   2.8512847231388194E-002
   4.9244417278341029E-002  -1.4801966249138709E-002   2.8525183709956978E-002
   4.6886663168432097E-002  -1.4086870002111673E-002   2.8706834291752859E-002
   5.1626764639743694E-002  -1.5563374845864952E-002   3.4135694588827592E-002
   4.9440017757651694E-002  -1.4869578343305934E-002   3.3806735018030748E-002
   4.7253270875559666E-002  -1.4181085676403693E-002   3.3650475799641005E-002
   4.5066523993467653E-002  -1.3497896845158022E-002   3.3666916933658406E-002
   4.2879777111375639E-002  -1.2820011849568880E-002   3.3856058420082658E-002
   4.6941131069077588E-002  -1.4095609333526410E-002   3.9207691635761155E-002
   4.4928777663982636E-002  -1.3465055259427344E-002   3.8884741281059426E-002
   4.2916424258887753E-002  -1.2831127961977606E-002   3.8737877527945247E-002
   4.0904070853792822E-002  -1.2193827441177224E-002   3.8767100376417868E-002
   3.8891717448697877E-002  -1.1553153697026114E-002   3.8972409826477941E-002
   4.2260778896069537E-002  -1.2627843821187743E-002   4.4212107724731109E-002
   4.0426205217151914E-002  -1.2060532175548602E-002   4.3903843645131932E-002
   3.8591631538234299E-002  -1.1481170247551353E-002   4.3775052416300211E-002
   3.6757057859316655E-002  -1.0889758037196315E-002   4.3825734038235989E-002
   3.4922484180399060E-002  -1.0286295544483445E-002   4.4055888510938931E-002
   3.7585708120719596E-002  -1.1160078308849242E-002   4.9148942855737621E-002
   3.5932300417159418E-002  -1.0656009091669860E-002   4.8864042110248140E-002
   3.4278892713599241E-002  -1.0131212533125197E-002   4.8762000464706301E-002
   3.2625485010039090E-002  -9.5856886332156520E-003   4.8842817919112061E-002
   3.0972077306478940E-002  -9.0194373919406101E-003   4.9106494473465323E-002
   4.6886663168432097E-002  -1.4086870002111673E-002   2.8706834291752859E-002
   4.4559967518285892E-002  -1.3364047210549457E-002   2.8244040572262819E-002
   4.2233271868139632E-002  -1.2611790435253969E-002   2.7915046227072721E-002
   3.9906576217993414E-002  -1.1830099676225090E-002   2.7719851256182662E-002
   3.7579880567847168E-002  -1.1018974933462711E-002   2.7658455659592351E-002
   4.2879777111375639E-002  -1.2820011849568880E-002   3.3856058420082658E-002
   4.0693361778661036E-002  -1.2133577827684566E-002   3.3444489974093439E-002
   3.8506946445946461E-002  -1.1424741917553480E-002   3.3179682788667370E-002
   3.6320531113231871E-002  -1.0693504119175742E-002   3.3061636863804603E-002
   3.4134115780517310E-002  -9.9398644325509045E-003   3.3090352199505235E-002
   3.8891717448697877E-002  -1.1553153697026114E-002   3.8972409826477941E-002
   3.6858544319678402E-002  -1.0903108444819704E-002   3.8605034558502657E-002
   3.4825371190658906E-002  -1.0237693399852983E-002   3.8397382437354070E-002
   3.2792198061639410E-002  -9.5569085621263362E-003   3.8349453463032313E-002
   3.0759024932619936E-002  -8.8607539316392647E-003   3.8461247635537266E-002
   3.4922484180399060E-002  -1.0286295544483445E-002   4.4055888510938931E-002
   3.3055515141338074E-002  -9.6726390619548269E-003   4.3725674325490821E-002
   3.1188546102277059E-002  -9.0506448821524900E-003   4.3568145173132997E-002
   2.9321577063216003E-002  -8.4203130050767919E-003   4.3583301053865334E-002
   2.7454608024155055E-002  -7.7816434307274862E-003   4.3771141967687797E-002
   3.0972077306478940E-002  -9.0194373919406101E-003   4.9106494473465323E-002
   2.9284274243639830E-002  -8.4421696790897838E-003   4.8806409275058027E-002
   2.7596471180800747E-002  -7.8635963644518997E-003   4.8691970996004336E-002
   2.5908668117961678E-002  -7.2837174480275858E-003   4.8763179636304319E-002
   2.4220865055122553E-002  -6.7025329298158187E-003   4.9020035195957656E-002
   3.7579880567847168E-002  -1.1018974933462711E-002   2.7658455659592351E-002
   3.5200925523779458E-002  -1.0212058448087147E-002   2.7119115190907206E-002
   3.2821970479711693E-002  -9.4429924612196847E-003   2.6707304021657385E-002
   3.0443015435643969E-002  -8.7117769728600400E-003   2.6423022151842002E-002
   2.8064060391576218E-002  -8.0184119830080114E-003   2.6266269581462165E-002
   3.4134115780517310E-002  -9.9398644325509045E-003   3.3090352199505235E-002
   3.1887574659469314E-002  -9.1876406857311910E-003   3.2595028160655404E-002
   2.9641033538421319E-002  -8.4606507067680470E-003   3.2237002668409842E-002
   2.7394492417373351E-002  -7.7588944956614725E-003   3.2016275722769355E-002
   2.5147951296325327E-002  -7.0823720524115785E-003   3.1932847323732860E-002
   3.0759024932619936E-002  -8.8607539316392647E-003   3.8461247635537266E-002
   2.8654666981761237E-002  -8.1632229233749021E-003   3.8022556757173642E-002
   2.6550309030902601E-002  -7.4783089523160901E-003   3.7730933672583858E-002
   2.4445951080043975E-002  -6.8060120184629085E-003   3.7586378381768419E-002
   2.2341593129185322E-002  -6.1463321218150346E-003   3.7588890884726889E-002
   2.7454608024155055E-002  -7.7816434307274862E-003   4.3771141967687797E-002
   2.5502202490655327E-002  -7.1388051610187242E-003   4.3401700980461644E-002
   2.3549796957155547E-002  -6.4959671978643482E-003   4.3189097034178822E-002
   2.1597391423655833E-002  -5.8531295412641206E-003   4.3133330128839950E-002
   1.9644985890156091E-002  -5.2102921912184352E-003   4.3234400264444861E-002
   2.4220865055122553E-002  -6.7025329298158187E-003   4.9020035195957656E-002
   2.2430181186151338E-002  -6.1143873986625463E-003   4.8732460830519853E-002
   2.0639497317180122E-002  -5.5136254434123289E-003   4.8611492753195096E-002
   1.8848813448208906E-002  -4.9002470640657908E-003   4.8657130963983775E-002
   1.7058129579237691E-002  -4.2742522606220579E-003   4.8869375462885722E-002
   2.8064060391576218E-002  -8.0184119830080114E-003   2.6266269581462165E-002
   2.5716691058183361E-002  -7.3124182436811735E-003   2.5679131098797936E-002
   2.3369321724790504E-002  -6.5433165068979893E-003   2.5040329502410308E-002
   2.1021952391397702E-002  -5.7111067726575704E-003   2.4349864792299142E-002
   1.8674583058004790E-002  -4.8157890409604720E-003   2.3607736968464632E-002
   2.5147951296325327E-002  -7.0823720524115785E-003   3.1932847323732860E-002
   2.2787131696712537E-002  -6.4098172332449077E-003   3.1533875875256800E-002
   2.0426312097099747E-002  -5.7199638943875031E-003   3.1159667008064218E-002
   1.8065492497486978E-002  -5.0128120358402112E-003   3.0810220722155127E-002
   1.5704672897874167E-002  -4.2883616576026018E-003   3.0485537017530207E-002
   2.2341593129185322E-002  -6.1463321218150346E-003   3.7588890884726889E-002
   2.0043748958359781E-002  -5.5072162228081145E-003   3.7332276992672386E-002
   1.7745904787534156E-002  -4.8966112818774610E-003   3.7176851376908404E-002
   1.5448060616708573E-002  -4.3145172990229630E-003   3.7122614037435345E-002
   1.3150216445883003E-002  -3.7609342742447871E-003   3.7169564974252944E-002
   1.9644985890156091E-002  -5.2102921912184352E-003   4.3234400264444861E-002
   1.7486542843124835E-002  -4.6046152123715850E-003   4.3074334451044874E-002
   1.5328099796093606E-002  -4.0732586693670858E-003   4.3091882608943088E-002
   1.3169656749062408E-002  -3.6162225622057703E-003   4.3287044738139102E-002
   1.1011213702031175E-002  -3.2335068908870002E-003   4.3659820838632971E-002
   1.7058129579237691E-002  -4.2742522606220579E-003   4.8869375462885722E-002
   1.5115513351007970E-002  -3.7020142019350000E-003   4.8760048250374277E-002
   1.3172897122778249E-002  -3.2499060568569882E-003   4.8904760704167771E-002
   1.1230280894548528E-002  -2.9179278253884250E-003   4.9303512824266538E-002
   9.2876646663188067E-003  -2.7060795075292132E-003   4.9956304610669910E-002
   1.8674583058004790E-002  -4.8157890409604720E-003   2.3607736968464632E-002
   1.5652227978030397E-002  -4.0796088608633374E-003   2.4396335990725548E-002
   1.2629872898056005E-002  -3.7248117814237536E-003   2.5658228333654387E-002
   9.6075178180816401E-003  -3.7513978026415679E-003   2.7393413997250982E-002
   6.5851627381072197E-003  -4.1593669245169052E-003   2.9601892981515054E-002
   1.5704672897874167E-002  -4.2883616576026018E-003   3.0485537017530207E-002
   1.3137369543984284E-002  -3.7739898366198621E-003   3.1261928785918547E-002
   1.0570066190094429E-002  -3.6970736498370127E-003   3.2475130685808928E-002
   8.0027628362045744E-003  -4.0576130972542340E-003   3.4125142717200158E-002
   5.4354594823147473E-003  -4.8556081788713179E-003   3.6211964880092484E-002
   1.3150216445883003E-002  -3.7609342742447871E-003   3.7169564974252944E-002
   1.1001481628911305E-002  -3.4683708123758872E-003   3.7877676955226619E-002
   8.8527468119396074E-003  -3.6693355182499110E-003   3.8986115878534983E-002
   6.7040119949679164E-003  -4.3638283918664492E-003   4.0494881744178618E-002
   4.5552771779962115E-003  -5.5518494332257862E-003   4.2403974552157192E-002
   1.1011213702031175E-002  -3.2335068908870002E-003   4.3659820838632971E-002
   9.2445642328113260E-003  -3.1627517881323841E-003   4.4243580498648960E-002
   7.4779147635915290E-003  -3.6415973866630452E-003   4.5191183911833237E-002
   5.7112652943716504E-003  -4.6700436864788898E-003   4.6502631078186363E-002
   3.9446158251518794E-003  -6.2480906875797826E-003   4.8177921997708310E-002
   9.2876646663188067E-003  -2.7060795075292132E-003   4.9956304610669910E-002
   7.8666173556845020E-003  -2.8571327638884370E-003   5.0359639416185820E-002
   6.4455700450501419E-003  -3.6138592550759574E-003   5.1090334785703406E-002
   5.0245227344157956E-003  -4.9762589810913027E-003   5.2148390719223836E-002
   3.6034754237814770E-003  -6.9443319419345562E-003   5.3533807216746054E-002
   6.5851627381072197E-003  -4.1593669245169052E-003   2.9601892981515054E-002
   6.0567753837781901E-003  -6.1425112268223003E-003   3.4078265231380134E-002
   5.5283880294491883E-003  -1.0894622789331482E-002   3.9240016308195680E-002
   5.0000006751201725E-003  -1.8415701612043443E-002   4.5087146211959389E-002
   4.4716133207911568E-003  -2.8705747694958816E-002   5.1619654942674398E-002
   5.4354594823147473E-003  -4.8556081788713179E-003   3.6211964880092484E-002
   5.4885794689595313E-003  -6.9902808563911401E-003   3.8351553186551479E-002
   5.5416994556044125E-003  -1.1360853091515744E-002   4.0968777348008467E-002
   5.5948194422493561E-003  -1.7967324884245364E-002   4.4063637364463060E-002
   5.6479394288940776E-003  -2.6809696234579850E-002   4.7636133235915423E-002
   4.5552771779962115E-003  -5.5518494332257862E-003   4.2403974552157192E-002
   4.9821615336629460E-003  -7.8380504859596467E-003   4.2739846617808441E-002
   5.4090458893297014E-003  -1.1827083393699908E-002   4.3345611566505307E-002
   5.8359302449964255E-003  -1.7518948156447178E-002   4.4221269398248449E-002
   6.2628146006631913E-003  -2.4913644774201105E-002   4.5366820113036832E-002
   3.9446158251518794E-003  -6.2480906875797826E-003   4.8177921997708310E-002
   4.5375215778883544E-003  -8.6858201155282089E-003   4.7243145525149979E-002
   5.1304273306249735E-003  -1.2293313695884343E-002   4.6370518963685367E-002
   5.7233330833615639E-003  -1.7070571428649157E-002   4.5560042313315334E-002
   6.3162388360980121E-003  -2.3017593313822360E-002   4.4811715574037736E-002
   3.6034754237814770E-003  -6.9443319419345562E-003   5.3533807216746054E-002
   4.1546596016358572E-003  -9.5335897450969931E-003   5.1861449908576662E-002
   4.7058437794902375E-003  -1.2759543998068362E-002   5.0043499539549063E-002
   5.2570279573446038E-003  -1.6622194700851030E-002   4.8079956109663174E-002
   5.8082121351989979E-003  -2.1121541853443393E-002   4.5970819618919467E-002
   5.0848773192524011E-002  -1.4590186302672725E-002   4.8194675691074496E-002
   4.9114840080666133E-002  -1.4356650054674375E-002   4.8102223911156039E-002
   4.7380906968808256E-002  -1.4043000005688366E-002   4.8170222675666619E-002
   4.5646973856950407E-002  -1.3649236155714659E-002   4.8398671984606512E-002
   4.3913040745092558E-002  -1.3175358504753265E-002   4.8787571837975885E-002
   4.4762419273376819E-002  -1.2784657179876091E-002   5.2685940034750245E-002
   4.3213955086801578E-002  -1.2558183545650109E-002   5.2355107380167548E-002
   4.1665490900226393E-002  -1.2270395045166596E-002   5.2234762031720866E-002
   4.0117026713651180E-002  -1.1921291678425639E-002   5.2324903989410379E-002
   3.8568562527075953E-002  -1.1510873445427172E-002   5.2625533253235712E-002
   3.8341951765089533E-002  -1.0979128057079429E-002   5.7179541232019016E-002
   3.7028993265503712E-002  -1.0759717036625774E-002   5.6591528768041979E-002
   3.5716034765917906E-002  -1.0497790084644854E-002   5.6264040371907742E-002
   3.4403076266332086E-002  -1.0193347201136564E-002   5.6197076043616220E-002
   3.3090117766746252E-002  -9.8463883861010792E-003   5.6390635783167511E-002
   3.1587370667662207E-002  -9.1735989342827673E-003   6.1675479282880377E-002
   3.0559954616772508E-002  -8.9612505276015289E-003   6.0811488074778847E-002
   2.9532538565882817E-002  -8.7251851241230416E-003   6.0258057696226726E-002
   2.8505122514993111E-002  -8.4654027238476558E-003   6.0015188147224244E-002
   2.7477706464103420E-002  -8.1819033267749586E-003   6.0082879427771213E-002
   2.4498675981094786E-002  -7.3680698114861332E-003   6.6173754187334288E-002
   2.3806839140607966E-002  -7.1627840185772007E-003   6.5014985300378192E-002
   2.3115002300121132E-002  -6.9525801636013407E-003   6.4216814004678213E-002
   2.2423165459634277E-002  -6.7374582465584698E-003   6.3779240300234574E-002
   2.1731328619147464E-002  -6.5174182674488934E-003   6.3702264187046997E-002
   4.3913040745092558E-002  -1.3175358504753265E-002   4.8787571837975885E-002
   4.2331207588999303E-002  -1.2663952578917892E-002   4.8651015266039266E-002
   4.0749374432906063E-002  -1.2157603904321954E-002   4.8665724911687219E-002
   3.9167541276812851E-002  -1.1656312480965849E-002   4.8831700774920078E-002
   3.7585708120719596E-002  -1.1160078308849242E-002   4.9148942855737621E-002
   3.8568562527075953E-002  -1.1510873445427172E-002   5.2625533253235712E-002
   3.7150667907899074E-002  -1.1069722661299838E-002   5.2365228950697743E-002
   3.5732773288722146E-002  -1.0628421641172295E-002   5.2281535504407589E-002
   3.4314878669545260E-002  -1.0186970385044462E-002   5.2374452914365544E-002
   3.2896984050368339E-002  -9.7453688929164395E-003   5.2643981180571231E-002
   3.3090117766746252E-002  -9.8463883861010792E-003   5.6390635783167511E-002
   3.1861506323148825E-002  -9.4754927436818959E-003   5.6011791237268058E-002
   3.0632894879551377E-002  -9.0992393780224765E-003   5.5834902186279796E-002
   2.9404283435953929E-002  -8.7176282891231315E-003   5.5859968630202400E-002
   2.8175671992356502E-002  -8.3306594769835263E-003   5.6086990569036058E-002
   2.7477706464103420E-002  -8.1819033267749586E-003   6.0082879427771213E-002
   2.6463722834748560E-002  -7.8812628260638423E-003   5.9590702125750308E-002
   2.5449739205393680E-002  -7.5700571148727379E-003   5.9325824957303555E-002
   2.4435755576038817E-002  -7.2482861932017728E-003   5.9288247922430974E-002
   2.3421771946683941E-002  -6.9159500610507241E-003   5.9477971021132392E-002
   2.1731328619147464E-002  -6.5174182674488934E-003   6.3702264187046997E-002
   2.0957317442698298E-002  -6.2870329084458998E-003   6.3101961616144425E-002
   2.0183306266249125E-002  -6.0408748517229716E-003   6.2754303817479068E-002
   1.9409295089799956E-002  -5.7789440972803516E-003   6.2659290791050953E-002
   1.8635283913350786E-002  -5.5012406451178109E-003   6.2816922536859998E-002
   3.7585708120719596E-002  -1.1160078308849242E-002   4.9148942855737621E-002
   3.5932300417159418E-002  -1.0656009091669860E-002   4.8864042110248140E-002
   3.4278892713599241E-002  -1.0131212533125197E-002   4.8762000464706301E-002
   3.2625485010039090E-002  -9.5856886332156520E-003   4.8842817919112061E-002
   3.0972077306478940E-002  -9.0194373919406101E-003   4.9106494473465323E-002
   3.2896984050368339E-002  -9.7453688929164395E-003   5.2643981180571231E-002
   3.1431454848034474E-002  -9.2957551131939431E-003   5.2349812688976760E-002
   2.9965925645700581E-002  -8.8302669942826456E-003   5.2248542099887496E-002
   2.8500396443366723E-002  -8.3489045361827448E-003   5.2340169413303148E-002
   2.7034867241032823E-002  -7.8516677388942302E-003   5.2624694629223701E-002
   2.8175671992356502E-002  -8.3306594769835263E-003   5.6086990569036058E-002
   2.6908060093806328E-002  -7.9355011347178595E-003   5.5778701329160338E-002
   2.5640448195256210E-002  -7.5293214554400453E-003   5.5673348794346787E-002
   2.4372836296706057E-002  -7.1121204391498393E-003   5.5770932964595996E-002
   2.3105224398155946E-002  -6.6838980858476005E-003   5.6071453839907595E-002
   2.3421771946683941E-002  -6.9159500610507241E-003   5.9477971021132392E-002
   2.2362116154475045E-002  -6.5752471562418036E-003   5.9150708030798541E-002
   2.1302460362266122E-002  -6.2283759165973583E-003   5.9036420548084764E-002
   2.0242804570057227E-002  -5.8753363421169885E-003   5.9135108572990987E-002
   1.9183148777848300E-002  -5.5161284328009291E-003   5.9446772105516951E-002
   1.8635283913350786E-002  -5.5012406451178109E-003   6.2816922536859998E-002
   1.7793623030040562E-002  -5.2149931777658587E-003   6.2465832793891840E-002
   1.6951962146730309E-002  -4.9274303777546991E-003   6.2337757361101170E-002
   1.6110301263420085E-002  -4.6385522450840891E-003   6.2432696238487823E-002
   1.5268640380109846E-002  -4.3483587797544798E-003   6.2750649426051908E-002
   3.0972077306478940E-002  -9.0194373919406101E-003   4.9106494473465323E-002
   2.9284274243639830E-002  -8.4421696790897838E-003   4.8806409275058027E-002
   2.7596471180800747E-002  -7.8635963644518997E-003   4.8691970996004336E-002
   2.5908668117961678E-002  -7.2837174480275858E-003   4.8763179636304319E-002
   2.4220865055122553E-002  -6.7025329298158187E-003   4.9020035195957656E-002
   2.7034867241032823E-002  -7.8516677388942302E-003   5.2624694629223701E-002
   2.5536488890528064E-002  -7.3444628397101308E-003   5.2338638179560859E-002
   2.4038110540023319E-002  -6.8331960759239335E-003   5.2245784235212894E-002
   2.2539732189518567E-002  -6.3178674475357945E-003   5.2346132796180209E-002
   2.1041353839013816E-002  -5.7984769545455506E-003   5.2639683862462427E-002
   2.3105224398155946E-002  -6.6838980858476005E-003   5.6071453839907595E-002
   2.1803826345946922E-002  -6.2467560003304501E-003   5.5802182401804387E-002
   2.0502428293737919E-002  -5.8027957873960159E-003   5.5733669054977474E-002
   1.9201030241528892E-002  -5.3520174470442789E-003   5.5865913799427125E-002
   1.7899632189319892E-002  -4.8944209792751714E-003   5.6198916635153251E-002
   1.9183148777848300E-002  -5.5161284328009291E-003   5.9446772105516951E-002
   1.8086286609896422E-002  -5.1490491609507832E-003   5.9197041941788653E-002
   1.6989424441944546E-002  -4.7723954988681296E-003   5.9155625455298053E-002
   1.5892562273992654E-002  -4.3861674465526254E-003   5.9322522646045456E-002
   1.4795700106040789E-002  -3.9903650040047367E-003   5.9697733514030474E-002
   1.5268640380109846E-002  -4.3483587797544798E-003   6.2750649426051908E-002
   1.4383869682376510E-002  -4.0513423215711719E-003   6.2523216799513559E-002
   1.3499098984643181E-002  -3.7419952103401599E-003   6.2511653436174486E-002
   1.2614328286909861E-002  -3.4203174460610622E-003   6.2715959336034743E-002
   1.1729557589176515E-002  -3.0863090287345241E-003   6.3136134499094276E-002
   2.4220865055122553E-002  -6.7025329298158187E-003   4.9020035195957656E-002
   2.2430181186151338E-002  -6.1143873986625463E-003   4.8732460830519853E-002
   2.0639497317180122E-002  -5.5136254434123289E-003   4.8611492753195096E-002
   1.8848813448208906E-002  -4.9002470640657908E-003   4.8657130963983775E-002
   1.7058129579237691E-002  -4.2742522606220579E-003   4.8869375462885722E-002
   2.1041353839013816E-002  -5.7984769545455506E-003   5.2639683862462427E-002
   1.9427402006916825E-002  -5.2747692814071323E-003   5.2408619272095447E-002
   1.7813450174819875E-002  -4.7464891125750669E-003   5.2364412467363813E-002
   1.6199498342722926E-002  -4.2136364480491843E-003   5.2507063448267277E-002
   1.4585546510625935E-002  -3.6762112878295783E-003   5.2836572214806088E-002
   1.7899632189319892E-002  -4.8944209792751714E-003   5.6198916635153251E-002
   1.6482663891619113E-002  -4.4351511641519958E-003   5.6016317891454351E-002
   1.5065695593918300E-002  -3.9793527817380270E-003   5.6040828430912876E-002
   1.3648727296217515E-002  -3.5270258320329109E-003   5.6272448253528409E-002
   1.2231758998516709E-002  -3.0781703150370987E-003   5.6711177359301035E-002
   1.4795700106040789E-002  -3.9903650040047367E-003   5.9697733514030474E-002
   1.3595966840258092E-002  -3.5955330468966096E-003   5.9555556688597022E-002
   1.2396233574475422E-002  -3.2122164509006540E-003   5.9640740643842304E-002
   1.1196500308692741E-002  -2.8404152160165820E-003   5.9953285379766935E-002
   9.9967670429100507E-003  -2.4801293422446746E-003   6.0493190896370660E-002
   1.1729557589176515E-002  -3.0863090287345241E-003   6.3136134499094276E-002
   1.0767310852833875E-002  -2.7559149296414454E-003   6.3026335663522837E-002
   9.8050641164912217E-003  -2.4450801200634475E-003   6.3164149106152478E-002
   8.8428173801485682E-003  -2.1538046000003502E-003   6.3549574826983257E-002
   7.8805706438059286E-003  -1.8820883694521395E-003   6.4182612826014895E-002
   1.7058129579237691E-002  -4.2742522606220579E-003   4.8869375462885722E-002
   1.5115513351007970E-002  -3.7020142019350000E-003   4.8760048250374277E-002
   1.3172897122778249E-002  -3.2499060568569882E-003   4.8904760704167771E-002
   1.1230280894548528E-002  -2.9179278253884250E-003   4.9303512824266538E-002
   9.2876646663188067E-003  -2.7060795075292132E-003   4.9956304610669910E-002
   1.4585546510625935E-002  -3.6762112878295783E-003   5.2836572214806088E-002
   1.2896638975518931E-002  -3.1951980318514761E-003   5.2726946476721548E-002
   1.1207731440411969E-002  -2.8315810800507712E-003   5.2870698458577309E-002
   9.5188239053049933E-003  -2.5853604324262980E-003   5.3267828160373468E-002
   7.8299163701980035E-003  -2.4565360889792220E-003   5.3918335582110344E-002
   1.2231758998516709E-002  -3.0781703150370987E-003   5.6711177359301035E-002
   1.0795898210167729E-002  -2.6883818617682020E-003   5.6603986705075993E-002
   9.3600374218187551E-003  -2.4132561032439714E-003   5.6749511824426335E-002
   7.9241766334697886E-003  -2.2527930394641640E-003   5.7147752717352548E-002
   6.4883158451208012E-003  -2.2069926704290643E-003   5.7798709383854341E-002
   9.9967670429100507E-003  -2.4801293422446746E-003   6.0493190896370660E-002
   8.8132910549543649E-003  -2.1815656916848031E-003   6.0391168935437195E-002
   7.6298150669986773E-003  -1.9949311264374076E-003   6.0541200801714858E-002
   6.4463390790429915E-003  -1.9202256465020336E-003   6.0943286495203142E-002
   5.2628630910872762E-003  -1.9574492518790454E-003   6.1597426015902887E-002
   7.8805706438059286E-003  -1.8820883694521395E-003   6.4182612826014895E-002
   6.9488175098788019E-003  -1.6747495216015151E-003   6.4088493167805627E-002
   6.0170643759516751E-003  -1.5766061496310657E-003   6.4245765390442577E-002
   5.0853112420245275E-003  -1.5876582535398198E-003   6.4654429493925636E-002
   4.1535581080974215E-003  -1.7079058333289154E-003   6.5314485478255135E-002
   9.2876646663188067E-003  -2.7060795075292132E-003   4.9956304610669910E-002
   7.8666173556845020E-003  -2.8571327638884370E-003   5.0359639416185820E-002
   6.4455700450501419E-003  -3.6138592550759574E-003   5.1090334785703406E-002
   5.0245227344157956E-003  -4.9762589810913027E-003   5.2148390719223836E-002
   3.6034754237814770E-003  -6.9443319419345562E-003   5.3533807216746054E-002
   7.8299163701980035E-003  -2.4565360889792220E-003   5.3918335582110344E-002
   6.7101150694327261E-003  -2.6426815526692793E-003   5.3852595332073372E-002
   5.5903137686675042E-003  -3.3413703264574546E-003   5.4061986537772166E-002
   4.4705124679022337E-003  -4.5526024103430332E-003   5.4546509199206838E-002
   3.3507111671370327E-003  -6.2763778043263274E-003   5.5306163316377166E-002
   6.4883158451208012E-003  -2.2069926704290643E-003   5.7798709383854341E-002
   5.6175314459581682E-003  -2.4282303414500106E-003   5.7357024002995166E-002
   4.7467470467955353E-003  -3.0688813978387297E-003   5.7138240969605264E-002
   3.8759626476328989E-003  -4.1289458395947637E-003   5.7142360283684954E-002
   3.0051782484702694E-003  -5.6084236667183762E-003   5.7369381945233971E-002
   5.2628630910872762E-003  -1.9574492518790454E-003   6.1597426015902887E-002
   4.5888664852607799E-003  -2.2137791302306309E-003   6.0872925428951667E-002
   3.9148698794342560E-003  -2.7963924692198938E-003   6.0319098081203004E-002
   3.2408732736077311E-003  -3.7052892688463832E-003   5.9935943972657633E-002
   2.5668766677812357E-003  -4.9404695291106193E-003   5.9723463103314840E-002
   4.1535581080974215E-003  -1.7079058333289154E-003   6.5314485478255135E-002
   3.6241201873405404E-003  -1.9993279190114732E-003   6.4400299609942091E-002
   3.0946822665836593E-003  -2.5239035406015020E-003   6.3604557872565137E-002
   2.5652443458267712E-003  -3.2816326980983357E-003   6.2927260266124607E-002
   2.0358064250698971E-003  -4.2725153915024183E-003   6.2368406790620945E-002
   3.6034754237814770E-003  -6.9443319419345562E-003   5.3533807216746054E-002
   4.1546596016358572E-003  -9.5335897450969931E-003   5.1861449908576662E-002
   4.7058437794902375E-003  -1.2759543998068362E-002   5.0043499539549063E-002
   5.2570279573446038E-003  -1.6622194700851030E-002   4.8079956109663174E-002
   5.8082121351989979E-003  -2.1121541853443393E-002   4.5970819618919467E-002
   3.3507111671370327E-003  -6.2763778043263274E-003   5.5306163316377166E-002
   3.7738735865269213E-003  -8.5441979242996680E-003   5.2952487352733835E-002
   4.1970360059168516E-003  -1.1387564186154858E-002   5.0488360933018950E-002
   4.6201984253067263E-003  -1.4806476589891794E-002   4.7913784057233261E-002
   5.0433608446966427E-003  -1.8800935135510066E-002   4.5228756725377295E-002
   3.0051782484702694E-003  -5.6084236667183762E-003   5.7369381945233971E-002
   3.3354615141830829E-003  -7.5548061035028979E-003   5.4395537634043561E-002
   3.6657447798959658E-003  -1.0015584374240674E-002   5.1346385471570125E-002
   3.9960280456088453E-003  -1.2990758478932000E-002   4.8221925457813127E-002
   4.3263113113216622E-003  -1.6480328417576962E-002   4.5022157592772616E-002
   2.5668766677812357E-003  -4.9404695291106193E-003   5.9723463103314840E-002
   2.8394233846044219E-003  -6.5654142827056283E-003   5.6190600752506530E-002
   3.1119701014276531E-003  -8.6436045623267191E-003   5.2617573155202269E-002
   3.3845168182508696E-003  -1.1175040367972263E-002   4.9004380311401835E-002
   3.6570635350740982E-003  -1.4159721699643635E-002   4.5351022221106485E-002
   2.0358064250698971E-003  -4.2725153915024183E-003   6.2368406790620945E-002
   2.2857591977908931E-003  -5.5760224619089138E-003   5.8337676708122732E-002
   2.5357119705118891E-003  -7.2716247504129305E-003   5.4301923983916200E-002
   2.7856647432328643E-003  -9.3593222570128448E-003   5.0261148618001072E-002
   3.0356175159538812E-003  -1.1839114981710530E-002   4.6215350610377293E-002
   2.4498675981094786E-002  -7.3680698114861332E-003   6.6173754187334288E-002
   2.3806839140607966E-002  -7.1627840185772007E-003   6.5014985300378192E-002
   2.3115002300121132E-002  -6.9525801636013407E-003   6.4216814004678213E-002
   2.2423165459634277E-002  -6.7374582465584698E-003   6.3779240300234574E-002
   2.1731328619147464E-002  -6.5174182674488934E-003   6.3702264187046997E-002
   1.7525695114547685E-002  -5.5260524487446006E-003   6.4830695868498434E-002
   1.7147546269638533E-002  -5.3720880706474849E-003   6.4194861915497115E-002
   1.6769397424729368E-002  -5.2144351537118383E-003   6.3825806362395016E-002
   1.6391248579820210E-002  -5.0530936979374941E-003   6.3723529209191915E-002
   1.6013099734911052E-002  -4.8880637033247576E-003   6.3888030455887923E-002
   1.1118255477181246E-002  -3.6840350860030402E-003   6.3436930896465071E-002
   1.0959975436492658E-002  -3.5813921227177276E-003   6.3322802354190216E-002
   1.0801695395804060E-002  -3.4762901438222249E-003   6.3381633020457365E-002
   1.0643415355115466E-002  -3.3687291493164628E-003   6.3613422895266600E-002
   1.0485135314426883E-002  -3.2587091392005108E-003   6.4018171978617755E-002
   5.2763570689955287E-003  -1.8420177232615076E-003   6.1992459271233896E-002
   5.2441266411703685E-003  -1.7906961747879910E-003   6.2398806616457247E-002
   5.2118962133452284E-003  -1.7381451339326393E-003   6.2884293978865399E-002
   5.1796657855200934E-003  -1.6843646006954593E-003   6.3448921358458532E-002
   5.1474353576949445E-003  -1.6293545750763194E-003   6.4092688755236549E-002
  -1.1000955701945259E-010  -3.6051994722896552E-010   6.0497280992805214E-002
  -1.1632836360853105E-010  -2.2685825440404983E-010   6.1422874702298180E-002
  -1.2264714938092780E-010  -1.2404306748425853E-010   6.2333789237619147E-002
  -1.2896594729638888E-010  -5.2074389939038568E-011   6.3230024598767851E-002
  -1.3528474174240301E-010  -1.0952128093322244E-011   6.4111580785744360E-002
   2.1731328619147464E-002  -6.5174182674488934E-003   6.3702264187046997E-002
   2.0957317442698298E-002  -6.2870329084458998E-003   6.3101961616144425E-002
   2.0183306266249125E-002  -6.0408748517229716E-003   6.2754303817479068E-002
   1.9409295089799956E-002  -5.7789440972803516E-003   6.2659290791050953E-002
   1.8635283913350786E-002  -5.5012406451178109E-003   6.2816922536859998E-002
   1.6013099734911052E-002  -4.8880637033247576E-003   6.3888030455887923E-002
   1.5476947837009508E-002  -4.7152746785970312E-003   6.3477007964603455E-002
   1.4940795939107951E-002  -4.5306561324780295E-003   6.3289059258176877E-002
   1.4404644041206397E-002  -4.3342080649679347E-003   6.3324184336608441E-002
   1.3868492143304857E-002  -4.1259304760666859E-003   6.3582383199897841E-002
   1.0485135314426883E-002  -3.2587091392005108E-003   6.4018171978617755E-002
   1.0157271707693667E-002  -3.1435164487481071E-003   6.3792486390622766E-002
   9.8294081009604548E-003  -3.0204374132331985E-003   6.3760303600106483E-002
   9.5015444942272501E-003  -2.8894720326556288E-003   6.3921623607068906E-002
   9.1736808874940332E-003  -2.7506203070154500E-003   6.4276446411509897E-002
   5.1474353576949445E-003  -1.6293545750763194E-003   6.4092688755236549E-002
   4.9982890547507937E-003  -1.5717582188992385E-003   6.4048396894202483E-002
   4.8491427518066472E-003  -1.5102186939883397E-003   6.4168036843267870E-002
   4.6999964488624955E-003  -1.4447360003431563E-003   6.4451608602432681E-002
   4.5508501459183507E-003  -1.3753101379641308E-003   6.4899112171696832E-002
  -1.3528474174240301E-010  -1.0952128093322244E-011   6.4111580785744360E-002
  -1.2181911382413979E-010   1.0949630091516838E-011   6.4244739475342594E-002
  -1.0835348590587657E-010   2.5256560731712341E-011   6.4512258987660970E-002
  -9.4887857987613344E-011   3.1969173835966203E-011   6.4914139322699474E-002
  -8.1422230069350121E-011   3.1086966334470389E-011   6.5450380480458148E-002
   1.8635283913350786E-002  -5.5012406451178109E-003   6.2816922536859998E-002
   1.7793623030040562E-002  -5.2149931777658587E-003   6.2465832793891840E-002
   1.6951962146730309E-002  -4.9274303777546991E-003   6.2337757361101170E-002
   1.6110301263420085E-002  -4.6385522450840891E-003   6.2432696238487823E-002
   1.5268640380109846E-002  -4.3483587797544798E-003   6.2750649426051908E-002
   1.3868492143304857E-002  -4.1259304760666859E-003   6.3582383199897841E-002
   1.3246695798815773E-002  -3.9112448768584829E-003   6.3301275115749345E-002
   1.2624899454326700E-002  -3.6955727784278858E-003   6.3236881799065781E-002
   1.2003103109837621E-002  -3.4789141807746102E-003   6.3389203249847204E-002
   1.1381306765348556E-002  -3.2612690838987324E-003   6.3758239468093447E-002
   9.1736808874940332E-003  -2.7506203070154500E-003   6.4276446411509897E-002
   8.7654495391136095E-003  -2.6074965759510516E-003   6.4064991152744555E-002
   8.3572181907331858E-003  -2.4637151791009476E-003   6.4063951118731519E-002
   7.9489868423527621E-003  -2.3192761164650168E-003   6.4273326309470830E-002
   7.5407554939723419E-003  -2.1741793880432625E-003   6.4693116724962668E-002
   4.5508501459183507E-003  -1.3753101379641308E-003   6.4899112171696832E-002
   4.3498842509340531E-003  -1.3037482750436202E-003   6.4756980904877554E-002
   4.1489183559497685E-003  -1.2318575797739054E-003   6.4818965320098426E-002
   3.9479524609654839E-003  -1.1596380521554251E-003   6.5085065417359034E-002
   3.7469865659811854E-003  -1.0870896921876538E-003   6.5555281196659487E-002
  -8.1422230069350121E-011   3.1086966334470389E-011   6.5450380480458148E-002
  -6.5722888936692314E-011   2.5863811092818878E-011   6.5377244372148535E-002
  -5.0023551273481459E-011   1.9552956476154293E-011   6.5501924403166267E-002
  -3.4324210140823652E-011   1.2154149214849141E-011   6.5824420573511358E-002
  -1.8624872477612797E-011   3.6678438064541297E-012   6.6344732883183877E-002
   1.5268640380109846E-002  -4.3483587797544798E-003   6.2750649426051908E-002
   1.4383869682376510E-002  -4.0513423215711719E-003   6.2523216799513559E-002
   1.3499098984643181E-002  -3.7419952103401599E-003   6.2511653436174486E-002
   1.2614328286909861E-002  -3.4203174460610622E-003   6.2715959336034743E-002
   1.1729557589176515E-002  -3.0863090287345241E-003   6.3136134499094276E-002
   1.1381306765348556E-002  -3.2612690838987324E-003   6.3758239468093447E-002
   1.0713736184209614E-002  -3.0385067422056822E-003   6.3589709360065250E-002
   1.0046165603070679E-002  -2.8064964101008338E-003   6.3639710222026691E-002
   9.3785950219317481E-003  -2.5652380875835351E-003   6.3908242053977674E-002
   8.7110244407928167E-003  -2.3147317746541884E-003   6.4395304855917990E-002
   7.5407554939723419E-003  -2.1741793880432625E-003   6.4693116724962668E-002
   7.0930467362180886E-003  -2.0256711628404978E-003   6.4580406472808993E-002
   6.6453379784638614E-003  -1.8709976098614384E-003   6.4688888897435154E-002
   6.1976292207096230E-003  -1.7101587291057825E-003   6.5018563998841122E-002
   5.7499204629553810E-003  -1.5431545205740749E-003   6.5569431777027010E-002
   3.7469865659811854E-003  -1.0870896921876538E-003   6.5555281196659487E-002
   3.5218013384019494E-003  -1.0128355834752162E-003   6.5495308137744415E-002
   3.2966161108226974E-003  -9.3549880962196658E-004   6.5659189462399625E-002
   3.0714308832434541E-003  -8.5507937062836471E-004   6.6046925170624896E-002
   2.8462456556642025E-003  -7.7157726649373926E-004   6.6658515262420406E-002
  -1.8624872477612797E-011   3.6678438064541297E-012   6.6344732883183877E-002
  -9.2388284522737507E-012  -4.1098235925574045E-012   6.6334414354871862E-002
   1.4721904251224771E-013  -9.3826890701365073E-012   6.6550611916920355E-002
   9.5332682720217221E-012  -1.2150579153935581E-011   6.6993325569329243E-002
   1.8919310562637293E-011  -1.2413736705241263E-011   6.7662555312098638E-002
   1.1729557589176515E-002  -3.0863090287345241E-003   6.3136134499094276E-002
   1.0767310852833875E-002  -2.7559149296414454E-003   6.3026335663522837E-002
   9.8050641164912217E-003  -2.4450801200634475E-003   6.3164149106152478E-002
   8.8428173801485682E-003  -2.1538046000003502E-003   6.3549574826983257E-002
   7.8805706438059286E-003  -1.8820883694521395E-003   6.4182612826014895E-002
   8.7110244407928167E-003  -2.3147317746541884E-003   6.4395304855917990E-002
   7.9946273339044083E-003  -2.0669362000461655E-003   6.4324058163861775E-002
   7.2782302270160068E-003  -1.8338100924921302E-003   6.4496898452512885E-002
   6.5618331201276157E-003  -1.6153534519928910E-003   6.4913825721871377E-002
   5.8454360132391969E-003  -1.4115662785475491E-003   6.5574839971937304E-002
   5.7499204629553810E-003  -1.5431545205740749E-003   6.5569431777027010E-002
   5.2758476880277322E-003  -1.3779574704508857E-003   6.5541627050946058E-002
   4.8017749131000938E-003  -1.2225400649212570E-003   6.5754384008079148E-002
   4.3277021381724519E-003  -1.0769023039852096E-003   6.6207702648426195E-002
   3.8536293632448065E-003  -9.4104418764295872E-004   6.6901582971987339E-002
   2.8462456556642025E-003  -7.7157726649373926E-004   6.6658515262420406E-002
   2.6109719152038295E-003  -6.8897874085560584E-004   6.6679042324775673E-002
   2.3756981747434574E-003  -6.1127003735032825E-004   6.6936605772851543E-002
   2.1404244342830775E-003  -5.3845115597775037E-004   6.7431205606647934E-002
   1.9051506938226985E-003  -4.7052209673831280E-004   6.8162841826165027E-002
   1.8919310562637293E-011  -1.2413736705241263E-011   6.7662555312098638E-002
   1.5432703726059316E-011  -1.1260437027260650E-011   6.7736303985350854E-002
   1.1946107297822195E-011  -9.7791219566545351E-012   6.8043563746830238E-002
   8.4595056654146461E-012  -7.9703049715718066E-012   6.8584334596536428E-002
   4.9729040330070973E-012  -5.8337779051953476E-012   6.9358616534469841E-002
   7.8805706438059286E-003  -1.8820883694521395E-003   6.4182612826014895E-002
   6.9488175098788019E-003  -1.6747495216015151E-003   6.4088493167805627E-002
   6.0170643759516751E-003  -1.5766061496310657E-003   6.4245765390442577E-002
   5.0853112420245275E-003  -1.5876582535398198E-003   6.4654429493925636E-002
   4.1535581080974215E-003  -1.7079058333289154E-003   6.5314485478255135E-002
   5.8454360132391969E-003  -1.4115662785475491E-003   6.5574839971937304E-002
   5.1604613607595731E-003  -1.2560621421535134E-003   6.5423888853437751E-002
   4.4754867082799354E-003  -1.1824546128076097E-003   6.5515102816986970E-002
   3.7905120558002943E-003  -1.1907436905094146E-003   6.5848481862584962E-002
   3.1055374033206601E-003  -1.2809293752595874E-003   6.6424025990231672E-002
   3.8536293632448065E-003  -9.4104418764295872E-004   6.6901582971987339E-002
   3.4062063934152259E-003  -8.3737476270556721E-004   6.6721099262029293E-002
   2.9587834235856592E-003  -7.8830307598437566E-004   6.6773553835322463E-002
   2.5113604537560837E-003  -7.9382912747934242E-004   6.7058946691867155E-002
   2.0639374839265118E-003  -8.5395291719037036E-004   6.7577277831663063E-002
   1.9051506938226985E-003  -4.7052209673831280E-004   6.8162841826165027E-002
   1.6860526078457672E-003  -4.1868738325759325E-004   6.7980124393580088E-002
   1.4669545218688376E-003  -3.9415153916097512E-004   6.8021118445449266E-002
   1.2478564358918997E-003  -3.9691456444888168E-004   6.8285823981772270E-002
   1.0287583499149627E-003  -4.2697645912126436E-004   6.8774241002549280E-002
   4.9729040330070973E-012  -5.8337779051953476E-012   6.9358616534469841E-002
   4.0511830001754845E-012  -3.8095637755475309E-012   6.9200964248090302E-002
   3.1294584978969198E-012  -2.3377688673775765E-012   6.9257796647367087E-002
   2.2077339956183550E-012  -1.4186637975477367E-012   6.9529113732300418E-002
   1.2860129627867423E-012  -1.0518252935298733E-012   7.0014915502890296E-002
   4.1535581080974215E-003  -1.7079058333289154E-003   6.5314485478255135E-002
   3.6241201873405404E-003  -1.9993279190114732E-003   6.4400299609942091E-002
   3.0946822665836593E-003  -2.5239035406015020E-003   6.3604557872565137E-002
   2.5652443458267712E-003  -3.2816326980983357E-003   6.2927260266124607E-002
   2.0358064250698971E-003  -4.2725153915024183E-003   6.2368406790620945E-002
   3.1055374033206601E-003  -1.2809293752595874E-003   6.6424025990231672E-002
   2.6980224508002804E-003  -1.4994959395004948E-003   6.5315730400680894E-002
   2.2905074982799284E-003  -1.8929276556748365E-003   6.4332836616666833E-002
   1.8829925457595591E-003  -2.4612245237820296E-003   6.3475344638189268E-002
   1.4754775932391967E-003  -3.2043865438228236E-003   6.2743254465248310E-002
   2.0639374839265118E-003  -8.5395291719037036E-004   6.7577277831663063E-002
   1.7853031742428652E-003  -9.9966395998946078E-004   6.6333160904848615E-002
   1.5066688645592255E-003  -1.2619517707479488E-003   6.5221403458171012E-002
   1.2280345548755876E-003  -1.6408163494659456E-003   6.4242005491630172E-002
   9.4940024519193922E-004  -2.1362576961433399E-003   6.3394967005226177E-002
   1.0287583499149627E-003  -4.2697645912126436E-004   6.8774241002549280E-002
   8.8596235766827229E-004  -4.9983198047828803E-004   6.7452591122444908E-002
   7.4316636542158879E-004  -6.3097588582095021E-004   6.6270258397077869E-002
   6.0037037317489444E-004  -8.2040817514952846E-004   6.5227242826447374E-002
   4.5757438092820096E-004  -1.0681288484635787E-003   6.4323544410554503E-002
   1.2860129627867423E-012  -1.0518252935298733E-012   7.0014915502890296E-002
   1.0764930613582635E-012  -9.6739283250713015E-013   6.8674021053469980E-002
   8.6697662937673670E-013  -8.9447893536487300E-013   6.7479401433387154E-002
   6.5745672794825794E-013  -8.3357626357027925E-013   6.6431056642641512E-002
   4.4794029596673113E-013  -7.8415052229274806E-013   6.5528986681233081E-002
   2.0358064250698971E-003  -4.2725153915024183E-003   6.2368406790620945E-002
   2.2857591977908931E-003  -5.5760224619089138E-003   5.8337676708122732E-002
   2.5357119705118891E-003  -7.2716247504129305E-003   5.4301923983916200E-002
   2.7856647432328643E-003  -9.3593222570128448E-003   5.0261148618001072E-002
   3.0356175159538812E-003  -1.1839114981710530E-002   4.6215350610377293E-002
   1.4754775932391967E-003  -3.2043865438228236E-003   6.2743254465248310E-002
   1.7060413363817889E-003  -4.1820168466308871E-003   5.8389326162814836E-002
   1.9366050795244089E-003  -5.4537185630393892E-003   5.4001642442933484E-002
   2.1671688226670115E-003  -7.0194916930489265E-003   4.9580203305603726E-002
   2.3977325658096071E-003  -8.8793362366588191E-003   4.5125008750825035E-002
   9.4940024519193922E-004  -2.1362576961433399E-003   6.3394967005226177E-002
   1.1318421830164294E-003  -2.7880112313525829E-003   5.8815864287353803E-002
   1.3142841208409056E-003  -3.6358123756665417E-003   5.4174273376293686E-002
   1.4967260586653906E-003  -4.6796611290846266E-003   4.9470194272045659E-002
   1.6791679964898720E-003  -5.9195574916075522E-003   4.4703626974608945E-002
   4.5757438092820096E-004  -1.0681288484635787E-003   6.4323544410554503E-002
   5.6316173769480234E-004  -1.3940056160743064E-003   5.9617291081739507E-002
   6.6874909446141065E-004  -1.8179061882934583E-003   5.4819816783996576E-002
   7.7433645122800378E-004  -2.3398305651207395E-003   4.9931121517326038E-002
   8.7992380799459258E-004  -2.9597787465559522E-003   4.4951205281727746E-002
   4.4794029596673113E-013  -7.8415052229274806E-013   6.5528986681233081E-002
   4.1693037911016972E-013  -7.9625195326116227E-013   6.0793606545971546E-002
   3.8592046225360832E-013  -9.2023610953617663E-013   5.5938272666042732E-002
   3.5490534122661899E-013  -1.1564291191312748E-012   5.0962985041446834E-002
   3.2389368964658161E-013  -1.5045742429720121E-012   4.5867743672182826E-002
  -1.1000955701945259E-010  -3.6051994722896552E-010   6.0497280992805214E-002
  -1.1632836360853105E-010  -2.2685825440404983E-010   6.1422874702298180E-002
  -1.2264714938092780E-010  -1.2404306748425853E-010   6.2333789237619147E-002
  -1.2896594729638888E-010  -5.2074389939038568E-011   6.3230024598767851E-002
  -1.3528474174240301E-010  -1.0952128093322244E-011   6.4111580785744360E-002
  -5.2763572790755567E-003   1.8420171250018713E-003   6.1992459355461910E-002
  -5.2441268632853616E-003   1.7906957962730563E-003   6.2398806664889062E-002
  -5.2118964474951717E-003   1.7381449243015767E-003   6.2884293992706577E-002
  -5.1796660317049836E-003   1.6843645090876339E-003   6.3448921338914277E-002
  -5.1474356159147937E-003   1.6293545506311791E-003   6.4092688703512035E-002
  -1.1118255657444094E-002   3.6840346105237454E-003   6.3436931011926087E-002
  -1.0959975626982525E-002   3.5813918194042976E-003   6.3322802408891488E-002
  -1.0801695596520954E-002   3.4762899726462834E-003   6.3381633016809463E-002
  -1.0643415566059388E-002   3.3687290702496871E-003   6.3613422835679861E-002
  -1.0485135535597816E-002   3.2587091122144862E-003   6.4018171865503001E-002
  -1.7525695245115186E-002   5.5260520960455778E-003   6.4830695962197815E-002
  -1.7147546407419834E-002   5.3720878425355043E-003   6.4194861934305236E-002
  -1.6769397569724492E-002   5.2144350209909589E-003   6.3825806309927569E-002
  -1.6391248732029150E-002   5.0530936314116702E-003   6.3723529089064881E-002
  -1.6013099894333808E-002   4.8880636737978211E-003   6.3888030271717244E-002
  -2.4498676042088822E-002   7.3680695815674380E-003   6.6173754206276969E-002
  -2.3806839204597301E-002   7.1627838656668774E-003   6.5014985241130308E-002
  -2.3115002367105789E-002   6.9525800693355927E-003   6.4216813872061046E-002
  -2.2423165529614278E-002   6.7374581925737399E-003   6.3779240099069254E-002
  -2.1731328692122770E-002   6.5174182353811005E-003   6.3702263922154723E-002
  -1.3528474174240301E-010  -1.0952128093322244E-011   6.4111580785744360E-002
  -1.2181911382413979E-010   1.0949630091516838E-011   6.4244739475342594E-002
  -1.0835348590587657E-010   2.5256560731712341E-011   6.4512258987660970E-002
  -9.4887857987613344E-011   3.1969173835966203E-011   6.4914139322699474E-002
  -8.1422230069350121E-011   3.1086966334470389E-011   6.5450380480458148E-002
  -5.1474356159147937E-003   1.6293545506311791E-003   6.4092688703512035E-002
  -4.9982892872242422E-003   1.5717582300866922E-003   6.4048396852298115E-002
  -4.8491429585336924E-003   1.5102187286086949E-003   6.4168036808813750E-002
  -4.6999966298431374E-003   1.4447360461971627E-003   6.4451608573059205E-002
  -4.5508503011525911E-003   1.3753101828521963E-003   6.4899112145034299E-002
  -1.0485135535597816E-002   3.2587091122144862E-003   6.4018171865503001E-002
  -1.0157271906672771E-002   3.1435164492238099E-003   6.3792486300137882E-002
  -9.8294082777477219E-003   3.0204374319606694E-003   6.3760303527512052E-002
  -9.5015446488226733E-003   2.8894720604252088E-003   6.3921623547625456E-002
  -9.1736810198976195E-003   2.7506203346172320E-003   6.4276446360478232E-002
  -1.6013099894333808E-002   4.8880636737978211E-003   6.3888030271717244E-002
  -1.5476947980164690E-002   4.7152746683608998E-003   6.3477007818862022E-002
  -1.4940796065995573E-002   4.5306561353127238E-003   6.3289059143755710E-002
  -1.4404644151826466E-002   4.3342080746531708E-003   6.3324184246398185E-002
  -1.3868492237657345E-002   4.1259304863823926E-003   6.3582383126789543E-002
  -2.1731328692122770E-002   6.5174182353811005E-003   6.3702263922154723E-002
  -2.0957317507700024E-002   6.2870328874980175E-003   6.3101961408470603E-002
  -2.0183306323277264E-002   6.0408748386647504E-003   6.2754303657544835E-002
  -1.9409295138854497E-002   5.7789440888812091E-003   6.2659290669377532E-002
  -1.8635283954431751E-002   5.5012406381474421E-003   6.2816922443968637E-002
  -8.1422230069350121E-011   3.1086966334470389E-011   6.5450380480458148E-002
  -6.5722888936692314E-011   2.5863811092818878E-011   6.5377244372148535E-002
  -5.0023551273481459E-011   1.9552956476154293E-011   6.5501924403166267E-002
  -3.4324210140823652E-011   1.2154149214849141E-011   6.5824420573511358E-002
  -1.8624872477612797E-011   3.6678438064541297E-012   6.6344732883183877E-002
  -4.5508503011525911E-003   1.3753101828521963E-003   6.4899112145034299E-002
  -4.3498843762939544E-003   1.3037483120215410E-003   6.4756980889979388E-002
  -4.1489184514353159E-003   1.2318576071538856E-003   6.4818965313915761E-002
  -3.9479525265766766E-003   1.1596380682486057E-003   6.5085065416843252E-002
  -3.7469866017180407E-003   1.0870896953061870E-003   6.5555281198762139E-002
  -9.1736810198976195E-003   2.7506203346172320E-003   6.4276446360478232E-002
  -8.7654496462158428E-003   2.6074965981795206E-003   6.4064991125728360E-002
  -8.3572182725340574E-003   2.4637151947549327E-003   6.4063951109633505E-002
  -7.9489868988522824E-003   2.3192761243431750E-003   6.4273326312193804E-002
  -7.5407555251704936E-003   2.1741793869444748E-003   6.4693116733409078E-002
  -1.3868492237657345E-002   4.1259304863823926E-003   6.3582383126789543E-002
  -1.3246695875488566E-002   3.9112448843376807E-003   6.3301275079395120E-002
  -1.2624899513319781E-002   3.6955727823559208E-003   6.3236881790319541E-002
  -1.2003103151151008E-002   3.4789141804376878E-003   6.3389203259562960E-002
  -1.1381306788982222E-002   3.2612690785829013E-003   6.3758239487125307E-002
  -1.8635283954431751E-002   5.5012406381474421E-003   6.2816922443968637E-002
  -1.7793623064112130E-002   5.2149931704952857E-003   6.2465832750979888E-002
  -1.6951962173792495E-002   4.9274303699568534E-003   6.2337757355974022E-002
  -1.6110301283472857E-002   4.6385522365321313E-003   6.2432696258950787E-002
  -1.5268640393153239E-002   4.3483587702210502E-003   6.2750649459910435E-002
  -1.8624872477612797E-011   3.6678438064541297E-012   6.6344732883183877E-002
  -9.2388284522737507E-012  -4.1098235925574045E-012   6.6334414354871862E-002
   1.4721904251224771E-013  -9.3826890701365073E-012   6.6550611916920355E-002
   9.5332682720217221E-012  -1.2150579153935581E-011   6.6993325569329243E-002
   1.8919310562637293E-011  -1.2413736705241263E-011   6.7662555312098638E-002
  -3.7469866017180407E-003   1.0870896953061870E-003   6.5555281198762139E-002
  -3.5218013562824963E-003   1.0128355747900386E-003   6.5495308146477083E-002
  -3.2966161108469606E-003   9.3549879316368045E-004   6.5659189475930968E-002
  -3.0714308654114187E-003   8.5507935042730687E-004   6.6046925187123379E-002
  -2.8462456199758734E-003   7.7157724658089011E-004   6.6658515280054176E-002
  -7.5407555251704936E-003   2.1741793869444748E-003   6.4693116733409078E-002
  -7.0930467523073375E-003   2.0256711536897898E-003   6.4580406493536580E-002
  -6.6453379794441892E-003   1.8709975957099806E-003   6.4688888926780652E-002
  -6.1976292065810470E-003   1.7101587130051339E-003   6.5018564033141379E-002
  -5.7499204337178849E-003   1.5431545055752394E-003   6.5569431812618900E-002
  -1.1381306788982222E-002   3.2612690785829013E-003   6.3758239487125307E-002
  -1.0713736197313346E-002   3.0385067325895965E-003   6.3589709396049965E-002
  -1.0046165605644485E-002   2.8064963982562599E-003   6.3639710269469310E-002
  -9.3785950139756175E-003   2.5652380755829349E-003   6.3908242107383495E-002
  -8.7110244223067498E-003   2.3147317645696164E-003   6.4395304909792339E-002
  -1.5268640393153239E-002   4.3483587702210502E-003   6.2750649459910435E-002
  -1.4383869691300545E-002   4.0513423114892921E-003   6.2523216854017294E-002
  -1.3499098989447834E-002   3.7419952008025809E-003   6.2511653503996983E-002
  -1.2614328287595138E-002   3.4203174381608852E-003   6.2715959409849711E-002
  -1.1729557585742435E-002   3.0863090235641044E-003   6.3136134571575075E-002
   1.8919310562637293E-011  -1.2413736705241263E-011   6.7662555312098638E-002
   1.5432703726059316E-011  -1.1260437027260650E-011   6.7736303985350854E-002
   1.1946107297822195E-011  -9.7791219566545351E-012   6.8043563746830238E-002
   8.4595056654146461E-012  -7.9703049715718066E-012   6.8584334596536428E-002
   4.9729040330070973E-012  -5.8337779051953476E-012   6.9358616534469841E-002
  -2.8462456199758734E-003   7.7157724658089011E-004   6.6658515280054176E-002
  -2.6109718861006825E-003   6.8897872338458122E-004   6.6679042338963601E-002
  -2.3756981522254882E-003   6.1127002259937779E-004   6.6936605784369552E-002
  -2.1404244183502886E-003   5.3845114422422860E-004   6.7431205616272333E-002
  -1.9051506844751029E-003   4.7052208826037223E-004   6.8162841834671362E-002
  -5.7499204337178849E-003   1.5431545055752394E-003   6.5569431812618900E-002
  -5.2758476642113718E-003   1.3779574580295439E-003   6.5541627079268319E-002
  -4.8017748947048597E-003   1.2225400549776555E-003   6.5754384030683954E-002
  -4.3277021251983405E-003   1.0769022964192063E-003   6.6207702666865639E-002
  -3.8536293556918205E-003   9.4104418235441134E-004   6.6901582987813318E-002
  -8.7110244223067498E-003   2.3147317645696164E-003   6.4395304909792339E-002
  -7.9946273188993659E-003   2.0669361926746455E-003   6.4324058206265050E-002
  -7.2782302154920028E-003   1.8338100873558222E-003   6.4496898485773252E-002
  -6.5618331120846189E-003   1.6153534486140174E-003   6.4913825748317125E-002
  -5.8454360086772558E-003   1.4115662764484505E-003   6.5574839993896600E-002
  -1.1729557585742435E-002   3.0863090235641044E-003   6.3136134571575075E-002
  -1.0767310850164691E-002   2.7559149273193029E-003   6.3026335719953641E-002
  -9.8050641145869186E-003   2.4450801197344330E-003   6.3164149149637361E-002
  -8.8428173790091602E-003   2.1538046008089395E-003   6.3549574860626151E-002
  -7.8805706434314018E-003   1.8820883705426006E-003   6.4182612852920373E-002
   4.9729040330070973E-012  -5.8337779051953476E-012   6.9358616534469841E-002
   4.0511830001754845E-012  -3.8095637755475309E-012   6.9200964248090302E-002
   3.1294584978969198E-012  -2.3377688673775765E-012   6.9257796647367087E-002
   2.2077339956183550E-012  -1.4186637975477367E-012   6.9529113732300418E-002
   1.2860129627867423E-012  -1.0518252935298733E-012   7.0014915502890296E-002
  -1.9051506844751029E-003   4.7052208826037223E-004   6.8162841834671362E-002
  -1.6860526002272953E-003   4.1868737777878140E-004   6.7980124400036868E-002
  -1.4669545159794930E-003   3.9415153585170559E-004   6.8021118450085100E-002
  -1.2478564317316854E-003   3.9691456247913093E-004   6.8285823984815905E-002
  -1.0287583474838831E-003   4.2697645766076597E-004   6.8774241004229075E-002
  -3.8536293556918205E-003   9.4104418235441134E-004   6.6901582987813318E-002
  -3.4062063872484331E-003   8.3737475936720984E-004   6.6721099274031304E-002
  -2.9587834188050536E-003   7.8830307404127720E-004   6.6773553843957709E-002
  -2.5113604503616636E-003   7.9382912637670014E-004   6.7058946697592686E-002
  -2.0639374819182866E-003   8.5395291637346826E-004   6.7577277834936250E-002
  -5.8454360086772558E-003   1.4115662764484505E-003   6.5574839993896600E-002
  -5.1604613570122426E-003   1.2560621409554856E-003   6.5423888870073346E-002
  -4.4754867053472137E-003   1.1824546122310778E-003   6.5515102828984886E-002
  -3.7905120536822000E-003   1.1907436902741601E-003   6.5848481870631234E-002
  -3.1055374020171720E-003   1.2809293750860595E-003   6.6424025995011904E-002
  -7.8805706434314018E-003   1.8820883705426006E-003   6.4182612852920373E-002
  -6.9488175095186941E-003   1.6747495225438169E-003   6.4088493188163120E-002
  -6.0170643756059863E-003   1.5766061504202955E-003   6.4245765405166855E-002
  -5.0853112416932803E-003   1.5876582541721682E-003   6.4654429503931216E-002
  -4.1535581077805708E-003   1.7079058337988728E-003   6.5314485484456175E-002
   1.2860129627867423E-012  -1.0518252935298733E-012   7.0014915502890296E-002
   1.0764930613582635E-012  -9.6739283250713015E-013   6.8674021053469980E-002
   8.6697662937673670E-013  -8.9447893536487300E-013   6.7479401433387154E-002
   6.5745672794825794E-013  -8.3357626357027925E-013   6.6431056642641512E-002
   4.4794029596673113E-013  -7.8415052229274806E-013   6.5528986681233081E-002
  -1.0287583474838831E-003   4.2697645766076597E-004   6.8774241004229075E-002
  -8.8596235563001557E-004   4.9983197909769794E-004   6.7452591123842387E-002
  -7.4316636377612724E-004   6.3097588449040343E-004   6.6270258398245380E-002
  -6.0037037192225105E-004   8.2040817383875753E-004   6.5227242827438095E-002
  -4.5757438006838527E-004   1.0681288471435790E-003   6.4323544411419742E-002
  -2.0639374819182866E-003   8.5395291637346826E-004   6.7577277834936250E-002
  -1.7853031725487845E-003   9.9966395916253892E-004   6.6333160907551009E-002
  -1.5066688631792955E-003   1.2619517698752719E-003   6.5221403460407598E-002
  -1.2280345538098003E-003   1.6408163485113099E-003   6.4242005493505866E-002
  -9.4940024444029048E-004   2.1362576950710310E-003   6.3394967006845909E-002
  -3.1055374020171720E-003   1.2809293750860595E-003   6.6424025995011904E-002
  -2.6980224496798450E-003   1.4994959392277268E-003   6.5315730404595609E-002
  -2.2905074973425116E-003   1.8929276552600363E-003   6.4332836619873296E-002
  -1.8829925450051714E-003   2.4612245231835309E-003   6.3475344640844811E-002
  -1.4754775926678516E-003   3.2043865429985108E-003   6.2743254467510307E-002
  -4.1535581077805708E-003   1.7079058337988728E-003   6.5314485484456175E-002
  -3.6241201870231693E-003   1.9993279192924152E-003   6.4400299614976619E-002
  -3.0946822662657816E-003   2.5239035406451615E-003   6.3604557876642820E-002
  -2.5652443455083905E-003   3.2816326978560642E-003   6.2927260269455360E-002
  -2.0358064247509924E-003   4.2725153909259905E-003   6.2368406793414044E-002
   4.4794029596673113E-013  -7.8415052229274806E-013   6.5528986681233081E-002
   4.1693037911016972E-013  -7.9625195326116227E-013   6.0793606545971546E-002
   3.8592046225360832E-013  -9.2023610953617663E-013   5.5938272666042732E-002
   3.5490534122661899E-013  -1.1564291191312748E-012   5.0962985041446834E-002
   3.2389368964658161E-013  -1.5045742429720121E-012   4.5867743672182826E-002
  -4.5757438006838527E-004   1.0681288471435790E-003   6.4323544411419742E-002
  -5.6316173688889665E-004   1.3940056146440338E-003   5.9617291082342705E-002
  -6.6874909370940976E-004   1.8179061865798984E-003   5.4819816784354047E-002
  -7.7433645052992200E-004   2.3398305629514921E-003   4.9931121517453519E-002
  -8.7992380735042036E-004   2.9597787437580791E-003   4.4951205281642093E-002
  -9.4940024444029048E-004   2.1362576950710310E-003   6.3394967006845909E-002
  -1.1318421822943542E-003   2.7880112300839865E-003   5.8815864288500275E-002
  -1.3142841201483971E-003   3.6358123740800191E-003   5.4174273376999330E-002
  -1.4967260580024517E-003   4.6796611270591877E-003   4.9470194272342817E-002
  -1.6791679958565037E-003   5.9195574890211766E-003   4.4703626974530453E-002
  -1.4754775926678516E-003   3.2043865429985108E-003   6.2743254467510307E-002
  -1.7060413357994544E-003   4.1820168455237727E-003   5.8389326164444047E-002
  -1.9366050789310502E-003   5.4537185615801467E-003   5.4001642443978412E-002
  -2.1671688220626707E-003   7.0194916911665520E-003   4.9580203306113145E-002
  -2.3977325651942487E-003   8.8793362342839410E-003   4.5125008750847934E-002
  -2.0358064247509924E-003   4.2725153909259905E-003   6.2368406793414044E-002
  -2.2857591974041885E-003   5.5760224609638920E-003   5.8337676710174424E-002
  -2.5357119700573742E-003   7.2716247490804964E-003   5.4301923985291101E-002
  -2.7856647427105790E-003   9.3593222552750266E-003   5.0261148618764462E-002
  -3.0356175153637560E-003   1.1839114979546927E-002   4.6215350610594008E-002
  -2.4498676042088822E-002   7.3680695815674380E-003   6.6173754206276969E-002
  -2.3806839204597301E-002   7.1627838656668774E-003   6.5014985241130308E-002
  -2.3115002367105789E-002   6.9525800693355927E-003   6.4216813872061046E-002
  -2.2423165529614278E-002   6.7374581925737399E-003   6.3779240099069254E-002
  -2.1731328692122770E-002   6.5174182353811005E-003   6.3702263922154723E-002
  -3.1587370662876861E-002   9.1735989525760231E-003   6.1675479483288165E-002
  -3.0559954608907123E-002   8.9612505367158979E-003   6.0811488161750388E-002
  -2.9532538554937381E-002   8.7251851243546757E-003   6.0258057677091609E-002
  -2.8505122500967636E-002   8.4654027154924365E-003   6.0015188029312050E-002
  -2.7477706446997881E-002   8.1819033101291627E-003   6.0082879218411461E-002
  -3.8341951721991174E-002   1.0979128323584608E-002   5.7179541518375301E-002
  -3.7028993210741504E-002   1.0759717207764891E-002   5.6591528924375759E-002
  -3.5716034699491750E-002   1.0497790179373780E-002   5.6264040408057180E-002
  -3.4403076188242093E-002   1.0193347238411187E-002   5.6197075969419336E-002
  -3.3090117676992353E-002   9.8463883848772249E-003   5.6390635608462386E-002
  -4.4762419219431804E-002   1.2784657694593179E-002   5.2685940311537768E-002
  -4.3213955010100370E-002   1.2558183878813911E-002   5.2355107529006392E-002
  -4.1665490800768999E-002   1.2270395234392845E-002   5.2234762064957446E-002
  -4.0117026591437580E-002   1.1921291761329993E-002   5.2324903919391146E-002
  -3.8568562382106195E-002   1.1510873459625287E-002   5.2625533092307310E-002
  -5.0848773155198645E-002   1.4590187065601778E-002   4.8194675862776093E-002
  -4.9114840006983823E-002   1.4356650549862904E-002   4.8102223975642344E-002
  -4.7380906858769015E-002   1.4043000289411980E-002   4.8170222647792665E-002
  -4.5646973710554199E-002   1.3649236284248679E-002   4.8398671879227487E-002
  -4.3913040562339370E-002   1.3175358534373349E-002   4.8787571669946461E-002
  -2.1731328692122770E-002   6.5174182353811005E-003   6.3702263922154723E-002
  -2.0957317507700024E-002   6.2870328874980175E-003   6.3101961408470603E-002
  -2.0183306323277264E-002   6.0408748386647504E-003   6.2754303657544835E-002
  -1.9409295138854497E-002   5.7789440888812091E-003   6.2659290669377532E-002
  -1.8635283954431751E-002   5.5012406381474421E-003   6.2816922443968637E-002
  -2.7477706446997881E-002   8.1819033101291627E-003   6.0082879218411461E-002
  -2.6463722818059594E-002   7.8812628025826253E-003   5.9590701956957245E-002
  -2.5449739189121315E-002   7.5700570871710740E-003   5.9325824821775772E-002
  -2.4435755560182997E-002   7.2482861638939484E-003   5.9288247812866908E-002
  -2.3421771931244756E-002   6.9159500327516388E-003   5.9477970930230550E-002
  -3.3090117676992353E-002   9.8463883848772249E-003   5.6390635608462386E-002
  -3.1861506240024318E-002   9.4754927176673581E-003   5.6011791092323120E-002
  -3.0632894803056275E-002   9.0992393356772866E-003   5.5834902065970693E-002
  -2.9404283366088232E-002   8.7176282389067432E-003   5.5859968529405231E-002
  -2.8175671929120179E-002   8.3306594273559742E-003   5.6086990482626553E-002
  -3.8568562382106195E-002   1.1510873459625287E-002   5.2625533092307310E-002
  -3.7150667773594166E-002   1.1069722632752195E-002   5.2365228814567871E-002
  -3.5732773165082166E-002   1.0628421584183471E-002   5.2281535390129710E-002
  -3.4314878556570109E-002   1.0186970313919566E-002   5.2374452818992646E-002
  -3.2896983948058137E-002   9.7453688219602402E-003   5.2643981101156367E-002
  -4.3913040562339370E-002   1.3175358534373349E-002   4.8787571669946461E-002
  -4.2331207418769154E-002   1.2663952547836699E-002   4.8651015123692021E-002
  -4.0749374275198931E-002   1.2157603832689767E-002   4.8665724794252740E-002
  -3.9167541131628722E-002   1.1656312388932291E-002   4.8831700681628884E-002
  -3.7585707988058520E-002   1.1160078216564506E-002   4.9148942785820382E-002
  -1.8635283954431751E-002   5.5012406381474421E-003   6.2816922443968637E-002
  -1.7793623064112130E-002   5.2149931704952857E-003   6.2465832750979888E-002
  -1.6951962173792495E-002   4.9274303699568534E-003   6.2337757355974022E-002
  -1.6110301283472857E-002   4.6385522365321313E-003   6.2432696258950787E-002
  -1.5268640393153239E-002   4.3483587702210502E-003   6.2750649459910435E-002
  -2.3421771931244756E-002   6.9159500327516388E-003   5.9477970930230550E-002
  -2.2362116143320558E-002   6.5752471307026217E-003   5.9150707982384060E-002
  -2.1302460355396364E-002   6.2283758947059426E-003   5.9036420531764000E-002
  -2.0242804567472177E-002   5.8753363247612579E-003   5.9135108578370205E-002
  -1.9183148779547972E-002   5.5161284208689043E-003   5.9446772122202729E-002
  -2.8175671929120179E-002   8.3306594273559742E-003   5.6086990482626553E-002
  -2.6908060044347860E-002   7.9355010909102630E-003   5.5778701278860768E-002
  -2.5640448159575537E-002   7.5293214194550873E-003   5.5673348771564823E-002
  -2.4372836274803227E-002   7.1121204129905510E-003   5.5770932960738803E-002
  -2.3105224390030897E-002   6.6838980715165641E-003   5.6071453846382721E-002
  -3.2896983948058137E-002   9.7453688219602402E-003   5.2643981101156367E-002
  -3.1431454767194111E-002   9.2957550511177794E-003   5.2349812640409679E-002
  -2.9965925586330058E-002   8.8302669442042320E-003   5.2248542075376471E-002
  -2.8500396405466030E-002   8.3489045012197609E-003   5.2340169406056805E-002
  -2.7034867224601987E-002   7.8516677221642101E-003   5.2624694632450550E-002
  -3.7585707988058520E-002   1.1160078216564506E-002   4.9148942785820382E-002
  -3.5932300311859192E-002   1.0656009011325185E-002   4.8864042067031155E-002
  -3.4278892635659891E-002   1.0131212468953293E-002   4.8762000443198977E-002
  -3.2625484959460577E-002   9.5856885894489638E-003   4.8842817914324044E-002
  -3.0972077283261276E-002   9.0194373728119670E-003   4.9106494480405938E-002
  -1.5268640393153239E-002   4.3483587702210502E-003   6.2750649459910435E-002
  -1.4383869691300545E-002   4.0513423114892921E-003   6.2523216854017294E-002
  -1.3499098989447834E-002   3.7419952008025809E-003   6.2511653503996983E-002
  -1.2614328287595138E-002   3.4203174381608852E-003   6.2715959409849711E-002
  -1.1729557585742435E-002   3.0863090235641044E-003   6.3136134571575075E-002
  -1.9183148779547972E-002   5.5161284208689043E-003   5.9446772122202729E-002
  -1.8086286614099674E-002   5.1490491543604577E-003   5.9197041978324511E-002
  -1.6989424448651320E-002   4.7723954965677162E-003   5.9155625505764753E-002
  -1.5892562283203002E-002   4.3861674474907908E-003   5.9322522704523400E-002
  -1.4795700117754673E-002   3.9903650071299035E-003   5.9697733574600287E-002
  -2.3105224390030897E-002   6.6838980715165641E-003   5.6071453846382721E-002
  -2.1803826345541462E-002   6.2467559972311792E-003   5.5802182425190361E-002
  -2.0502428301052030E-002   5.8027957923327475E-003   5.5733669090762043E-002
  -1.9201030256562595E-002   5.3520174568208092E-003   5.5865913843097303E-002
  -1.7899632212073167E-002   4.8944209906958691E-003   5.6198916682196703E-002
  -2.7034867224601987E-002   7.8516677221642101E-003   5.2624694632450550E-002
  -2.5536488885625999E-002   7.3444628401020118E-003   5.2338638194614956E-002
  -2.4038110546649945E-002   6.8331960880976088E-003   5.2245784258988882E-002
  -2.2539732207673930E-002   6.3178674661508267E-003   5.2346132825572059E-002
  -2.1041353868697911E-002   5.7984769742618625E-003   5.2639683894364533E-002
  -3.0972077283261276E-002   9.0194373728119670E-003   4.9106494480405938E-002
  -2.9284274234353175E-002   8.4421696829729553E-003   4.8806409286598240E-002
  -2.7596471185445094E-002   7.8635963838628031E-003   4.8691971010445256E-002
  -2.5908668136537003E-002   7.2837174754808720E-003   4.8763179651947153E-002
  -2.4220865087628912E-002   6.7025329578277448E-003   4.9020035211103763E-002
  -1.1729557585742435E-002   3.0863090235641044E-003   6.3136134571575075E-002
  -1.0767310850164691E-002   2.7559149273193029E-003   6.3026335719953641E-002
  -9.8050641145869186E-003   2.4450801197344330E-003   6.3164149149637361E-002
  -8.8428173790091602E-003   2.1538046008089395E-003   6.3549574860626151E-002
  -7.8805706434314018E-003   1.8820883705426006E-003   6.4182612852920373E-002
  -1.4795700117754673E-002   3.9903650071299035E-003   5.9697733574600287E-002
  -1.3595966849988206E-002   3.5955330513349759E-003   5.9555556736094029E-002
  -1.2396233582221772E-002   3.2122164559564848E-003   5.9640740680659998E-002
  -1.1196500314455311E-002   2.8404152209944578E-003   5.9953285408298168E-002
  -9.9967670466888439E-003   2.4801293464485896E-003   6.0493190919008732E-002
  -1.7899632212073167E-002   4.8944209906958691E-003   5.6198916682196703E-002
  -1.6482663910350945E-002   4.4351511753507600E-003   5.6016317928562515E-002
  -1.5065695608628695E-002   3.9793527921789806E-003   5.6040828459767461E-002
  -1.3648727306906458E-002   3.5270258411801425E-003   5.6272448275811904E-002
  -1.2231759005184197E-002   3.0781703223543566E-003   5.6711177376695565E-002
  -2.1041353868697911E-002   5.7984769742618625E-003   5.2639683894364533E-002
  -1.9427402031252809E-002   5.2747692993665996E-003   5.2408619297359058E-002
  -1.7813450193807694E-002   4.7464891284011990E-003   5.2364412486960249E-002
  -1.6199498356362575E-002   4.2136364613658550E-003   5.2507063463167476E-002
  -1.4585546518917476E-002   3.6762112982603457E-003   5.2836572225981378E-002
  -2.4220865087628912E-002   6.7025329578277448E-003   4.9020035211103763E-002
  -2.2430181212693842E-002   6.1143874233822726E-003   4.8732460842483838E-002
  -2.0639497337758758E-002   5.5136254646235006E-003   4.8611492762237529E-002
  -1.8848813462823695E-002   4.9002470815514496E-003   4.8657130970364865E-002
  -1.7058129587888604E-002   4.2742522741661126E-003   4.8869375466865650E-002
  -7.8805706434314018E-003   1.8820883705426006E-003   6.4182612852920373E-002
  -6.9488175095186941E-003   1.6747495225438169E-003   6.4088493188163120E-002
  -6.0170643756059863E-003   1.5766061504202955E-003   6.4245765405166855E-002
  -5.0853112416932803E-003   1.5876582541721682E-003   6.4654429503931216E-002
  -4.1535581077805708E-003   1.7079058337988728E-003   6.5314485484456175E-002
  -9.9967670466888439E-003   2.4801293464485896E-003   6.0493190919008732E-002
  -8.8132910579553775E-003   2.1815656948595552E-003   6.0391168952760199E-002
  -7.6298150692219076E-003   1.9949311287687788E-003   6.0541200814392654E-002
  -6.4463390804884377E-003   1.9202256481758093E-003   6.0943286503905861E-002
  -5.2628630917549678E-003   1.9574492530807230E-003   6.1597426021299750E-002
  -1.2231759005184197E-002   3.0781703223543566E-003   5.6711177376695565E-002
  -1.0795898215509874E-002   2.6883818671755988E-003   5.6603986718578747E-002
  -9.3600374258355629E-003   2.4132561071174979E-003   5.6749511834462626E-002
  -7.9241766361612502E-003   2.2527930421800089E-003   5.7147752724347585E-002
  -6.4883158464869028E-003   2.2069926723629618E-003   5.7798709388233421E-002
  -1.4585546518917476E-002   3.6762112982603457E-003   5.2836572225981378E-002
  -1.2896638982182197E-002   3.1951980394913787E-003   5.2726946485618618E-002
  -1.1207731445446928E-002   2.8315810854660992E-003   5.2870698465376620E-002
  -9.5188239087116346E-003   2.5853604361840404E-003   5.3267828165255812E-002
  -7.8299163719763795E-003   2.4565360916451173E-003   5.3918335585255918E-002
  -1.7058129587888604E-002   4.2742522741661126E-003   4.8869375466865650E-002
  -1.5115513357972274E-002   3.7020142118073807E-003   4.8760048253879584E-002
  -1.3172897128055999E-002   3.2499060638146449E-003   4.8904760707134842E-002
  -1.1230280898139711E-002   2.9179278301877248E-003   4.9303512826631091E-002
  -9.2876646682233943E-003   2.7060795109271618E-003   4.9956304612368330E-002
  -4.1535581077805708E-003   1.7079058337988728E-003   6.5314485484456175E-002
  -3.6241201870231693E-003   1.9993279192924152E-003   6.4400299614976619E-002
  -3.0946822662657816E-003   2.5239035406451615E-003   6.3604557876642820E-002
  -2.5652443455083905E-003   3.2816326978560642E-003   6.2927260269455360E-002
  -2.0358064247509924E-003   4.2725153909259905E-003   6.2368406793414044E-002
  -5.2628630917549678E-003   1.9574492530807230E-003   6.1597426021299750E-002
  -4.5888664857453888E-003   2.2137791310524735E-003   6.0872925433415603E-002
  -3.9148698797357700E-003   2.7963924696590703E-003   6.0319098084889416E-002
  -3.2408732737261607E-003   3.7052892689009159E-003   5.9935943975721648E-002
  -2.5668766677165687E-003   4.9404695287780243E-003   5.9723463105912034E-002
  -6.4883158464869028E-003   2.2069926723629618E-003   5.7798709388233421E-002
  -5.6175314470130328E-003   2.4282303428122265E-003   5.7357024006720825E-002
  -4.7467470475391193E-003   3.0688813986732982E-003   5.7138240972778767E-002
  -3.8759626480652397E-003   4.1289458399459862E-003   5.7142360286406922E-002
  -3.0051782485913340E-003   5.6084236666301690E-003   5.7369381947605380E-002
  -7.8299163719763795E-003   2.4565360916451173E-003   5.3918335585255918E-002
  -6.7101150708261436E-003   2.6426815545722987E-003   5.3852595334892131E-002
  -5.5903137696758365E-003   3.3413703276874221E-003   5.4061986540310261E-002
  -4.4705124685255710E-003   4.5526024109907252E-003   5.4546509201511363E-002
  -3.3507111673752922E-003   6.2763778044822582E-003   5.5306163318494486E-002
  -9.2876646682233943E-003   2.7060795109271618E-003   4.9956304612368330E-002
  -7.8666173571846770E-003   2.8571327663320378E-003   5.0359639417929314E-002
  -6.4455700461459459E-003   3.6138592567014904E-003   5.1090334787484648E-002
  -5.0245227351072425E-003   4.9762589820360331E-003   5.2148390721034443E-002
  -3.6034754240684974E-003   6.9443319423344585E-003   5.3533807218579033E-002
  -2.0358064247509924E-003   4.2725153909259905E-003   6.2368406793414044E-002
  -2.2857591974041885E-003   5.5760224609638920E-003   5.8337676710174424E-002
  -2.5357119700573742E-003   7.2716247490804964E-003   5.4301923985291101E-002
  -2.7856647427105790E-003   9.3593222552750266E-003   5.0261148618764462E-002
  -3.0356175153637560E-003   1.1839114979546927E-002   4.6215350610594008E-002
  -2.5668766677165687E-003   4.9404695287780243E-003   5.9723463105912034E-002
  -2.8394233844168393E-003   6.5654142819862038E-003   5.6190600754412512E-002
  -3.1119701011171480E-003   8.6436045612224843E-003   5.2617573156462483E-002
  -3.3845168178174151E-003   1.1175040366485839E-002   4.9004380312061446E-002
  -3.6570635345177654E-003   1.4159721697776240E-002   4.5351022221210568E-002
  -3.0051782485913340E-003   5.6084236666301690E-003   5.7369381947605380E-002
  -3.3354615141457915E-003   7.5548061030086822E-003   5.4395537635795382E-002
  -3.6657447797002205E-003   1.0015584373364361E-002   5.1346385472727657E-002
  -3.9960280452546459E-003   1.2990758477696596E-002   4.8221925458402690E-002
  -4.3263113108091035E-003   1.6480328416005774E-002   4.5022157592819467E-002
  -3.3507111673752922E-003   6.2763778044822582E-003   5.5306163318494486E-002
  -3.7738735865909321E-003   8.5441979240310773E-003   5.2952487354323355E-002
  -4.1970360058065301E-003   1.1387564185505961E-002   5.0488360934087512E-002
  -4.6201984250221284E-003   1.4806476588907491E-002   4.7913784057787123E-002
  -5.0433608442377684E-003   1.8800935134235197E-002   4.5228756725422092E-002
  -3.6034754240684974E-003   6.9443319423344585E-003   5.3533807218579033E-002
  -4.1546596017523196E-003   9.5335897450535834E-003   5.1861449909996082E-002
  -4.7058437794361280E-003   1.2759543997648087E-002   5.0043499540541270E-002
  -5.2570279571200196E-003   1.6622194700118574E-002   4.8079956110214844E-002
  -5.8082121348037585E-003   2.1121541852464620E-002   4.5970819619017167E-002
  -5.0848773155198645E-002   1.4590187065601778E-002   4.8194675862776093E-002
  -4.9114840006983823E-002   1.4356650549862904E-002   4.8102223975642344E-002
  -4.7380906858769015E-002   1.4043000289411980E-002   4.8170222647792665E-002
  -4.5646973710554199E-002   1.3649236284248679E-002   4.8398671879227487E-002
  -4.3913040562339370E-002   1.3175358534373349E-002   4.8787571669946461E-002
  -5.6856353893807887E-002   1.7319233707602077E-002   4.4011633337606881E-002
  -5.4949067478597638E-002   1.6664888630975955E-002   4.3729200636586030E-002
  -5.3041781063387347E-002   1.6038024590582484E-002   4.3633023910271629E-002
  -5.1134494648177133E-002   1.5438641586421616E-002   4.3723103158663970E-002
  -4.9227208232966849E-002   1.4866739618493385E-002   4.3999438381762734E-002
  -6.3040501799775772E-002   2.0048280349602376E-002   3.9353984861078176E-002
  -6.0934056702147681E-002   1.8973126712089006E-002   3.8989166127114949E-002
  -5.8827611604519658E-002   1.8033048891753063E-002   3.8836408783280520E-002
  -5.6721166506891574E-002   1.7228046888594549E-002   3.8895712829575144E-002
  -5.4614721409263545E-002   1.6558120702613366E-002   3.9167078265998634E-002
  -6.9401216873101995E-002   2.2777326991602662E-002   3.4221730433189740E-002
  -6.7069807677633944E-002   2.1281364793202029E-002   3.3882120447229033E-002
  -6.4738398482165727E-002   2.0028073192923577E-002   3.3780377266819345E-002
  -6.2406989286697599E-002   1.9017452190767430E-002   3.3916500891961111E-002
  -6.0075580091229437E-002   1.8249501786733430E-002   3.4290491322654007E-002
  -7.5938499113786917E-002   2.5506373633602974E-002   2.8614870053941810E-002
  -7.3356320405056380E-002   2.3589602874315108E-002   2.8408063596928268E-002
  -7.0774141696325787E-002   2.2023097494094160E-002   2.8464929360888097E-002
  -6.8191962987595195E-002   2.0806857492940440E-002   2.8785467345821644E-002
  -6.5609784278864602E-002   1.9940882870853327E-002   2.9369677551728812E-002
  -4.3913040562339370E-002   1.3175358534373349E-002   4.8787571669946461E-002
  -4.2331207418769154E-002   1.2663952547836699E-002   4.8651015123692021E-002
  -4.0749374275198931E-002   1.2157603832689767E-002   4.8665724794252740E-002
  -3.9167541131628722E-002   1.1656312388932291E-002   4.8831700681628884E-002
  -3.7585707988058520E-002   1.1160078216564506E-002   4.9148942785820382E-002
  -4.9227208232966849E-002   1.4866739618493385E-002   4.3999438381762734E-002
  -4.7485600860686761E-002   1.4308187538181125E-002   4.3800182346928049E-002
  -4.5743993488406749E-002   1.3748854196868041E-002   4.3769208552697572E-002
  -4.4002386116126696E-002   1.3188739594554088E-002   4.3906516999071499E-002
  -4.2260778743846643E-002   1.2627843731239263E-002   4.4212107686049829E-002
  -5.4614721409263545E-002   1.6558120702613366E-002   3.9167078265998634E-002
  -5.2696323784484606E-002   1.5952422528525412E-002   3.8899284210193105E-002
  -5.0777926159705646E-002   1.5340104561046147E-002   3.8816788418781084E-002
  -4.8859528534926720E-002   1.4721166800175829E-002   3.8919590891762355E-002
  -4.6941130910147753E-002   1.4095609245914131E-002   3.9207691629137204E-002
  -6.0075580091229437E-002   1.8249501786733430E-002   3.4290491322654007E-002
  -5.7963376190162556E-002   1.7596657518869713E-002   3.3948320713487426E-002
  -5.5851172289095689E-002   1.6931354925224337E-002   3.3808464392503276E-002
  -5.3738968388028802E-002   1.6253594005797487E-002   3.3870922359701600E-002
  -5.1626764486961921E-002   1.5563374760588999E-002   3.4135694615082444E-002
  -6.5609784278864602E-002   1.9940882870853327E-002   2.9369677551728812E-002
  -6.3286758077720717E-002   1.9240892509214069E-002   2.8947291856810636E-002
  -6.0963731876576874E-002   1.8522605289402555E-002   2.8744236473864121E-002
  -5.8640705675432996E-002   1.7786021211419263E-002   2.8760511402889100E-002
  -5.6317679474289117E-002   1.7031140275263756E-002   2.8996116643885572E-002
  -3.7585707988058520E-002   1.1160078216564506E-002   4.9148942785820382E-002
  -3.5932300311859192E-002   1.0656009011325185E-002   4.8864042067031155E-002
  -3.4278892635659891E-002   1.0131212468953293E-002   4.8762000443198977E-002
  -3.2625484959460577E-002   9.5856885894489638E-003   4.8842817914324044E-002
  -3.0972077283261276E-002   9.0194373728119670E-003   4.9106494480405938E-002
  -4.2260778743846643E-002   1.2627843731239263E-002   4.4212107686049829E-002
  -4.0426205095957582E-002   1.2060532098151111E-002   4.3903843625640926E-002
  -3.8591631448068570E-002   1.1481170186517037E-002   4.3775052413654619E-002
  -3.6757057800179543E-002   1.0889757996337061E-002   4.3825734050090548E-002
  -3.4922484152290503E-002   1.0286295527610956E-002   4.4055888534948962E-002
  -4.6941130910147753E-002   1.4095609245914131E-002   3.9207691629137204E-002
  -4.4928777537103726E-002   1.3465055184977287E-002   3.8884741285695384E-002
  -4.2916424164059580E-002   1.2831127904080961E-002   3.8737877544141264E-002
  -4.0904070791015545E-002   1.2193827403225384E-002   3.8767100404474959E-002
  -3.8891717417971414E-002   1.1553153682410222E-002   3.8972409866696173E-002
  -5.1626764486961921E-002   1.5563374760588999E-002   3.4135694615082444E-002
  -4.9440017635297456E-002   1.4869578271803227E-002   3.3806735047194121E-002
  -4.7253270783633013E-002   1.4181085621644822E-002   3.3650475834658994E-002
  -4.5066523931968541E-002   1.3497896810113373E-002   3.3666916977476757E-002
  -4.2879777080304049E-002   1.2820011837209461E-002   3.3856058475647641E-002
  -5.6317679474289117E-002   1.7031140275263756E-002   2.8996116643885572E-002
  -5.3959925390538926E-002   1.6274101358629361E-002   2.8669824910137476E-002
  -5.1602171306788763E-002   1.5531043339208586E-002   2.8512847285207782E-002
  -4.9244417223038614E-002   1.4801966217001739E-002   2.8525183769096477E-002
  -4.6886663139288409E-002   1.4086869992008533E-002   2.8706834361803490E-002
  -3.0972077283261276E-002   9.0194373728119670E-003   4.9106494480405938E-002
  -2.9284274234353175E-002   8.4421696829729553E-003   4.8806409286598240E-002
  -2.7596471185445094E-002   7.8635963838628031E-003   4.8691971010445256E-002
  -2.5908668136537003E-002   7.2837174754808720E-003   4.8763179651947153E-002
  -2.4220865087628912E-002   6.7025329578277448E-003   4.9020035211103763E-002
  -3.4922484152290503E-002   1.0286295527610956E-002   4.4055888534948962E-002
  -3.3055515128273857E-002   9.6726390672451645E-003   4.3725674344940624E-002
  -3.1188546104257246E-002   9.0506449021454383E-003   4.3568145187494411E-002
  -2.9321577080240673E-002   8.4203130323114647E-003   4.3583301062610436E-002
  -2.7454608056224003E-002   7.7816434577439031E-003   4.3771141970288918E-002
  -3.8891717417971414E-002   1.1553153682410222E-002   3.8972409866696173E-002
  -3.6858544303938798E-002   1.0903108451517263E-002   3.8605034585024733E-002
  -3.4825371189906237E-002   1.0237693420427962E-002   3.8397382450822790E-002
  -3.2792198075873642E-002   9.5569085891423350E-003   3.8349453464090646E-002
  -3.0759024961841068E-002   8.8607539576601169E-003   3.8461247624828138E-002
  -4.2879777080304049E-002   1.2820011837209461E-002   3.3856058475647641E-002
  -4.0693361761348051E-002   1.2133577835789638E-002   3.3444490006850618E-002
  -3.8506946442392047E-002   1.1424741938710653E-002   3.3179682800430377E-002
  -3.6320531123436084E-002   1.0693504145973066E-002   3.3061636856387515E-002
  -3.4134115804479996E-002   9.9398644575764139E-003   3.3090352174721609E-002
  -4.6886663139288409E-002   1.4086869992008533E-002   2.8706834361803490E-002
  -4.4559967500501535E-002   1.3364047220061737E-002   2.8244040610418075E-002
  -4.2233271861714661E-002   1.2611790456993163E-002   2.7915046236317326E-002
  -3.9906576222927814E-002   1.1830099702803642E-002   2.7719851239501173E-002
  -3.7579880584140912E-002   1.1018974957492489E-002   2.7658455619969602E-002
  -2.4220865087628912E-002   6.7025329578277448E-003   4.9020035211103763E-002
  -2.2430181212693842E-002   6.1143874233822726E-003   4.8732460842483838E-002
  -2.0639497337758758E-002   5.5136254646235006E-003   4.8611492762237529E-002
  -1.8848813462823695E-002   4.9002470815514496E-003   4.8657130970364865E-002
  -1.7058129587888604E-002   4.2742522741661126E-003   4.8869375466865650E-002
  -2.7454608056224003E-002   7.7816434577439031E-003   4.3771141970288918E-002
  -2.5502202516687847E-002   7.1388051841178024E-003   4.3401700982026503E-002
  -2.3549796977151795E-002   6.4959672171087390E-003   4.3189097034592588E-002
  -2.1597391437615687E-002   5.8531295567165117E-003   4.3133330127987410E-002
  -1.9644985898079587E-002   5.2102922029413357E-003   4.3234400262210815E-002
  -3.0759024961841068E-002   8.8607539576601169E-003   3.8461247624828138E-002
  -2.8654667005248845E-002   8.1632229448533045E-003   3.8022556747853431E-002
  -2.6550309048656680E-002   7.4783089695937693E-003   3.7730933664162317E-002
  -2.4445951092064502E-002   6.8060120318815219E-003   3.7586378373754774E-002
  -2.2341593135472293E-002   6.1463321317163366E-003   3.7588890876630809E-002
  -3.4134115804479996E-002   9.9398644575764139E-003   3.3090352174721609E-002
  -3.1887574678376697E-002   9.1876407055892090E-003   3.2595028139964968E-002
  -2.9641033552273415E-002   8.4606507220789592E-003   3.2237002650946742E-002
  -2.7394492426170102E-002   7.7588945070465581E-003   3.2016275707667345E-002
  -2.5147951300066775E-002   7.0823720604915041E-003   3.1932847310126355E-002
  -3.7579880584140912E-002   1.1018974957492489E-002   2.7658455619969602E-002
  -3.5200925536071459E-002   1.0212058466324225E-002   2.7119115158360851E-002
  -3.2821970488002006E-002   9.4429924745641214E-003   2.6707303994945975E-002
  -3.0443015439932553E-002   8.7117769822115596E-003   2.6423022129724666E-002
  -2.8064060391863099E-002   8.0184119892664496E-003   2.6266269562697064E-002
  -1.7058129587888604E-002   4.2742522741661126E-003   4.8869375466865650E-002
  -1.5115513357972274E-002   3.7020142118073807E-003   4.8760048253879584E-002
  -1.3172897128055999E-002   3.2499060638146449E-003   4.8904760707134842E-002
  -1.1230280898139711E-002   2.9179278301877248E-003   4.9303512826631091E-002
  -9.2876646682233943E-003   2.7060795109271618E-003   4.9956304612368330E-002
  -1.9644985898079587E-002   5.2102922029413357E-003   4.3234400262210815E-002
  -1.7486542849523126E-002   4.6046152207629976E-003   4.3074334449893503E-002
  -1.5328099800966687E-002   4.0732586751608957E-003   4.3091882608615351E-002
  -1.3169656752410209E-002   3.6162225661358210E-003   4.3287044738376412E-002
  -1.1011213703853787E-002   3.2335068936870659E-003   4.3659820839176966E-002
  -2.2341593135472293E-002   6.1463321317163366E-003   3.7588890876630809E-002
  -2.0043748963477614E-002   5.5072162297182814E-003   3.7332276987192686E-002
  -1.7745904791482824E-002   4.8966112865073963E-003   3.7176851373591946E-002
  -1.5448060619488117E-002   4.3145173020834801E-003   3.7122614035828658E-002
  -1.3150216447493354E-002   3.7609342764466924E-003   3.7169564973902447E-002
  -2.5147951300066775E-002   7.0823720604915041E-003   3.1932847310126355E-002
  -2.2787131699835581E-002   6.4098172386736207E-003   3.1533875865777716E-002
  -2.0426312099604473E-002   5.7199638978537720E-003   3.1159667002064843E-002
  -1.8065492499373319E-002   5.0128120380310247E-003   3.0810220718987192E-002
  -1.5704672899142163E-002   4.2883616592065688E-003   3.0485537016545342E-002
  -2.8064060391863099E-002   8.0184119892664496E-003   2.6266269562697064E-002
  -2.5716691058597307E-002   7.3124182476292376E-003   2.5679131085648454E-002
  -2.3369321725331599E-002   6.5433165092002310E-003   2.5040329494033786E-002
  -2.1021952392065821E-002   5.7111067739793672E-003   2.4349864787852754E-002
  -1.8674583058800098E-002   4.8157890419661120E-003   2.3607736967105275E-002
  -9.2876646682233943E-003   2.7060795109271618E-003   4.9956304612368330E-002
  -7.8666173571846770E-003   2.8571327663320378E-003   5.0359639417929314E-002
  -6.4455700461459459E-003   3.6138592567014904E-003   5.1090334787484648E-002
  -5.0245227351072425E-003   4.9762589820360331E-003   5.2148390721034443E-002
  -3.6034754240684974E-003   6.9443319423344585E-003   5.3533807218579033E-002
  -1.1011213703853787E-002   3.2335068936870659E-003   4.3659820839176966E-002
  -9.2445642342504492E-003   3.1627517902084734E-003   4.4243580499462920E-002
  -7.4779147646471464E-003   3.6415973880940533E-003   4.5191183912883792E-002
  -5.7112652950438055E-003   4.6700436873436807E-003   4.6502631079439249E-002
  -3.9446158254404506E-003   6.2480906879569531E-003   4.8177921999129403E-002
  -1.3150216447493354E-002   3.7609342764466924E-003   3.7169564973902447E-002
  -1.1001481630185227E-002   3.4683708140852421E-003   3.7877676955312939E-002
  -8.8527468128771318E-003   3.6693355194865884E-003   3.8986115878998528E-002
  -6.7040119955689530E-003   4.3638283926515434E-003   4.0494881744958897E-002
  -4.5552771782609094E-003   5.5518494335793922E-003   4.2403974553193974E-002
  -1.5704672899142163E-002   4.2883616592065688E-003   3.0485537016545342E-002
  -1.3137369544989022E-002   3.7739898379615111E-003   3.1261928785479676E-002
  -1.0570066190835887E-002   3.6970736508790819E-003   3.2475130685829127E-002
  -8.0027628366827787E-003   4.0576130979592985E-003   3.4125142717593634E-002
  -5.4354594825296119E-003   4.8556081792018591E-003   3.6211964880773211E-002
  -1.8674583058800098E-002   4.8157890419661120E-003   2.3607736967105275E-002
  -1.5652227978661781E-002   4.0796088618384463E-003   2.4396335989962603E-002
  -1.2629872898523464E-002   3.7248117822716864E-003   2.5658228333375221E-002
  -9.6075178183851750E-003   3.7513978032672757E-003   2.7393413997343075E-002
  -6.5851627382468303E-003   4.1593669248244369E-003   2.9601892981866329E-002
  -3.6034754240684974E-003   6.9443319423344585E-003   5.3533807218579033E-002
  -4.1546596017523196E-003   9.5335897450535834E-003   5.1861449909996082E-002
  -4.7058437794361280E-003   1.2759543997648087E-002   5.0043499540541270E-002
  -5.2570279571200196E-003   1.6622194700118574E-002   4.8079956110214844E-002
  -5.8082121348037585E-003   2.1121541852464620E-002   4.5970819619017167E-002
  -3.9446158254404506E-003   6.2480906879569531E-003   4.8177921999129403E-002
  -4.5375215780225076E-003   8.6858201154955128E-003   4.7243145526252694E-002
  -5.1304273306044673E-003   1.2293313695520225E-002   4.6370518964451157E-002
  -5.7233330831864548E-003   1.7070571428031839E-002   4.5560042313725541E-002
  -6.3162388357684840E-003   2.3017593313029439E-002   4.4811715574075039E-002
  -4.5552771782609094E-003   5.5518494335793922E-003   4.2403974553193974E-002
  -4.9821615337939246E-003   7.8380504859374978E-003   4.2739846618634225E-002
  -5.4090458893269362E-003   1.1827083393392598E-002   4.3345611567097111E-002
  -5.8359302448600658E-003   1.7518948155944996E-002   4.4221269398582251E-002
  -6.2628146003929630E-003   2.4913644773594035E-002   4.5366820113090123E-002
  -5.4354594825296119E-003   4.8556081792018591E-003   3.6211964880773211E-002
  -5.4885794690666349E-003   6.9902808563794550E-003   3.8351553187140910E-002
  -5.5416994556036318E-003   1.1360853091264743E-002   4.0968777348478050E-002
  -5.5948194421406444E-003   1.7967324883858098E-002   4.4063637364785017E-002
  -5.6479394286775980E-003   2.6809696234158742E-002   4.7636133236061334E-002
  -6.5851627382468303E-003   4.1593669248244369E-003   2.9601892981866329E-002
  -6.0567753838406957E-003   6.1425112268215232E-003   3.4078265231772265E-002
  -5.5283880294344501E-003   1.0894622789137304E-002   3.9240016308594805E-002
  -5.0000006750283571E-003   1.8415701611771522E-002   4.5087146212334089E-002
  -4.4716133206220698E-003   2.8705747694723449E-002   5.1619654942990145E-002
  -7.5938499113786917E-002   2.5506373633602974E-002   2.8614870053941810E-002
  -7.3356320405056380E-002   2.3589602874315108E-002   2.8408063596928268E-002
  -7.0774141696325787E-002   2.2023097494094160E-002   2.8464929360888097E-002
  -6.8191962987595195E-002   2.0806857492940440E-002   2.8785467345821644E-002
  -6.5609784278864602E-002   1.9940882870853327E-002   2.9369677551728812E-002
  -8.2196536424907707E-002   2.3258046426197110E-002   1.9094100298476024E-002
  -7.9426801333569760E-002   2.2916879408035384E-002   1.9663961733719648E-002
  -7.6657066242231828E-002   2.2460900419080665E-002   2.0345263713204553E-002
  -7.3887331150893909E-002   2.1890109459332674E-002   2.1138006236930504E-002
  -7.1117596059556074E-002   2.1204506528791661E-002   2.2042189304897486E-002
  -8.7719516709541784E-002   2.1009719218791273E-002   1.1381472959066455E-002
  -8.4914456912329045E-002   2.2244155941755661E-002   1.2262924936707387E-002
  -8.2109397115116264E-002   2.2898703344067163E-002   1.3103585781856907E-002
  -7.9304337317903484E-002   2.2973361425725099E-002   1.3903455494515136E-002
  -7.6499277520690745E-002   2.2468130186729968E-002   1.4662534074681988E-002
  -9.2507439967689203E-002   1.8761392011385450E-002   5.4769880357131463E-003
  -8.9819287141334206E-002   2.1571432475476049E-002   6.2049532058912268E-003
  -8.7131134314979014E-002   2.3336506269053470E-002   6.7398955668455506E-003
  -8.4442981488623919E-002   2.4056613392117596E-002   7.0818151185756276E-003
  -8.1754828662268769E-002   2.3731753844668288E-002   7.2307118610823833E-003
  -9.6560306199350077E-002   1.6513064803979516E-002   1.3806455284161023E-003
  -9.4141292020585077E-002   2.0898709009196215E-002   1.4900465412712172E-003
  -9.1722277841820077E-002   2.3774309194040139E-002   1.2541930681700397E-003
  -8.9303263663055077E-002   2.5139865358509823E-002   6.7308510911238961E-004
  -8.6884249484290077E-002   2.4995377502606497E-002  -2.5327733590146950E-004
  -6.5609784278864602E-002   1.9940882870853327E-002   2.9369677551728812E-002
  -6.3286758077720717E-002   1.9240892509214069E-002   2.8947291856810636E-002
  -6.0963731876576874E-002   1.8522605289402555E-002   2.8744236473864121E-002
  -5.8640705675432996E-002   1.7786021211419263E-002   2.8760511402889100E-002
  -5.6317679474289117E-002   1.7031140275263756E-002   2.8996116643885572E-002
  -7.1117596059556074E-002   2.1204506528791661E-002   2.2042189304897486E-002
  -6.8588653509459571E-002   2.0459334669417392E-002   2.1721208593994470E-002
  -6.6059710959363083E-002   1.9709836923169709E-002   2.1592730269025084E-002
  -6.3530768409266580E-002   1.8956013290048541E-002   2.1656754329989397E-002
  -6.1001825859170106E-002   1.8197863770053946E-002   2.1913280776887534E-002
  -7.6499277520690745E-002   2.2468130186729968E-002   1.4662534074681988E-002
  -7.3791246547679490E-002   2.1677776829620771E-002   1.4456929319092669E-002
  -7.1083215574668249E-002   2.0897068556936640E-002   1.4416999023399144E-002
  -6.8375184601657035E-002   2.0126005368677872E-002   1.4542743187601362E-002
  -6.5667153628645739E-002   1.9364587264844135E-002   1.4834161811699553E-002
  -8.1754828662268769E-002   2.3731753844668288E-002   7.2307118610823833E-003
  -7.8894537192380515E-002   2.2896218989824149E-002   7.1544540321051685E-003
  -7.6034245722492413E-002   2.2084300190703766E-002   7.2170427369861213E-003
  -7.3173954252604229E-002   2.1295997447307174E-002   7.4184779757247889E-003
  -7.0313662782716058E-002   2.0531310759634158E-002   7.7587597483217072E-003
  -8.6884249484290077E-002   2.4995377502606497E-002  -2.5327733590146950E-004
  -8.3898525443562799E-002   2.4114661150027639E-002  -1.8621726696760321E-004
  -8.0912801402835521E-002   2.3271531824470726E-002  -7.1385902142145907E-006
  -7.7927077362108244E-002   2.2465989525936758E-002   2.8395869435983781E-004
  -7.4941353321380966E-002   2.1698034254424403E-002   6.8707458675387745E-004
  -5.6317679474289117E-002   1.7031140275263756E-002   2.8996116643885572E-002
  -5.3959925390538926E-002   1.6274101358629361E-002   2.8669824910137476E-002
  -5.1602171306788763E-002   1.5531043339208586E-002   2.8512847285207782E-002
  -4.9244417223038614E-002   1.4801966217001739E-002   2.8525183769096477E-002
  -4.6886663139288409E-002   1.4086869992008533E-002   2.8706834361803490E-002
  -6.1001825859170106E-002   1.8197863770053946E-002   2.1913280776887534E-002
  -5.8472863102116149E-002   1.7437489556829222E-002   2.1614630921843681E-002
  -5.5943900345062164E-002   1.6676991844017969E-002   2.1489084304589220E-002
  -5.3414937588008221E-002   1.5916370631619610E-002   2.1536640925123744E-002
  -5.0885974830954278E-002   1.5155625919634708E-002   2.1757300783447675E-002
  -6.5667153628645739E-002   1.9364587264844135E-002   1.4834161811699553E-002
  -6.2963193069317192E-002   1.8600877755029041E-002   1.4549049438559475E-002
  -6.0259232509988554E-002   1.7822940348827067E-002   1.4440829432179586E-002
  -5.7555271950659945E-002   1.7030775046237366E-002   1.4509501792559634E-002
  -5.4851311391331370E-002   1.6224381847260966E-002   1.4755066519699669E-002
  -7.0313662782716058E-002   2.0531310759634158E-002   7.7587597483217072E-003
  -6.7430915292141957E-002   1.9764265953229380E-002   7.4730804602849005E-003
  -6.4548167801567927E-002   1.8968888853636807E-002   7.3680826679790572E-003
  -6.1665420310993861E-002   1.8145179460855792E-002   7.4437663714038540E-003
  -5.8782672820419803E-002   1.7293137774887293E-002   7.7001315705598102E-003
  -7.4941353321380966E-002   2.1698034254424403E-002   6.8707458675387745E-004
  -7.1876029770590599E-002   2.0927654151428998E-002   3.8672398701972144E-004
  -6.8810706219800233E-002   2.0114837358445631E-002   2.7084401198737562E-004
  -6.5745382669009866E-002   1.9259583875473323E-002   3.3943466165663877E-004
  -6.2680059118219500E-002   1.8361893702513288E-002   5.9249593602783701E-004
  -4.6886663139288409E-002   1.4086869992008533E-002   2.8706834361803490E-002
  -4.4559967500501535E-002   1.3364047220061737E-002   2.8244040610418075E-002
  -4.2233271861714661E-002   1.2611790456993163E-002   2.7915046236317326E-002
  -3.9906576222927814E-002   1.1830099702803642E-002   2.7719851239501173E-002
  -3.7579880584140912E-002   1.1018974957492489E-002   2.7658455619969602E-002
  -5.0885974830954278E-002   1.5155625919634708E-002   2.1757300783447675E-002
  -4.8418287725243689E-002   1.4391768074952599E-002   2.1317905874525561E-002
  -4.5950600619533016E-002   1.3621807464462371E-002   2.1026694522166212E-002
  -4.3482913513822434E-002   1.2845744088164378E-002   2.0883666726369834E-002
  -4.1015226408111810E-002   1.2063577946058279E-002   2.0888822487136527E-002
  -5.4851311391331370E-002   1.6224381847260966E-002   1.4755066519699669E-002
  -5.2228248639418696E-002   1.5419488929843767E-002   1.4362401678554348E-002
  -4.9605185887506023E-002   1.4631824471931364E-002   1.4132304573250078E-002
  -4.6982123135593419E-002   1.3861388473524949E-002   1.4064775203787027E-002
  -4.4359060383680690E-002   1.3108180934624292E-002   1.4159813570165020E-002
  -5.8782672820419803E-002   1.7293137774887293E-002   7.7001315705598102E-003
  -5.5989850243026787E-002   1.6447209784734282E-002   7.3775280225044544E-003
  -5.3197027665633737E-002   1.5641841479400575E-002   7.2318763895686516E-003
  -5.0404205088240707E-002   1.4877032858885881E-002   7.2631766717525153E-003
  -4.7611382510847684E-002   1.4152783923190249E-002   7.4714288690558711E-003
  -6.2680059118219500E-002   1.8361893702513288E-002   5.9249593602783701E-004
  -5.9703092536067759E-002   1.7474930639625463E-002   3.6328490637604904E-004
  -5.6726125953916073E-002   1.6651858486869536E-002   3.2540997112251446E-004
  -5.3749159371764388E-002   1.5892677244246693E-002   4.7887113026667816E-004
  -5.0772192789612647E-002   1.5197386911756094E-002   8.2366838380854013E-004
  -3.7579880584140912E-002   1.1018974957492489E-002   2.7658455619969602E-002
  -3.5200925536071459E-002   1.0212058466324225E-002   2.7119115158360851E-002
  -3.2821970488002006E-002   9.4429924745641214E-003   2.6707303994945975E-002
  -3.0443015439932553E-002   8.7117769822115596E-003   2.6423022129724666E-002
  -2.8064060391863099E-002   8.0184119892664496E-003   2.6266269562697064E-002
  -4.1015226408111810E-002   1.2063577946058279E-002   2.0888822487136527E-002
  -3.8519280952658469E-002   1.1283961129639641E-002   2.0454980941415124E-002
  -3.6023335497205072E-002   1.0515545730402920E-002   2.0127590912267485E-002
  -3.3527390041751690E-002   9.7583317483485310E-003   1.9906652399694399E-002
  -3.1031444586298335E-002   9.0123191834763361E-003   1.9792165403695161E-002
  -4.4359060383680690E-002   1.3108180934624292E-002   1.4159813570165020E-002
  -4.1767202302462968E-002   1.2355863792954558E-002   1.3804821858105276E-002
  -3.9175344221245176E-002   1.1588098986241732E-002   1.3535203881000213E-002
  -3.6583486140027391E-002   1.0804886514485728E-002   1.3350959638849615E-002
  -3.3991628058809661E-002   1.0006226377686167E-002   1.3252089131653766E-002
  -4.7611382510847684E-002   1.4152783923190249E-002   7.4714288690558711E-003
  -4.4944689585484983E-002   1.3427766456269835E-002   7.1686379084322654E-003
  -4.2277996660122386E-002   1.2660652242080649E-002   6.9301429011438993E-003
  -3.9611303734759726E-002   1.1851441280622812E-002   6.7559438471906218E-003
  -3.6944610809397080E-002   1.1000133571896414E-002   6.6460407465724694E-003
  -5.0772192789612647E-002   1.5197386911756094E-002   8.2366838380854013E-004
  -4.8051742801724640E-002   1.4499669119585112E-002   5.4642909239582815E-004
  -4.5331292813836688E-002   1.3733205497919343E-002   3.1240797269851961E-004
  -4.2610842825948680E-002   1.2897996046760563E-002   1.2160502471701001E-004
  -3.9890392838060729E-002   1.1994040766106107E-002  -2.5979751548943497E-005
  -2.8064060391863099E-002   8.0184119892664496E-003   2.6266269562697064E-002
  -2.5716691058597307E-002   7.3124182476292376E-003   2.5679131085648454E-002
  -2.3369321725331599E-002   6.5433165092002310E-003   2.5040329494033786E-002
  -2.1021952392065821E-002   5.7111067739793672E-003   2.4349864787852754E-002
  -1.8674583058800098E-002   4.8157890419661120E-003   2.3607736967105275E-002
  -3.1031444586298335E-002   9.0123191834763361E-003   1.9792165403695161E-002
  -2.8718315268759106E-002   8.2694507628618963E-003   1.9195640184681062E-002
  -2.6405185951220003E-002   7.5216692135806063E-003   1.8582298048780227E-002
  -2.4092056633680810E-002   6.7689745356319525E-003   1.7952138995992351E-002
  -2.1778927316141672E-002   6.0113667290165873E-003   1.7305163026317960E-002
  -3.3991628058809661E-002   1.0006226377686167E-002   1.3252089131653766E-002
  -3.1677892559317494E-002   9.2264832780943051E-003   1.2704372038798706E-002
  -2.9364157059825341E-002   8.5000219179603292E-003   1.2174684226736662E-002
  -2.7050421560333156E-002   7.8268422972847633E-003   1.1663025695467115E-002
  -2.4736686060841076E-002   7.2069444160672291E-003   1.1169396444990654E-002
  -3.6944610809397080E-002   1.1000133571896414E-002   6.6460407465724694E-003
  -3.4595422930272388E-002   1.0183515793327338E-002   6.2053266480015593E-003
  -3.2246235051147661E-002   9.4783746223401008E-003   5.8174880279031616E-003
  -2.9897047172023065E-002   8.8847100589380164E-003   5.4825248862769970E-003
  -2.7547859292898241E-002   8.4025221031178432E-003   5.2004372231233761E-003
  -3.9890392838060729E-002   1.1994040766106107E-002  -2.5979751548943497E-005
  -3.7470906381623870E-002   1.1140548308559595E-002  -3.0149598771039843E-004
  -3.5051419925187066E-002   1.0456727326720539E-002  -4.8929054771992830E-004
  -3.2631933468750179E-002   9.9425778205903537E-003  -5.8936343157758170E-004
  -3.0212447012313404E-002   9.5980997901683462E-003  -6.0171463928349045E-004
  -1.8674583058800098E-002   4.8157890419661120E-003   2.3607736967105275E-002
  -1.5652227978661781E-002   4.0796088618384463E-003   2.4396335989962603E-002
  -1.2629872898523464E-002   3.7248117822716864E-003   2.5658228333375221E-002
  -9.6075178183851750E-003   3.7513978032672757E-003   2.7393413997343075E-002
  -6.5851627382468303E-003   4.1593669248244369E-003   2.9601892981866329E-002
  -2.1778927316141672E-002   6.0113667290165873E-003   1.7305163026317960E-002
  -1.8552545177370733E-002   5.3432103034485867E-003   1.8253680795556171E-002
  -1.5326163038599794E-002   4.8588697686418048E-003   1.9136959361504335E-002
  -1.2099780899828799E-002   4.5583451245961304E-003   1.9954998724162260E-002
  -8.8733987610579157E-003   4.4416363713118967E-003   2.0707798883530137E-002
  -2.4736686060841076E-002   7.2069444160672291E-003   1.1169396444990654E-002
  -2.1844809387282935E-002   6.6068117450589492E-003   1.2080265750809505E-002
  -1.8952932713724786E-002   5.9929277550118121E-003   1.2387363329492695E-002
  -1.6061056040166700E-002   5.3652924459247631E-003   1.2090689181040309E-002
  -1.3169179366608608E-002   4.7239058177990789E-003   1.1190243305452569E-002
  -2.7547859292898241E-002   8.4025221031178432E-003   5.2004372231233761E-003
  -2.5529020608398369E-002   7.8704131866697558E-003   5.8760908557224378E-003
  -2.3510181923898525E-002   7.1269857413816529E-003   5.4094402373402045E-003
  -2.1491343239398688E-002   6.1722397672541729E-003   3.8004853679770093E-003
  -1.9472504554898806E-002   5.0061752642862889E-003   1.0492262476331018E-003
  -3.0212447012313404E-002   9.5980997901683462E-003  -6.0171463928349045E-004
  -2.9605178840717228E-002   9.1340146282796741E-003  -3.5884388970486292E-004
  -2.8997910669120885E-002   8.2610437277516047E-003  -1.7968099149532069E-003
  -2.8390642497524682E-002   6.9791870885822227E-003  -4.9156127150274329E-003
  -2.7783374325928367E-002   5.2884447107739430E-003  -9.7152522899282001E-003
  -6.5851627382468303E-003   4.1593669248244369E-003   2.9601892981866329E-002
  -6.0567753838406957E-003   6.1425112268215232E-003   3.4078265231772265E-002
  -5.5283880294344501E-003   1.0894622789137304E-002   3.9240016308594805E-002
  -5.0000006750283571E-003   1.8415701611771522E-002   4.5087146212334089E-002
  -4.4716133206220698E-003   2.8705747694723449E-002   5.1619654942990145E-002
  -8.8733987610579157E-003   4.4416363713118967E-003   2.0707798883530137E-002
  -7.5872682634947064E-003   5.6585731516946014E-003   2.5875212085382626E-002
  -6.3011377659314693E-003   9.3589851086510467E-003   3.1872732746632382E-002
  -5.0150072683681074E-003   1.5542872242179588E-002   3.8700360867279932E-002
  -3.7288767708050230E-003   2.4210234552281662E-002   4.6358096447324471E-002
  -1.3169179366608608E-002   4.7239058177990789E-003   1.1190243305452569E-002
  -1.0980577093407509E-002   5.1746350765678462E-003   1.6763205375506185E-002
  -8.7919748202064663E-003   7.8233474281640264E-003   2.3311003537438021E-002
  -6.6033725470054060E-003   1.2670042872587713E-002   3.0833637791247821E-002
  -4.4147702738043249E-003   1.9714721409839875E-002   3.9331108136935966E-002
  -1.9472504554898806E-002   5.0061752642862889E-003   1.0492262476331018E-003
  -1.6236701873579104E-002   4.6906970014404525E-003   6.7422451021427673E-003
  -1.3000899192259599E-002   6.2877097476774987E-003   1.3554828681011027E-002
  -9.7650965109400689E-003   9.7972135029964751E-003   2.1486976984238480E-002
  -6.5292938296203917E-003   1.5219208267397644E-002   3.0538690011824354E-002
  -2.7783374325928367E-002   5.2884447107739430E-003  -9.7152522899282001E-003
  -2.3355642604009574E-002   4.2067589263135030E-003  -4.1876687347076613E-003
  -1.8927910882090782E-002   4.7520720671910266E-003   2.6042081773519077E-003
  -1.4500179160172044E-002   6.9243841334044182E-003   1.0660378446251326E-002
  -1.0072447438253196E-002   1.0723695124956301E-002   1.9980842071990468E-002
 </DataArray>
 </PointData>
 </Piece>
 </UnstructuredGrid>
 </VTKFile>
