 <VTKFile type="UnstructuredGrid"  version="0.1"   >
 <UnstructuredGrid>
 <Piece  NumberOfPoints="          1600 "  NumberOfCells="         1024 ">
 <Points>
 <DataArray  type="Float64" NumberOfComponents="3"  format="ascii" >
   0.0000000000000000        0.0000000000000000        0.0000000000000000     
   3.1250000000000000E-002   0.0000000000000000        0.0000000000000000     
   6.2500000000000000E-002   0.0000000000000000        0.0000000000000000     
   9.3750000000000000E-002   0.0000000000000000        0.0000000000000000     
  0.12500000000000000        0.0000000000000000        0.0000000000000000     
   0.0000000000000000        3.1250000000000000E-002   0.0000000000000000     
   3.1250000000000000E-002   3.1250000000000000E-002   0.0000000000000000     
   6.2500000000000000E-002   3.1250000000000000E-002   0.0000000000000000     
   9.3750000000000000E-002   3.1250000000000000E-002   0.0000000000000000     
  0.12500000000000000        3.1250000000000000E-002   0.0000000000000000     
   0.0000000000000000        6.2500000000000000E-002   0.0000000000000000     
   3.1250000000000000E-002   6.2500000000000000E-002   0.0000000000000000     
   6.2500000000000000E-002   6.2500000000000000E-002   0.0000000000000000     
   9.3750000000000000E-002   6.2500000000000000E-002   0.0000000000000000     
  0.12500000000000000        6.2500000000000000E-002   0.0000000000000000     
   0.0000000000000000        9.3750000000000000E-002   0.0000000000000000     
   3.1250000000000000E-002   9.3750000000000000E-002   0.0000000000000000     
   6.2500000000000000E-002   9.3750000000000000E-002   0.0000000000000000     
   9.3750000000000000E-002   9.3750000000000000E-002   0.0000000000000000     
  0.12500000000000000        9.3750000000000000E-002   0.0000000000000000     
   0.0000000000000000       0.12500000000000000        0.0000000000000000     
   3.1250000000000000E-002  0.12500000000000000        0.0000000000000000     
   6.2500000000000000E-002  0.12500000000000000        0.0000000000000000     
   9.3750000000000000E-002  0.12500000000000000        0.0000000000000000     
  0.12500000000000000       0.12500000000000000        0.0000000000000000     
  0.12500000000000000        0.0000000000000000        0.0000000000000000     
  0.15625000000000000        0.0000000000000000        0.0000000000000000     
  0.18750000000000000        0.0000000000000000        0.0000000000000000     
  0.21875000000000000        0.0000000000000000        0.0000000000000000     
  0.25000000000000000        0.0000000000000000        0.0000000000000000     
  0.12500000000000000        3.1250000000000000E-002   0.0000000000000000     
  0.15625000000000000        3.1250000000000000E-002   0.0000000000000000     
  0.18750000000000000        3.1250000000000000E-002   0.0000000000000000     
  0.21875000000000000        3.1250000000000000E-002   0.0000000000000000     
  0.25000000000000000        3.1250000000000000E-002   0.0000000000000000     
  0.12500000000000000        6.2500000000000000E-002   0.0000000000000000     
  0.15625000000000000        6.2500000000000000E-002   0.0000000000000000     
  0.18750000000000000        6.2500000000000000E-002   0.0000000000000000     
  0.21875000000000000        6.2500000000000000E-002   0.0000000000000000     
  0.25000000000000000        6.2500000000000000E-002   0.0000000000000000     
  0.12500000000000000        9.3750000000000000E-002   0.0000000000000000     
  0.15625000000000000        9.3750000000000000E-002   0.0000000000000000     
  0.18750000000000000        9.3750000000000000E-002   0.0000000000000000     
  0.21875000000000000        9.3750000000000000E-002   0.0000000000000000     
  0.25000000000000000        9.3750000000000000E-002   0.0000000000000000     
  0.12500000000000000       0.12500000000000000        0.0000000000000000     
  0.15625000000000000       0.12500000000000000        0.0000000000000000     
  0.18750000000000000       0.12500000000000000        0.0000000000000000     
  0.21875000000000000       0.12500000000000000        0.0000000000000000     
  0.25000000000000000       0.12500000000000000        0.0000000000000000     
  0.25000000000000000        0.0000000000000000        0.0000000000000000     
  0.28125000000000000        0.0000000000000000        0.0000000000000000     
  0.31250000000000000        0.0000000000000000        0.0000000000000000     
  0.34375000000000000        0.0000000000000000        0.0000000000000000     
  0.37500000000000000        0.0000000000000000        0.0000000000000000     
  0.25000000000000000        3.1250000000000000E-002   0.0000000000000000     
  0.28125000000000000        3.1250000000000000E-002   0.0000000000000000     
  0.31250000000000000        3.1250000000000000E-002   0.0000000000000000     
  0.34375000000000000        3.1250000000000000E-002   0.0000000000000000     
  0.37500000000000000        3.1250000000000000E-002   0.0000000000000000     
  0.25000000000000000        6.2500000000000000E-002   0.0000000000000000     
  0.28125000000000000        6.2500000000000000E-002   0.0000000000000000     
  0.31250000000000000        6.2500000000000000E-002   0.0000000000000000     
  0.34375000000000000        6.2500000000000000E-002   0.0000000000000000     
  0.37500000000000000        6.2500000000000000E-002   0.0000000000000000     
  0.25000000000000000        9.3750000000000000E-002   0.0000000000000000     
  0.28125000000000000        9.3750000000000000E-002   0.0000000000000000     
  0.31250000000000000        9.3750000000000000E-002   0.0000000000000000     
  0.34375000000000000        9.3750000000000000E-002   0.0000000000000000     
  0.37500000000000000        9.3750000000000000E-002   0.0000000000000000     
  0.25000000000000000       0.12500000000000000        0.0000000000000000     
  0.28125000000000000       0.12500000000000000        0.0000000000000000     
  0.31250000000000000       0.12500000000000000        0.0000000000000000     
  0.34375000000000000       0.12500000000000000        0.0000000000000000     
  0.37500000000000000       0.12500000000000000        0.0000000000000000     
  0.37500000000000000        0.0000000000000000        0.0000000000000000     
  0.40625000000000000        0.0000000000000000        0.0000000000000000     
  0.43750000000000000        0.0000000000000000        0.0000000000000000     
  0.46875000000000000        0.0000000000000000        0.0000000000000000     
  0.50000000000000000        0.0000000000000000        0.0000000000000000     
  0.37500000000000000        3.1250000000000000E-002   0.0000000000000000     
  0.40625000000000000        3.1250000000000000E-002   0.0000000000000000     
  0.43750000000000000        3.1250000000000000E-002   0.0000000000000000     
  0.46875000000000000        3.1250000000000000E-002   0.0000000000000000     
  0.50000000000000000        3.1250000000000000E-002   0.0000000000000000     
  0.37500000000000000        6.2500000000000000E-002   0.0000000000000000     
  0.40625000000000000        6.2500000000000000E-002   0.0000000000000000     
  0.43750000000000000        6.2500000000000000E-002   0.0000000000000000     
  0.46875000000000000        6.2500000000000000E-002   0.0000000000000000     
  0.50000000000000000        6.2500000000000000E-002   0.0000000000000000     
  0.37500000000000000        9.3750000000000000E-002   0.0000000000000000     
  0.40625000000000000        9.3750000000000000E-002   0.0000000000000000     
  0.43750000000000000        9.3750000000000000E-002   0.0000000000000000     
  0.46875000000000000        9.3750000000000000E-002   0.0000000000000000     
  0.50000000000000000        9.3750000000000000E-002   0.0000000000000000     
  0.37500000000000000       0.12500000000000000        0.0000000000000000     
  0.40625000000000000       0.12500000000000000        0.0000000000000000     
  0.43750000000000000       0.12500000000000000        0.0000000000000000     
  0.46875000000000000       0.12500000000000000        0.0000000000000000     
  0.50000000000000000       0.12500000000000000        0.0000000000000000     
  0.50000000000000000        0.0000000000000000        0.0000000000000000     
  0.53125000000000000        0.0000000000000000        0.0000000000000000     
  0.56250000000000000        0.0000000000000000        0.0000000000000000     
  0.59375000000000000        0.0000000000000000        0.0000000000000000     
  0.62500000000000000        0.0000000000000000        0.0000000000000000     
  0.50000000000000000        3.1250000000000000E-002   0.0000000000000000     
  0.53125000000000000        3.1250000000000000E-002   0.0000000000000000     
  0.56250000000000000        3.1250000000000000E-002   0.0000000000000000     
  0.59375000000000000        3.1250000000000000E-002   0.0000000000000000     
  0.62500000000000000        3.1250000000000000E-002   0.0000000000000000     
  0.50000000000000000        6.2500000000000000E-002   0.0000000000000000     
  0.53125000000000000        6.2500000000000000E-002   0.0000000000000000     
  0.56250000000000000        6.2500000000000000E-002   0.0000000000000000     
  0.59375000000000000        6.2500000000000000E-002   0.0000000000000000     
  0.62500000000000000        6.2500000000000000E-002   0.0000000000000000     
  0.50000000000000000        9.3750000000000000E-002   0.0000000000000000     
  0.53125000000000000        9.3750000000000000E-002   0.0000000000000000     
  0.56250000000000000        9.3750000000000000E-002   0.0000000000000000     
  0.59375000000000000        9.3750000000000000E-002   0.0000000000000000     
  0.62500000000000000        9.3750000000000000E-002   0.0000000000000000     
  0.50000000000000000       0.12500000000000000        0.0000000000000000     
  0.53125000000000000       0.12500000000000000        0.0000000000000000     
  0.56250000000000000       0.12500000000000000        0.0000000000000000     
  0.59375000000000000       0.12500000000000000        0.0000000000000000     
  0.62500000000000000       0.12500000000000000        0.0000000000000000     
  0.62500000000000000        0.0000000000000000        0.0000000000000000     
  0.65625000000000000        0.0000000000000000        0.0000000000000000     
  0.68750000000000000        0.0000000000000000        0.0000000000000000     
  0.71875000000000000        0.0000000000000000        0.0000000000000000     
  0.75000000000000000        0.0000000000000000        0.0000000000000000     
  0.62500000000000000        3.1250000000000000E-002   0.0000000000000000     
  0.65625000000000000        3.1250000000000000E-002   0.0000000000000000     
  0.68750000000000000        3.1250000000000000E-002   0.0000000000000000     
  0.71875000000000000        3.1250000000000000E-002   0.0000000000000000     
  0.75000000000000000        3.1250000000000000E-002   0.0000000000000000     
  0.62500000000000000        6.2500000000000000E-002   0.0000000000000000     
  0.65625000000000000        6.2500000000000000E-002   0.0000000000000000     
  0.68750000000000000        6.2500000000000000E-002   0.0000000000000000     
  0.71875000000000000        6.2500000000000000E-002   0.0000000000000000     
  0.75000000000000000        6.2500000000000000E-002   0.0000000000000000     
  0.62500000000000000        9.3750000000000000E-002   0.0000000000000000     
  0.65625000000000000        9.3750000000000000E-002   0.0000000000000000     
  0.68750000000000000        9.3750000000000000E-002   0.0000000000000000     
  0.71875000000000000        9.3750000000000000E-002   0.0000000000000000     
  0.75000000000000000        9.3750000000000000E-002   0.0000000000000000     
  0.62500000000000000       0.12500000000000000        0.0000000000000000     
  0.65625000000000000       0.12500000000000000        0.0000000000000000     
  0.68750000000000000       0.12500000000000000        0.0000000000000000     
  0.71875000000000000       0.12500000000000000        0.0000000000000000     
  0.75000000000000000       0.12500000000000000        0.0000000000000000     
  0.75000000000000000        0.0000000000000000        0.0000000000000000     
  0.78125000000000000        0.0000000000000000        0.0000000000000000     
  0.81250000000000000        0.0000000000000000        0.0000000000000000     
  0.84375000000000000        0.0000000000000000        0.0000000000000000     
  0.87500000000000000        0.0000000000000000        0.0000000000000000     
  0.75000000000000000        3.1250000000000000E-002   0.0000000000000000     
  0.78125000000000000        3.1250000000000000E-002   0.0000000000000000     
  0.81250000000000000        3.1250000000000000E-002   0.0000000000000000     
  0.84375000000000000        3.1250000000000000E-002   0.0000000000000000     
  0.87500000000000000        3.1250000000000000E-002   0.0000000000000000     
  0.75000000000000000        6.2500000000000000E-002   0.0000000000000000     
  0.78125000000000000        6.2500000000000000E-002   0.0000000000000000     
  0.81250000000000000        6.2500000000000000E-002   0.0000000000000000     
  0.84375000000000000        6.2500000000000000E-002   0.0000000000000000     
  0.87500000000000000        6.2500000000000000E-002   0.0000000000000000     
  0.75000000000000000        9.3750000000000000E-002   0.0000000000000000     
  0.78125000000000000        9.3750000000000000E-002   0.0000000000000000     
  0.81250000000000000        9.3750000000000000E-002   0.0000000000000000     
  0.84375000000000000        9.3750000000000000E-002   0.0000000000000000     
  0.87500000000000000        9.3750000000000000E-002   0.0000000000000000     
  0.75000000000000000       0.12500000000000000        0.0000000000000000     
  0.78125000000000000       0.12500000000000000        0.0000000000000000     
  0.81250000000000000       0.12500000000000000        0.0000000000000000     
  0.84375000000000000       0.12500000000000000        0.0000000000000000     
  0.87500000000000000       0.12500000000000000        0.0000000000000000     
  0.87500000000000000        0.0000000000000000        0.0000000000000000     
  0.90625000000000000        0.0000000000000000        0.0000000000000000     
  0.93750000000000000        0.0000000000000000        0.0000000000000000     
  0.96875000000000000        0.0000000000000000        0.0000000000000000     
   1.0000000000000000        0.0000000000000000        0.0000000000000000     
  0.87500000000000000        3.1250000000000000E-002   0.0000000000000000     
  0.90625000000000000        3.1250000000000000E-002   0.0000000000000000     
  0.93750000000000000        3.1250000000000000E-002   0.0000000000000000     
  0.96875000000000000        3.1250000000000000E-002   0.0000000000000000     
   1.0000000000000000        3.1250000000000000E-002   0.0000000000000000     
  0.87500000000000000        6.2500000000000000E-002   0.0000000000000000     
  0.90625000000000000        6.2500000000000000E-002   0.0000000000000000     
  0.93750000000000000        6.2500000000000000E-002   0.0000000000000000     
  0.96875000000000000        6.2500000000000000E-002   0.0000000000000000     
   1.0000000000000000        6.2500000000000000E-002   0.0000000000000000     
  0.87500000000000000        9.3750000000000000E-002   0.0000000000000000     
  0.90625000000000000        9.3750000000000000E-002   0.0000000000000000     
  0.93750000000000000        9.3750000000000000E-002   0.0000000000000000     
  0.96875000000000000        9.3750000000000000E-002   0.0000000000000000     
   1.0000000000000000        9.3750000000000000E-002   0.0000000000000000     
  0.87500000000000000       0.12500000000000000        0.0000000000000000     
  0.90625000000000000       0.12500000000000000        0.0000000000000000     
  0.93750000000000000       0.12500000000000000        0.0000000000000000     
  0.96875000000000000       0.12500000000000000        0.0000000000000000     
   1.0000000000000000       0.12500000000000000        0.0000000000000000     
   0.0000000000000000       0.12500000000000000        0.0000000000000000     
   3.1250000000000000E-002  0.12500000000000000        0.0000000000000000     
   6.2500000000000000E-002  0.12500000000000000        0.0000000000000000     
   9.3750000000000000E-002  0.12500000000000000        0.0000000000000000     
  0.12500000000000000       0.12500000000000000        0.0000000000000000     
   0.0000000000000000       0.15625000000000000        0.0000000000000000     
   3.1250000000000000E-002  0.15625000000000000        0.0000000000000000     
   6.2500000000000000E-002  0.15625000000000000        0.0000000000000000     
   9.3750000000000000E-002  0.15625000000000000        0.0000000000000000     
  0.12500000000000000       0.15625000000000000        0.0000000000000000     
   0.0000000000000000       0.18750000000000000        0.0000000000000000     
   3.1250000000000000E-002  0.18750000000000000        0.0000000000000000     
   6.2500000000000000E-002  0.18750000000000000        0.0000000000000000     
   9.3750000000000000E-002  0.18750000000000000        0.0000000000000000     
  0.12500000000000000       0.18750000000000000        0.0000000000000000     
   0.0000000000000000       0.21875000000000000        0.0000000000000000     
   3.1250000000000000E-002  0.21875000000000000        0.0000000000000000     
   6.2500000000000000E-002  0.21875000000000000        0.0000000000000000     
   9.3750000000000000E-002  0.21875000000000000        0.0000000000000000     
  0.12500000000000000       0.21875000000000000        0.0000000000000000     
   0.0000000000000000       0.25000000000000000        0.0000000000000000     
   3.1250000000000000E-002  0.25000000000000000        0.0000000000000000     
   6.2500000000000000E-002  0.25000000000000000        0.0000000000000000     
   9.3750000000000000E-002  0.25000000000000000        0.0000000000000000     
  0.12500000000000000       0.25000000000000000        0.0000000000000000     
  0.12500000000000000       0.12500000000000000        0.0000000000000000     
  0.15625000000000000       0.12500000000000000        0.0000000000000000     
  0.18750000000000000       0.12500000000000000        0.0000000000000000     
  0.21875000000000000       0.12500000000000000        0.0000000000000000     
  0.25000000000000000       0.12500000000000000        0.0000000000000000     
  0.12500000000000000       0.15625000000000000        0.0000000000000000     
  0.15625000000000000       0.15625000000000000        0.0000000000000000     
  0.18750000000000000       0.15625000000000000        0.0000000000000000     
  0.21875000000000000       0.15625000000000000        0.0000000000000000     
  0.25000000000000000       0.15625000000000000        0.0000000000000000     
  0.12500000000000000       0.18750000000000000        0.0000000000000000     
  0.15625000000000000       0.18750000000000000        0.0000000000000000     
  0.18750000000000000       0.18750000000000000        0.0000000000000000     
  0.21875000000000000       0.18750000000000000        0.0000000000000000     
  0.25000000000000000       0.18750000000000000        0.0000000000000000     
  0.12500000000000000       0.21875000000000000        0.0000000000000000     
  0.15625000000000000       0.21875000000000000        0.0000000000000000     
  0.18750000000000000       0.21875000000000000        0.0000000000000000     
  0.21875000000000000       0.21875000000000000        0.0000000000000000     
  0.25000000000000000       0.21875000000000000        0.0000000000000000     
  0.12500000000000000       0.25000000000000000        0.0000000000000000     
  0.15625000000000000       0.25000000000000000        0.0000000000000000     
  0.18750000000000000       0.25000000000000000        0.0000000000000000     
  0.21875000000000000       0.25000000000000000        0.0000000000000000     
  0.25000000000000000       0.25000000000000000        0.0000000000000000     
  0.25000000000000000       0.12500000000000000        0.0000000000000000     
  0.28125000000000000       0.12500000000000000        0.0000000000000000     
  0.31250000000000000       0.12500000000000000        0.0000000000000000     
  0.34375000000000000       0.12500000000000000        0.0000000000000000     
  0.37500000000000000       0.12500000000000000        0.0000000000000000     
  0.25000000000000000       0.15625000000000000        0.0000000000000000     
  0.28125000000000000       0.15625000000000000        0.0000000000000000     
  0.31250000000000000       0.15625000000000000        0.0000000000000000     
  0.34375000000000000       0.15625000000000000        0.0000000000000000     
  0.37500000000000000       0.15625000000000000        0.0000000000000000     
  0.25000000000000000       0.18750000000000000        0.0000000000000000     
  0.28125000000000000       0.18750000000000000        0.0000000000000000     
  0.31250000000000000       0.18750000000000000        0.0000000000000000     
  0.34375000000000000       0.18750000000000000        0.0000000000000000     
  0.37500000000000000       0.18750000000000000        0.0000000000000000     
  0.25000000000000000       0.21875000000000000        0.0000000000000000     
  0.28125000000000000       0.21875000000000000        0.0000000000000000     
  0.31250000000000000       0.21875000000000000        0.0000000000000000     
  0.34375000000000000       0.21875000000000000        0.0000000000000000     
  0.37500000000000000       0.21875000000000000        0.0000000000000000     
  0.25000000000000000       0.25000000000000000        0.0000000000000000     
  0.28125000000000000       0.25000000000000000        0.0000000000000000     
  0.31250000000000000       0.25000000000000000        0.0000000000000000     
  0.34375000000000000       0.25000000000000000        0.0000000000000000     
  0.37500000000000000       0.25000000000000000        0.0000000000000000     
  0.37500000000000000       0.12500000000000000        0.0000000000000000     
  0.40625000000000000       0.12500000000000000        0.0000000000000000     
  0.43750000000000000       0.12500000000000000        0.0000000000000000     
  0.46875000000000000       0.12500000000000000        0.0000000000000000     
  0.50000000000000000       0.12500000000000000        0.0000000000000000     
  0.37500000000000000       0.15625000000000000        0.0000000000000000     
  0.40625000000000000       0.15625000000000000        0.0000000000000000     
  0.43750000000000000       0.15625000000000000        0.0000000000000000     
  0.46875000000000000       0.15625000000000000        0.0000000000000000     
  0.50000000000000000       0.15625000000000000        0.0000000000000000     
  0.37500000000000000       0.18750000000000000        0.0000000000000000     
  0.40625000000000000       0.18750000000000000        0.0000000000000000     
  0.43750000000000000       0.18750000000000000        0.0000000000000000     
  0.46875000000000000       0.18750000000000000        0.0000000000000000     
  0.50000000000000000       0.18750000000000000        0.0000000000000000     
  0.37500000000000000       0.21875000000000000        0.0000000000000000     
  0.40625000000000000       0.21875000000000000        0.0000000000000000     
  0.43750000000000000       0.21875000000000000        0.0000000000000000     
  0.46875000000000000       0.21875000000000000        0.0000000000000000     
  0.50000000000000000       0.21875000000000000        0.0000000000000000     
  0.37500000000000000       0.25000000000000000        0.0000000000000000     
  0.40625000000000000       0.25000000000000000        0.0000000000000000     
  0.43750000000000000       0.25000000000000000        0.0000000000000000     
  0.46875000000000000       0.25000000000000000        0.0000000000000000     
  0.50000000000000000       0.25000000000000000        0.0000000000000000     
  0.50000000000000000       0.12500000000000000        0.0000000000000000     
  0.53125000000000000       0.12500000000000000        0.0000000000000000     
  0.56250000000000000       0.12500000000000000        0.0000000000000000     
  0.59375000000000000       0.12500000000000000        0.0000000000000000     
  0.62500000000000000       0.12500000000000000        0.0000000000000000     
  0.50000000000000000       0.15625000000000000        0.0000000000000000     
  0.53125000000000000       0.15625000000000000        0.0000000000000000     
  0.56250000000000000       0.15625000000000000        0.0000000000000000     
  0.59375000000000000       0.15625000000000000        0.0000000000000000     
  0.62500000000000000       0.15625000000000000        0.0000000000000000     
  0.50000000000000000       0.18750000000000000        0.0000000000000000     
  0.53125000000000000       0.18750000000000000        0.0000000000000000     
  0.56250000000000000       0.18750000000000000        0.0000000000000000     
  0.59375000000000000       0.18750000000000000        0.0000000000000000     
  0.62500000000000000       0.18750000000000000        0.0000000000000000     
  0.50000000000000000       0.21875000000000000        0.0000000000000000     
  0.53125000000000000       0.21875000000000000        0.0000000000000000     
  0.56250000000000000       0.21875000000000000        0.0000000000000000     
  0.59375000000000000       0.21875000000000000        0.0000000000000000     
  0.62500000000000000       0.21875000000000000        0.0000000000000000     
  0.50000000000000000       0.25000000000000000        0.0000000000000000     
  0.53125000000000000       0.25000000000000000        0.0000000000000000     
  0.56250000000000000       0.25000000000000000        0.0000000000000000     
  0.59375000000000000       0.25000000000000000        0.0000000000000000     
  0.62500000000000000       0.25000000000000000        0.0000000000000000     
  0.62500000000000000       0.12500000000000000        0.0000000000000000     
  0.65625000000000000       0.12500000000000000        0.0000000000000000     
  0.68750000000000000       0.12500000000000000        0.0000000000000000     
  0.71875000000000000       0.12500000000000000        0.0000000000000000     
  0.75000000000000000       0.12500000000000000        0.0000000000000000     
  0.62500000000000000       0.15625000000000000        0.0000000000000000     
  0.65625000000000000       0.15625000000000000        0.0000000000000000     
  0.68750000000000000       0.15625000000000000        0.0000000000000000     
  0.71875000000000000       0.15625000000000000        0.0000000000000000     
  0.75000000000000000       0.15625000000000000        0.0000000000000000     
  0.62500000000000000       0.18750000000000000        0.0000000000000000     
  0.65625000000000000       0.18750000000000000        0.0000000000000000     
  0.68750000000000000       0.18750000000000000        0.0000000000000000     
  0.71875000000000000       0.18750000000000000        0.0000000000000000     
  0.75000000000000000       0.18750000000000000        0.0000000000000000     
  0.62500000000000000       0.21875000000000000        0.0000000000000000     
  0.65625000000000000       0.21875000000000000        0.0000000000000000     
  0.68750000000000000       0.21875000000000000        0.0000000000000000     
  0.71875000000000000       0.21875000000000000        0.0000000000000000     
  0.75000000000000000       0.21875000000000000        0.0000000000000000     
  0.62500000000000000       0.25000000000000000        0.0000000000000000     
  0.65625000000000000       0.25000000000000000        0.0000000000000000     
  0.68750000000000000       0.25000000000000000        0.0000000000000000     
  0.71875000000000000       0.25000000000000000        0.0000000000000000     
  0.75000000000000000       0.25000000000000000        0.0000000000000000     
  0.75000000000000000       0.12500000000000000        0.0000000000000000     
  0.78125000000000000       0.12500000000000000        0.0000000000000000     
  0.81250000000000000       0.12500000000000000        0.0000000000000000     
  0.84375000000000000       0.12500000000000000        0.0000000000000000     
  0.87500000000000000       0.12500000000000000        0.0000000000000000     
  0.75000000000000000       0.15625000000000000        0.0000000000000000     
  0.78125000000000000       0.15625000000000000        0.0000000000000000     
  0.81250000000000000       0.15625000000000000        0.0000000000000000     
  0.84375000000000000       0.15625000000000000        0.0000000000000000     
  0.87500000000000000       0.15625000000000000        0.0000000000000000     
  0.75000000000000000       0.18750000000000000        0.0000000000000000     
  0.78125000000000000       0.18750000000000000        0.0000000000000000     
  0.81250000000000000       0.18750000000000000        0.0000000000000000     
  0.84375000000000000       0.18750000000000000        0.0000000000000000     
  0.87500000000000000       0.18750000000000000        0.0000000000000000     
  0.75000000000000000       0.21875000000000000        0.0000000000000000     
  0.78125000000000000       0.21875000000000000        0.0000000000000000     
  0.81250000000000000       0.21875000000000000        0.0000000000000000     
  0.84375000000000000       0.21875000000000000        0.0000000000000000     
  0.87500000000000000       0.21875000000000000        0.0000000000000000     
  0.75000000000000000       0.25000000000000000        0.0000000000000000     
  0.78125000000000000       0.25000000000000000        0.0000000000000000     
  0.81250000000000000       0.25000000000000000        0.0000000000000000     
  0.84375000000000000       0.25000000000000000        0.0000000000000000     
  0.87500000000000000       0.25000000000000000        0.0000000000000000     
  0.87500000000000000       0.12500000000000000        0.0000000000000000     
  0.90625000000000000       0.12500000000000000        0.0000000000000000     
  0.93750000000000000       0.12500000000000000        0.0000000000000000     
  0.96875000000000000       0.12500000000000000        0.0000000000000000     
   1.0000000000000000       0.12500000000000000        0.0000000000000000     
  0.87500000000000000       0.15625000000000000        0.0000000000000000     
  0.90625000000000000       0.15625000000000000        0.0000000000000000     
  0.93750000000000000       0.15625000000000000        0.0000000000000000     
  0.96875000000000000       0.15625000000000000        0.0000000000000000     
   1.0000000000000000       0.15625000000000000        0.0000000000000000     
  0.87500000000000000       0.18750000000000000        0.0000000000000000     
  0.90625000000000000       0.18750000000000000        0.0000000000000000     
  0.93750000000000000       0.18750000000000000        0.0000000000000000     
  0.96875000000000000       0.18750000000000000        0.0000000000000000     
   1.0000000000000000       0.18750000000000000        0.0000000000000000     
  0.87500000000000000       0.21875000000000000        0.0000000000000000     
  0.90625000000000000       0.21875000000000000        0.0000000000000000     
  0.93750000000000000       0.21875000000000000        0.0000000000000000     
  0.96875000000000000       0.21875000000000000        0.0000000000000000     
   1.0000000000000000       0.21875000000000000        0.0000000000000000     
  0.87500000000000000       0.25000000000000000        0.0000000000000000     
  0.90625000000000000       0.25000000000000000        0.0000000000000000     
  0.93750000000000000       0.25000000000000000        0.0000000000000000     
  0.96875000000000000       0.25000000000000000        0.0000000000000000     
   1.0000000000000000       0.25000000000000000        0.0000000000000000     
   0.0000000000000000       0.25000000000000000        0.0000000000000000     
   3.1250000000000000E-002  0.25000000000000000        0.0000000000000000     
   6.2500000000000000E-002  0.25000000000000000        0.0000000000000000     
   9.3750000000000000E-002  0.25000000000000000        0.0000000000000000     
  0.12500000000000000       0.25000000000000000        0.0000000000000000     
   0.0000000000000000       0.28125000000000000        0.0000000000000000     
   3.1250000000000000E-002  0.28125000000000000        0.0000000000000000     
   6.2500000000000000E-002  0.28125000000000000        0.0000000000000000     
   9.3750000000000000E-002  0.28125000000000000        0.0000000000000000     
  0.12500000000000000       0.28125000000000000        0.0000000000000000     
   0.0000000000000000       0.31250000000000000        0.0000000000000000     
   3.1250000000000000E-002  0.31250000000000000        0.0000000000000000     
   6.2500000000000000E-002  0.31250000000000000        0.0000000000000000     
   9.3750000000000000E-002  0.31250000000000000        0.0000000000000000     
  0.12500000000000000       0.31250000000000000        0.0000000000000000     
   0.0000000000000000       0.34375000000000000        0.0000000000000000     
   3.1250000000000000E-002  0.34375000000000000        0.0000000000000000     
   6.2500000000000000E-002  0.34375000000000000        0.0000000000000000     
   9.3750000000000000E-002  0.34375000000000000        0.0000000000000000     
  0.12500000000000000       0.34375000000000000        0.0000000000000000     
   0.0000000000000000       0.37500000000000000        0.0000000000000000     
   3.1250000000000000E-002  0.37500000000000000        0.0000000000000000     
   6.2500000000000000E-002  0.37500000000000000        0.0000000000000000     
   9.3750000000000000E-002  0.37500000000000000        0.0000000000000000     
  0.12500000000000000       0.37500000000000000        0.0000000000000000     
  0.12500000000000000       0.25000000000000000        0.0000000000000000     
  0.15625000000000000       0.25000000000000000        0.0000000000000000     
  0.18750000000000000       0.25000000000000000        0.0000000000000000     
  0.21875000000000000       0.25000000000000000        0.0000000000000000     
  0.25000000000000000       0.25000000000000000        0.0000000000000000     
  0.12500000000000000       0.28125000000000000        0.0000000000000000     
  0.15625000000000000       0.28125000000000000        0.0000000000000000     
  0.18750000000000000       0.28125000000000000        0.0000000000000000     
  0.21875000000000000       0.28125000000000000        0.0000000000000000     
  0.25000000000000000       0.28125000000000000        0.0000000000000000     
  0.12500000000000000       0.31250000000000000        0.0000000000000000     
  0.15625000000000000       0.31250000000000000        0.0000000000000000     
  0.18750000000000000       0.31250000000000000        0.0000000000000000     
  0.21875000000000000       0.31250000000000000        0.0000000000000000     
  0.25000000000000000       0.31250000000000000        0.0000000000000000     
  0.12500000000000000       0.34375000000000000        0.0000000000000000     
  0.15625000000000000       0.34375000000000000        0.0000000000000000     
  0.18750000000000000       0.34375000000000000        0.0000000000000000     
  0.21875000000000000       0.34375000000000000        0.0000000000000000     
  0.25000000000000000       0.34375000000000000        0.0000000000000000     
  0.12500000000000000       0.37500000000000000        0.0000000000000000     
  0.15625000000000000       0.37500000000000000        0.0000000000000000     
  0.18750000000000000       0.37500000000000000        0.0000000000000000     
  0.21875000000000000       0.37500000000000000        0.0000000000000000     
  0.25000000000000000       0.37500000000000000        0.0000000000000000     
  0.25000000000000000       0.25000000000000000        0.0000000000000000     
  0.28125000000000000       0.25000000000000000        0.0000000000000000     
  0.31250000000000000       0.25000000000000000        0.0000000000000000     
  0.34375000000000000       0.25000000000000000        0.0000000000000000     
  0.37500000000000000       0.25000000000000000        0.0000000000000000     
  0.25000000000000000       0.28125000000000000        0.0000000000000000     
  0.28125000000000000       0.28125000000000000        0.0000000000000000     
  0.31250000000000000       0.28125000000000000        0.0000000000000000     
  0.34375000000000000       0.28125000000000000        0.0000000000000000     
  0.37500000000000000       0.28125000000000000        0.0000000000000000     
  0.25000000000000000       0.31250000000000000        0.0000000000000000     
  0.28125000000000000       0.31250000000000000        0.0000000000000000     
  0.31250000000000000       0.31250000000000000        0.0000000000000000     
  0.34375000000000000       0.31250000000000000        0.0000000000000000     
  0.37500000000000000       0.31250000000000000        0.0000000000000000     
  0.25000000000000000       0.34375000000000000        0.0000000000000000     
  0.28125000000000000       0.34375000000000000        0.0000000000000000     
  0.31250000000000000       0.34375000000000000        0.0000000000000000     
  0.34375000000000000       0.34375000000000000        0.0000000000000000     
  0.37500000000000000       0.34375000000000000        0.0000000000000000     
  0.25000000000000000       0.37500000000000000        0.0000000000000000     
  0.28125000000000000       0.37500000000000000        0.0000000000000000     
  0.31250000000000000       0.37500000000000000        0.0000000000000000     
  0.34375000000000000       0.37500000000000000        0.0000000000000000     
  0.37500000000000000       0.37500000000000000        0.0000000000000000     
  0.37500000000000000       0.25000000000000000        0.0000000000000000     
  0.40625000000000000       0.25000000000000000        0.0000000000000000     
  0.43750000000000000       0.25000000000000000        0.0000000000000000     
  0.46875000000000000       0.25000000000000000        0.0000000000000000     
  0.50000000000000000       0.25000000000000000        0.0000000000000000     
  0.37500000000000000       0.28125000000000000        0.0000000000000000     
  0.40625000000000000       0.28125000000000000        0.0000000000000000     
  0.43750000000000000       0.28125000000000000        0.0000000000000000     
  0.46875000000000000       0.28125000000000000        0.0000000000000000     
  0.50000000000000000       0.28125000000000000        0.0000000000000000     
  0.37500000000000000       0.31250000000000000        0.0000000000000000     
  0.40625000000000000       0.31250000000000000        0.0000000000000000     
  0.43750000000000000       0.31250000000000000        0.0000000000000000     
  0.46875000000000000       0.31250000000000000        0.0000000000000000     
  0.50000000000000000       0.31250000000000000        0.0000000000000000     
  0.37500000000000000       0.34375000000000000        0.0000000000000000     
  0.40625000000000000       0.34375000000000000        0.0000000000000000     
  0.43750000000000000       0.34375000000000000        0.0000000000000000     
  0.46875000000000000       0.34375000000000000        0.0000000000000000     
  0.50000000000000000       0.34375000000000000        0.0000000000000000     
  0.37500000000000000       0.37500000000000000        0.0000000000000000     
  0.40625000000000000       0.37500000000000000        0.0000000000000000     
  0.43750000000000000       0.37500000000000000        0.0000000000000000     
  0.46875000000000000       0.37500000000000000        0.0000000000000000     
  0.50000000000000000       0.37500000000000000        0.0000000000000000     
  0.50000000000000000       0.25000000000000000        0.0000000000000000     
  0.53125000000000000       0.25000000000000000        0.0000000000000000     
  0.56250000000000000       0.25000000000000000        0.0000000000000000     
  0.59375000000000000       0.25000000000000000        0.0000000000000000     
  0.62500000000000000       0.25000000000000000        0.0000000000000000     
  0.50000000000000000       0.28125000000000000        0.0000000000000000     
  0.53125000000000000       0.28125000000000000        0.0000000000000000     
  0.56250000000000000       0.28125000000000000        0.0000000000000000     
  0.59375000000000000       0.28125000000000000        0.0000000000000000     
  0.62500000000000000       0.28125000000000000        0.0000000000000000     
  0.50000000000000000       0.31250000000000000        0.0000000000000000     
  0.53125000000000000       0.31250000000000000        0.0000000000000000     
  0.56250000000000000       0.31250000000000000        0.0000000000000000     
  0.59375000000000000       0.31250000000000000        0.0000000000000000     
  0.62500000000000000       0.31250000000000000        0.0000000000000000     
  0.50000000000000000       0.34375000000000000        0.0000000000000000     
  0.53125000000000000       0.34375000000000000        0.0000000000000000     
  0.56250000000000000       0.34375000000000000        0.0000000000000000     
  0.59375000000000000       0.34375000000000000        0.0000000000000000     
  0.62500000000000000       0.34375000000000000        0.0000000000000000     
  0.50000000000000000       0.37500000000000000        0.0000000000000000     
  0.53125000000000000       0.37500000000000000        0.0000000000000000     
  0.56250000000000000       0.37500000000000000        0.0000000000000000     
  0.59375000000000000       0.37500000000000000        0.0000000000000000     
  0.62500000000000000       0.37500000000000000        0.0000000000000000     
  0.62500000000000000       0.25000000000000000        0.0000000000000000     
  0.65625000000000000       0.25000000000000000        0.0000000000000000     
  0.68750000000000000       0.25000000000000000        0.0000000000000000     
  0.71875000000000000       0.25000000000000000        0.0000000000000000     
  0.75000000000000000       0.25000000000000000        0.0000000000000000     
  0.62500000000000000       0.28125000000000000        0.0000000000000000     
  0.65625000000000000       0.28125000000000000        0.0000000000000000     
  0.68750000000000000       0.28125000000000000        0.0000000000000000     
  0.71875000000000000       0.28125000000000000        0.0000000000000000     
  0.75000000000000000       0.28125000000000000        0.0000000000000000     
  0.62500000000000000       0.31250000000000000        0.0000000000000000     
  0.65625000000000000       0.31250000000000000        0.0000000000000000     
  0.68750000000000000       0.31250000000000000        0.0000000000000000     
  0.71875000000000000       0.31250000000000000        0.0000000000000000     
  0.75000000000000000       0.31250000000000000        0.0000000000000000     
  0.62500000000000000       0.34375000000000000        0.0000000000000000     
  0.65625000000000000       0.34375000000000000        0.0000000000000000     
  0.68750000000000000       0.34375000000000000        0.0000000000000000     
  0.71875000000000000       0.34375000000000000        0.0000000000000000     
  0.75000000000000000       0.34375000000000000        0.0000000000000000     
  0.62500000000000000       0.37500000000000000        0.0000000000000000     
  0.65625000000000000       0.37500000000000000        0.0000000000000000     
  0.68750000000000000       0.37500000000000000        0.0000000000000000     
  0.71875000000000000       0.37500000000000000        0.0000000000000000     
  0.75000000000000000       0.37500000000000000        0.0000000000000000     
  0.75000000000000000       0.25000000000000000        0.0000000000000000     
  0.78125000000000000       0.25000000000000000        0.0000000000000000     
  0.81250000000000000       0.25000000000000000        0.0000000000000000     
  0.84375000000000000       0.25000000000000000        0.0000000000000000     
  0.87500000000000000       0.25000000000000000        0.0000000000000000     
  0.75000000000000000       0.28125000000000000        0.0000000000000000     
  0.78125000000000000       0.28125000000000000        0.0000000000000000     
  0.81250000000000000       0.28125000000000000        0.0000000000000000     
  0.84375000000000000       0.28125000000000000        0.0000000000000000     
  0.87500000000000000       0.28125000000000000        0.0000000000000000     
  0.75000000000000000       0.31250000000000000        0.0000000000000000     
  0.78125000000000000       0.31250000000000000        0.0000000000000000     
  0.81250000000000000       0.31250000000000000        0.0000000000000000     
  0.84375000000000000       0.31250000000000000        0.0000000000000000     
  0.87500000000000000       0.31250000000000000        0.0000000000000000     
  0.75000000000000000       0.34375000000000000        0.0000000000000000     
  0.78125000000000000       0.34375000000000000        0.0000000000000000     
  0.81250000000000000       0.34375000000000000        0.0000000000000000     
  0.84375000000000000       0.34375000000000000        0.0000000000000000     
  0.87500000000000000       0.34375000000000000        0.0000000000000000     
  0.75000000000000000       0.37500000000000000        0.0000000000000000     
  0.78125000000000000       0.37500000000000000        0.0000000000000000     
  0.81250000000000000       0.37500000000000000        0.0000000000000000     
  0.84375000000000000       0.37500000000000000        0.0000000000000000     
  0.87500000000000000       0.37500000000000000        0.0000000000000000     
  0.87500000000000000       0.25000000000000000        0.0000000000000000     
  0.90625000000000000       0.25000000000000000        0.0000000000000000     
  0.93750000000000000       0.25000000000000000        0.0000000000000000     
  0.96875000000000000       0.25000000000000000        0.0000000000000000     
   1.0000000000000000       0.25000000000000000        0.0000000000000000     
  0.87500000000000000       0.28125000000000000        0.0000000000000000     
  0.90625000000000000       0.28125000000000000        0.0000000000000000     
  0.93750000000000000       0.28125000000000000        0.0000000000000000     
  0.96875000000000000       0.28125000000000000        0.0000000000000000     
   1.0000000000000000       0.28125000000000000        0.0000000000000000     
  0.87500000000000000       0.31250000000000000        0.0000000000000000     
  0.90625000000000000       0.31250000000000000        0.0000000000000000     
  0.93750000000000000       0.31250000000000000        0.0000000000000000     
  0.96875000000000000       0.31250000000000000        0.0000000000000000     
   1.0000000000000000       0.31250000000000000        0.0000000000000000     
  0.87500000000000000       0.34375000000000000        0.0000000000000000     
  0.90625000000000000       0.34375000000000000        0.0000000000000000     
  0.93750000000000000       0.34375000000000000        0.0000000000000000     
  0.96875000000000000       0.34375000000000000        0.0000000000000000     
   1.0000000000000000       0.34375000000000000        0.0000000000000000     
  0.87500000000000000       0.37500000000000000        0.0000000000000000     
  0.90625000000000000       0.37500000000000000        0.0000000000000000     
  0.93750000000000000       0.37500000000000000        0.0000000000000000     
  0.96875000000000000       0.37500000000000000        0.0000000000000000     
   1.0000000000000000       0.37500000000000000        0.0000000000000000     
   0.0000000000000000       0.37500000000000000        0.0000000000000000     
   3.1250000000000000E-002  0.37500000000000000        0.0000000000000000     
   6.2500000000000000E-002  0.37500000000000000        0.0000000000000000     
   9.3750000000000000E-002  0.37500000000000000        0.0000000000000000     
  0.12500000000000000       0.37500000000000000        0.0000000000000000     
   0.0000000000000000       0.40625000000000000        0.0000000000000000     
   3.1250000000000000E-002  0.40625000000000000        0.0000000000000000     
   6.2500000000000000E-002  0.40625000000000000        0.0000000000000000     
   9.3750000000000000E-002  0.40625000000000000        0.0000000000000000     
  0.12500000000000000       0.40625000000000000        0.0000000000000000     
   0.0000000000000000       0.43750000000000000        0.0000000000000000     
   3.1250000000000000E-002  0.43750000000000000        0.0000000000000000     
   6.2500000000000000E-002  0.43750000000000000        0.0000000000000000     
   9.3750000000000000E-002  0.43750000000000000        0.0000000000000000     
  0.12500000000000000       0.43750000000000000        0.0000000000000000     
   0.0000000000000000       0.46875000000000000        0.0000000000000000     
   3.1250000000000000E-002  0.46875000000000000        0.0000000000000000     
   6.2500000000000000E-002  0.46875000000000000        0.0000000000000000     
   9.3750000000000000E-002  0.46875000000000000        0.0000000000000000     
  0.12500000000000000       0.46875000000000000        0.0000000000000000     
   0.0000000000000000       0.50000000000000000        0.0000000000000000     
   3.1250000000000000E-002  0.50000000000000000        0.0000000000000000     
   6.2500000000000000E-002  0.50000000000000000        0.0000000000000000     
   9.3750000000000000E-002  0.50000000000000000        0.0000000000000000     
  0.12500000000000000       0.50000000000000000        0.0000000000000000     
  0.12500000000000000       0.37500000000000000        0.0000000000000000     
  0.15625000000000000       0.37500000000000000        0.0000000000000000     
  0.18750000000000000       0.37500000000000000        0.0000000000000000     
  0.21875000000000000       0.37500000000000000        0.0000000000000000     
  0.25000000000000000       0.37500000000000000        0.0000000000000000     
  0.12500000000000000       0.40625000000000000        0.0000000000000000     
  0.15625000000000000       0.40625000000000000        0.0000000000000000     
  0.18750000000000000       0.40625000000000000        0.0000000000000000     
  0.21875000000000000       0.40625000000000000        0.0000000000000000     
  0.25000000000000000       0.40625000000000000        0.0000000000000000     
  0.12500000000000000       0.43750000000000000        0.0000000000000000     
  0.15625000000000000       0.43750000000000000        0.0000000000000000     
  0.18750000000000000       0.43750000000000000        0.0000000000000000     
  0.21875000000000000       0.43750000000000000        0.0000000000000000     
  0.25000000000000000       0.43750000000000000        0.0000000000000000     
  0.12500000000000000       0.46875000000000000        0.0000000000000000     
  0.15625000000000000       0.46875000000000000        0.0000000000000000     
  0.18750000000000000       0.46875000000000000        0.0000000000000000     
  0.21875000000000000       0.46875000000000000        0.0000000000000000     
  0.25000000000000000       0.46875000000000000        0.0000000000000000     
  0.12500000000000000       0.50000000000000000        0.0000000000000000     
  0.15625000000000000       0.50000000000000000        0.0000000000000000     
  0.18750000000000000       0.50000000000000000        0.0000000000000000     
  0.21875000000000000       0.50000000000000000        0.0000000000000000     
  0.25000000000000000       0.50000000000000000        0.0000000000000000     
  0.25000000000000000       0.37500000000000000        0.0000000000000000     
  0.28125000000000000       0.37500000000000000        0.0000000000000000     
  0.31250000000000000       0.37500000000000000        0.0000000000000000     
  0.34375000000000000       0.37500000000000000        0.0000000000000000     
  0.37500000000000000       0.37500000000000000        0.0000000000000000     
  0.25000000000000000       0.40625000000000000        0.0000000000000000     
  0.28125000000000000       0.40625000000000000        0.0000000000000000     
  0.31250000000000000       0.40625000000000000        0.0000000000000000     
  0.34375000000000000       0.40625000000000000        0.0000000000000000     
  0.37500000000000000       0.40625000000000000        0.0000000000000000     
  0.25000000000000000       0.43750000000000000        0.0000000000000000     
  0.28125000000000000       0.43750000000000000        0.0000000000000000     
  0.31250000000000000       0.43750000000000000        0.0000000000000000     
  0.34375000000000000       0.43750000000000000        0.0000000000000000     
  0.37500000000000000       0.43750000000000000        0.0000000000000000     
  0.25000000000000000       0.46875000000000000        0.0000000000000000     
  0.28125000000000000       0.46875000000000000        0.0000000000000000     
  0.31250000000000000       0.46875000000000000        0.0000000000000000     
  0.34375000000000000       0.46875000000000000        0.0000000000000000     
  0.37500000000000000       0.46875000000000000        0.0000000000000000     
  0.25000000000000000       0.50000000000000000        0.0000000000000000     
  0.28125000000000000       0.50000000000000000        0.0000000000000000     
  0.31250000000000000       0.50000000000000000        0.0000000000000000     
  0.34375000000000000       0.50000000000000000        0.0000000000000000     
  0.37500000000000000       0.50000000000000000        0.0000000000000000     
  0.37500000000000000       0.37500000000000000        0.0000000000000000     
  0.40625000000000000       0.37500000000000000        0.0000000000000000     
  0.43750000000000000       0.37500000000000000        0.0000000000000000     
  0.46875000000000000       0.37500000000000000        0.0000000000000000     
  0.50000000000000000       0.37500000000000000        0.0000000000000000     
  0.37500000000000000       0.40625000000000000        0.0000000000000000     
  0.40625000000000000       0.40625000000000000        0.0000000000000000     
  0.43750000000000000       0.40625000000000000        0.0000000000000000     
  0.46875000000000000       0.40625000000000000        0.0000000000000000     
  0.50000000000000000       0.40625000000000000        0.0000000000000000     
  0.37500000000000000       0.43750000000000000        0.0000000000000000     
  0.40625000000000000       0.43750000000000000        0.0000000000000000     
  0.43750000000000000       0.43750000000000000        0.0000000000000000     
  0.46875000000000000       0.43750000000000000        0.0000000000000000     
  0.50000000000000000       0.43750000000000000        0.0000000000000000     
  0.37500000000000000       0.46875000000000000        0.0000000000000000     
  0.40625000000000000       0.46875000000000000        0.0000000000000000     
  0.43750000000000000       0.46875000000000000        0.0000000000000000     
  0.46875000000000000       0.46875000000000000        0.0000000000000000     
  0.50000000000000000       0.46875000000000000        0.0000000000000000     
  0.37500000000000000       0.50000000000000000        0.0000000000000000     
  0.40625000000000000       0.50000000000000000        0.0000000000000000     
  0.43750000000000000       0.50000000000000000        0.0000000000000000     
  0.46875000000000000       0.50000000000000000        0.0000000000000000     
  0.50000000000000000       0.50000000000000000        0.0000000000000000     
  0.50000000000000000       0.37500000000000000        0.0000000000000000     
  0.53125000000000000       0.37500000000000000        0.0000000000000000     
  0.56250000000000000       0.37500000000000000        0.0000000000000000     
  0.59375000000000000       0.37500000000000000        0.0000000000000000     
  0.62500000000000000       0.37500000000000000        0.0000000000000000     
  0.50000000000000000       0.40625000000000000        0.0000000000000000     
  0.53125000000000000       0.40625000000000000        0.0000000000000000     
  0.56250000000000000       0.40625000000000000        0.0000000000000000     
  0.59375000000000000       0.40625000000000000        0.0000000000000000     
  0.62500000000000000       0.40625000000000000        0.0000000000000000     
  0.50000000000000000       0.43750000000000000        0.0000000000000000     
  0.53125000000000000       0.43750000000000000        0.0000000000000000     
  0.56250000000000000       0.43750000000000000        0.0000000000000000     
  0.59375000000000000       0.43750000000000000        0.0000000000000000     
  0.62500000000000000       0.43750000000000000        0.0000000000000000     
  0.50000000000000000       0.46875000000000000        0.0000000000000000     
  0.53125000000000000       0.46875000000000000        0.0000000000000000     
  0.56250000000000000       0.46875000000000000        0.0000000000000000     
  0.59375000000000000       0.46875000000000000        0.0000000000000000     
  0.62500000000000000       0.46875000000000000        0.0000000000000000     
  0.50000000000000000       0.50000000000000000        0.0000000000000000     
  0.53125000000000000       0.50000000000000000        0.0000000000000000     
  0.56250000000000000       0.50000000000000000        0.0000000000000000     
  0.59375000000000000       0.50000000000000000        0.0000000000000000     
  0.62500000000000000       0.50000000000000000        0.0000000000000000     
  0.62500000000000000       0.37500000000000000        0.0000000000000000     
  0.65625000000000000       0.37500000000000000        0.0000000000000000     
  0.68750000000000000       0.37500000000000000        0.0000000000000000     
  0.71875000000000000       0.37500000000000000        0.0000000000000000     
  0.75000000000000000       0.37500000000000000        0.0000000000000000     
  0.62500000000000000       0.40625000000000000        0.0000000000000000     
  0.65625000000000000       0.40625000000000000        0.0000000000000000     
  0.68750000000000000       0.40625000000000000        0.0000000000000000     
  0.71875000000000000       0.40625000000000000        0.0000000000000000     
  0.75000000000000000       0.40625000000000000        0.0000000000000000     
  0.62500000000000000       0.43750000000000000        0.0000000000000000     
  0.65625000000000000       0.43750000000000000        0.0000000000000000     
  0.68750000000000000       0.43750000000000000        0.0000000000000000     
  0.71875000000000000       0.43750000000000000        0.0000000000000000     
  0.75000000000000000       0.43750000000000000        0.0000000000000000     
  0.62500000000000000       0.46875000000000000        0.0000000000000000     
  0.65625000000000000       0.46875000000000000        0.0000000000000000     
  0.68750000000000000       0.46875000000000000        0.0000000000000000     
  0.71875000000000000       0.46875000000000000        0.0000000000000000     
  0.75000000000000000       0.46875000000000000        0.0000000000000000     
  0.62500000000000000       0.50000000000000000        0.0000000000000000     
  0.65625000000000000       0.50000000000000000        0.0000000000000000     
  0.68750000000000000       0.50000000000000000        0.0000000000000000     
  0.71875000000000000       0.50000000000000000        0.0000000000000000     
  0.75000000000000000       0.50000000000000000        0.0000000000000000     
  0.75000000000000000       0.37500000000000000        0.0000000000000000     
  0.78125000000000000       0.37500000000000000        0.0000000000000000     
  0.81250000000000000       0.37500000000000000        0.0000000000000000     
  0.84375000000000000       0.37500000000000000        0.0000000000000000     
  0.87500000000000000       0.37500000000000000        0.0000000000000000     
  0.75000000000000000       0.40625000000000000        0.0000000000000000     
  0.78125000000000000       0.40625000000000000        0.0000000000000000     
  0.81250000000000000       0.40625000000000000        0.0000000000000000     
  0.84375000000000000       0.40625000000000000        0.0000000000000000     
  0.87500000000000000       0.40625000000000000        0.0000000000000000     
  0.75000000000000000       0.43750000000000000        0.0000000000000000     
  0.78125000000000000       0.43750000000000000        0.0000000000000000     
  0.81250000000000000       0.43750000000000000        0.0000000000000000     
  0.84375000000000000       0.43750000000000000        0.0000000000000000     
  0.87500000000000000       0.43750000000000000        0.0000000000000000     
  0.75000000000000000       0.46875000000000000        0.0000000000000000     
  0.78125000000000000       0.46875000000000000        0.0000000000000000     
  0.81250000000000000       0.46875000000000000        0.0000000000000000     
  0.84375000000000000       0.46875000000000000        0.0000000000000000     
  0.87500000000000000       0.46875000000000000        0.0000000000000000     
  0.75000000000000000       0.50000000000000000        0.0000000000000000     
  0.78125000000000000       0.50000000000000000        0.0000000000000000     
  0.81250000000000000       0.50000000000000000        0.0000000000000000     
  0.84375000000000000       0.50000000000000000        0.0000000000000000     
  0.87500000000000000       0.50000000000000000        0.0000000000000000     
  0.87500000000000000       0.37500000000000000        0.0000000000000000     
  0.90625000000000000       0.37500000000000000        0.0000000000000000     
  0.93750000000000000       0.37500000000000000        0.0000000000000000     
  0.96875000000000000       0.37500000000000000        0.0000000000000000     
   1.0000000000000000       0.37500000000000000        0.0000000000000000     
  0.87500000000000000       0.40625000000000000        0.0000000000000000     
  0.90625000000000000       0.40625000000000000        0.0000000000000000     
  0.93750000000000000       0.40625000000000000        0.0000000000000000     
  0.96875000000000000       0.40625000000000000        0.0000000000000000     
   1.0000000000000000       0.40625000000000000        0.0000000000000000     
  0.87500000000000000       0.43750000000000000        0.0000000000000000     
  0.90625000000000000       0.43750000000000000        0.0000000000000000     
  0.93750000000000000       0.43750000000000000        0.0000000000000000     
  0.96875000000000000       0.43750000000000000        0.0000000000000000     
   1.0000000000000000       0.43750000000000000        0.0000000000000000     
  0.87500000000000000       0.46875000000000000        0.0000000000000000     
  0.90625000000000000       0.46875000000000000        0.0000000000000000     
  0.93750000000000000       0.46875000000000000        0.0000000000000000     
  0.96875000000000000       0.46875000000000000        0.0000000000000000     
   1.0000000000000000       0.46875000000000000        0.0000000000000000     
  0.87500000000000000       0.50000000000000000        0.0000000000000000     
  0.90625000000000000       0.50000000000000000        0.0000000000000000     
  0.93750000000000000       0.50000000000000000        0.0000000000000000     
  0.96875000000000000       0.50000000000000000        0.0000000000000000     
   1.0000000000000000       0.50000000000000000        0.0000000000000000     
   0.0000000000000000       0.50000000000000000        0.0000000000000000     
   3.1250000000000000E-002  0.50000000000000000        0.0000000000000000     
   6.2500000000000000E-002  0.50000000000000000        0.0000000000000000     
   9.3750000000000000E-002  0.50000000000000000        0.0000000000000000     
  0.12500000000000000       0.50000000000000000        0.0000000000000000     
   0.0000000000000000       0.53125000000000000        0.0000000000000000     
   3.1250000000000000E-002  0.53125000000000000        0.0000000000000000     
   6.2500000000000000E-002  0.53125000000000000        0.0000000000000000     
   9.3750000000000000E-002  0.53125000000000000        0.0000000000000000     
  0.12500000000000000       0.53125000000000000        0.0000000000000000     
   0.0000000000000000       0.56250000000000000        0.0000000000000000     
   3.1250000000000000E-002  0.56250000000000000        0.0000000000000000     
   6.2500000000000000E-002  0.56250000000000000        0.0000000000000000     
   9.3750000000000000E-002  0.56250000000000000        0.0000000000000000     
  0.12500000000000000       0.56250000000000000        0.0000000000000000     
   0.0000000000000000       0.59375000000000000        0.0000000000000000     
   3.1250000000000000E-002  0.59375000000000000        0.0000000000000000     
   6.2500000000000000E-002  0.59375000000000000        0.0000000000000000     
   9.3750000000000000E-002  0.59375000000000000        0.0000000000000000     
  0.12500000000000000       0.59375000000000000        0.0000000000000000     
   0.0000000000000000       0.62500000000000000        0.0000000000000000     
   3.1250000000000000E-002  0.62500000000000000        0.0000000000000000     
   6.2500000000000000E-002  0.62500000000000000        0.0000000000000000     
   9.3750000000000000E-002  0.62500000000000000        0.0000000000000000     
  0.12500000000000000       0.62500000000000000        0.0000000000000000     
  0.12500000000000000       0.50000000000000000        0.0000000000000000     
  0.15625000000000000       0.50000000000000000        0.0000000000000000     
  0.18750000000000000       0.50000000000000000        0.0000000000000000     
  0.21875000000000000       0.50000000000000000        0.0000000000000000     
  0.25000000000000000       0.50000000000000000        0.0000000000000000     
  0.12500000000000000       0.53125000000000000        0.0000000000000000     
  0.15625000000000000       0.53125000000000000        0.0000000000000000     
  0.18750000000000000       0.53125000000000000        0.0000000000000000     
  0.21875000000000000       0.53125000000000000        0.0000000000000000     
  0.25000000000000000       0.53125000000000000        0.0000000000000000     
  0.12500000000000000       0.56250000000000000        0.0000000000000000     
  0.15625000000000000       0.56250000000000000        0.0000000000000000     
  0.18750000000000000       0.56250000000000000        0.0000000000000000     
  0.21875000000000000       0.56250000000000000        0.0000000000000000     
  0.25000000000000000       0.56250000000000000        0.0000000000000000     
  0.12500000000000000       0.59375000000000000        0.0000000000000000     
  0.15625000000000000       0.59375000000000000        0.0000000000000000     
  0.18750000000000000       0.59375000000000000        0.0000000000000000     
  0.21875000000000000       0.59375000000000000        0.0000000000000000     
  0.25000000000000000       0.59375000000000000        0.0000000000000000     
  0.12500000000000000       0.62500000000000000        0.0000000000000000     
  0.15625000000000000       0.62500000000000000        0.0000000000000000     
  0.18750000000000000       0.62500000000000000        0.0000000000000000     
  0.21875000000000000       0.62500000000000000        0.0000000000000000     
  0.25000000000000000       0.62500000000000000        0.0000000000000000     
  0.25000000000000000       0.50000000000000000        0.0000000000000000     
  0.28125000000000000       0.50000000000000000        0.0000000000000000     
  0.31250000000000000       0.50000000000000000        0.0000000000000000     
  0.34375000000000000       0.50000000000000000        0.0000000000000000     
  0.37500000000000000       0.50000000000000000        0.0000000000000000     
  0.25000000000000000       0.53125000000000000        0.0000000000000000     
  0.28125000000000000       0.53125000000000000        0.0000000000000000     
  0.31250000000000000       0.53125000000000000        0.0000000000000000     
  0.34375000000000000       0.53125000000000000        0.0000000000000000     
  0.37500000000000000       0.53125000000000000        0.0000000000000000     
  0.25000000000000000       0.56250000000000000        0.0000000000000000     
  0.28125000000000000       0.56250000000000000        0.0000000000000000     
  0.31250000000000000       0.56250000000000000        0.0000000000000000     
  0.34375000000000000       0.56250000000000000        0.0000000000000000     
  0.37500000000000000       0.56250000000000000        0.0000000000000000     
  0.25000000000000000       0.59375000000000000        0.0000000000000000     
  0.28125000000000000       0.59375000000000000        0.0000000000000000     
  0.31250000000000000       0.59375000000000000        0.0000000000000000     
  0.34375000000000000       0.59375000000000000        0.0000000000000000     
  0.37500000000000000       0.59375000000000000        0.0000000000000000     
  0.25000000000000000       0.62500000000000000        0.0000000000000000     
  0.28125000000000000       0.62500000000000000        0.0000000000000000     
  0.31250000000000000       0.62500000000000000        0.0000000000000000     
  0.34375000000000000       0.62500000000000000        0.0000000000000000     
  0.37500000000000000       0.62500000000000000        0.0000000000000000     
  0.37500000000000000       0.50000000000000000        0.0000000000000000     
  0.40625000000000000       0.50000000000000000        0.0000000000000000     
  0.43750000000000000       0.50000000000000000        0.0000000000000000     
  0.46875000000000000       0.50000000000000000        0.0000000000000000     
  0.50000000000000000       0.50000000000000000        0.0000000000000000     
  0.37500000000000000       0.53125000000000000        0.0000000000000000     
  0.40625000000000000       0.53125000000000000        0.0000000000000000     
  0.43750000000000000       0.53125000000000000        0.0000000000000000     
  0.46875000000000000       0.53125000000000000        0.0000000000000000     
  0.50000000000000000       0.53125000000000000        0.0000000000000000     
  0.37500000000000000       0.56250000000000000        0.0000000000000000     
  0.40625000000000000       0.56250000000000000        0.0000000000000000     
  0.43750000000000000       0.56250000000000000        0.0000000000000000     
  0.46875000000000000       0.56250000000000000        0.0000000000000000     
  0.50000000000000000       0.56250000000000000        0.0000000000000000     
  0.37500000000000000       0.59375000000000000        0.0000000000000000     
  0.40625000000000000       0.59375000000000000        0.0000000000000000     
  0.43750000000000000       0.59375000000000000        0.0000000000000000     
  0.46875000000000000       0.59375000000000000        0.0000000000000000     
  0.50000000000000000       0.59375000000000000        0.0000000000000000     
  0.37500000000000000       0.62500000000000000        0.0000000000000000     
  0.40625000000000000       0.62500000000000000        0.0000000000000000     
  0.43750000000000000       0.62500000000000000        0.0000000000000000     
  0.46875000000000000       0.62500000000000000        0.0000000000000000     
  0.50000000000000000       0.62500000000000000        0.0000000000000000     
  0.50000000000000000       0.50000000000000000        0.0000000000000000     
  0.53125000000000000       0.50000000000000000        0.0000000000000000     
  0.56250000000000000       0.50000000000000000        0.0000000000000000     
  0.59375000000000000       0.50000000000000000        0.0000000000000000     
  0.62500000000000000       0.50000000000000000        0.0000000000000000     
  0.50000000000000000       0.53125000000000000        0.0000000000000000     
  0.53125000000000000       0.53125000000000000        0.0000000000000000     
  0.56250000000000000       0.53125000000000000        0.0000000000000000     
  0.59375000000000000       0.53125000000000000        0.0000000000000000     
  0.62500000000000000       0.53125000000000000        0.0000000000000000     
  0.50000000000000000       0.56250000000000000        0.0000000000000000     
  0.53125000000000000       0.56250000000000000        0.0000000000000000     
  0.56250000000000000       0.56250000000000000        0.0000000000000000     
  0.59375000000000000       0.56250000000000000        0.0000000000000000     
  0.62500000000000000       0.56250000000000000        0.0000000000000000     
  0.50000000000000000       0.59375000000000000        0.0000000000000000     
  0.53125000000000000       0.59375000000000000        0.0000000000000000     
  0.56250000000000000       0.59375000000000000        0.0000000000000000     
  0.59375000000000000       0.59375000000000000        0.0000000000000000     
  0.62500000000000000       0.59375000000000000        0.0000000000000000     
  0.50000000000000000       0.62500000000000000        0.0000000000000000     
  0.53125000000000000       0.62500000000000000        0.0000000000000000     
  0.56250000000000000       0.62500000000000000        0.0000000000000000     
  0.59375000000000000       0.62500000000000000        0.0000000000000000     
  0.62500000000000000       0.62500000000000000        0.0000000000000000     
  0.62500000000000000       0.50000000000000000        0.0000000000000000     
  0.65625000000000000       0.50000000000000000        0.0000000000000000     
  0.68750000000000000       0.50000000000000000        0.0000000000000000     
  0.71875000000000000       0.50000000000000000        0.0000000000000000     
  0.75000000000000000       0.50000000000000000        0.0000000000000000     
  0.62500000000000000       0.53125000000000000        0.0000000000000000     
  0.65625000000000000       0.53125000000000000        0.0000000000000000     
  0.68750000000000000       0.53125000000000000        0.0000000000000000     
  0.71875000000000000       0.53125000000000000        0.0000000000000000     
  0.75000000000000000       0.53125000000000000        0.0000000000000000     
  0.62500000000000000       0.56250000000000000        0.0000000000000000     
  0.65625000000000000       0.56250000000000000        0.0000000000000000     
  0.68750000000000000       0.56250000000000000        0.0000000000000000     
  0.71875000000000000       0.56250000000000000        0.0000000000000000     
  0.75000000000000000       0.56250000000000000        0.0000000000000000     
  0.62500000000000000       0.59375000000000000        0.0000000000000000     
  0.65625000000000000       0.59375000000000000        0.0000000000000000     
  0.68750000000000000       0.59375000000000000        0.0000000000000000     
  0.71875000000000000       0.59375000000000000        0.0000000000000000     
  0.75000000000000000       0.59375000000000000        0.0000000000000000     
  0.62500000000000000       0.62500000000000000        0.0000000000000000     
  0.65625000000000000       0.62500000000000000        0.0000000000000000     
  0.68750000000000000       0.62500000000000000        0.0000000000000000     
  0.71875000000000000       0.62500000000000000        0.0000000000000000     
  0.75000000000000000       0.62500000000000000        0.0000000000000000     
  0.75000000000000000       0.50000000000000000        0.0000000000000000     
  0.78125000000000000       0.50000000000000000        0.0000000000000000     
  0.81250000000000000       0.50000000000000000        0.0000000000000000     
  0.84375000000000000       0.50000000000000000        0.0000000000000000     
  0.87500000000000000       0.50000000000000000        0.0000000000000000     
  0.75000000000000000       0.53125000000000000        0.0000000000000000     
  0.78125000000000000       0.53125000000000000        0.0000000000000000     
  0.81250000000000000       0.53125000000000000        0.0000000000000000     
  0.84375000000000000       0.53125000000000000        0.0000000000000000     
  0.87500000000000000       0.53125000000000000        0.0000000000000000     
  0.75000000000000000       0.56250000000000000        0.0000000000000000     
  0.78125000000000000       0.56250000000000000        0.0000000000000000     
  0.81250000000000000       0.56250000000000000        0.0000000000000000     
  0.84375000000000000       0.56250000000000000        0.0000000000000000     
  0.87500000000000000       0.56250000000000000        0.0000000000000000     
  0.75000000000000000       0.59375000000000000        0.0000000000000000     
  0.78125000000000000       0.59375000000000000        0.0000000000000000     
  0.81250000000000000       0.59375000000000000        0.0000000000000000     
  0.84375000000000000       0.59375000000000000        0.0000000000000000     
  0.87500000000000000       0.59375000000000000        0.0000000000000000     
  0.75000000000000000       0.62500000000000000        0.0000000000000000     
  0.78125000000000000       0.62500000000000000        0.0000000000000000     
  0.81250000000000000       0.62500000000000000        0.0000000000000000     
  0.84375000000000000       0.62500000000000000        0.0000000000000000     
  0.87500000000000000       0.62500000000000000        0.0000000000000000     
  0.87500000000000000       0.50000000000000000        0.0000000000000000     
  0.90625000000000000       0.50000000000000000        0.0000000000000000     
  0.93750000000000000       0.50000000000000000        0.0000000000000000     
  0.96875000000000000       0.50000000000000000        0.0000000000000000     
   1.0000000000000000       0.50000000000000000        0.0000000000000000     
  0.87500000000000000       0.53125000000000000        0.0000000000000000     
  0.90625000000000000       0.53125000000000000        0.0000000000000000     
  0.93750000000000000       0.53125000000000000        0.0000000000000000     
  0.96875000000000000       0.53125000000000000        0.0000000000000000     
   1.0000000000000000       0.53125000000000000        0.0000000000000000     
  0.87500000000000000       0.56250000000000000        0.0000000000000000     
  0.90625000000000000       0.56250000000000000        0.0000000000000000     
  0.93750000000000000       0.56250000000000000        0.0000000000000000     
  0.96875000000000000       0.56250000000000000        0.0000000000000000     
   1.0000000000000000       0.56250000000000000        0.0000000000000000     
  0.87500000000000000       0.59375000000000000        0.0000000000000000     
  0.90625000000000000       0.59375000000000000        0.0000000000000000     
  0.93750000000000000       0.59375000000000000        0.0000000000000000     
  0.96875000000000000       0.59375000000000000        0.0000000000000000     
   1.0000000000000000       0.59375000000000000        0.0000000000000000     
  0.87500000000000000       0.62500000000000000        0.0000000000000000     
  0.90625000000000000       0.62500000000000000        0.0000000000000000     
  0.93750000000000000       0.62500000000000000        0.0000000000000000     
  0.96875000000000000       0.62500000000000000        0.0000000000000000     
   1.0000000000000000       0.62500000000000000        0.0000000000000000     
   0.0000000000000000       0.62500000000000000        0.0000000000000000     
   3.1250000000000000E-002  0.62500000000000000        0.0000000000000000     
   6.2500000000000000E-002  0.62500000000000000        0.0000000000000000     
   9.3750000000000000E-002  0.62500000000000000        0.0000000000000000     
  0.12500000000000000       0.62500000000000000        0.0000000000000000     
   0.0000000000000000       0.65625000000000000        0.0000000000000000     
   3.1250000000000000E-002  0.65625000000000000        0.0000000000000000     
   6.2500000000000000E-002  0.65625000000000000        0.0000000000000000     
   9.3750000000000000E-002  0.65625000000000000        0.0000000000000000     
  0.12500000000000000       0.65625000000000000        0.0000000000000000     
   0.0000000000000000       0.68750000000000000        0.0000000000000000     
   3.1250000000000000E-002  0.68750000000000000        0.0000000000000000     
   6.2500000000000000E-002  0.68750000000000000        0.0000000000000000     
   9.3750000000000000E-002  0.68750000000000000        0.0000000000000000     
  0.12500000000000000       0.68750000000000000        0.0000000000000000     
   0.0000000000000000       0.71875000000000000        0.0000000000000000     
   3.1250000000000000E-002  0.71875000000000000        0.0000000000000000     
   6.2500000000000000E-002  0.71875000000000000        0.0000000000000000     
   9.3750000000000000E-002  0.71875000000000000        0.0000000000000000     
  0.12500000000000000       0.71875000000000000        0.0000000000000000     
   0.0000000000000000       0.75000000000000000        0.0000000000000000     
   3.1250000000000000E-002  0.75000000000000000        0.0000000000000000     
   6.2500000000000000E-002  0.75000000000000000        0.0000000000000000     
   9.3750000000000000E-002  0.75000000000000000        0.0000000000000000     
  0.12500000000000000       0.75000000000000000        0.0000000000000000     
  0.12500000000000000       0.62500000000000000        0.0000000000000000     
  0.15625000000000000       0.62500000000000000        0.0000000000000000     
  0.18750000000000000       0.62500000000000000        0.0000000000000000     
  0.21875000000000000       0.62500000000000000        0.0000000000000000     
  0.25000000000000000       0.62500000000000000        0.0000000000000000     
  0.12500000000000000       0.65625000000000000        0.0000000000000000     
  0.15625000000000000       0.65625000000000000        0.0000000000000000     
  0.18750000000000000       0.65625000000000000        0.0000000000000000     
  0.21875000000000000       0.65625000000000000        0.0000000000000000     
  0.25000000000000000       0.65625000000000000        0.0000000000000000     
  0.12500000000000000       0.68750000000000000        0.0000000000000000     
  0.15625000000000000       0.68750000000000000        0.0000000000000000     
  0.18750000000000000       0.68750000000000000        0.0000000000000000     
  0.21875000000000000       0.68750000000000000        0.0000000000000000     
  0.25000000000000000       0.68750000000000000        0.0000000000000000     
  0.12500000000000000       0.71875000000000000        0.0000000000000000     
  0.15625000000000000       0.71875000000000000        0.0000000000000000     
  0.18750000000000000       0.71875000000000000        0.0000000000000000     
  0.21875000000000000       0.71875000000000000        0.0000000000000000     
  0.25000000000000000       0.71875000000000000        0.0000000000000000     
  0.12500000000000000       0.75000000000000000        0.0000000000000000     
  0.15625000000000000       0.75000000000000000        0.0000000000000000     
  0.18750000000000000       0.75000000000000000        0.0000000000000000     
  0.21875000000000000       0.75000000000000000        0.0000000000000000     
  0.25000000000000000       0.75000000000000000        0.0000000000000000     
  0.25000000000000000       0.62500000000000000        0.0000000000000000     
  0.28125000000000000       0.62500000000000000        0.0000000000000000     
  0.31250000000000000       0.62500000000000000        0.0000000000000000     
  0.34375000000000000       0.62500000000000000        0.0000000000000000     
  0.37500000000000000       0.62500000000000000        0.0000000000000000     
  0.25000000000000000       0.65625000000000000        0.0000000000000000     
  0.28125000000000000       0.65625000000000000        0.0000000000000000     
  0.31250000000000000       0.65625000000000000        0.0000000000000000     
  0.34375000000000000       0.65625000000000000        0.0000000000000000     
  0.37500000000000000       0.65625000000000000        0.0000000000000000     
  0.25000000000000000       0.68750000000000000        0.0000000000000000     
  0.28125000000000000       0.68750000000000000        0.0000000000000000     
  0.31250000000000000       0.68750000000000000        0.0000000000000000     
  0.34375000000000000       0.68750000000000000        0.0000000000000000     
  0.37500000000000000       0.68750000000000000        0.0000000000000000     
  0.25000000000000000       0.71875000000000000        0.0000000000000000     
  0.28125000000000000       0.71875000000000000        0.0000000000000000     
  0.31250000000000000       0.71875000000000000        0.0000000000000000     
  0.34375000000000000       0.71875000000000000        0.0000000000000000     
  0.37500000000000000       0.71875000000000000        0.0000000000000000     
  0.25000000000000000       0.75000000000000000        0.0000000000000000     
  0.28125000000000000       0.75000000000000000        0.0000000000000000     
  0.31250000000000000       0.75000000000000000        0.0000000000000000     
  0.34375000000000000       0.75000000000000000        0.0000000000000000     
  0.37500000000000000       0.75000000000000000        0.0000000000000000     
  0.37500000000000000       0.62500000000000000        0.0000000000000000     
  0.40625000000000000       0.62500000000000000        0.0000000000000000     
  0.43750000000000000       0.62500000000000000        0.0000000000000000     
  0.46875000000000000       0.62500000000000000        0.0000000000000000     
  0.50000000000000000       0.62500000000000000        0.0000000000000000     
  0.37500000000000000       0.65625000000000000        0.0000000000000000     
  0.40625000000000000       0.65625000000000000        0.0000000000000000     
  0.43750000000000000       0.65625000000000000        0.0000000000000000     
  0.46875000000000000       0.65625000000000000        0.0000000000000000     
  0.50000000000000000       0.65625000000000000        0.0000000000000000     
  0.37500000000000000       0.68750000000000000        0.0000000000000000     
  0.40625000000000000       0.68750000000000000        0.0000000000000000     
  0.43750000000000000       0.68750000000000000        0.0000000000000000     
  0.46875000000000000       0.68750000000000000        0.0000000000000000     
  0.50000000000000000       0.68750000000000000        0.0000000000000000     
  0.37500000000000000       0.71875000000000000        0.0000000000000000     
  0.40625000000000000       0.71875000000000000        0.0000000000000000     
  0.43750000000000000       0.71875000000000000        0.0000000000000000     
  0.46875000000000000       0.71875000000000000        0.0000000000000000     
  0.50000000000000000       0.71875000000000000        0.0000000000000000     
  0.37500000000000000       0.75000000000000000        0.0000000000000000     
  0.40625000000000000       0.75000000000000000        0.0000000000000000     
  0.43750000000000000       0.75000000000000000        0.0000000000000000     
  0.46875000000000000       0.75000000000000000        0.0000000000000000     
  0.50000000000000000       0.75000000000000000        0.0000000000000000     
  0.50000000000000000       0.62500000000000000        0.0000000000000000     
  0.53125000000000000       0.62500000000000000        0.0000000000000000     
  0.56250000000000000       0.62500000000000000        0.0000000000000000     
  0.59375000000000000       0.62500000000000000        0.0000000000000000     
  0.62500000000000000       0.62500000000000000        0.0000000000000000     
  0.50000000000000000       0.65625000000000000        0.0000000000000000     
  0.53125000000000000       0.65625000000000000        0.0000000000000000     
  0.56250000000000000       0.65625000000000000        0.0000000000000000     
  0.59375000000000000       0.65625000000000000        0.0000000000000000     
  0.62500000000000000       0.65625000000000000        0.0000000000000000     
  0.50000000000000000       0.68750000000000000        0.0000000000000000     
  0.53125000000000000       0.68750000000000000        0.0000000000000000     
  0.56250000000000000       0.68750000000000000        0.0000000000000000     
  0.59375000000000000       0.68750000000000000        0.0000000000000000     
  0.62500000000000000       0.68750000000000000        0.0000000000000000     
  0.50000000000000000       0.71875000000000000        0.0000000000000000     
  0.53125000000000000       0.71875000000000000        0.0000000000000000     
  0.56250000000000000       0.71875000000000000        0.0000000000000000     
  0.59375000000000000       0.71875000000000000        0.0000000000000000     
  0.62500000000000000       0.71875000000000000        0.0000000000000000     
  0.50000000000000000       0.75000000000000000        0.0000000000000000     
  0.53125000000000000       0.75000000000000000        0.0000000000000000     
  0.56250000000000000       0.75000000000000000        0.0000000000000000     
  0.59375000000000000       0.75000000000000000        0.0000000000000000     
  0.62500000000000000       0.75000000000000000        0.0000000000000000     
  0.62500000000000000       0.62500000000000000        0.0000000000000000     
  0.65625000000000000       0.62500000000000000        0.0000000000000000     
  0.68750000000000000       0.62500000000000000        0.0000000000000000     
  0.71875000000000000       0.62500000000000000        0.0000000000000000     
  0.75000000000000000       0.62500000000000000        0.0000000000000000     
  0.62500000000000000       0.65625000000000000        0.0000000000000000     
  0.65625000000000000       0.65625000000000000        0.0000000000000000     
  0.68750000000000000       0.65625000000000000        0.0000000000000000     
  0.71875000000000000       0.65625000000000000        0.0000000000000000     
  0.75000000000000000       0.65625000000000000        0.0000000000000000     
  0.62500000000000000       0.68750000000000000        0.0000000000000000     
  0.65625000000000000       0.68750000000000000        0.0000000000000000     
  0.68750000000000000       0.68750000000000000        0.0000000000000000     
  0.71875000000000000       0.68750000000000000        0.0000000000000000     
  0.75000000000000000       0.68750000000000000        0.0000000000000000     
  0.62500000000000000       0.71875000000000000        0.0000000000000000     
  0.65625000000000000       0.71875000000000000        0.0000000000000000     
  0.68750000000000000       0.71875000000000000        0.0000000000000000     
  0.71875000000000000       0.71875000000000000        0.0000000000000000     
  0.75000000000000000       0.71875000000000000        0.0000000000000000     
  0.62500000000000000       0.75000000000000000        0.0000000000000000     
  0.65625000000000000       0.75000000000000000        0.0000000000000000     
  0.68750000000000000       0.75000000000000000        0.0000000000000000     
  0.71875000000000000       0.75000000000000000        0.0000000000000000     
  0.75000000000000000       0.75000000000000000        0.0000000000000000     
  0.75000000000000000       0.62500000000000000        0.0000000000000000     
  0.78125000000000000       0.62500000000000000        0.0000000000000000     
  0.81250000000000000       0.62500000000000000        0.0000000000000000     
  0.84375000000000000       0.62500000000000000        0.0000000000000000     
  0.87500000000000000       0.62500000000000000        0.0000000000000000     
  0.75000000000000000       0.65625000000000000        0.0000000000000000     
  0.78125000000000000       0.65625000000000000        0.0000000000000000     
  0.81250000000000000       0.65625000000000000        0.0000000000000000     
  0.84375000000000000       0.65625000000000000        0.0000000000000000     
  0.87500000000000000       0.65625000000000000        0.0000000000000000     
  0.75000000000000000       0.68750000000000000        0.0000000000000000     
  0.78125000000000000       0.68750000000000000        0.0000000000000000     
  0.81250000000000000       0.68750000000000000        0.0000000000000000     
  0.84375000000000000       0.68750000000000000        0.0000000000000000     
  0.87500000000000000       0.68750000000000000        0.0000000000000000     
  0.75000000000000000       0.71875000000000000        0.0000000000000000     
  0.78125000000000000       0.71875000000000000        0.0000000000000000     
  0.81250000000000000       0.71875000000000000        0.0000000000000000     
  0.84375000000000000       0.71875000000000000        0.0000000000000000     
  0.87500000000000000       0.71875000000000000        0.0000000000000000     
  0.75000000000000000       0.75000000000000000        0.0000000000000000     
  0.78125000000000000       0.75000000000000000        0.0000000000000000     
  0.81250000000000000       0.75000000000000000        0.0000000000000000     
  0.84375000000000000       0.75000000000000000        0.0000000000000000     
  0.87500000000000000       0.75000000000000000        0.0000000000000000     
  0.87500000000000000       0.62500000000000000        0.0000000000000000     
  0.90625000000000000       0.62500000000000000        0.0000000000000000     
  0.93750000000000000       0.62500000000000000        0.0000000000000000     
  0.96875000000000000       0.62500000000000000        0.0000000000000000     
   1.0000000000000000       0.62500000000000000        0.0000000000000000     
  0.87500000000000000       0.65625000000000000        0.0000000000000000     
  0.90625000000000000       0.65625000000000000        0.0000000000000000     
  0.93750000000000000       0.65625000000000000        0.0000000000000000     
  0.96875000000000000       0.65625000000000000        0.0000000000000000     
   1.0000000000000000       0.65625000000000000        0.0000000000000000     
  0.87500000000000000       0.68750000000000000        0.0000000000000000     
  0.90625000000000000       0.68750000000000000        0.0000000000000000     
  0.93750000000000000       0.68750000000000000        0.0000000000000000     
  0.96875000000000000       0.68750000000000000        0.0000000000000000     
   1.0000000000000000       0.68750000000000000        0.0000000000000000     
  0.87500000000000000       0.71875000000000000        0.0000000000000000     
  0.90625000000000000       0.71875000000000000        0.0000000000000000     
  0.93750000000000000       0.71875000000000000        0.0000000000000000     
  0.96875000000000000       0.71875000000000000        0.0000000000000000     
   1.0000000000000000       0.71875000000000000        0.0000000000000000     
  0.87500000000000000       0.75000000000000000        0.0000000000000000     
  0.90625000000000000       0.75000000000000000        0.0000000000000000     
  0.93750000000000000       0.75000000000000000        0.0000000000000000     
  0.96875000000000000       0.75000000000000000        0.0000000000000000     
   1.0000000000000000       0.75000000000000000        0.0000000000000000     
   0.0000000000000000       0.75000000000000000        0.0000000000000000     
   3.1250000000000000E-002  0.75000000000000000        0.0000000000000000     
   6.2500000000000000E-002  0.75000000000000000        0.0000000000000000     
   9.3750000000000000E-002  0.75000000000000000        0.0000000000000000     
  0.12500000000000000       0.75000000000000000        0.0000000000000000     
   0.0000000000000000       0.78125000000000000        0.0000000000000000     
   3.1250000000000000E-002  0.78125000000000000        0.0000000000000000     
   6.2500000000000000E-002  0.78125000000000000        0.0000000000000000     
   9.3750000000000000E-002  0.78125000000000000        0.0000000000000000     
  0.12500000000000000       0.78125000000000000        0.0000000000000000     
   0.0000000000000000       0.81250000000000000        0.0000000000000000     
   3.1250000000000000E-002  0.81250000000000000        0.0000000000000000     
   6.2500000000000000E-002  0.81250000000000000        0.0000000000000000     
   9.3750000000000000E-002  0.81250000000000000        0.0000000000000000     
  0.12500000000000000       0.81250000000000000        0.0000000000000000     
   0.0000000000000000       0.84375000000000000        0.0000000000000000     
   3.1250000000000000E-002  0.84375000000000000        0.0000000000000000     
   6.2500000000000000E-002  0.84375000000000000        0.0000000000000000     
   9.3750000000000000E-002  0.84375000000000000        0.0000000000000000     
  0.12500000000000000       0.84375000000000000        0.0000000000000000     
   0.0000000000000000       0.87500000000000000        0.0000000000000000     
   3.1250000000000000E-002  0.87500000000000000        0.0000000000000000     
   6.2500000000000000E-002  0.87500000000000000        0.0000000000000000     
   9.3750000000000000E-002  0.87500000000000000        0.0000000000000000     
  0.12500000000000000       0.87500000000000000        0.0000000000000000     
  0.12500000000000000       0.75000000000000000        0.0000000000000000     
  0.15625000000000000       0.75000000000000000        0.0000000000000000     
  0.18750000000000000       0.75000000000000000        0.0000000000000000     
  0.21875000000000000       0.75000000000000000        0.0000000000000000     
  0.25000000000000000       0.75000000000000000        0.0000000000000000     
  0.12500000000000000       0.78125000000000000        0.0000000000000000     
  0.15625000000000000       0.78125000000000000        0.0000000000000000     
  0.18750000000000000       0.78125000000000000        0.0000000000000000     
  0.21875000000000000       0.78125000000000000        0.0000000000000000     
  0.25000000000000000       0.78125000000000000        0.0000000000000000     
  0.12500000000000000       0.81250000000000000        0.0000000000000000     
  0.15625000000000000       0.81250000000000000        0.0000000000000000     
  0.18750000000000000       0.81250000000000000        0.0000000000000000     
  0.21875000000000000       0.81250000000000000        0.0000000000000000     
  0.25000000000000000       0.81250000000000000        0.0000000000000000     
  0.12500000000000000       0.84375000000000000        0.0000000000000000     
  0.15625000000000000       0.84375000000000000        0.0000000000000000     
  0.18750000000000000       0.84375000000000000        0.0000000000000000     
  0.21875000000000000       0.84375000000000000        0.0000000000000000     
  0.25000000000000000       0.84375000000000000        0.0000000000000000     
  0.12500000000000000       0.87500000000000000        0.0000000000000000     
  0.15625000000000000       0.87500000000000000        0.0000000000000000     
  0.18750000000000000       0.87500000000000000        0.0000000000000000     
  0.21875000000000000       0.87500000000000000        0.0000000000000000     
  0.25000000000000000       0.87500000000000000        0.0000000000000000     
  0.25000000000000000       0.75000000000000000        0.0000000000000000     
  0.28125000000000000       0.75000000000000000        0.0000000000000000     
  0.31250000000000000       0.75000000000000000        0.0000000000000000     
  0.34375000000000000       0.75000000000000000        0.0000000000000000     
  0.37500000000000000       0.75000000000000000        0.0000000000000000     
  0.25000000000000000       0.78125000000000000        0.0000000000000000     
  0.28125000000000000       0.78125000000000000        0.0000000000000000     
  0.31250000000000000       0.78125000000000000        0.0000000000000000     
  0.34375000000000000       0.78125000000000000        0.0000000000000000     
  0.37500000000000000       0.78125000000000000        0.0000000000000000     
  0.25000000000000000       0.81250000000000000        0.0000000000000000     
  0.28125000000000000       0.81250000000000000        0.0000000000000000     
  0.31250000000000000       0.81250000000000000        0.0000000000000000     
  0.34375000000000000       0.81250000000000000        0.0000000000000000     
  0.37500000000000000       0.81250000000000000        0.0000000000000000     
  0.25000000000000000       0.84375000000000000        0.0000000000000000     
  0.28125000000000000       0.84375000000000000        0.0000000000000000     
  0.31250000000000000       0.84375000000000000        0.0000000000000000     
  0.34375000000000000       0.84375000000000000        0.0000000000000000     
  0.37500000000000000       0.84375000000000000        0.0000000000000000     
  0.25000000000000000       0.87500000000000000        0.0000000000000000     
  0.28125000000000000       0.87500000000000000        0.0000000000000000     
  0.31250000000000000       0.87500000000000000        0.0000000000000000     
  0.34375000000000000       0.87500000000000000        0.0000000000000000     
  0.37500000000000000       0.87500000000000000        0.0000000000000000     
  0.37500000000000000       0.75000000000000000        0.0000000000000000     
  0.40625000000000000       0.75000000000000000        0.0000000000000000     
  0.43750000000000000       0.75000000000000000        0.0000000000000000     
  0.46875000000000000       0.75000000000000000        0.0000000000000000     
  0.50000000000000000       0.75000000000000000        0.0000000000000000     
  0.37500000000000000       0.78125000000000000        0.0000000000000000     
  0.40625000000000000       0.78125000000000000        0.0000000000000000     
  0.43750000000000000       0.78125000000000000        0.0000000000000000     
  0.46875000000000000       0.78125000000000000        0.0000000000000000     
  0.50000000000000000       0.78125000000000000        0.0000000000000000     
  0.37500000000000000       0.81250000000000000        0.0000000000000000     
  0.40625000000000000       0.81250000000000000        0.0000000000000000     
  0.43750000000000000       0.81250000000000000        0.0000000000000000     
  0.46875000000000000       0.81250000000000000        0.0000000000000000     
  0.50000000000000000       0.81250000000000000        0.0000000000000000     
  0.37500000000000000       0.84375000000000000        0.0000000000000000     
  0.40625000000000000       0.84375000000000000        0.0000000000000000     
  0.43750000000000000       0.84375000000000000        0.0000000000000000     
  0.46875000000000000       0.84375000000000000        0.0000000000000000     
  0.50000000000000000       0.84375000000000000        0.0000000000000000     
  0.37500000000000000       0.87500000000000000        0.0000000000000000     
  0.40625000000000000       0.87500000000000000        0.0000000000000000     
  0.43750000000000000       0.87500000000000000        0.0000000000000000     
  0.46875000000000000       0.87500000000000000        0.0000000000000000     
  0.50000000000000000       0.87500000000000000        0.0000000000000000     
  0.50000000000000000       0.75000000000000000        0.0000000000000000     
  0.53125000000000000       0.75000000000000000        0.0000000000000000     
  0.56250000000000000       0.75000000000000000        0.0000000000000000     
  0.59375000000000000       0.75000000000000000        0.0000000000000000     
  0.62500000000000000       0.75000000000000000        0.0000000000000000     
  0.50000000000000000       0.78125000000000000        0.0000000000000000     
  0.53125000000000000       0.78125000000000000        0.0000000000000000     
  0.56250000000000000       0.78125000000000000        0.0000000000000000     
  0.59375000000000000       0.78125000000000000        0.0000000000000000     
  0.62500000000000000       0.78125000000000000        0.0000000000000000     
  0.50000000000000000       0.81250000000000000        0.0000000000000000     
  0.53125000000000000       0.81250000000000000        0.0000000000000000     
  0.56250000000000000       0.81250000000000000        0.0000000000000000     
  0.59375000000000000       0.81250000000000000        0.0000000000000000     
  0.62500000000000000       0.81250000000000000        0.0000000000000000     
  0.50000000000000000       0.84375000000000000        0.0000000000000000     
  0.53125000000000000       0.84375000000000000        0.0000000000000000     
  0.56250000000000000       0.84375000000000000        0.0000000000000000     
  0.59375000000000000       0.84375000000000000        0.0000000000000000     
  0.62500000000000000       0.84375000000000000        0.0000000000000000     
  0.50000000000000000       0.87500000000000000        0.0000000000000000     
  0.53125000000000000       0.87500000000000000        0.0000000000000000     
  0.56250000000000000       0.87500000000000000        0.0000000000000000     
  0.59375000000000000       0.87500000000000000        0.0000000000000000     
  0.62500000000000000       0.87500000000000000        0.0000000000000000     
  0.62500000000000000       0.75000000000000000        0.0000000000000000     
  0.65625000000000000       0.75000000000000000        0.0000000000000000     
  0.68750000000000000       0.75000000000000000        0.0000000000000000     
  0.71875000000000000       0.75000000000000000        0.0000000000000000     
  0.75000000000000000       0.75000000000000000        0.0000000000000000     
  0.62500000000000000       0.78125000000000000        0.0000000000000000     
  0.65625000000000000       0.78125000000000000        0.0000000000000000     
  0.68750000000000000       0.78125000000000000        0.0000000000000000     
  0.71875000000000000       0.78125000000000000        0.0000000000000000     
  0.75000000000000000       0.78125000000000000        0.0000000000000000     
  0.62500000000000000       0.81250000000000000        0.0000000000000000     
  0.65625000000000000       0.81250000000000000        0.0000000000000000     
  0.68750000000000000       0.81250000000000000        0.0000000000000000     
  0.71875000000000000       0.81250000000000000        0.0000000000000000     
  0.75000000000000000       0.81250000000000000        0.0000000000000000     
  0.62500000000000000       0.84375000000000000        0.0000000000000000     
  0.65625000000000000       0.84375000000000000        0.0000000000000000     
  0.68750000000000000       0.84375000000000000        0.0000000000000000     
  0.71875000000000000       0.84375000000000000        0.0000000000000000     
  0.75000000000000000       0.84375000000000000        0.0000000000000000     
  0.62500000000000000       0.87500000000000000        0.0000000000000000     
  0.65625000000000000       0.87500000000000000        0.0000000000000000     
  0.68750000000000000       0.87500000000000000        0.0000000000000000     
  0.71875000000000000       0.87500000000000000        0.0000000000000000     
  0.75000000000000000       0.87500000000000000        0.0000000000000000     
  0.75000000000000000       0.75000000000000000        0.0000000000000000     
  0.78125000000000000       0.75000000000000000        0.0000000000000000     
  0.81250000000000000       0.75000000000000000        0.0000000000000000     
  0.84375000000000000       0.75000000000000000        0.0000000000000000     
  0.87500000000000000       0.75000000000000000        0.0000000000000000     
  0.75000000000000000       0.78125000000000000        0.0000000000000000     
  0.78125000000000000       0.78125000000000000        0.0000000000000000     
  0.81250000000000000       0.78125000000000000        0.0000000000000000     
  0.84375000000000000       0.78125000000000000        0.0000000000000000     
  0.87500000000000000       0.78125000000000000        0.0000000000000000     
  0.75000000000000000       0.81250000000000000        0.0000000000000000     
  0.78125000000000000       0.81250000000000000        0.0000000000000000     
  0.81250000000000000       0.81250000000000000        0.0000000000000000     
  0.84375000000000000       0.81250000000000000        0.0000000000000000     
  0.87500000000000000       0.81250000000000000        0.0000000000000000     
  0.75000000000000000       0.84375000000000000        0.0000000000000000     
  0.78125000000000000       0.84375000000000000        0.0000000000000000     
  0.81250000000000000       0.84375000000000000        0.0000000000000000     
  0.84375000000000000       0.84375000000000000        0.0000000000000000     
  0.87500000000000000       0.84375000000000000        0.0000000000000000     
  0.75000000000000000       0.87500000000000000        0.0000000000000000     
  0.78125000000000000       0.87500000000000000        0.0000000000000000     
  0.81250000000000000       0.87500000000000000        0.0000000000000000     
  0.84375000000000000       0.87500000000000000        0.0000000000000000     
  0.87500000000000000       0.87500000000000000        0.0000000000000000     
  0.87500000000000000       0.75000000000000000        0.0000000000000000     
  0.90625000000000000       0.75000000000000000        0.0000000000000000     
  0.93750000000000000       0.75000000000000000        0.0000000000000000     
  0.96875000000000000       0.75000000000000000        0.0000000000000000     
   1.0000000000000000       0.75000000000000000        0.0000000000000000     
  0.87500000000000000       0.78125000000000000        0.0000000000000000     
  0.90625000000000000       0.78125000000000000        0.0000000000000000     
  0.93750000000000000       0.78125000000000000        0.0000000000000000     
  0.96875000000000000       0.78125000000000000        0.0000000000000000     
   1.0000000000000000       0.78125000000000000        0.0000000000000000     
  0.87500000000000000       0.81250000000000000        0.0000000000000000     
  0.90625000000000000       0.81250000000000000        0.0000000000000000     
  0.93750000000000000       0.81250000000000000        0.0000000000000000     
  0.96875000000000000       0.81250000000000000        0.0000000000000000     
   1.0000000000000000       0.81250000000000000        0.0000000000000000     
  0.87500000000000000       0.84375000000000000        0.0000000000000000     
  0.90625000000000000       0.84375000000000000        0.0000000000000000     
  0.93750000000000000       0.84375000000000000        0.0000000000000000     
  0.96875000000000000       0.84375000000000000        0.0000000000000000     
   1.0000000000000000       0.84375000000000000        0.0000000000000000     
  0.87500000000000000       0.87500000000000000        0.0000000000000000     
  0.90625000000000000       0.87500000000000000        0.0000000000000000     
  0.93750000000000000       0.87500000000000000        0.0000000000000000     
  0.96875000000000000       0.87500000000000000        0.0000000000000000     
   1.0000000000000000       0.87500000000000000        0.0000000000000000     
   0.0000000000000000       0.87500000000000000        0.0000000000000000     
   3.1250000000000000E-002  0.87500000000000000        0.0000000000000000     
   6.2500000000000000E-002  0.87500000000000000        0.0000000000000000     
   9.3750000000000000E-002  0.87500000000000000        0.0000000000000000     
  0.12500000000000000       0.87500000000000000        0.0000000000000000     
   0.0000000000000000       0.90625000000000000        0.0000000000000000     
   3.1250000000000000E-002  0.90625000000000000        0.0000000000000000     
   6.2500000000000000E-002  0.90625000000000000        0.0000000000000000     
   9.3750000000000000E-002  0.90625000000000000        0.0000000000000000     
  0.12500000000000000       0.90625000000000000        0.0000000000000000     
   0.0000000000000000       0.93750000000000000        0.0000000000000000     
   3.1250000000000000E-002  0.93750000000000000        0.0000000000000000     
   6.2500000000000000E-002  0.93750000000000000        0.0000000000000000     
   9.3750000000000000E-002  0.93750000000000000        0.0000000000000000     
  0.12500000000000000       0.93750000000000000        0.0000000000000000     
   0.0000000000000000       0.96875000000000000        0.0000000000000000     
   3.1250000000000000E-002  0.96875000000000000        0.0000000000000000     
   6.2500000000000000E-002  0.96875000000000000        0.0000000000000000     
   9.3750000000000000E-002  0.96875000000000000        0.0000000000000000     
  0.12500000000000000       0.96875000000000000        0.0000000000000000     
   0.0000000000000000        1.0000000000000000        0.0000000000000000     
   3.1250000000000000E-002   1.0000000000000000        0.0000000000000000     
   6.2500000000000000E-002   1.0000000000000000        0.0000000000000000     
   9.3750000000000000E-002   1.0000000000000000        0.0000000000000000     
  0.12500000000000000        1.0000000000000000        0.0000000000000000     
  0.12500000000000000       0.87500000000000000        0.0000000000000000     
  0.15625000000000000       0.87500000000000000        0.0000000000000000     
  0.18750000000000000       0.87500000000000000        0.0000000000000000     
  0.21875000000000000       0.87500000000000000        0.0000000000000000     
  0.25000000000000000       0.87500000000000000        0.0000000000000000     
  0.12500000000000000       0.90625000000000000        0.0000000000000000     
  0.15625000000000000       0.90625000000000000        0.0000000000000000     
  0.18750000000000000       0.90625000000000000        0.0000000000000000     
  0.21875000000000000       0.90625000000000000        0.0000000000000000     
  0.25000000000000000       0.90625000000000000        0.0000000000000000     
  0.12500000000000000       0.93750000000000000        0.0000000000000000     
  0.15625000000000000       0.93750000000000000        0.0000000000000000     
  0.18750000000000000       0.93750000000000000        0.0000000000000000     
  0.21875000000000000       0.93750000000000000        0.0000000000000000     
  0.25000000000000000       0.93750000000000000        0.0000000000000000     
  0.12500000000000000       0.96875000000000000        0.0000000000000000     
  0.15625000000000000       0.96875000000000000        0.0000000000000000     
  0.18750000000000000       0.96875000000000000        0.0000000000000000     
  0.21875000000000000       0.96875000000000000        0.0000000000000000     
  0.25000000000000000       0.96875000000000000        0.0000000000000000     
  0.12500000000000000        1.0000000000000000        0.0000000000000000     
  0.15625000000000000        1.0000000000000000        0.0000000000000000     
  0.18750000000000000        1.0000000000000000        0.0000000000000000     
  0.21875000000000000        1.0000000000000000        0.0000000000000000     
  0.25000000000000000        1.0000000000000000        0.0000000000000000     
  0.25000000000000000       0.87500000000000000        0.0000000000000000     
  0.28125000000000000       0.87500000000000000        0.0000000000000000     
  0.31250000000000000       0.87500000000000000        0.0000000000000000     
  0.34375000000000000       0.87500000000000000        0.0000000000000000     
  0.37500000000000000       0.87500000000000000        0.0000000000000000     
  0.25000000000000000       0.90625000000000000        0.0000000000000000     
  0.28125000000000000       0.90625000000000000        0.0000000000000000     
  0.31250000000000000       0.90625000000000000        0.0000000000000000     
  0.34375000000000000       0.90625000000000000        0.0000000000000000     
  0.37500000000000000       0.90625000000000000        0.0000000000000000     
  0.25000000000000000       0.93750000000000000        0.0000000000000000     
  0.28125000000000000       0.93750000000000000        0.0000000000000000     
  0.31250000000000000       0.93750000000000000        0.0000000000000000     
  0.34375000000000000       0.93750000000000000        0.0000000000000000     
  0.37500000000000000       0.93750000000000000        0.0000000000000000     
  0.25000000000000000       0.96875000000000000        0.0000000000000000     
  0.28125000000000000       0.96875000000000000        0.0000000000000000     
  0.31250000000000000       0.96875000000000000        0.0000000000000000     
  0.34375000000000000       0.96875000000000000        0.0000000000000000     
  0.37500000000000000       0.96875000000000000        0.0000000000000000     
  0.25000000000000000        1.0000000000000000        0.0000000000000000     
  0.28125000000000000        1.0000000000000000        0.0000000000000000     
  0.31250000000000000        1.0000000000000000        0.0000000000000000     
  0.34375000000000000        1.0000000000000000        0.0000000000000000     
  0.37500000000000000        1.0000000000000000        0.0000000000000000     
  0.37500000000000000       0.87500000000000000        0.0000000000000000     
  0.40625000000000000       0.87500000000000000        0.0000000000000000     
  0.43750000000000000       0.87500000000000000        0.0000000000000000     
  0.46875000000000000       0.87500000000000000        0.0000000000000000     
  0.50000000000000000       0.87500000000000000        0.0000000000000000     
  0.37500000000000000       0.90625000000000000        0.0000000000000000     
  0.40625000000000000       0.90625000000000000        0.0000000000000000     
  0.43750000000000000       0.90625000000000000        0.0000000000000000     
  0.46875000000000000       0.90625000000000000        0.0000000000000000     
  0.50000000000000000       0.90625000000000000        0.0000000000000000     
  0.37500000000000000       0.93750000000000000        0.0000000000000000     
  0.40625000000000000       0.93750000000000000        0.0000000000000000     
  0.43750000000000000       0.93750000000000000        0.0000000000000000     
  0.46875000000000000       0.93750000000000000        0.0000000000000000     
  0.50000000000000000       0.93750000000000000        0.0000000000000000     
  0.37500000000000000       0.96875000000000000        0.0000000000000000     
  0.40625000000000000       0.96875000000000000        0.0000000000000000     
  0.43750000000000000       0.96875000000000000        0.0000000000000000     
  0.46875000000000000       0.96875000000000000        0.0000000000000000     
  0.50000000000000000       0.96875000000000000        0.0000000000000000     
  0.37500000000000000        1.0000000000000000        0.0000000000000000     
  0.40625000000000000        1.0000000000000000        0.0000000000000000     
  0.43750000000000000        1.0000000000000000        0.0000000000000000     
  0.46875000000000000        1.0000000000000000        0.0000000000000000     
  0.50000000000000000        1.0000000000000000        0.0000000000000000     
  0.50000000000000000       0.87500000000000000        0.0000000000000000     
  0.53125000000000000       0.87500000000000000        0.0000000000000000     
  0.56250000000000000       0.87500000000000000        0.0000000000000000     
  0.59375000000000000       0.87500000000000000        0.0000000000000000     
  0.62500000000000000       0.87500000000000000        0.0000000000000000     
  0.50000000000000000       0.90625000000000000        0.0000000000000000     
  0.53125000000000000       0.90625000000000000        0.0000000000000000     
  0.56250000000000000       0.90625000000000000        0.0000000000000000     
  0.59375000000000000       0.90625000000000000        0.0000000000000000     
  0.62500000000000000       0.90625000000000000        0.0000000000000000     
  0.50000000000000000       0.93750000000000000        0.0000000000000000     
  0.53125000000000000       0.93750000000000000        0.0000000000000000     
  0.56250000000000000       0.93750000000000000        0.0000000000000000     
  0.59375000000000000       0.93750000000000000        0.0000000000000000     
  0.62500000000000000       0.93750000000000000        0.0000000000000000     
  0.50000000000000000       0.96875000000000000        0.0000000000000000     
  0.53125000000000000       0.96875000000000000        0.0000000000000000     
  0.56250000000000000       0.96875000000000000        0.0000000000000000     
  0.59375000000000000       0.96875000000000000        0.0000000000000000     
  0.62500000000000000       0.96875000000000000        0.0000000000000000     
  0.50000000000000000        1.0000000000000000        0.0000000000000000     
  0.53125000000000000        1.0000000000000000        0.0000000000000000     
  0.56250000000000000        1.0000000000000000        0.0000000000000000     
  0.59375000000000000        1.0000000000000000        0.0000000000000000     
  0.62500000000000000        1.0000000000000000        0.0000000000000000     
  0.62500000000000000       0.87500000000000000        0.0000000000000000     
  0.65625000000000000       0.87500000000000000        0.0000000000000000     
  0.68750000000000000       0.87500000000000000        0.0000000000000000     
  0.71875000000000000       0.87500000000000000        0.0000000000000000     
  0.75000000000000000       0.87500000000000000        0.0000000000000000     
  0.62500000000000000       0.90625000000000000        0.0000000000000000     
  0.65625000000000000       0.90625000000000000        0.0000000000000000     
  0.68750000000000000       0.90625000000000000        0.0000000000000000     
  0.71875000000000000       0.90625000000000000        0.0000000000000000     
  0.75000000000000000       0.90625000000000000        0.0000000000000000     
  0.62500000000000000       0.93750000000000000        0.0000000000000000     
  0.65625000000000000       0.93750000000000000        0.0000000000000000     
  0.68750000000000000       0.93750000000000000        0.0000000000000000     
  0.71875000000000000       0.93750000000000000        0.0000000000000000     
  0.75000000000000000       0.93750000000000000        0.0000000000000000     
  0.62500000000000000       0.96875000000000000        0.0000000000000000     
  0.65625000000000000       0.96875000000000000        0.0000000000000000     
  0.68750000000000000       0.96875000000000000        0.0000000000000000     
  0.71875000000000000       0.96875000000000000        0.0000000000000000     
  0.75000000000000000       0.96875000000000000        0.0000000000000000     
  0.62500000000000000        1.0000000000000000        0.0000000000000000     
  0.65625000000000000        1.0000000000000000        0.0000000000000000     
  0.68750000000000000        1.0000000000000000        0.0000000000000000     
  0.71875000000000000        1.0000000000000000        0.0000000000000000     
  0.75000000000000000        1.0000000000000000        0.0000000000000000     
  0.75000000000000000       0.87500000000000000        0.0000000000000000     
  0.78125000000000000       0.87500000000000000        0.0000000000000000     
  0.81250000000000000       0.87500000000000000        0.0000000000000000     
  0.84375000000000000       0.87500000000000000        0.0000000000000000     
  0.87500000000000000       0.87500000000000000        0.0000000000000000     
  0.75000000000000000       0.90625000000000000        0.0000000000000000     
  0.78125000000000000       0.90625000000000000        0.0000000000000000     
  0.81250000000000000       0.90625000000000000        0.0000000000000000     
  0.84375000000000000       0.90625000000000000        0.0000000000000000     
  0.87500000000000000       0.90625000000000000        0.0000000000000000     
  0.75000000000000000       0.93750000000000000        0.0000000000000000     
  0.78125000000000000       0.93750000000000000        0.0000000000000000     
  0.81250000000000000       0.93750000000000000        0.0000000000000000     
  0.84375000000000000       0.93750000000000000        0.0000000000000000     
  0.87500000000000000       0.93750000000000000        0.0000000000000000     
  0.75000000000000000       0.96875000000000000        0.0000000000000000     
  0.78125000000000000       0.96875000000000000        0.0000000000000000     
  0.81250000000000000       0.96875000000000000        0.0000000000000000     
  0.84375000000000000       0.96875000000000000        0.0000000000000000     
  0.87500000000000000       0.96875000000000000        0.0000000000000000     
  0.75000000000000000        1.0000000000000000        0.0000000000000000     
  0.78125000000000000        1.0000000000000000        0.0000000000000000     
  0.81250000000000000        1.0000000000000000        0.0000000000000000     
  0.84375000000000000        1.0000000000000000        0.0000000000000000     
  0.87500000000000000        1.0000000000000000        0.0000000000000000     
  0.87500000000000000       0.87500000000000000        0.0000000000000000     
  0.90625000000000000       0.87500000000000000        0.0000000000000000     
  0.93750000000000000       0.87500000000000000        0.0000000000000000     
  0.96875000000000000       0.87500000000000000        0.0000000000000000     
   1.0000000000000000       0.87500000000000000        0.0000000000000000     
  0.87500000000000000       0.90625000000000000        0.0000000000000000     
  0.90625000000000000       0.90625000000000000        0.0000000000000000     
  0.93750000000000000       0.90625000000000000        0.0000000000000000     
  0.96875000000000000       0.90625000000000000        0.0000000000000000     
   1.0000000000000000       0.90625000000000000        0.0000000000000000     
  0.87500000000000000       0.93750000000000000        0.0000000000000000     
  0.90625000000000000       0.93750000000000000        0.0000000000000000     
  0.93750000000000000       0.93750000000000000        0.0000000000000000     
  0.96875000000000000       0.93750000000000000        0.0000000000000000     
   1.0000000000000000       0.93750000000000000        0.0000000000000000     
  0.87500000000000000       0.96875000000000000        0.0000000000000000     
  0.90625000000000000       0.96875000000000000        0.0000000000000000     
  0.93750000000000000       0.96875000000000000        0.0000000000000000     
  0.96875000000000000       0.96875000000000000        0.0000000000000000     
   1.0000000000000000       0.96875000000000000        0.0000000000000000     
  0.87500000000000000        1.0000000000000000        0.0000000000000000     
  0.90625000000000000        1.0000000000000000        0.0000000000000000     
  0.93750000000000000        1.0000000000000000        0.0000000000000000     
  0.96875000000000000        1.0000000000000000        0.0000000000000000     
   1.0000000000000000        1.0000000000000000        0.0000000000000000     
 </DataArray>
 </Points>
 <Cells>
 <DataArray  type="Int32"  Name="connectivity"  format="ascii">
           0           1           6           5
           1           2           7           6
           2           3           8           7
           3           4           9           8
           5           6          11          10
           6           7          12          11
           7           8          13          12
           8           9          14          13
          10          11          16          15
          11          12          17          16
          12          13          18          17
          13          14          19          18
          15          16          21          20
          16          17          22          21
          17          18          23          22
          18          19          24          23
          25          26          31          30
          26          27          32          31
          27          28          33          32
          28          29          34          33
          30          31          36          35
          31          32          37          36
          32          33          38          37
          33          34          39          38
          35          36          41          40
          36          37          42          41
          37          38          43          42
          38          39          44          43
          40          41          46          45
          41          42          47          46
          42          43          48          47
          43          44          49          48
          50          51          56          55
          51          52          57          56
          52          53          58          57
          53          54          59          58
          55          56          61          60
          56          57          62          61
          57          58          63          62
          58          59          64          63
          60          61          66          65
          61          62          67          66
          62          63          68          67
          63          64          69          68
          65          66          71          70
          66          67          72          71
          67          68          73          72
          68          69          74          73
          75          76          81          80
          76          77          82          81
          77          78          83          82
          78          79          84          83
          80          81          86          85
          81          82          87          86
          82          83          88          87
          83          84          89          88
          85          86          91          90
          86          87          92          91
          87          88          93          92
          88          89          94          93
          90          91          96          95
          91          92          97          96
          92          93          98          97
          93          94          99          98
         100         101         106         105
         101         102         107         106
         102         103         108         107
         103         104         109         108
         105         106         111         110
         106         107         112         111
         107         108         113         112
         108         109         114         113
         110         111         116         115
         111         112         117         116
         112         113         118         117
         113         114         119         118
         115         116         121         120
         116         117         122         121
         117         118         123         122
         118         119         124         123
         125         126         131         130
         126         127         132         131
         127         128         133         132
         128         129         134         133
         130         131         136         135
         131         132         137         136
         132         133         138         137
         133         134         139         138
         135         136         141         140
         136         137         142         141
         137         138         143         142
         138         139         144         143
         140         141         146         145
         141         142         147         146
         142         143         148         147
         143         144         149         148
         150         151         156         155
         151         152         157         156
         152         153         158         157
         153         154         159         158
         155         156         161         160
         156         157         162         161
         157         158         163         162
         158         159         164         163
         160         161         166         165
         161         162         167         166
         162         163         168         167
         163         164         169         168
         165         166         171         170
         166         167         172         171
         167         168         173         172
         168         169         174         173
         175         176         181         180
         176         177         182         181
         177         178         183         182
         178         179         184         183
         180         181         186         185
         181         182         187         186
         182         183         188         187
         183         184         189         188
         185         186         191         190
         186         187         192         191
         187         188         193         192
         188         189         194         193
         190         191         196         195
         191         192         197         196
         192         193         198         197
         193         194         199         198
         200         201         206         205
         201         202         207         206
         202         203         208         207
         203         204         209         208
         205         206         211         210
         206         207         212         211
         207         208         213         212
         208         209         214         213
         210         211         216         215
         211         212         217         216
         212         213         218         217
         213         214         219         218
         215         216         221         220
         216         217         222         221
         217         218         223         222
         218         219         224         223
         225         226         231         230
         226         227         232         231
         227         228         233         232
         228         229         234         233
         230         231         236         235
         231         232         237         236
         232         233         238         237
         233         234         239         238
         235         236         241         240
         236         237         242         241
         237         238         243         242
         238         239         244         243
         240         241         246         245
         241         242         247         246
         242         243         248         247
         243         244         249         248
         250         251         256         255
         251         252         257         256
         252         253         258         257
         253         254         259         258
         255         256         261         260
         256         257         262         261
         257         258         263         262
         258         259         264         263
         260         261         266         265
         261         262         267         266
         262         263         268         267
         263         264         269         268
         265         266         271         270
         266         267         272         271
         267         268         273         272
         268         269         274         273
         275         276         281         280
         276         277         282         281
         277         278         283         282
         278         279         284         283
         280         281         286         285
         281         282         287         286
         282         283         288         287
         283         284         289         288
         285         286         291         290
         286         287         292         291
         287         288         293         292
         288         289         294         293
         290         291         296         295
         291         292         297         296
         292         293         298         297
         293         294         299         298
         300         301         306         305
         301         302         307         306
         302         303         308         307
         303         304         309         308
         305         306         311         310
         306         307         312         311
         307         308         313         312
         308         309         314         313
         310         311         316         315
         311         312         317         316
         312         313         318         317
         313         314         319         318
         315         316         321         320
         316         317         322         321
         317         318         323         322
         318         319         324         323
         325         326         331         330
         326         327         332         331
         327         328         333         332
         328         329         334         333
         330         331         336         335
         331         332         337         336
         332         333         338         337
         333         334         339         338
         335         336         341         340
         336         337         342         341
         337         338         343         342
         338         339         344         343
         340         341         346         345
         341         342         347         346
         342         343         348         347
         343         344         349         348
         350         351         356         355
         351         352         357         356
         352         353         358         357
         353         354         359         358
         355         356         361         360
         356         357         362         361
         357         358         363         362
         358         359         364         363
         360         361         366         365
         361         362         367         366
         362         363         368         367
         363         364         369         368
         365         366         371         370
         366         367         372         371
         367         368         373         372
         368         369         374         373
         375         376         381         380
         376         377         382         381
         377         378         383         382
         378         379         384         383
         380         381         386         385
         381         382         387         386
         382         383         388         387
         383         384         389         388
         385         386         391         390
         386         387         392         391
         387         388         393         392
         388         389         394         393
         390         391         396         395
         391         392         397         396
         392         393         398         397
         393         394         399         398
         400         401         406         405
         401         402         407         406
         402         403         408         407
         403         404         409         408
         405         406         411         410
         406         407         412         411
         407         408         413         412
         408         409         414         413
         410         411         416         415
         411         412         417         416
         412         413         418         417
         413         414         419         418
         415         416         421         420
         416         417         422         421
         417         418         423         422
         418         419         424         423
         425         426         431         430
         426         427         432         431
         427         428         433         432
         428         429         434         433
         430         431         436         435
         431         432         437         436
         432         433         438         437
         433         434         439         438
         435         436         441         440
         436         437         442         441
         437         438         443         442
         438         439         444         443
         440         441         446         445
         441         442         447         446
         442         443         448         447
         443         444         449         448
         450         451         456         455
         451         452         457         456
         452         453         458         457
         453         454         459         458
         455         456         461         460
         456         457         462         461
         457         458         463         462
         458         459         464         463
         460         461         466         465
         461         462         467         466
         462         463         468         467
         463         464         469         468
         465         466         471         470
         466         467         472         471
         467         468         473         472
         468         469         474         473
         475         476         481         480
         476         477         482         481
         477         478         483         482
         478         479         484         483
         480         481         486         485
         481         482         487         486
         482         483         488         487
         483         484         489         488
         485         486         491         490
         486         487         492         491
         487         488         493         492
         488         489         494         493
         490         491         496         495
         491         492         497         496
         492         493         498         497
         493         494         499         498
         500         501         506         505
         501         502         507         506
         502         503         508         507
         503         504         509         508
         505         506         511         510
         506         507         512         511
         507         508         513         512
         508         509         514         513
         510         511         516         515
         511         512         517         516
         512         513         518         517
         513         514         519         518
         515         516         521         520
         516         517         522         521
         517         518         523         522
         518         519         524         523
         525         526         531         530
         526         527         532         531
         527         528         533         532
         528         529         534         533
         530         531         536         535
         531         532         537         536
         532         533         538         537
         533         534         539         538
         535         536         541         540
         536         537         542         541
         537         538         543         542
         538         539         544         543
         540         541         546         545
         541         542         547         546
         542         543         548         547
         543         544         549         548
         550         551         556         555
         551         552         557         556
         552         553         558         557
         553         554         559         558
         555         556         561         560
         556         557         562         561
         557         558         563         562
         558         559         564         563
         560         561         566         565
         561         562         567         566
         562         563         568         567
         563         564         569         568
         565         566         571         570
         566         567         572         571
         567         568         573         572
         568         569         574         573
         575         576         581         580
         576         577         582         581
         577         578         583         582
         578         579         584         583
         580         581         586         585
         581         582         587         586
         582         583         588         587
         583         584         589         588
         585         586         591         590
         586         587         592         591
         587         588         593         592
         588         589         594         593
         590         591         596         595
         591         592         597         596
         592         593         598         597
         593         594         599         598
         600         601         606         605
         601         602         607         606
         602         603         608         607
         603         604         609         608
         605         606         611         610
         606         607         612         611
         607         608         613         612
         608         609         614         613
         610         611         616         615
         611         612         617         616
         612         613         618         617
         613         614         619         618
         615         616         621         620
         616         617         622         621
         617         618         623         622
         618         619         624         623
         625         626         631         630
         626         627         632         631
         627         628         633         632
         628         629         634         633
         630         631         636         635
         631         632         637         636
         632         633         638         637
         633         634         639         638
         635         636         641         640
         636         637         642         641
         637         638         643         642
         638         639         644         643
         640         641         646         645
         641         642         647         646
         642         643         648         647
         643         644         649         648
         650         651         656         655
         651         652         657         656
         652         653         658         657
         653         654         659         658
         655         656         661         660
         656         657         662         661
         657         658         663         662
         658         659         664         663
         660         661         666         665
         661         662         667         666
         662         663         668         667
         663         664         669         668
         665         666         671         670
         666         667         672         671
         667         668         673         672
         668         669         674         673
         675         676         681         680
         676         677         682         681
         677         678         683         682
         678         679         684         683
         680         681         686         685
         681         682         687         686
         682         683         688         687
         683         684         689         688
         685         686         691         690
         686         687         692         691
         687         688         693         692
         688         689         694         693
         690         691         696         695
         691         692         697         696
         692         693         698         697
         693         694         699         698
         700         701         706         705
         701         702         707         706
         702         703         708         707
         703         704         709         708
         705         706         711         710
         706         707         712         711
         707         708         713         712
         708         709         714         713
         710         711         716         715
         711         712         717         716
         712         713         718         717
         713         714         719         718
         715         716         721         720
         716         717         722         721
         717         718         723         722
         718         719         724         723
         725         726         731         730
         726         727         732         731
         727         728         733         732
         728         729         734         733
         730         731         736         735
         731         732         737         736
         732         733         738         737
         733         734         739         738
         735         736         741         740
         736         737         742         741
         737         738         743         742
         738         739         744         743
         740         741         746         745
         741         742         747         746
         742         743         748         747
         743         744         749         748
         750         751         756         755
         751         752         757         756
         752         753         758         757
         753         754         759         758
         755         756         761         760
         756         757         762         761
         757         758         763         762
         758         759         764         763
         760         761         766         765
         761         762         767         766
         762         763         768         767
         763         764         769         768
         765         766         771         770
         766         767         772         771
         767         768         773         772
         768         769         774         773
         775         776         781         780
         776         777         782         781
         777         778         783         782
         778         779         784         783
         780         781         786         785
         781         782         787         786
         782         783         788         787
         783         784         789         788
         785         786         791         790
         786         787         792         791
         787         788         793         792
         788         789         794         793
         790         791         796         795
         791         792         797         796
         792         793         798         797
         793         794         799         798
         800         801         806         805
         801         802         807         806
         802         803         808         807
         803         804         809         808
         805         806         811         810
         806         807         812         811
         807         808         813         812
         808         809         814         813
         810         811         816         815
         811         812         817         816
         812         813         818         817
         813         814         819         818
         815         816         821         820
         816         817         822         821
         817         818         823         822
         818         819         824         823
         825         826         831         830
         826         827         832         831
         827         828         833         832
         828         829         834         833
         830         831         836         835
         831         832         837         836
         832         833         838         837
         833         834         839         838
         835         836         841         840
         836         837         842         841
         837         838         843         842
         838         839         844         843
         840         841         846         845
         841         842         847         846
         842         843         848         847
         843         844         849         848
         850         851         856         855
         851         852         857         856
         852         853         858         857
         853         854         859         858
         855         856         861         860
         856         857         862         861
         857         858         863         862
         858         859         864         863
         860         861         866         865
         861         862         867         866
         862         863         868         867
         863         864         869         868
         865         866         871         870
         866         867         872         871
         867         868         873         872
         868         869         874         873
         875         876         881         880
         876         877         882         881
         877         878         883         882
         878         879         884         883
         880         881         886         885
         881         882         887         886
         882         883         888         887
         883         884         889         888
         885         886         891         890
         886         887         892         891
         887         888         893         892
         888         889         894         893
         890         891         896         895
         891         892         897         896
         892         893         898         897
         893         894         899         898
         900         901         906         905
         901         902         907         906
         902         903         908         907
         903         904         909         908
         905         906         911         910
         906         907         912         911
         907         908         913         912
         908         909         914         913
         910         911         916         915
         911         912         917         916
         912         913         918         917
         913         914         919         918
         915         916         921         920
         916         917         922         921
         917         918         923         922
         918         919         924         923
         925         926         931         930
         926         927         932         931
         927         928         933         932
         928         929         934         933
         930         931         936         935
         931         932         937         936
         932         933         938         937
         933         934         939         938
         935         936         941         940
         936         937         942         941
         937         938         943         942
         938         939         944         943
         940         941         946         945
         941         942         947         946
         942         943         948         947
         943         944         949         948
         950         951         956         955
         951         952         957         956
         952         953         958         957
         953         954         959         958
         955         956         961         960
         956         957         962         961
         957         958         963         962
         958         959         964         963
         960         961         966         965
         961         962         967         966
         962         963         968         967
         963         964         969         968
         965         966         971         970
         966         967         972         971
         967         968         973         972
         968         969         974         973
         975         976         981         980
         976         977         982         981
         977         978         983         982
         978         979         984         983
         980         981         986         985
         981         982         987         986
         982         983         988         987
         983         984         989         988
         985         986         991         990
         986         987         992         991
         987         988         993         992
         988         989         994         993
         990         991         996         995
         991         992         997         996
         992         993         998         997
         993         994         999         998
        1000        1001        1006        1005
        1001        1002        1007        1006
        1002        1003        1008        1007
        1003        1004        1009        1008
        1005        1006        1011        1010
        1006        1007        1012        1011
        1007        1008        1013        1012
        1008        1009        1014        1013
        1010        1011        1016        1015
        1011        1012        1017        1016
        1012        1013        1018        1017
        1013        1014        1019        1018
        1015        1016        1021        1020
        1016        1017        1022        1021
        1017        1018        1023        1022
        1018        1019        1024        1023
        1025        1026        1031        1030
        1026        1027        1032        1031
        1027        1028        1033        1032
        1028        1029        1034        1033
        1030        1031        1036        1035
        1031        1032        1037        1036
        1032        1033        1038        1037
        1033        1034        1039        1038
        1035        1036        1041        1040
        1036        1037        1042        1041
        1037        1038        1043        1042
        1038        1039        1044        1043
        1040        1041        1046        1045
        1041        1042        1047        1046
        1042        1043        1048        1047
        1043        1044        1049        1048
        1050        1051        1056        1055
        1051        1052        1057        1056
        1052        1053        1058        1057
        1053        1054        1059        1058
        1055        1056        1061        1060
        1056        1057        1062        1061
        1057        1058        1063        1062
        1058        1059        1064        1063
        1060        1061        1066        1065
        1061        1062        1067        1066
        1062        1063        1068        1067
        1063        1064        1069        1068
        1065        1066        1071        1070
        1066        1067        1072        1071
        1067        1068        1073        1072
        1068        1069        1074        1073
        1075        1076        1081        1080
        1076        1077        1082        1081
        1077        1078        1083        1082
        1078        1079        1084        1083
        1080        1081        1086        1085
        1081        1082        1087        1086
        1082        1083        1088        1087
        1083        1084        1089        1088
        1085        1086        1091        1090
        1086        1087        1092        1091
        1087        1088        1093        1092
        1088        1089        1094        1093
        1090        1091        1096        1095
        1091        1092        1097        1096
        1092        1093        1098        1097
        1093        1094        1099        1098
        1100        1101        1106        1105
        1101        1102        1107        1106
        1102        1103        1108        1107
        1103        1104        1109        1108
        1105        1106        1111        1110
        1106        1107        1112        1111
        1107        1108        1113        1112
        1108        1109        1114        1113
        1110        1111        1116        1115
        1111        1112        1117        1116
        1112        1113        1118        1117
        1113        1114        1119        1118
        1115        1116        1121        1120
        1116        1117        1122        1121
        1117        1118        1123        1122
        1118        1119        1124        1123
        1125        1126        1131        1130
        1126        1127        1132        1131
        1127        1128        1133        1132
        1128        1129        1134        1133
        1130        1131        1136        1135
        1131        1132        1137        1136
        1132        1133        1138        1137
        1133        1134        1139        1138
        1135        1136        1141        1140
        1136        1137        1142        1141
        1137        1138        1143        1142
        1138        1139        1144        1143
        1140        1141        1146        1145
        1141        1142        1147        1146
        1142        1143        1148        1147
        1143        1144        1149        1148
        1150        1151        1156        1155
        1151        1152        1157        1156
        1152        1153        1158        1157
        1153        1154        1159        1158
        1155        1156        1161        1160
        1156        1157        1162        1161
        1157        1158        1163        1162
        1158        1159        1164        1163
        1160        1161        1166        1165
        1161        1162        1167        1166
        1162        1163        1168        1167
        1163        1164        1169        1168
        1165        1166        1171        1170
        1166        1167        1172        1171
        1167        1168        1173        1172
        1168        1169        1174        1173
        1175        1176        1181        1180
        1176        1177        1182        1181
        1177        1178        1183        1182
        1178        1179        1184        1183
        1180        1181        1186        1185
        1181        1182        1187        1186
        1182        1183        1188        1187
        1183        1184        1189        1188
        1185        1186        1191        1190
        1186        1187        1192        1191
        1187        1188        1193        1192
        1188        1189        1194        1193
        1190        1191        1196        1195
        1191        1192        1197        1196
        1192        1193        1198        1197
        1193        1194        1199        1198
        1200        1201        1206        1205
        1201        1202        1207        1206
        1202        1203        1208        1207
        1203        1204        1209        1208
        1205        1206        1211        1210
        1206        1207        1212        1211
        1207        1208        1213        1212
        1208        1209        1214        1213
        1210        1211        1216        1215
        1211        1212        1217        1216
        1212        1213        1218        1217
        1213        1214        1219        1218
        1215        1216        1221        1220
        1216        1217        1222        1221
        1217        1218        1223        1222
        1218        1219        1224        1223
        1225        1226        1231        1230
        1226        1227        1232        1231
        1227        1228        1233        1232
        1228        1229        1234        1233
        1230        1231        1236        1235
        1231        1232        1237        1236
        1232        1233        1238        1237
        1233        1234        1239        1238
        1235        1236        1241        1240
        1236        1237        1242        1241
        1237        1238        1243        1242
        1238        1239        1244        1243
        1240        1241        1246        1245
        1241        1242        1247        1246
        1242        1243        1248        1247
        1243        1244        1249        1248
        1250        1251        1256        1255
        1251        1252        1257        1256
        1252        1253        1258        1257
        1253        1254        1259        1258
        1255        1256        1261        1260
        1256        1257        1262        1261
        1257        1258        1263        1262
        1258        1259        1264        1263
        1260        1261        1266        1265
        1261        1262        1267        1266
        1262        1263        1268        1267
        1263        1264        1269        1268
        1265        1266        1271        1270
        1266        1267        1272        1271
        1267        1268        1273        1272
        1268        1269        1274        1273
        1275        1276        1281        1280
        1276        1277        1282        1281
        1277        1278        1283        1282
        1278        1279        1284        1283
        1280        1281        1286        1285
        1281        1282        1287        1286
        1282        1283        1288        1287
        1283        1284        1289        1288
        1285        1286        1291        1290
        1286        1287        1292        1291
        1287        1288        1293        1292
        1288        1289        1294        1293
        1290        1291        1296        1295
        1291        1292        1297        1296
        1292        1293        1298        1297
        1293        1294        1299        1298
        1300        1301        1306        1305
        1301        1302        1307        1306
        1302        1303        1308        1307
        1303        1304        1309        1308
        1305        1306        1311        1310
        1306        1307        1312        1311
        1307        1308        1313        1312
        1308        1309        1314        1313
        1310        1311        1316        1315
        1311        1312        1317        1316
        1312        1313        1318        1317
        1313        1314        1319        1318
        1315        1316        1321        1320
        1316        1317        1322        1321
        1317        1318        1323        1322
        1318        1319        1324        1323
        1325        1326        1331        1330
        1326        1327        1332        1331
        1327        1328        1333        1332
        1328        1329        1334        1333
        1330        1331        1336        1335
        1331        1332        1337        1336
        1332        1333        1338        1337
        1333        1334        1339        1338
        1335        1336        1341        1340
        1336        1337        1342        1341
        1337        1338        1343        1342
        1338        1339        1344        1343
        1340        1341        1346        1345
        1341        1342        1347        1346
        1342        1343        1348        1347
        1343        1344        1349        1348
        1350        1351        1356        1355
        1351        1352        1357        1356
        1352        1353        1358        1357
        1353        1354        1359        1358
        1355        1356        1361        1360
        1356        1357        1362        1361
        1357        1358        1363        1362
        1358        1359        1364        1363
        1360        1361        1366        1365
        1361        1362        1367        1366
        1362        1363        1368        1367
        1363        1364        1369        1368
        1365        1366        1371        1370
        1366        1367        1372        1371
        1367        1368        1373        1372
        1368        1369        1374        1373
        1375        1376        1381        1380
        1376        1377        1382        1381
        1377        1378        1383        1382
        1378        1379        1384        1383
        1380        1381        1386        1385
        1381        1382        1387        1386
        1382        1383        1388        1387
        1383        1384        1389        1388
        1385        1386        1391        1390
        1386        1387        1392        1391
        1387        1388        1393        1392
        1388        1389        1394        1393
        1390        1391        1396        1395
        1391        1392        1397        1396
        1392        1393        1398        1397
        1393        1394        1399        1398
        1400        1401        1406        1405
        1401        1402        1407        1406
        1402        1403        1408        1407
        1403        1404        1409        1408
        1405        1406        1411        1410
        1406        1407        1412        1411
        1407        1408        1413        1412
        1408        1409        1414        1413
        1410        1411        1416        1415
        1411        1412        1417        1416
        1412        1413        1418        1417
        1413        1414        1419        1418
        1415        1416        1421        1420
        1416        1417        1422        1421
        1417        1418        1423        1422
        1418        1419        1424        1423
        1425        1426        1431        1430
        1426        1427        1432        1431
        1427        1428        1433        1432
        1428        1429        1434        1433
        1430        1431        1436        1435
        1431        1432        1437        1436
        1432        1433        1438        1437
        1433        1434        1439        1438
        1435        1436        1441        1440
        1436        1437        1442        1441
        1437        1438        1443        1442
        1438        1439        1444        1443
        1440        1441        1446        1445
        1441        1442        1447        1446
        1442        1443        1448        1447
        1443        1444        1449        1448
        1450        1451        1456        1455
        1451        1452        1457        1456
        1452        1453        1458        1457
        1453        1454        1459        1458
        1455        1456        1461        1460
        1456        1457        1462        1461
        1457        1458        1463        1462
        1458        1459        1464        1463
        1460        1461        1466        1465
        1461        1462        1467        1466
        1462        1463        1468        1467
        1463        1464        1469        1468
        1465        1466        1471        1470
        1466        1467        1472        1471
        1467        1468        1473        1472
        1468        1469        1474        1473
        1475        1476        1481        1480
        1476        1477        1482        1481
        1477        1478        1483        1482
        1478        1479        1484        1483
        1480        1481        1486        1485
        1481        1482        1487        1486
        1482        1483        1488        1487
        1483        1484        1489        1488
        1485        1486        1491        1490
        1486        1487        1492        1491
        1487        1488        1493        1492
        1488        1489        1494        1493
        1490        1491        1496        1495
        1491        1492        1497        1496
        1492        1493        1498        1497
        1493        1494        1499        1498
        1500        1501        1506        1505
        1501        1502        1507        1506
        1502        1503        1508        1507
        1503        1504        1509        1508
        1505        1506        1511        1510
        1506        1507        1512        1511
        1507        1508        1513        1512
        1508        1509        1514        1513
        1510        1511        1516        1515
        1511        1512        1517        1516
        1512        1513        1518        1517
        1513        1514        1519        1518
        1515        1516        1521        1520
        1516        1517        1522        1521
        1517        1518        1523        1522
        1518        1519        1524        1523
        1525        1526        1531        1530
        1526        1527        1532        1531
        1527        1528        1533        1532
        1528        1529        1534        1533
        1530        1531        1536        1535
        1531        1532        1537        1536
        1532        1533        1538        1537
        1533        1534        1539        1538
        1535        1536        1541        1540
        1536        1537        1542        1541
        1537        1538        1543        1542
        1538        1539        1544        1543
        1540        1541        1546        1545
        1541        1542        1547        1546
        1542        1543        1548        1547
        1543        1544        1549        1548
        1550        1551        1556        1555
        1551        1552        1557        1556
        1552        1553        1558        1557
        1553        1554        1559        1558
        1555        1556        1561        1560
        1556        1557        1562        1561
        1557        1558        1563        1562
        1558        1559        1564        1563
        1560        1561        1566        1565
        1561        1562        1567        1566
        1562        1563        1568        1567
        1563        1564        1569        1568
        1565        1566        1571        1570
        1566        1567        1572        1571
        1567        1568        1573        1572
        1568        1569        1574        1573
        1575        1576        1581        1580
        1576        1577        1582        1581
        1577        1578        1583        1582
        1578        1579        1584        1583
        1580        1581        1586        1585
        1581        1582        1587        1586
        1582        1583        1588        1587
        1583        1584        1589        1588
        1585        1586        1591        1590
        1586        1587        1592        1591
        1587        1588        1593        1592
        1588        1589        1594        1593
        1590        1591        1596        1595
        1591        1592        1597        1596
        1592        1593        1598        1597
        1593        1594        1599        1598
 </DataArray>
 <DataArray  type="Int32"  Name="offsets"  format="ascii"> 
           4
           8
          12
          16
          20
          24
          28
          32
          36
          40
          44
          48
          52
          56
          60
          64
          68
          72
          76
          80
          84
          88
          92
          96
         100
         104
         108
         112
         116
         120
         124
         128
         132
         136
         140
         144
         148
         152
         156
         160
         164
         168
         172
         176
         180
         184
         188
         192
         196
         200
         204
         208
         212
         216
         220
         224
         228
         232
         236
         240
         244
         248
         252
         256
         260
         264
         268
         272
         276
         280
         284
         288
         292
         296
         300
         304
         308
         312
         316
         320
         324
         328
         332
         336
         340
         344
         348
         352
         356
         360
         364
         368
         372
         376
         380
         384
         388
         392
         396
         400
         404
         408
         412
         416
         420
         424
         428
         432
         436
         440
         444
         448
         452
         456
         460
         464
         468
         472
         476
         480
         484
         488
         492
         496
         500
         504
         508
         512
         516
         520
         524
         528
         532
         536
         540
         544
         548
         552
         556
         560
         564
         568
         572
         576
         580
         584
         588
         592
         596
         600
         604
         608
         612
         616
         620
         624
         628
         632
         636
         640
         644
         648
         652
         656
         660
         664
         668
         672
         676
         680
         684
         688
         692
         696
         700
         704
         708
         712
         716
         720
         724
         728
         732
         736
         740
         744
         748
         752
         756
         760
         764
         768
         772
         776
         780
         784
         788
         792
         796
         800
         804
         808
         812
         816
         820
         824
         828
         832
         836
         840
         844
         848
         852
         856
         860
         864
         868
         872
         876
         880
         884
         888
         892
         896
         900
         904
         908
         912
         916
         920
         924
         928
         932
         936
         940
         944
         948
         952
         956
         960
         964
         968
         972
         976
         980
         984
         988
         992
         996
        1000
        1004
        1008
        1012
        1016
        1020
        1024
        1028
        1032
        1036
        1040
        1044
        1048
        1052
        1056
        1060
        1064
        1068
        1072
        1076
        1080
        1084
        1088
        1092
        1096
        1100
        1104
        1108
        1112
        1116
        1120
        1124
        1128
        1132
        1136
        1140
        1144
        1148
        1152
        1156
        1160
        1164
        1168
        1172
        1176
        1180
        1184
        1188
        1192
        1196
        1200
        1204
        1208
        1212
        1216
        1220
        1224
        1228
        1232
        1236
        1240
        1244
        1248
        1252
        1256
        1260
        1264
        1268
        1272
        1276
        1280
        1284
        1288
        1292
        1296
        1300
        1304
        1308
        1312
        1316
        1320
        1324
        1328
        1332
        1336
        1340
        1344
        1348
        1352
        1356
        1360
        1364
        1368
        1372
        1376
        1380
        1384
        1388
        1392
        1396
        1400
        1404
        1408
        1412
        1416
        1420
        1424
        1428
        1432
        1436
        1440
        1444
        1448
        1452
        1456
        1460
        1464
        1468
        1472
        1476
        1480
        1484
        1488
        1492
        1496
        1500
        1504
        1508
        1512
        1516
        1520
        1524
        1528
        1532
        1536
        1540
        1544
        1548
        1552
        1556
        1560
        1564
        1568
        1572
        1576
        1580
        1584
        1588
        1592
        1596
        1600
        1604
        1608
        1612
        1616
        1620
        1624
        1628
        1632
        1636
        1640
        1644
        1648
        1652
        1656
        1660
        1664
        1668
        1672
        1676
        1680
        1684
        1688
        1692
        1696
        1700
        1704
        1708
        1712
        1716
        1720
        1724
        1728
        1732
        1736
        1740
        1744
        1748
        1752
        1756
        1760
        1764
        1768
        1772
        1776
        1780
        1784
        1788
        1792
        1796
        1800
        1804
        1808
        1812
        1816
        1820
        1824
        1828
        1832
        1836
        1840
        1844
        1848
        1852
        1856
        1860
        1864
        1868
        1872
        1876
        1880
        1884
        1888
        1892
        1896
        1900
        1904
        1908
        1912
        1916
        1920
        1924
        1928
        1932
        1936
        1940
        1944
        1948
        1952
        1956
        1960
        1964
        1968
        1972
        1976
        1980
        1984
        1988
        1992
        1996
        2000
        2004
        2008
        2012
        2016
        2020
        2024
        2028
        2032
        2036
        2040
        2044
        2048
        2052
        2056
        2060
        2064
        2068
        2072
        2076
        2080
        2084
        2088
        2092
        2096
        2100
        2104
        2108
        2112
        2116
        2120
        2124
        2128
        2132
        2136
        2140
        2144
        2148
        2152
        2156
        2160
        2164
        2168
        2172
        2176
        2180
        2184
        2188
        2192
        2196
        2200
        2204
        2208
        2212
        2216
        2220
        2224
        2228
        2232
        2236
        2240
        2244
        2248
        2252
        2256
        2260
        2264
        2268
        2272
        2276
        2280
        2284
        2288
        2292
        2296
        2300
        2304
        2308
        2312
        2316
        2320
        2324
        2328
        2332
        2336
        2340
        2344
        2348
        2352
        2356
        2360
        2364
        2368
        2372
        2376
        2380
        2384
        2388
        2392
        2396
        2400
        2404
        2408
        2412
        2416
        2420
        2424
        2428
        2432
        2436
        2440
        2444
        2448
        2452
        2456
        2460
        2464
        2468
        2472
        2476
        2480
        2484
        2488
        2492
        2496
        2500
        2504
        2508
        2512
        2516
        2520
        2524
        2528
        2532
        2536
        2540
        2544
        2548
        2552
        2556
        2560
        2564
        2568
        2572
        2576
        2580
        2584
        2588
        2592
        2596
        2600
        2604
        2608
        2612
        2616
        2620
        2624
        2628
        2632
        2636
        2640
        2644
        2648
        2652
        2656
        2660
        2664
        2668
        2672
        2676
        2680
        2684
        2688
        2692
        2696
        2700
        2704
        2708
        2712
        2716
        2720
        2724
        2728
        2732
        2736
        2740
        2744
        2748
        2752
        2756
        2760
        2764
        2768
        2772
        2776
        2780
        2784
        2788
        2792
        2796
        2800
        2804
        2808
        2812
        2816
        2820
        2824
        2828
        2832
        2836
        2840
        2844
        2848
        2852
        2856
        2860
        2864
        2868
        2872
        2876
        2880
        2884
        2888
        2892
        2896
        2900
        2904
        2908
        2912
        2916
        2920
        2924
        2928
        2932
        2936
        2940
        2944
        2948
        2952
        2956
        2960
        2964
        2968
        2972
        2976
        2980
        2984
        2988
        2992
        2996
        3000
        3004
        3008
        3012
        3016
        3020
        3024
        3028
        3032
        3036
        3040
        3044
        3048
        3052
        3056
        3060
        3064
        3068
        3072
        3076
        3080
        3084
        3088
        3092
        3096
        3100
        3104
        3108
        3112
        3116
        3120
        3124
        3128
        3132
        3136
        3140
        3144
        3148
        3152
        3156
        3160
        3164
        3168
        3172
        3176
        3180
        3184
        3188
        3192
        3196
        3200
        3204
        3208
        3212
        3216
        3220
        3224
        3228
        3232
        3236
        3240
        3244
        3248
        3252
        3256
        3260
        3264
        3268
        3272
        3276
        3280
        3284
        3288
        3292
        3296
        3300
        3304
        3308
        3312
        3316
        3320
        3324
        3328
        3332
        3336
        3340
        3344
        3348
        3352
        3356
        3360
        3364
        3368
        3372
        3376
        3380
        3384
        3388
        3392
        3396
        3400
        3404
        3408
        3412
        3416
        3420
        3424
        3428
        3432
        3436
        3440
        3444
        3448
        3452
        3456
        3460
        3464
        3468
        3472
        3476
        3480
        3484
        3488
        3492
        3496
        3500
        3504
        3508
        3512
        3516
        3520
        3524
        3528
        3532
        3536
        3540
        3544
        3548
        3552
        3556
        3560
        3564
        3568
        3572
        3576
        3580
        3584
        3588
        3592
        3596
        3600
        3604
        3608
        3612
        3616
        3620
        3624
        3628
        3632
        3636
        3640
        3644
        3648
        3652
        3656
        3660
        3664
        3668
        3672
        3676
        3680
        3684
        3688
        3692
        3696
        3700
        3704
        3708
        3712
        3716
        3720
        3724
        3728
        3732
        3736
        3740
        3744
        3748
        3752
        3756
        3760
        3764
        3768
        3772
        3776
        3780
        3784
        3788
        3792
        3796
        3800
        3804
        3808
        3812
        3816
        3820
        3824
        3828
        3832
        3836
        3840
        3844
        3848
        3852
        3856
        3860
        3864
        3868
        3872
        3876
        3880
        3884
        3888
        3892
        3896
        3900
        3904
        3908
        3912
        3916
        3920
        3924
        3928
        3932
        3936
        3940
        3944
        3948
        3952
        3956
        3960
        3964
        3968
        3972
        3976
        3980
        3984
        3988
        3992
        3996
        4000
        4004
        4008
        4012
        4016
        4020
        4024
        4028
        4032
        4036
        4040
        4044
        4048
        4052
        4056
        4060
        4064
        4068
        4072
        4076
        4080
        4084
        4088
        4092
        4096
 </DataArray>
 <DataArray  type="UInt8"  Name="types"  format="ascii">
 9
 9
 9
 9
 9
 9
 9
 9
 9
 9
 9
 9
 9
 9
 9
 9
 9
 9
 9
 9
 9
 9
 9
 9
 9
 9
 9
 9
 9
 9
 9
 9
 9
 9
 9
 9
 9
 9
 9
 9
 9
 9
 9
 9
 9
 9
 9
 9
 9
 9
 9
 9
 9
 9
 9
 9
 9
 9
 9
 9
 9
 9
 9
 9
 9
 9
 9
 9
 9
 9
 9
 9
 9
 9
 9
 9
 9
 9
 9
 9
 9
 9
 9
 9
 9
 9
 9
 9
 9
 9
 9
 9
 9
 9
 9
 9
 9
 9
 9
 9
 9
 9
 9
 9
 9
 9
 9
 9
 9
 9
 9
 9
 9
 9
 9
 9
 9
 9
 9
 9
 9
 9
 9
 9
 9
 9
 9
 9
 9
 9
 9
 9
 9
 9
 9
 9
 9
 9
 9
 9
 9
 9
 9
 9
 9
 9
 9
 9
 9
 9
 9
 9
 9
 9
 9
 9
 9
 9
 9
 9
 9
 9
 9
 9
 9
 9
 9
 9
 9
 9
 9
 9
 9
 9
 9
 9
 9
 9
 9
 9
 9
 9
 9
 9
 9
 9
 9
 9
 9
 9
 9
 9
 9
 9
 9
 9
 9
 9
 9
 9
 9
 9
 9
 9
 9
 9
 9
 9
 9
 9
 9
 9
 9
 9
 9
 9
 9
 9
 9
 9
 9
 9
 9
 9
 9
 9
 9
 9
 9
 9
 9
 9
 9
 9
 9
 9
 9
 9
 9
 9
 9
 9
 9
 9
 9
 9
 9
 9
 9
 9
 9
 9
 9
 9
 9
 9
 9
 9
 9
 9
 9
 9
 9
 9
 9
 9
 9
 9
 9
 9
 9
 9
 9
 9
 9
 9
 9
 9
 9
 9
 9
 9
 9
 9
 9
 9
 9
 9
 9
 9
 9
 9
 9
 9
 9
 9
 9
 9
 9
 9
 9
 9
 9
 9
 9
 9
 9
 9
 9
 9
 9
 9
 9
 9
 9
 9
 9
 9
 9
 9
 9
 9
 9
 9
 9
 9
 9
 9
 9
 9
 9
 9
 9
 9
 9
 9
 9
 9
 9
 9
 9
 9
 9
 9
 9
 9
 9
 9
 9
 9
 9
 9
 9
 9
 9
 9
 9
 9
 9
 9
 9
 9
 9
 9
 9
 9
 9
 9
 9
 9
 9
 9
 9
 9
 9
 9
 9
 9
 9
 9
 9
 9
 9
 9
 9
 9
 9
 9
 9
 9
 9
 9
 9
 9
 9
 9
 9
 9
 9
 9
 9
 9
 9
 9
 9
 9
 9
 9
 9
 9
 9
 9
 9
 9
 9
 9
 9
 9
 9
 9
 9
 9
 9
 9
 9
 9
 9
 9
 9
 9
 9
 9
 9
 9
 9
 9
 9
 9
 9
 9
 9
 9
 9
 9
 9
 9
 9
 9
 9
 9
 9
 9
 9
 9
 9
 9
 9
 9
 9
 9
 9
 9
 9
 9
 9
 9
 9
 9
 9
 9
 9
 9
 9
 9
 9
 9
 9
 9
 9
 9
 9
 9
 9
 9
 9
 9
 9
 9
 9
 9
 9
 9
 9
 9
 9
 9
 9
 9
 9
 9
 9
 9
 9
 9
 9
 9
 9
 9
 9
 9
 9
 9
 9
 9
 9
 9
 9
 9
 9
 9
 9
 9
 9
 9
 9
 9
 9
 9
 9
 9
 9
 9
 9
 9
 9
 9
 9
 9
 9
 9
 9
 9
 9
 9
 9
 9
 9
 9
 9
 9
 9
 9
 9
 9
 9
 9
 9
 9
 9
 9
 9
 9
 9
 9
 9
 9
 9
 9
 9
 9
 9
 9
 9
 9
 9
 9
 9
 9
 9
 9
 9
 9
 9
 9
 9
 9
 9
 9
 9
 9
 9
 9
 9
 9
 9
 9
 9
 9
 9
 9
 9
 9
 9
 9
 9
 9
 9
 9
 9
 9
 9
 9
 9
 9
 9
 9
 9
 9
 9
 9
 9
 9
 9
 9
 9
 9
 9
 9
 9
 9
 9
 9
 9
 9
 9
 9
 9
 9
 9
 9
 9
 9
 9
 9
 9
 9
 9
 9
 9
 9
 9
 9
 9
 9
 9
 9
 9
 9
 9
 9
 9
 9
 9
 9
 9
 9
 9
 9
 9
 9
 9
 9
 9
 9
 9
 9
 9
 9
 9
 9
 9
 9
 9
 9
 9
 9
 9
 9
 9
 9
 9
 9
 9
 9
 9
 9
 9
 9
 9
 9
 9
 9
 9
 9
 9
 9
 9
 9
 9
 9
 9
 9
 9
 9
 9
 9
 9
 9
 9
 9
 9
 9
 9
 9
 9
 9
 9
 9
 9
 9
 9
 9
 9
 9
 9
 9
 9
 9
 9
 9
 9
 9
 9
 9
 9
 9
 9
 9
 9
 9
 9
 9
 9
 9
 9
 9
 9
 9
 9
 9
 9
 9
 9
 9
 9
 9
 9
 9
 9
 9
 9
 9
 9
 9
 9
 9
 9
 9
 9
 9
 9
 9
 9
 9
 9
 9
 9
 9
 9
 9
 9
 9
 9
 9
 9
 9
 9
 9
 9
 9
 9
 9
 9
 9
 9
 9
 9
 9
 9
 9
 9
 9
 9
 9
 9
 9
 9
 9
 9
 9
 9
 9
 9
 9
 9
 9
 9
 9
 9
 9
 9
 9
 9
 9
 9
 9
 9
 9
 9
 9
 9
 9
 9
 9
 9
 9
 9
 9
 9
 9
 9
 9
 9
 9
 9
 9
 9
 9
 9
 9
 9
 9
 9
 9
 9
 9
 9
 9
 9
 9
 9
 9
 9
 9
 9
 9
 9
 9
 9
 9
 9
 9
 9
 9
 9
 9
 9
 9
 9
 9
 9
 9
 9
 9
 9
 9
 9
 9
 9
 9
 9
 9
 9
 9
 9
 9
 9
 9
 9
 9
 9
 9
 9
 9
 9
 9
 9
 9
 9
 9
 9
 9
 9
 9
 9
 9
 9
 9
 9
 9
 9
 9
 9
 9
 9
 9
 9
 9
 9
 9
 9
 9
 9
 9
 9
 9
 9
 9
 9
 9
 9
 9
 9
 9
 9
 9
 9
 9
 9
 9
 9
 9
 9
 9
 9
 9
 9
 9
 9
 9
 9
 9
 9
 9
 9
 9
 9
 9
 9
 9
 9
 9
 9
 9
 9
 9
 9
 9
 9
 9
 9
 9
 9
 9
 9
 9
 9
 9
 9
 9
 9
 9
 9
 9
 9
 9
 9
 9
 9
 9
 9
 9
 9
 9
 9
 9
 9
 9
 9
 9
 9
 9
 9
 9
 </DataArray>
 </Cells> 
 <PointData>
 <DataArray  type="Float64" Name="disp" NumberOfComponents="3" format="ascii">
   0.0000000000000000        0.0000000000000000        0.0000000000000000     
   6.0955783652498902E-003   3.7881314106596323E-003   0.0000000000000000     
   1.1666646188159564E-002   7.3188537338680342E-003   0.0000000000000000     
   1.6713203468729017E-002   1.0592166969625205E-002   0.0000000000000000     
   2.1235250206958257E-002   1.3608071117931147E-002   0.0000000000000000     
   0.0000000000000000        0.0000000000000000        0.0000000000000000     
   4.8920014600640042E-003   3.0192994125938502E-003   0.0000000000000000     
   9.5761518750700717E-003   6.0546237128091523E-003   0.0000000000000000     
   1.4052451245018202E-002   9.1059729006459054E-003   0.0000000000000000     
   1.8320899569908400E-002   1.2173346976104111E-002   0.0000000000000000     
   0.0000000000000000        0.0000000000000000        0.0000000000000000     
   3.9550612708673608E-003   2.4218902027240948E-003   0.0000000000000000     
   7.9139626902305291E-003   5.0563874546850924E-003   0.0000000000000000     
   1.1876704258089503E-002   7.9034917558829920E-003   0.0000000000000000     
   1.5843285974444284E-002   1.0963203106317793E-002   0.0000000000000000     
   0.0000000000000000        0.0000000000000000        0.0000000000000000     
   3.2847577976599608E-003   1.9959037810503653E-003   0.0000000000000000     
   6.6800786336409330E-003   4.3241449594958537E-003   0.0000000000000000     
   1.0185962507942917E-002   6.9847235353364644E-003   0.0000000000000000     
   1.3802409420565912E-002   9.9776395085721982E-003   0.0000000000000000     
   0.0000000000000000        0.0000000000000000        0.0000000000000000     
   2.8810910404418041E-003   1.7413401475726625E-003   0.0000000000000000     
   5.8744997053012853E-003   3.8578962272414362E-003   0.0000000000000000     
   8.9802259945784453E-003   6.3496682390063227E-003   0.0000000000000000     
   1.2198269908273281E-002   9.2166561828673204E-003   0.0000000000000000     
   2.1235250206958257E-002   1.3608071117931147E-002   0.0000000000000000     
   2.5445181156338429E-002   1.6597579970920241E-002   0.0000000000000000     
   2.9555391070360686E-002   1.9791707320726874E-002   0.0000000000000000     
   3.3565879949025025E-002   2.3190453167351046E-002   0.0000000000000000     
   3.7476647792331466E-002   2.6793817510792756E-002   0.0000000000000000     
   1.8320899569908400E-002   1.2173346976104111E-002   0.0000000000000000     
   2.2419692450874312E-002   1.5325252442467309E-002   0.0000000000000000     
   2.6387025489049597E-002   1.8630195803019039E-002   0.0000000000000000     
   3.0222898684434257E-002   2.2088177057759298E-002   0.0000000000000000     
   3.3927312037028277E-002   2.5699196206688091E-002   0.0000000000000000     
   1.5843285974444284E-002   1.0963203106317793E-002   0.0000000000000000     
   1.9742166941941038E-002   1.4194288143536337E-002   0.0000000000000000     
   2.3501806263225938E-002   1.7555513505085447E-002   0.0000000000000000     
   2.7122203938298978E-002   2.1046879190965141E-002   0.0000000000000000     
   3.0603359967160158E-002   2.4668385201175397E-002   0.0000000000000000     
   1.3802409420565912E-002   9.9776395085721982E-003   0.0000000000000000     
   1.7412604629538614E-002   1.3204687074127324E-002   0.0000000000000000     
   2.0899733392889711E-002   1.6567660426926114E-002   0.0000000000000000     
   2.4263795710619204E-002   2.0066559566968564E-002   0.0000000000000000     
   2.7504791582727093E-002   2.3701384494254685E-002   0.0000000000000000     
   1.2198269908273281E-002   9.2166561828673204E-003   0.0000000000000000     
   1.5431005513667025E-002   1.2356449234240272E-002   0.0000000000000000     
   1.8580806878040906E-002   1.5666636568541028E-002   0.0000000000000000     
   2.1647674001394931E-002   1.9147218185769584E-002   0.0000000000000000     
   2.4631606883729087E-002   2.2798194085925941E-002   0.0000000000000000     
   3.7476647792331466E-002   2.6793817510792756E-002   0.0000000000000000     
   4.1296129899611358E-002   3.0596800791963689E-002   0.0000000000000000     
   4.5032761570196110E-002   3.4594403451775523E-002   0.0000000000000000     
   4.8686542804085700E-002   3.8786625490228259E-002   0.0000000000000000     
   5.2257473601280142E-002   4.3173466907321906E-002   0.0000000000000000     
   3.3927312037028277E-002   2.5699196206688091E-002   0.0000000000000000     
   3.7525722417857961E-002   2.9492001366757069E-002   0.0000000000000000     
   4.1043586697949601E-002   3.3495340654917896E-002   0.0000000000000000     
   4.4480904877303176E-002   3.7709214071170574E-002   0.0000000000000000     
   4.7837676955918701E-002   4.2133621615515100E-002   0.0000000000000000     
   3.0603359967160158E-002   2.4668385201175397E-002   0.0000000000000000     
   3.3975618153419540E-002   2.8464871318257246E-002   0.0000000000000000     
   3.7269322300687191E-002   3.2481177324751698E-002   0.0000000000000000     
   4.0484472408963100E-002   3.6717303220658755E-002   0.0000000000000000     
   4.3621068478247274E-002   4.1173249005978400E-002   0.0000000000000000     
   2.7504791582727093E-002   2.3701384494254685E-002   0.0000000000000000     
   3.0645817106296085E-002   2.7515410646464213E-002   0.0000000000000000     
   3.3709968378408880E-002   3.1551913461276913E-002   0.0000000000000000     
   3.6697245399065472E-002   3.5810892938692787E-002   0.0000000000000000     
   3.9607648168265862E-002   4.0292349078711827E-002   0.0000000000000000     
   2.4631606883729087E-002   2.2798194085925941E-002   0.0000000000000000     
   2.7536319276487597E-002   2.6643619351377972E-002   0.0000000000000000     
   3.0365524931114662E-002   3.0707549064493557E-002   0.0000000000000000     
   3.3119223847610291E-002   3.4989983225272692E-002   0.0000000000000000     
   3.5797416025974471E-002   3.9490921833715380E-002   0.0000000000000000     
   5.2257473601280142E-002   4.3173466907321906E-002   0.0000000000000000     
   5.5745082945354553E-002   4.7768441169910282E-002   0.0000000000000000     
   5.9148899819884040E-002   5.2585061744847249E-002   0.0000000000000000     
   6.2468924224868640E-002   5.7623328632132799E-002   0.0000000000000000     
   6.5705156160308309E-002   6.2883241831766939E-002   0.0000000000000000     
   4.7837676955918701E-002   4.2133621615515100E-002   0.0000000000000000     
   5.1108261193150525E-002   4.6770736340790042E-002   0.0000000000000000     
   5.4287015848352979E-002   5.1622731299834017E-002   0.0000000000000000     
   5.7373940921526076E-002   5.6689606492646989E-002   0.0000000000000000     
   6.0369036412669816E-002   6.1971361919228987E-002   0.0000000000000000     
   4.3621068478247274E-002   4.1173249005978400E-002   0.0000000000000000     
   4.6671228129182951E-002   4.5844208665416358E-002   0.0000000000000000     
   4.9627068982413376E-002   5.0725376183678270E-002   0.0000000000000000     
   5.2488591037938542E-002   5.5816751560764183E-002   0.0000000000000000     
   5.5255794295758456E-002   6.1118334796674056E-002   0.0000000000000000     
   3.9607648168265862E-002   4.0292349078711827E-002   0.0000000000000000     
   4.2433983753451851E-002   4.4988858143789202E-002   0.0000000000000000     
   4.5169059222065260E-002   4.9892996396380056E-002   0.0000000000000000     
   4.7812874574106046E-002   5.5004763836484394E-002   0.0000000000000000     
   5.0365429809574230E-002   6.0324160464102189E-002   0.0000000000000000     
   3.5797416025974471E-002   3.9490921833715380E-002   0.0000000000000000     
   3.8396528065957239E-002   4.4204684775908595E-002   0.0000000000000000     
   4.0912986567308615E-002   4.9125591937939327E-002   0.0000000000000000     
   4.3346791530028586E-002   5.4253643319807594E-002   0.0000000000000000     
   4.5697942954117152E-002   5.9588838921513364E-002   0.0000000000000000     
   6.5705156160308309E-002   6.2883241831766939E-002   0.0000000000000000     
   6.8840969780124425E-002   6.8336107995933579E-002   0.0000000000000000     
   7.1859739238238310E-002   7.3953233776816688E-002   0.0000000000000000     
   7.4761464534649949E-002   7.9734619174416224E-002   0.0000000000000000     
   7.7546145669359370E-002   8.5680264188732230E-002   0.0000000000000000     
   6.0369036412669816E-002   6.1971361919228987E-002   0.0000000000000000     
   6.3269685865973077E-002   6.7444130709570282E-002   0.0000000000000000     
   6.6073272825624751E-002   7.3084045993661223E-002   0.0000000000000000     
   6.8779797291624839E-002   7.8891107771501767E-002   0.0000000000000000     
   7.1389259263973326E-002   8.4865316043091943E-002   0.0000000000000000     
   5.5255794295758456E-002   6.1118334796674056E-002   0.0000000000000000     
   5.7934841946520946E-002   6.6609547313072087E-002   0.0000000000000000     
   6.0531897180873838E-002   7.2269810531622403E-002   0.0000000000000000     
   6.3046959998817140E-002   7.8099124452325017E-002   0.0000000000000000     
   6.5480030400350858E-002   8.4097489075179929E-002   0.0000000000000000     
   5.0365429809574230E-002   6.0324160464102189E-002   0.0000000000000000     
   5.2836438021768010E-002   6.5832357806438979E-002   0.0000000000000000     
   5.5235612303985562E-002   7.1510527390700240E-002   0.0000000000000000     
   5.7562952656226879E-002   7.7358669216885945E-002   0.0000000000000000     
   5.9818459078491967E-002   8.3376783284996162E-002   0.0000000000000000     
   4.5697942954117152E-002   5.9588838921513364E-002   0.0000000000000000     
   4.7974474091714278E-002   6.5112562189670972E-002   0.0000000000000000     
   5.0184418194959911E-002   7.0806196570894722E-002   0.0000000000000000     
   5.2327775263854029E-002   7.6669742065184593E-002   0.0000000000000000     
   5.4404545298396660E-002   8.2703198672540640E-002   0.0000000000000000     
   7.7546145669359370E-002   8.5680264188732230E-002   0.0000000000000000     
   8.0235332310067450E-002   9.1780382342572187E-002   0.0000000000000000     
   8.2850574124475093E-002   9.8025187158743629E-002   0.0000000000000000     
   8.5391871112582299E-002  0.10441467863724654        0.0000000000000000     
   8.7859223274389053E-002  0.11094885677808095        0.0000000000000000     
   7.1389259263973326E-002   8.4865316043091943E-002   0.0000000000000000     
   7.3912239096337540E-002   9.0994508420330147E-002   0.0000000000000000     
   7.6359317142384836E-002   9.7266522515114723E-002   0.0000000000000000     
   7.8730493402115187E-002  0.10368135832744568        0.0000000000000000     
   8.1025767875528620E-002  0.11023901585732304        0.0000000000000000     
   6.5480030400350858E-002   8.4097489075179929E-002   0.0000000000000000     
   6.7834240713227828E-002   9.0251758831259979E-002   0.0000000000000000     
   7.0112723265200877E-002   9.6548788151637990E-002   0.0000000000000000     
   7.2315478056270019E-002  0.10298857703631402        0.0000000000000000     
   7.4442505086435254E-002  0.10957112548528802        0.0000000000000000     
   5.9818459078491967E-002   8.3376783284996162E-002   0.0000000000000000     
   6.2001337160738260E-002   8.9552133575361709E-002   0.0000000000000000     
   6.4110792492923216E-002   9.5871984068313501E-002   0.0000000000000000     
   6.6146825075046781E-002  0.10233633476385157        0.0000000000000000     
   6.8109434907108996E-002  0.10894518566197586        0.0000000000000000     
   5.4404545298396660E-002   8.2703198672540640E-002   0.0000000000000000     
   5.6413528438868890E-002   8.8895632652635351E-002   0.0000000000000000     
   5.8353524825551825E-002   9.5236110265141227E-002   0.0000000000000000     
   6.0224534458445445E-002  0.10172463151005831        0.0000000000000000     
   6.2026557337549790E-002  0.10836119638738656        0.0000000000000000     
   8.7859223274389053E-002  0.11094885677808095        0.0000000000000000     
   9.0269270225751375E-002  0.11763044535527167        0.0000000000000000     
   9.2638651582525280E-002  0.12446216814284365        0.0000000000000000     
   9.4967367344710785E-002  0.13144402514079681        0.0000000000000000     
   9.7255417512307873E-002  0.13857601634913122        0.0000000000000000     
   8.1025767875528620E-002  0.11023901585732304        0.0000000000000000     
   8.3250796605250504E-002  0.11694249903393905        0.0000000000000000     
   8.5411235633906235E-002  0.12379481178648596        0.0000000000000000     
   8.7507084961495826E-002  0.13079595411496375        0.0000000000000000     
   8.9538344588019306E-002  0.13794592601937244        0.0000000000000000     
   7.4442505086435254E-002  0.10957112548528802        0.0000000000000000     
   7.6491999446227268E-002  0.11629842670810416        0.0000000000000000     
   7.8462156226176721E-002  0.12317247391430654        0.0000000000000000     
   8.0352975426283654E-002  0.13019326710389520        0.0000000000000000     
   8.2164457046548053E-002  0.13736080627687011        0.0000000000000000     
   6.8109434907108996E-002  0.10894518566197586        0.0000000000000000     
   6.9992878748681694E-002  0.11569822837776694        0.0000000000000000     
   7.1791413359336795E-002  0.12259515452630539        0.0000000000000000     
   7.3505038739074283E-002  0.12963596410759115        0.0000000000000000     
   7.5133754887894158E-002  0.13682065712162425        0.0000000000000000     
   6.2026557337549790E-002  0.10836119638738656        0.0000000000000000     
   6.3753434512613796E-002  0.11514190404292747        0.0000000000000000     
   6.5399007033386428E-002  0.12206285362248248        0.0000000000000000     
   6.6963274899867684E-002  0.12912404512605161        0.0000000000000000     
   6.8446238112057578E-002  0.13632547855363483        0.0000000000000000     
   9.7255417512307873E-002  0.13857601634913122        0.0000000000000000     
   9.9607416177642558E-002  0.14594569136114433        0.0000000000000000     
  0.10212797743304088       0.15364059977013358        0.0000000000000000     
  0.10481710127850277       0.16166074157609900        0.0000000000000000     
  0.10767478771402832       0.17000611677904062        0.0000000000000000     
   8.9538344588019306E-002  0.13794592601937244        0.0000000000000000     
   9.1556593811504161E-002  0.14531275673809574        0.0000000000000000     
   9.3613411929977908E-002  0.15296447550951731        0.0000000000000000     
   9.5708798943440615E-002  0.16090108233363717        0.0000000000000000     
   9.7842754851892172E-002  0.16912257721045537        0.0000000000000000     
   8.2164457046548053E-002  0.13736080627687011        0.0000000000000000     
   8.3914678309925772E-002  0.14472349656940237        0.0000000000000000     
   8.5621716439372650E-002  0.15232974311766301        0.0000000000000000     
   8.7285571434888715E-002  0.16017954592165207        0.0000000000000000     
   8.8906243296473939E-002  0.16827290498136946        0.0000000000000000     
   7.5133754887894158E-002  0.13682065712162425        0.0000000000000000     
   7.6681669672907404E-002  0.14417791085506426        0.0000000000000000     
   7.8152890961225074E-002  0.15173640259457072        0.0000000000000000     
   7.9547418752847140E-002  0.15949613234014359        0.0000000000000000     
   8.0865253047773589E-002  0.16745710009178294        0.0000000000000000     
   6.8446238112057578E-002  0.13632547855363483        0.0000000000000000     
   6.9857567900449086E-002  0.14367599959508134        0.0000000000000000     
   7.1206935495535195E-002  0.15118445394024033        0.0000000000000000     
   7.2494340897315865E-002  0.15885084158911181        0.0000000000000000     
   7.3719784105791136E-002  0.16667516254169579        0.0000000000000000     
   0.0000000000000000        0.0000000000000000        0.0000000000000000     
   2.8810910404418041E-003   1.7413401475726625E-003   0.0000000000000000     
   5.8744997053012853E-003   3.8578962272414362E-003   0.0000000000000000     
   8.9802259945784453E-003   6.3496682390063227E-003   0.0000000000000000     
   1.2198269908273281E-002   9.2166561828673204E-003   0.0000000000000000     
   0.0000000000000000        0.0000000000000000        0.0000000000000000     
   2.6105627010879484E-003   1.5855953443855084E-003   0.0000000000000000     
   5.2898796360990189E-003   3.5504155398384247E-003   0.0000000000000000     
   8.0379508050332123E-003   5.8944605863587496E-003   0.0000000000000000     
   1.0854776207890528E-002   8.6177304839464806E-003   0.0000000000000000     
   0.0000000000000000        0.0000000000000000        0.0000000000000000     
   2.3396744814734535E-003   1.4560654135834267E-003   0.0000000000000000     
   4.7188721569215693E-003   3.2944771792034031E-003   0.0000000000000000     
   7.1375930263443462E-003   5.5152352968599267E-003   0.0000000000000000     
   9.5958370897417846E-003   8.1183397665530021E-003   0.0000000000000000     
   0.0000000000000000        0.0000000000000000        0.0000000000000000     
   2.0684263815983189E-003   1.3527503551664169E-003   0.0000000000000000     
   4.1614772677689340E-003   3.0900811453363694E-003   0.0000000000000000     
   6.2791526585118463E-003   5.2119923705098575E-003   0.0000000000000000     
   8.4214525538270548E-003   7.7184840306868813E-003   0.0000000000000000     
   0.0000000000000000        0.0000000000000000        0.0000000000000000     
   1.7968184014625437E-003   1.2756501691344791E-003   0.0000000000000000     
   3.6176949686411147E-003   2.9372274382373255E-003   0.0000000000000000     
   5.4626297015357116E-003   4.9847318073085395E-003   0.0000000000000000     
   7.3316226001463357E-003   7.4181632763481208E-003   0.0000000000000000     
   1.2198269908273281E-002   9.2166561828673204E-003   0.0000000000000000     
   1.5431005513667025E-002   1.2356449234240272E-002   0.0000000000000000     
   1.8580806878040906E-002   1.5666636568541028E-002   0.0000000000000000     
   2.1647674001394931E-002   1.9147218185769584E-002   0.0000000000000000     
   2.4631606883729087E-002   2.2798194085925941E-002   0.0000000000000000     
   1.0854776207890528E-002   8.6177304839464806E-003   0.0000000000000000     
   1.3686889545560721E-002   1.1637561417339815E-002   0.0000000000000000     
   1.6480824518933547E-002   1.4871289571276938E-002   0.0000000000000000     
   1.9236581128009005E-002   1.8318914945757856E-002   0.0000000000000000     
   2.1954159372787097E-002   2.1980437540782567E-002   0.0000000000000000     
   9.5958370897417846E-003   8.1183397665530021E-003   0.0000000000000000     
   1.2069776676454135E-002   1.1036010416890573E-002   0.0000000000000000     
   1.4535584115821631E-002   1.4200467076480587E-002   0.0000000000000000     
   1.6993259407844279E-002   1.7611709745323050E-002   0.0000000000000000     
   1.9442802552522086E-002   2.1269738423417953E-002   0.0000000000000000     
   8.4214525538270548E-003   7.7184840306868813E-003   0.0000000000000000     
   1.0579666906347261E-002   1.0551796232892553E-002   0.0000000000000000     
   1.2745085668705160E-002   1.3654169084151978E-002   0.0000000000000000     
   1.4917708840900755E-002   1.7025602584465158E-002   0.0000000000000000     
   1.7097536422934045E-002   2.0666096733832101E-002   0.0000000000000000     
   7.3316226001463357E-003   7.4181632763481208E-003   0.0000000000000000     
   9.2165602352401056E-003   1.0184918865345749E-002   0.0000000000000000     
   1.1109329177584136E-002   1.3232395594291107E-002   0.0000000000000000     
   1.3009929427178430E-002   1.6560593463184191E-002   0.0000000000000000     
   1.4918360984022983E-002   2.0169512472025003E-002   0.0000000000000000     
   2.4631606883729087E-002   2.2798194085925941E-002   0.0000000000000000     
   2.7536319276487597E-002   2.6643619351377972E-002   0.0000000000000000     
   3.0365524931114662E-002   3.0707549064493557E-002   0.0000000000000000     
   3.3119223847610291E-002   3.4989983225272692E-002   0.0000000000000000     
   3.5797416025974471E-002   3.9490921833715380E-002   0.0000000000000000     
   2.1954159372787097E-002   2.1980437540782567E-002   0.0000000000000000     
   2.4616346383314350E-002   2.5855692607310632E-002   0.0000000000000000     
   2.7205929289637304E-002   2.9944515396301608E-002   0.0000000000000000     
   2.9722908091755935E-002   3.4246905907755490E-002   0.0000000000000000     
   3.2167282789670265E-002   3.8762864141672300E-002   0.0000000000000000     
   1.9442802552522086E-002   2.1269738423417953E-002   0.0000000000000000     
   2.1855120146096640E-002   2.5157825588574295E-002   0.0000000000000000     
   2.4201118784809548E-002   2.9259243718601058E-002   0.0000000000000000     
   2.6480798468660815E-002   3.3573992813498245E-002   0.0000000000000000     
   2.8694159197650431E-002   3.8102072873265856E-002   0.0000000000000000     
   1.7097536422934045E-002   2.0666096733832101E-002   0.0000000000000000     
   1.9252640564834458E-002   2.4550018295168962E-002   0.0000000000000000     
   2.1351093416631408E-002   2.8651734031391908E-002   0.0000000000000000     
   2.3392894978324912E-002   3.2971243942500950E-002   0.0000000000000000     
   2.5378045249914952E-002   3.7508548028496076E-002   0.0000000000000000     
   1.4918360984022983E-002   2.0169512472025003E-002   0.0000000000000000     
   1.6808907639527804E-002   2.4032270727094632E-002   0.0000000000000000     
   1.8655853185102888E-002   2.8121986334674158E-002   0.0000000000000000     
   2.0459197620748229E-002   3.2438659294763590E-002   0.0000000000000000     
   2.2218940946463844E-002   3.6982289607362918E-002   0.0000000000000000     
   3.5797416025974471E-002   3.9490921833715380E-002   0.0000000000000000     
   3.8396528065957239E-002   4.4204684775908595E-002   0.0000000000000000     
   4.0912986567308615E-002   4.9125591937939327E-002   0.0000000000000000     
   4.3346791530028586E-002   5.4253643319807594E-002   0.0000000000000000     
   4.5697942954117152E-002   5.9588838921513364E-002   0.0000000000000000     
   3.2167282789670265E-002   3.8762864141672300E-002   0.0000000000000000     
   3.4539317624006062E-002   4.3489290505221212E-002   0.0000000000000000     
   3.6839276835389068E-002   4.8423085405571449E-002   0.0000000000000000     
   3.9067160423819296E-002   5.3564248842723011E-002   0.0000000000000000     
   4.1222968389296753E-002   5.8912780816675898E-002   0.0000000000000000     
   2.8694159197650431E-002   3.8102072873265856E-002   0.0000000000000000     
   3.0842808984905282E-002   4.2840277275173748E-002   0.0000000000000000     
   3.2928355843552262E-002   4.7785399396491748E-002   0.0000000000000000     
   3.4950799773591348E-002   5.2937439237219865E-002   0.0000000000000000     
   3.6910140775022568E-002   5.8296396797358110E-002   0.0000000000000000     
   2.5378045249914952E-002   3.7508548028496076E-002   0.0000000000000000     
   2.7307002148654919E-002   4.2257645085766182E-002   0.0000000000000000     
   2.9180223591798178E-002   4.7212533910700225E-002   0.0000000000000000     
   3.0997709579344730E-002   5.2373214503298168E-002   0.0000000000000000     
   3.2759460111294582E-002   5.7739686863560021E-002   0.0000000000000000     
   2.2218940946463844E-002   3.6982289607362918E-002   0.0000000000000000     
   2.3931897115254959E-002   4.1741393936998550E-002   0.0000000000000000     
   2.5594880080126833E-002   4.6704488948196871E-002   0.0000000000000000     
   2.7207889841079452E-002   5.1871574640957895E-002   0.0000000000000000     
   2.8770926398112816E-002   5.7242651015281608E-002   0.0000000000000000     
   4.5697942954117152E-002   5.9588838921513364E-002   0.0000000000000000     
   4.7974474091714278E-002   6.5112562189670972E-002   0.0000000000000000     
   5.0184418194959911E-002   7.0806196570894722E-002   0.0000000000000000     
   5.2327775263854029E-002   7.6669742065184593E-002   0.0000000000000000     
   5.4404545298396660E-002   8.2703198672540640E-002   0.0000000000000000     
   4.1222968389296753E-002   5.8912780816675898E-002   0.0000000000000000     
   4.3311131509071329E-002   6.4449921558477799E-002   0.0000000000000000     
   4.5336080560392927E-002   7.0156911299176450E-002   0.0000000000000000     
   4.7297815543261575E-002   7.6033750038771830E-002   0.0000000000000000     
   4.9196336457677216E-002   8.2080437777263940E-002   0.0000000000000000     
   3.6910140775022568E-002   5.8296396797358110E-002   0.0000000000000000     
   3.8808591626550731E-002   6.3844197008569248E-002   0.0000000000000000     
   4.0648365106880691E-002   6.9562764802516039E-002   0.0000000000000000     
   4.2429461216012418E-002   7.5452100179198497E-002   0.0000000000000000     
   4.4151879953945941E-002   8.1512203138616637E-002   0.0000000000000000     
   3.2759460111294582E-002   5.7739686863560021E-002   0.0000000000000000     
   3.4466854444152484E-002   6.3295388539945291E-002   0.0000000000000000     
   3.6121271834423152E-002   6.9023757080913503E-002   0.0000000000000000     
   3.7722712282106594E-002   7.4924792486464636E-002   0.0000000000000000     
   3.9271175787202822E-002   8.0998494756598705E-002   0.0000000000000000     
   2.8770926398112816E-002   5.7242651015281608E-002   0.0000000000000000     
   3.0285919961876569E-002   6.2803496152605942E-002   0.0000000000000000     
   3.1754800743020326E-002   6.8539888134368801E-002   0.0000000000000000     
   3.3177568741544088E-002   7.4451826960570233E-002   0.0000000000000000     
   3.4554223957447866E-002   8.0539312631210183E-002   0.0000000000000000     
   5.4404545298396660E-002   8.2703198672540640E-002   0.0000000000000000     
   5.6413528438868890E-002   8.8895632652635351E-002   0.0000000000000000     
   5.8353524825551825E-002   9.5236110265141227E-002   0.0000000000000000     
   6.0224534458445445E-002  0.10172463151005831        0.0000000000000000     
   6.2026557337549790E-002  0.10836119638738656        0.0000000000000000     
   4.9196336457677216E-002   8.2080437777263940E-002   0.0000000000000000     
   5.1031520295213018E-002   8.8288083539799389E-002   0.0000000000000000     
   5.2803244047442091E-002   9.4647796351524788E-002   0.0000000000000000     
   5.4511507714364450E-002  0.10115957621244012        0.0000000000000000     
   5.6156311295980074E-002  0.10782342312254542        0.0000000000000000     
   4.4151879953945941E-002   8.1512203138616637E-002   0.0000000000000000     
   4.5816018477364009E-002   8.7735313713572405E-002   0.0000000000000000     
   4.7422273942949428E-002   9.4113671936867871E-002   0.0000000000000000     
   4.8970646350702175E-002  0.10064727780850297        0.0000000000000000     
   5.0461135700622245E-002  0.10733613132847773        0.0000000000000000     
   3.9271175787202822E-002   8.0998494756598705E-002   0.0000000000000000     
   4.0767022985321873E-002   8.7237323173954426E-002   0.0000000000000000     
   4.2210614512073807E-002   9.3633737021170435E-002   0.0000000000000000     
   4.3601950367458606E-002  0.10018773629824680        0.0000000000000000     
   4.4941030551476295E-002  0.10689932100518351        0.0000000000000000     
   3.4554223957447866E-002   8.0539312631210183E-002   0.0000000000000000     
   3.5884533819086593E-002   8.6794111920945397E-002   0.0000000000000000     
   3.7168265754815237E-002   9.3207991604432550E-002   0.0000000000000000     
   3.8405419764633776E-002   9.9780951681671684E-002   0.0000000000000000     
   3.9595995848542224E-002  0.10651299215266274        0.0000000000000000     
   6.2026557337549790E-002  0.10836119638738656        0.0000000000000000     
   6.3753434512613796E-002  0.11514190404292747        0.0000000000000000     
   6.5399007033386428E-002  0.12206285362248248        0.0000000000000000     
   6.6963274899867684E-002  0.12912404512605161        0.0000000000000000     
   6.8446238112057578E-002  0.13632547855363483        0.0000000000000000     
   5.6156311295980074E-002  0.10782342312254542        0.0000000000000000     
   5.7732812795473973E-002  0.11463157557923086        0.0000000000000000     
   5.9236170216031128E-002  0.12157627207988665        0.0000000000000000     
   6.0666383557651547E-002  0.12865751262451283        0.0000000000000000     
   6.2023452820335237E-002  0.13587529721310934        0.0000000000000000     
   5.0461135700622245E-002  0.10733613132847773        0.0000000000000000     
   5.1890159654712657E-002  0.11416936486232226        0.0000000000000000     
   5.3254135874976426E-002  0.12113611077556670        0.0000000000000000     
   5.4553064361413543E-002  0.12823636906821104        0.0000000000000000     
   5.5786945114024003E-002  0.13547013974025524        0.0000000000000000     
   4.4941030551476295E-002  0.10689932100518351        0.0000000000000000     
   4.6225475090329857E-002  0.11375527189220171        0.0000000000000000     
   4.7452904010222320E-002  0.12074236970952262        0.0000000000000000     
   4.8623317311153651E-002  0.12786061445714625        0.0000000000000000     
   4.9736714993123883E-002  0.13511000613507257        0.0000000000000000     
   3.9595995848542224E-002  0.10651299215266274        0.0000000000000000     
   4.0738759102325571E-002  0.11338929666886920        0.0000000000000000     
   4.1832474621768791E-002  0.12039504888175444        0.0000000000000000     
   4.2877142406871890E-002  0.12753024879131844        0.0000000000000000     
   4.3872762457634870E-002  0.13479489639756126        0.0000000000000000     
   6.8446238112057578E-002  0.13632547855363483        0.0000000000000000     
   6.9857567900449086E-002  0.14367599959508134        0.0000000000000000     
   7.1206935495535195E-002  0.15118445394024033        0.0000000000000000     
   7.2494340897315865E-002  0.15885084158911181        0.0000000000000000     
   7.3719784105791136E-002  0.16667516254169579        0.0000000000000000     
   6.2023452820335237E-002  0.13587529721310934        0.0000000000000000     
   6.3328705656149092E-002  0.14322277389448407        0.0000000000000000     
   6.4603469717160023E-002  0.15069309071744477        0.0000000000000000     
   6.5847745003368027E-002  0.15828624768199154        0.0000000000000000     
   6.7061531514773093E-002  0.16600224478812434        0.0000000000000000     
   5.5786945114024003E-002  0.13547013974025524        0.0000000000000000     
   5.6981415603605728E-002  0.14282324485830272        0.0000000000000000     
   5.8162113300956650E-002  0.15028150648895683        0.0000000000000000     
   5.9329038206076740E-002  0.15784492463221764        0.0000000000000000     
   6.0482190318966025E-002  0.16551349928808498        0.0000000000000000     
   4.9736714993123883E-002  0.13511000613507257        0.0000000000000000     
   5.0815697742819008E-002  0.14247741248653736        0.0000000000000000     
   5.1882866246925050E-002  0.14994970125477652        0.0000000000000000     
   5.2938220505442023E-002  0.15752687243978991        0.0000000000000000     
   5.3981760518369899E-002  0.16520892604157766        0.0000000000000000     
   4.3872762457634870E-002  0.13479489639756126        0.0000000000000000     
   4.4831552073788923E-002  0.14218527677918799        0.0000000000000000     
   4.5765728555065256E-002  0.14969767501490377        0.0000000000000000     
   4.6675291901463856E-002  0.15733209110470858        0.0000000000000000     
   4.7560242112984742E-002  0.16508852504860244        0.0000000000000000     
   0.0000000000000000        0.0000000000000000        0.0000000000000000     
   1.7968184014625437E-003   1.2756501691344791E-003   0.0000000000000000     
   3.6176949686411147E-003   2.9372274382373255E-003   0.0000000000000000     
   5.4626297015357116E-003   4.9847318073085395E-003   0.0000000000000000     
   7.3316226001463357E-003   7.4181632763481208E-003   0.0000000000000000     
   0.0000000000000000        0.0000000000000000        0.0000000000000000     
   1.5331688837901627E-003   1.2174897290636649E-003   0.0000000000000000     
   3.0949786567591245E-003   2.8211121497838665E-003   0.0000000000000000     
   4.6854293189068875E-003   4.8108672621606048E-003   0.0000000000000000     
   6.3045208702334488E-003   7.1867550661938798E-003   0.0000000000000000     
   0.0000000000000000        0.0000000000000000        0.0000000000000000     
   1.2857961713052075E-003   1.1709939085300263E-003   0.0000000000000000     
   2.6007817293439784E-003   2.7269313718535884E-003   0.0000000000000000     
   3.9449566741163143E-003   4.6678123899706863E-003   0.0000000000000000     
   5.3183210056222145E-003   6.9936369628813191E-003   0.0000000000000000     
   0.0000000000000000        0.0000000000000000        0.0000000000000000     
   1.0547002640076783E-003   1.1361627075335634E-003   0.0000000000000000     
   2.1351041863956763E-003   2.6546851044464909E-003   0.0000000000000000     
   3.2412117671639937E-003   4.5555671907387832E-003   0.0000000000000000     
   4.3730230063126312E-003   6.8388089664104378E-003   0.0000000000000000     
   0.0000000000000000        0.0000000000000000        0.0000000000000000     
   8.3988116189757543E-004   1.1129961260742760E-003   0.0000000000000000     
   1.6979460279142175E-003   2.6043733475625743E-003   0.0000000000000000     
   2.5741945980499257E-003   4.4741316644648955E-003   0.0000000000000000     
   3.4686268723046997E-003   6.7222710767812378E-003   0.0000000000000000     
   7.3316226001463357E-003   7.4181632763481208E-003   0.0000000000000000     
   9.2165602352401056E-003   1.0184918865345749E-002   0.0000000000000000     
   1.1109329177584136E-002   1.3232395594291107E-002   0.0000000000000000     
   1.3009929427178430E-002   1.6560593463184191E-002   0.0000000000000000     
   1.4918360984022983E-002   2.0169512472025003E-002   0.0000000000000000     
   6.3045208702334488E-003   7.1867550661938798E-003   0.0000000000000000     
   7.9391185385335288E-003   9.8991782243755093E-003   0.0000000000000000     
   9.5760875516018428E-003   1.2898539399197308E-002   0.0000000000000000     
   1.1215427909438389E-002   1.6184838590659282E-002   0.0000000000000000     
   1.2857139612043171E-002   1.9758075798761425E-002   0.0000000000000000     
   5.3183210056222145E-003   6.9936369628813191E-003   0.0000000000000000     
   6.7060036916283920E-003   9.6583742201071694E-003   0.0000000000000000     
   8.0931336999015644E-003   1.2615993291169920E-002   0.0000000000000000     
   9.4797110304417273E-003   1.5866494176069567E-002   0.0000000000000000     
   1.0865735683248882E-002   1.9409876874806116E-002   0.0000000000000000     
   4.3730230063126312E-003   6.8388089664104378E-003   0.0000000000000000     
   5.5172156945246962E-003   9.4625068525407297E-003   0.0000000000000000     
   6.6604676224832999E-003   1.2384757270208937E-002   0.0000000000000000     
   7.8027787901884405E-003   1.5605560219415057E-002   0.0000000000000000     
   8.9441491976401180E-003   1.9124915700159086E-002   0.0000000000000000     
   3.4686268723046997E-003   6.7222710767812378E-003   0.0000000000000000     
   4.3727545472224422E-003   9.3115761216761954E-003   0.0000000000000000     
   5.2780893193470528E-003   1.2204831336314365E-002   0.0000000000000000     
   6.1846311886785306E-003   1.5402036720695740E-002   0.0000000000000000     
   7.0923801552168781E-003   1.8903192274820329E-002   0.0000000000000000     
   1.4918360984022983E-002   2.0169512472025003E-002   0.0000000000000000     
   1.6808907639527804E-002   2.4032270727094632E-002   0.0000000000000000     
   1.8655853185102888E-002   2.8121986334674158E-002   0.0000000000000000     
   2.0459197620748229E-002   3.2438659294763590E-002   0.0000000000000000     
   2.2218940946463844E-002   3.6982289607362918E-002   0.0000000000000000     
   1.2857139612043171E-002   1.9758075798761425E-002   0.0000000000000000     
   1.4484767922639611E-002   2.3593406245885944E-002   0.0000000000000000     
   1.6081858104451126E-002   2.7665985154415054E-002   0.0000000000000000     
   1.7648410157477718E-002   3.1975812524348737E-002   0.0000000000000000     
   1.9184424081719394E-002   3.6522888355687025E-002   0.0000000000000000     
   1.0865735683248882E-002   1.9409876874806116E-002   0.0000000000000000     
   1.2241067966632812E-002   2.3222248213077550E-002   0.0000000000000000     
   1.3595568188903288E-002   2.7279715016581833E-002   0.0000000000000000     
   1.4929236350060320E-002   3.1582277285318976E-002   0.0000000000000000     
   1.6242072450103898E-002   3.6129935019288982E-002   0.0000000000000000     
   8.9441491976401180E-003   1.9124915700159086E-002   0.0000000000000000     
   1.0077807771507406E-002   2.2918796628669434E-002   0.0000000000000000     
   1.1196983438459377E-002   2.6963175921174497E-002   0.0000000000000000     
   1.2301676198496030E-002   3.1258053577674277E-002   0.0000000000000000     
   1.3391886051617362E-002   3.5803429598168783E-002   0.0000000000000000     
   7.0923801552168781E-003   1.8903192274820329E-002   0.0000000000000000     
   7.9949873372633963E-003   2.2683051492661605E-002   0.0000000000000000     
   8.8861038531193870E-003   2.6716367868193050E-002   0.0000000000000000     
   9.7657297027848467E-003   3.1003141401414663E-002   0.0000000000000000     
   1.0633864886259784E-002   3.5543372092326449E-002   0.0000000000000000     
   2.2218940946463844E-002   3.6982289607362918E-002   0.0000000000000000     
   2.3931897115254959E-002   4.1741393936998550E-002   0.0000000000000000     
   2.5594880080126833E-002   4.6704488948196871E-002   0.0000000000000000     
   2.7207889841079452E-002   5.1871574640957895E-002   0.0000000000000000     
   2.8770926398112816E-002   5.7242651015281608E-002   0.0000000000000000     
   1.9184424081719394E-002   3.6522888355687025E-002   0.0000000000000000     
   2.0682852078063814E-002   4.1289817100278355E-002   0.0000000000000000     
   2.2136646347398654E-002   4.6259203209971213E-002   0.0000000000000000     
   2.3545806889723922E-002   5.1431046684765593E-002   0.0000000000000000     
   2.4910333705039603E-002   5.6805347524661515E-002   0.0000000000000000     
   1.6242072450103898E-002   3.6129935019288982E-002   0.0000000000000000     
   1.7525225230439874E-002   4.0901207847013135E-002   0.0000000000000000     
   1.8769843432474100E-002   4.5874615397012757E-002   0.0000000000000000     
   1.9975927056206572E-002   5.1050157669287832E-002   0.0000000000000000     
   2.1143476101637287E-002   5.6427834663838383E-002   0.0000000000000000     
   1.3391886051617362E-002   3.5803429598168783E-002   0.0000000000000000     
   1.4459016572383151E-002   4.0575566177202892E-002   0.0000000000000000     
   1.5494471335353159E-002   4.5550725509321509E-002   0.0000000000000000     
   1.6498250340527397E-002   5.0728907594524600E-002   0.0000000000000000     
   1.7470353587905857E-002   5.6110112432812213E-002   0.0000000000000000     
   1.0633864886259784E-002   3.5543372092326449E-002   0.0000000000000000     
   1.1484226103893633E-002   4.0312892090847638E-002   0.0000000000000000     
   1.2310530056035839E-002   4.5287533546897456E-002   0.0000000000000000     
   1.3112776742686400E-002   5.0467296460475909E-002   0.0000000000000000     
   1.3890966163845320E-002   5.5852180831582998E-002   0.0000000000000000     
   2.8770926398112816E-002   5.7242651015281608E-002   0.0000000000000000     
   3.0285919961876569E-002   6.2803496152605942E-002   0.0000000000000000     
   3.1754800743020326E-002   6.8539888134368801E-002   0.0000000000000000     
   3.3177568741544088E-002   7.4451826960570233E-002   0.0000000000000000     
   3.4554223957447866E-002   8.0539312631210183E-002   0.0000000000000000     
   2.4910333705039603E-002   5.6805347524661515E-002   0.0000000000000000     
   2.6233037499940458E-002   6.2370165249932170E-002   0.0000000000000000     
   2.7516728981021227E-002   6.8113559380850813E-002   0.0000000000000000     
   2.8761408148281920E-002   7.4035529917417450E-002   0.0000000000000000     
   2.9967075001722514E-002   8.0136076859632074E-002   0.0000000000000000     
   2.1143476101637287E-002   5.6427834663838383E-002   0.0000000000000000     
   2.2275456378561598E-002   6.1997041235305028E-002   0.0000000000000000     
   2.3374833696774854E-002   6.7747172238328421E-002   0.0000000000000000     
   2.4441608056277063E-002   7.3678227672908533E-002   0.0000000000000000     
   2.5475779457068221E-002   7.9790207539045394E-002   0.0000000000000000     
   1.7470353587905857E-002   5.6110112432812213E-002   0.0000000000000000     
   1.8413176597739975E-002   6.1684124108724467E-002   0.0000000000000000     
   1.9329114890281204E-002   6.7440726706801540E-002   0.0000000000000000     
   2.0218168465529537E-002   7.3379920227043427E-002   0.0000000000000000     
   2.1080337323484969E-002   7.9501704669450168E-002   0.0000000000000000     
   1.3890966163845320E-002   5.5852180831582998E-002   0.0000000000000000     
   1.4646198157475606E-002   6.1431413870190507E-002   0.0000000000000000     
   1.5379572561540279E-002   6.7194222786270227E-002   0.0000000000000000     
   1.6091089376039334E-002   7.3140607579822201E-002   0.0000000000000000     
   1.6780748600972770E-002   7.9270568250846371E-002   0.0000000000000000     
   3.4554223957447866E-002   8.0539312631210183E-002   0.0000000000000000     
   3.5884533819086593E-002   8.6794111920945397E-002   0.0000000000000000     
   3.7168265754815237E-002   9.3207991604432550E-002   0.0000000000000000     
   3.8405419764633776E-002   9.9780951681671684E-002   0.0000000000000000     
   3.9595995848542224E-002  0.10651299215266274        0.0000000000000000     
   2.9967075001722514E-002   8.0136076859632074E-002   0.0000000000000000     
   3.1132854228351707E-002   8.6406059729823265E-002   0.0000000000000000     
   3.2257870515178165E-002   9.2836338050319628E-002   0.0000000000000000     
   3.3342123862201874E-002   9.9426911821121192E-002   0.0000000000000000     
   3.4385614269422854E-002  0.10617778104222793        0.0000000000000000     
   2.5475779457068221E-002   7.9790207539045394E-002   0.0000000000000000     
   2.6476287462810739E-002   8.6073546375865950E-002   0.0000000000000000     
   2.7442071637167040E-002   9.2518678722497166E-002   0.0000000000000000     
   2.8373131980137124E-002   9.9125604578939028E-002   0.0000000000000000     
   2.9269468491720994E-002  0.10589432394519152        0.0000000000000000     
   2.1080337323484969E-002   7.9501704669450168E-002   0.0000000000000000     
   2.1914833522463685E-002   8.5796571859073481E-002   0.0000000000000000     
   2.2720869120781872E-002   9.2255013620965137E-002   0.0000000000000000     
   2.3498444118439515E-002   9.8877029955125165E-002   0.0000000000000000     
   2.4247558515436623E-002  0.10566262086155355        0.0000000000000000     
   1.6780748600972770E-002   7.9270568250846371E-002   0.0000000000000000     
   1.7448492407310556E-002   8.5575136179445815E-002   0.0000000000000000     
   1.8094262966022647E-002   9.2045342745723555E-002   0.0000000000000000     
   1.8718060277109053E-002   9.8681187949679630E-002   0.0000000000000000     
   1.9319884340569766E-002  0.10548267179131401        0.0000000000000000     
   3.9595995848542224E-002  0.10651299215266274        0.0000000000000000     
   4.0738759102325571E-002  0.11338929666886920        0.0000000000000000     
   4.1832474621768791E-002  0.12039504888175444        0.0000000000000000     
   4.2877142406871890E-002  0.12753024879131844        0.0000000000000000     
   4.3872762457634870E-002  0.13479489639756126        0.0000000000000000     
   3.4385614269422854E-002  0.10617778104222793        0.0000000000000000     
   3.5387982978829537E-002  0.11307329234712865        0.0000000000000000     
   3.6348871232410353E-002  0.12009779236931217        0.0000000000000000     
   3.7268279030165316E-002  0.12725128110877851        0.0000000000000000     
   3.8146206372094413E-002  0.13453375856552760        0.0000000000000000     
   2.9269468491720994E-002  0.10589432394519152        0.0000000000000000     
   3.0131118007971486E-002  0.11280911208178405        0.0000000000000000     
   3.0958117364941484E-002  0.11985424424924591        0.0000000000000000     
   3.1750466562630968E-002  0.12702972044757715        0.0000000000000000     
   3.2508165601039959E-002  0.13433554067677778        0.0000000000000000     
   2.4247558515436623E-002  0.10566262086155355        0.0000000000000000     
   2.4968164189751434E-002  0.11259675587283537        0.0000000000000000     
   2.5660213019362183E-002  0.11966440452155569        0.0000000000000000     
   2.6323705004268873E-002  0.12686556680771449        0.0000000000000000     
   2.6958640144471496E-002  0.13420024273131179        0.0000000000000000     
   1.9319884340569766E-002  0.10548267179131401        0.0000000000000000     
   1.9899121524169373E-002  0.11243622372028264        0.0000000000000000     
   2.0455158195672455E-002  0.11952827318624146        0.0000000000000000     
   2.0987994355079007E-002  0.12675882018919046        0.0000000000000000     
   2.1497630002389041E-002  0.13412786472912966        0.0000000000000000     
   4.3872762457634870E-002  0.13479489639756126        0.0000000000000000     
   4.4831552073788923E-002  0.14218527677918799        0.0000000000000000     
   4.5765728555065256E-002  0.14969767501490377        0.0000000000000000     
   4.6675291901463856E-002  0.15733209110470858        0.0000000000000000     
   4.7560242112984742E-002  0.16508852504860244        0.0000000000000000     
   3.8146206372094413E-002  0.13453375856552760        0.0000000000000000     
   3.8982966473195074E-002  0.14195558133784897        0.0000000000000000     
   3.9778872548464725E-002  0.14952710602403205        0.0000000000000000     
   4.0533924597903372E-002  0.15724833262407684        0.0000000000000000     
   4.1248122621511008E-002  0.16511926113798336        0.0000000000000000     
   3.2508165601039959E-002  0.13433554067677778        0.0000000000000000     
   3.3223928817717067E-002  0.14179706976411469        0.0000000000000000     
   3.3890470550210987E-002  0.14943967253685475        0.0000000000000000     
   3.4507790798521676E-002  0.15726334899499800        0.0000000000000000     
   3.5075889562649162E-002  0.16526809913854443        0.0000000000000000     
   2.6958640144471496E-002  0.13420024273131179        0.0000000000000000     
   2.7554439107354924E-002  0.14170974205798506        0.0000000000000000     
   2.8100522560304021E-002  0.14943537455337183        0.0000000000000000     
   2.8596890503318779E-002  0.15737714021747204        0.0000000000000000     
   2.9043542936399200E-002  0.16553503905028571        0.0000000000000000     
   2.1497630002389041E-002  0.13412786472912966        0.0000000000000000     
   2.1974497342108622E-002  0.14169359821946023        0.0000000000000000     
   2.2409028578743828E-002  0.14951421207358334        0.0000000000000000     
   2.2801223712294670E-002  0.15758970629149899        0.0000000000000000     
   2.3151082742761127E-002  0.16592008087320720        0.0000000000000000     
   0.0000000000000000        0.0000000000000000        0.0000000000000000     
   8.3988116189757543E-004   1.1129961260742760E-003   0.0000000000000000     
   1.6979460279142175E-003   2.6043733475625743E-003   0.0000000000000000     
   2.5741945980499257E-003   4.4741316644648955E-003   0.0000000000000000     
   3.4686268723046997E-003   6.7222710767812378E-003   0.0000000000000000     
   0.0000000000000000        0.0000000000000000        0.0000000000000000     
   6.3237806464176553E-004   1.0978286383448819E-003   0.0000000000000000     
   1.2746505514837189E-003   2.5699469086429834E-003   0.0000000000000000     
   1.9268174605258604E-003   4.4163548108943056E-003   0.0000000000000000     
   2.5888787917681898E-003   6.6370523450988463E-003   0.0000000000000000     
   0.0000000000000000        0.0000000000000000        0.0000000000000000     
   4.2323017190711547E-004   1.0869947185380977E-003   0.0000000000000000     
   8.5056105468829892E-004   2.5453565951288628E-003   0.0000000000000000     
   1.2819926483435505E-003   4.3750856297722959E-003   0.0000000000000000     
   1.7175249528728702E-003   6.5761818224683941E-003   0.0000000000000000     
   0.0000000000000000        0.0000000000000000        0.0000000000000000     
   2.1243748369362506E-004   1.0804943666539242E-003   0.0000000000000000     
   4.2567753752795694E-004   2.5306024070202121E-003   0.0000000000000000     
   6.3972016150299553E-004   4.3503241210988645E-003   0.0000000000000000     
   8.5456535561874078E-004   6.5396595088898805E-003   0.0000000000000000     
   0.0000000000000000        0.0000000000000000        0.0000000000000000     
   1.2943476585675073E-015   1.0783275826923605E-003   0.0000000000000000     
   2.6927787256936231E-015   2.5256843443170317E-003   0.0000000000000000     
   4.1953203064326594E-015   4.3420702848740132E-003   0.0000000000000000     
   5.8019724007846163E-015   6.5274854043633063E-003   0.0000000000000000     
   3.4686268723046997E-003   6.7222710767812378E-003   0.0000000000000000     
   4.3727545472224422E-003   9.3115761216761954E-003   0.0000000000000000     
   5.2780893193470528E-003   1.2204831336314365E-002   0.0000000000000000     
   6.1846311886785306E-003   1.5402036720695740E-002   0.0000000000000000     
   7.0923801552168781E-003   1.8903192274820329E-002   0.0000000000000000     
   2.5888787917681898E-003   6.6370523450988463E-003   0.0000000000000000     
   3.2577340962203559E-003   9.1991715107267343E-003   0.0000000000000000     
   3.9302829248920070E-003   1.2069844307248098E-002   0.0000000000000000     
   4.6065252777831422E-003   1.5249070734662938E-002   0.0000000000000000     
   5.2864611548937646E-003   1.8736850792971251E-002   0.0000000000000000     
   1.7175249528728702E-003   6.5761818224683941E-003   0.0000000000000000     
   2.1572681880171673E-003   9.1188825029055245E-003   0.0000000000000000     
   2.6013325735173504E-003   1.1973425000772041E-002   0.0000000000000000     
   3.0497181093734208E-003   1.5139809316067955E-002   0.0000000000000000     
   3.5024247955853780E-003   1.8618035448793254E-002   0.0000000000000000     
   8.5456535561874078E-004   6.5396595088898805E-003   0.0000000000000000     
   1.0713568226128763E-003   9.0707090982125576E-003   0.0000000000000000     
   1.2912382652230849E-003   1.1915573416886196E-002   0.0000000000000000     
   1.5142096834493664E-003   1.5074252464910792E-002   0.0000000000000000     
   1.7402710772917217E-003   1.8546746242286347E-002   0.0000000000000000     
   5.8019724007846163E-015   6.5274854043633063E-003   0.0000000000000000     
   7.4828245813160499E-015   9.0546512966478403E-003   0.0000000000000000     
   9.2083391150903082E-015   1.1896289555590557E-002   0.0000000000000000     
   1.0978304243870578E-014   1.5052400181191449E-002   0.0000000000000000     
   1.2793043534242710E-014   1.8522983173450525E-002   0.0000000000000000     
   7.0923801552168781E-003   1.8903192274820329E-002   0.0000000000000000     
   7.9949873372633963E-003   2.2683051492661605E-002   0.0000000000000000     
   8.8861038531193870E-003   2.6716367868193050E-002   0.0000000000000000     
   9.7657297027848467E-003   3.1003141401414663E-002   0.0000000000000000     
   1.0633864886259784E-002   3.5543372092326449E-002   0.0000000000000000     
   5.2864611548937646E-003   1.8736850792971251E-002   0.0000000000000000     
   5.9633502133328619E-003   2.2506396069829876E-002   0.0000000000000000     
   6.6304521102094269E-003   2.6530918152895638E-002   0.0000000000000000     
   7.2877668455234596E-003   3.0810417042168550E-002   0.0000000000000000     
   7.9352944192749610E-003   3.5344892737648598E-002   0.0000000000000000     
   3.5024247955853780E-003   1.8618035448793254E-002   0.0000000000000000     
   3.9536399491478854E-003   2.2380213624950043E-002   0.0000000000000000     
   4.3975508870556061E-003   2.6398454070540409E-002   0.0000000000000000     
   4.8341576093085424E-003   3.0672756785564349E-002   0.0000000000000000     
   5.2634601159066907E-003   3.5203121770021870E-002   0.0000000000000000     
   1.7402710772917217E-003   1.8546746242286347E-002   0.0000000000000000     
   1.9658565447084686E-003   2.2304504158022119E-002   0.0000000000000000     
   2.1874001836579265E-003   2.6318975621127356E-002   0.0000000000000000     
   2.4049019941400959E-003   3.0590160631602071E-002   0.0000000000000000     
   2.6183619761549759E-003   3.5118059189446264E-002   0.0000000000000000     
   1.2793043534242710E-014   1.8522983173450525E-002   0.0000000000000000     
   1.4609570064133548E-014   2.2279267669046091E-002   0.0000000000000000     
   1.6385357697393244E-014   2.6292482804656493E-002   0.0000000000000000     
   1.8120602945665559E-014   3.0562628580281716E-002   0.0000000000000000     
   1.9815095744779576E-014   3.5089704995921768E-002   0.0000000000000000     
   1.0633864886259784E-002   3.5543372092326449E-002   0.0000000000000000     
   1.1484226103893633E-002   4.0312892090847638E-002   0.0000000000000000     
   1.2310530056035839E-002   4.5287533546897456E-002   0.0000000000000000     
   1.3112776742686400E-002   5.0467296460475909E-002   0.0000000000000000     
   1.3890966163845320E-002   5.5852180831582998E-002   0.0000000000000000     
   7.9352944192749610E-003   3.5344892737648598E-002   0.0000000000000000     
   8.5696509421221805E-003   4.0110600583048536E-002   0.0000000000000000     
   9.1874525247233746E-003   4.5083795922081102E-002   0.0000000000000000     
   9.7886991670785434E-003   5.0264478754746281E-002   0.0000000000000000     
   1.0373390869187687E-002   5.5652649081044087E-002   0.0000000000000000     
   5.2634601159066907E-003   3.5203121770021870E-002   0.0000000000000000     
   5.6840882042196493E-003   3.9966106648906784E-002   0.0000000000000000     
   6.0946716716170149E-003   4.4938269047212924E-002   0.0000000000000000     
   6.4952105180987856E-003   5.0119608964940283E-002   0.0000000000000000     
   6.8857047436649632E-003   5.5510126402088848E-002   0.0000000000000000     
   2.6183619761549759E-003   3.5118059189446264E-002   0.0000000000000000     
   2.8275378901860384E-003   3.9879410288422394E-002   0.0000000000000000     
   3.0321874967167563E-003   4.4850952922292929E-002   0.0000000000000000     
   3.2323107957471274E-003   5.0032687091057890E-002   0.0000000000000000     
   3.4279077872771554E-003   5.5424612794717283E-002   0.0000000000000000     
   1.9815095744779576E-014   3.5089704995921768E-002   0.0000000000000000     
   2.1348374457108577E-014   3.9850511501595340E-002   0.0000000000000000     
   2.2599760604591346E-014   4.4821847547321131E-002   0.0000000000000000     
   2.3569308397336508E-014   5.0003713133099141E-002   0.0000000000000000     
   2.4257288885887185E-014   5.5396108258929384E-002   0.0000000000000000     
   1.3890966163845320E-002   5.5852180831582998E-002   0.0000000000000000     
   1.4646198157475606E-002   6.1431413870190507E-002   0.0000000000000000     
   1.5379572561540279E-002   6.7194222786270227E-002   0.0000000000000000     
   1.6091089376039334E-002   7.3140607579822201E-002   0.0000000000000000     
   1.6780748600972770E-002   7.9270568250846371E-002   0.0000000000000000     
   1.0373390869187687E-002   5.5652649081044087E-002   0.0000000000000000     
   1.0941314945145610E-002   6.1236632924994289E-002   0.0000000000000000     
   1.1492258709047127E-002   6.7004756310616628E-002   0.0000000000000000     
   1.2026222160892230E-002   7.2957019237911161E-002   0.0000000000000000     
   1.2543205300680926E-002   7.9093421706877831E-002   0.0000000000000000     
   6.8857047436649632E-003   5.5510126402088848E-002   0.0000000000000000     
   7.2653208481271107E-003   6.1097503678426951E-002   0.0000000000000000     
   7.6332253312967908E-003   6.6869423113722903E-002   0.0000000000000000     
   7.9894181931740027E-003   7.2825884707976671E-002   0.0000000000000000     
   8.3338994337587447E-003   7.8966888461188295E-002   0.0000000000000000     
   3.4279077872771554E-003   5.5424612794717283E-002   0.0000000000000000     
   3.6182158664201125E-003   6.1014026130488515E-002   0.0000000000000000     
   3.8024724282892759E-003   6.6788223195589011E-002   0.0000000000000000     
   3.9806774728846465E-003   7.2747203990018772E-002   0.0000000000000000     
   4.1528310002062240E-003   7.8890968513777818E-002   0.0000000000000000     
   2.4257288885887185E-014   5.5396108258929384E-002   0.0000000000000000     
   2.4611606155855448E-014   6.0986200281178952E-002   0.0000000000000000     
   2.4581411125351726E-014   6.6761156556214979E-002   0.0000000000000000     
   2.4165009728481512E-014   7.2720977084037464E-002   0.0000000000000000     
   2.3364123136193626E-014   7.8865661864646386E-002   0.0000000000000000     
   1.6780748600972770E-002   7.9270568250846371E-002   0.0000000000000000     
   1.7448492407310556E-002   8.5575136179445815E-002   0.0000000000000000     
   1.8094262966022647E-002   9.2045342745723555E-002   0.0000000000000000     
   1.8718060277109053E-002   9.8681187949679630E-002   0.0000000000000000     
   1.9319884340569766E-002  0.10548267179131401        0.0000000000000000     
   1.2543205300680926E-002   7.9093421706877831E-002   0.0000000000000000     
   1.3043873104937898E-002   8.5405678201032370E-002   0.0000000000000000     
   1.3528890550187817E-002   9.1885503203890578E-002   0.0000000000000000     
   1.3998257636430696E-002   9.8532896715452428E-002   0.0000000000000000     
   1.4451974363666527E-002  0.10534785873571791        0.0000000000000000     
   8.3338994337587447E-003   7.8966888461188295E-002   0.0000000000000000     
   8.6675846029322691E-003   8.5284636787882576E-002   0.0000000000000000     
   8.9913892505758229E-003   9.1771332102584341E-002   0.0000000000000000     
   9.3053133766894062E-003   9.8426974405293549E-002   0.0000000000000000     
   9.6093569812730206E-003  0.10525156369601026        0.0000000000000000     
   4.1528310002062240E-003   7.8890968513777818E-002   0.0000000000000000     
   4.3196269012936734E-003   8.5212011939996418E-002   0.0000000000000000     
   4.4817590671866591E-003   9.1702829441804801E-002   0.0000000000000000     
   4.6392274978851854E-003   9.8363421019203007E-002   0.0000000000000000     
   4.7920321933892463E-003  0.10519378667219105        0.0000000000000000     
   2.3364123136193626E-014   7.8865661864646386E-002   0.0000000000000000     
   2.2109050701324406E-014   8.5187803657373870E-002   0.0000000000000000     
   2.0330959138448179E-014   9.1679995221552027E-002   0.0000000000000000     
   1.8028981085826956E-014   9.8342236557180815E-002   0.0000000000000000     
   1.5205718628674703E-014  0.10517452766426029        0.0000000000000000     
   1.9319884340569766E-002  0.10548267179131401        0.0000000000000000     
   1.9899121524169373E-002  0.11243622372028264        0.0000000000000000     
   2.0455158195672455E-002  0.11952827318624146        0.0000000000000000     
   2.0987994355079007E-002  0.12675882018919046        0.0000000000000000     
   2.1497630002389041E-002  0.13412786472912966        0.0000000000000000     
   1.4451974363666527E-002  0.10534785873571791        0.0000000000000000     
   1.4888861111962221E-002  0.11231843111147410        0.0000000000000000     
   1.5307738261384686E-002  0.11943265568950812        0.0000000000000000     
   1.5708605811933923E-002  0.12669053246981996        0.0000000000000000     
   1.6091463763609929E-002  0.13409206145240957        0.0000000000000000     
   9.6093569812730206E-003  0.10525156369601026        0.0000000000000000     
   9.9022540538668980E-003  0.11223429353375804        0.0000000000000000     
   1.0182738584011272E-002  0.11936435747756052        0.0000000000000000     
   1.0450810571706144E-002  0.12664175552741774        0.0000000000000000     
   1.0706470016951512E-002  0.13406648768332963        0.0000000000000000     
   4.7920321933892463E-003  0.10519378667219105        0.0000000000000000     
   4.9393003498834041E-003  0.11218381098713442        0.0000000000000000     
   5.0801591635522116E-003  0.11932337855039869        0.0000000000000000     
   5.2146086343956731E-003  0.12661248936198385        0.0000000000000000     
   5.3426487624137842E-003  0.13405114342188990        0.0000000000000000     
   1.5205718628674703E-014  0.10517452766426029        0.0000000000000000     
   1.1738006400197065E-014  0.11216698347160328        0.0000000000000000     
   7.5078832040276211E-015  0.11930971890802261        0.0000000000000000     
   2.5127469549524051E-015  0.12660273397351832        0.0000000000000000     
  -3.2465349852905945E-015  0.13404602866809034        0.0000000000000000     
   2.1497630002389041E-002  0.13412786472912966        0.0000000000000000     
   2.1974497342108622E-002  0.14169359821946023        0.0000000000000000     
   2.2409028578743828E-002  0.14951421207358334        0.0000000000000000     
   2.2801223712294670E-002  0.15758970629149899        0.0000000000000000     
   2.3151082742761127E-002  0.16592008087320720        0.0000000000000000     
   1.6091463763609929E-002  0.13409206145240957        0.0000000000000000     
   1.6449715413709924E-002  0.14171061530283086        0.0000000000000000     
   1.6776764059531116E-002  0.14961956668663778        0.0000000000000000     
   1.7072609701073504E-002  0.15781891560383032        0.0000000000000000     
   1.7337252338337099E-002  0.16630866205440847        0.0000000000000000     
   1.0706470016951512E-002  0.13406648768332963        0.0000000000000000     
   1.0945705213890582E-002  0.14172277036238776        0.0000000000000000     
   1.1164504456666566E-002  0.14969481998168374        0.0000000000000000     
   1.1362867745279460E-002  0.15798263654121755        0.0000000000000000     
   1.1540795079729268E-002  0.16658622004098916        0.0000000000000000     
   5.3426487624137842E-003  0.13405114342188990        0.0000000000000000     
   5.4624667426506051E-003  0.14173006339813102        0.0000000000000000     
   5.5722497701501854E-003  0.14973997195872121        0.0000000000000000     
   5.6719978449125260E-003  0.15808086910366068        0.0000000000000000     
   5.7617109669376287E-003  0.16675275483294930        0.0000000000000000     
  -3.2465349852905945E-015  0.13404602866809034        0.0000000000000000     
  -1.0012173382034639E-014  0.14173249441006044        0.0000000000000000     
  -1.8029848447564945E-014  0.14975502261775020        0.0000000000000000     
  -2.7296958096667545E-014  0.15811361329115969        0.0000000000000000     
  -3.7812634967604453E-014  0.16680826643028890        0.0000000000000000     
   0.0000000000000000        0.0000000000000000        0.0000000000000000     
   1.2943476585675073E-015   1.0783275826923605E-003   0.0000000000000000     
   2.6927787256936231E-015   2.5256843443170317E-003   0.0000000000000000     
   4.1953203064326594E-015   4.3420702848740132E-003   0.0000000000000000     
   5.8019724007846163E-015   6.5274854043633063E-003   0.0000000000000000     
   0.0000000000000000        0.0000000000000000        0.0000000000000000     
  -2.1243748369107723E-004   1.0804943666534283E-003   0.0000000000000000     
  -4.2567753752265416E-004   2.5306024070193551E-003   0.0000000000000000     
  -6.3972016149473109E-004   4.3503241210977803E-003   0.0000000000000000     
  -8.5456535560730733E-004   6.5396595088887044E-003   0.0000000000000000     
   0.0000000000000000        0.0000000000000000        0.0000000000000000     
  -4.2323017190469022E-004   1.0869947185371482E-003   0.0000000000000000     
  -8.5056105468324502E-004   2.5453565951272157E-003   0.0000000000000000     
  -1.2819926483356643E-003   4.3750856297702029E-003   0.0000000000000000     
  -1.7175249528619480E-003   6.5761818224661086E-003   0.0000000000000000     
   0.0000000000000000        0.0000000000000000        0.0000000000000000     
  -6.3237806463954476E-004   1.0978286383435201E-003   0.0000000000000000     
  -1.2746505514790796E-003   2.5699469086406137E-003   0.0000000000000000     
  -1.9268174605186045E-003   4.4163548108912803E-003   0.0000000000000000     
  -2.5888787917581202E-003   6.6370523450955217E-003   0.0000000000000000     
   0.0000000000000000        0.0000000000000000        0.0000000000000000     
  -8.3988116189564078E-004   1.1129961260725441E-003   0.0000000000000000     
  -1.6979460279101580E-003   2.6043733475595490E-003   0.0000000000000000     
  -2.5741945980435523E-003   4.4741316644610150E-003   0.0000000000000000     
  -3.4686268722958226E-003   6.7222710767769417E-003   0.0000000000000000     
   5.8019724007846163E-015   6.5274854043633063E-003   0.0000000000000000     
   7.4828245813160499E-015   9.0546512966478403E-003   0.0000000000000000     
   9.2083391150903082E-015   1.1896289555590557E-002   0.0000000000000000     
   1.0978304243870578E-014   1.5052400181191449E-002   0.0000000000000000     
   1.2793043534242710E-014   1.8522983173450525E-002   0.0000000000000000     
  -8.5456535560730733E-004   6.5396595088887044E-003   0.0000000000000000     
  -1.0713568225981258E-003   9.0707090982114023E-003   0.0000000000000000     
  -1.2912382652049280E-003   1.1915573416885150E-002   0.0000000000000000     
  -1.5142096834277136E-003   1.5074252464909945E-002   0.0000000000000000     
  -1.7402710772664825E-003   1.8546746242285791E-002   0.0000000000000000     
  -1.7175249528619480E-003   6.5761818224661086E-003   0.0000000000000000     
  -2.1572681880030618E-003   9.1188825029032625E-003   0.0000000000000000     
  -2.6013325734999728E-003   1.1973425000769991E-002   0.0000000000000000     
  -3.0497181093526791E-003   1.5139809316066297E-002   0.0000000000000000     
  -3.5024247955611821E-003   1.8618035448792175E-002   0.0000000000000000     
  -2.5888787917581202E-003   6.6370523450955217E-003   0.0000000000000000     
  -3.2577340962073264E-003   9.1991715107234261E-003   0.0000000000000000     
  -3.9302829248759261E-003   1.2069844307245088E-002   0.0000000000000000     
  -4.6065252777639180E-003   1.5249070734660501E-002   0.0000000000000000     
  -5.2864611548713034E-003   1.8736850792969675E-002   0.0000000000000000     
  -3.4686268722958226E-003   6.7222710767769417E-003   0.0000000000000000     
  -4.3727545472109185E-003   9.3115761216718933E-003   0.0000000000000000     
  -5.2780893193327882E-003   1.2204831336310432E-002   0.0000000000000000     
  -6.1846311886614314E-003   1.5402036720692560E-002   0.0000000000000000     
  -7.0923801551968481E-003   1.8903192274818278E-002   0.0000000000000000     
   1.2793043534242710E-014   1.8522983173450525E-002   0.0000000000000000     
   1.4609570064133548E-014   2.2279267669046091E-002   0.0000000000000000     
   1.6385357697393244E-014   2.6292482804656493E-002   0.0000000000000000     
   1.8120602945665559E-014   3.0562628580281716E-002   0.0000000000000000     
   1.9815095744779576E-014   3.5089704995921768E-002   0.0000000000000000     
  -1.7402710772664825E-003   1.8546746242285791E-002   0.0000000000000000     
  -1.9658565446796393E-003   2.2304504158021987E-002   0.0000000000000000     
  -2.1874001836255882E-003   2.6318975621127810E-002   0.0000000000000000     
  -2.4049019941043267E-003   3.0590160631603268E-002   0.0000000000000000     
  -2.6183619761158579E-003   3.5118059189448367E-002   0.0000000000000000     
  -3.5024247955611821E-003   1.8618035448792175E-002   0.0000000000000000     
  -3.9536399491202278E-003   2.2380213624949796E-002   0.0000000000000000     
  -4.3975508870245658E-003   2.6398454070541311E-002   0.0000000000000000     
  -4.8341576092741914E-003   3.0672756785566722E-002   0.0000000000000000     
  -5.2634601158691122E-003   3.5203121770026033E-002   0.0000000000000000     
  -5.2864611548713034E-003   1.8736850792969675E-002   0.0000000000000000     
  -5.9633502133071559E-003   2.2506396069829529E-002   0.0000000000000000     
  -6.6304521101805455E-003   2.6530918152896998E-002   0.0000000000000000     
  -7.2877668454914765E-003   3.0810417042172075E-002   0.0000000000000000     
  -7.9352944192399438E-003   3.5344892737654759E-002   0.0000000000000000     
  -7.0923801551968481E-003   1.8903192274818278E-002   0.0000000000000000     
  -7.9949873372404216E-003   2.2683051492661178E-002   0.0000000000000000     
  -8.8861038530935309E-003   2.6716367868194861E-002   0.0000000000000000     
  -9.7657297027561735E-003   3.1003141401419323E-002   0.0000000000000000     
  -1.0633864886228354E-002   3.5543372092334560E-002   0.0000000000000000     
   1.9815095744779576E-014   3.5089704995921768E-002   0.0000000000000000     
   2.1348374457108577E-014   3.9850511501595340E-002   0.0000000000000000     
   2.2599760604591346E-014   4.4821847547321131E-002   0.0000000000000000     
   2.3569308397336508E-014   5.0003713133099141E-002   0.0000000000000000     
   2.4257288885887185E-014   5.5396108258929384E-002   0.0000000000000000     
  -2.6183619761158579E-003   3.5118059189448367E-002   0.0000000000000000     
  -2.8275378901438906E-003   3.9879410288425593E-002   0.0000000000000000     
  -3.0321874966721383E-003   4.4850952922297446E-002   0.0000000000000000     
  -3.2323107957005952E-003   5.0032687091063947E-002   0.0000000000000000     
  -3.4279077872292688E-003   5.5424612794725062E-002   0.0000000000000000     
  -5.2634601158691122E-003   3.5203121770026033E-002   0.0000000000000000     
  -5.6840882041791496E-003   3.9966106648913112E-002   0.0000000000000000     
  -6.0946716715741377E-003   4.4938269047221847E-002   0.0000000000000000     
  -6.4952105180540757E-003   5.0119608964952218E-002   0.0000000000000000     
  -6.8857047436189653E-003   5.5510126402104246E-002   0.0000000000000000     
  -7.9352944192399438E-003   3.5344892737654759E-002   0.0000000000000000     
  -8.5696509420844277E-003   4.0110600583057904E-002   0.0000000000000000     
  -9.1874525246834031E-003   4.5083795922094307E-002   0.0000000000000000     
  -9.7886991670368684E-003   5.0264478754763996E-002   0.0000000000000000     
  -1.0373390869144829E-002   5.5652649081066936E-002   0.0000000000000000     
  -1.0633864886228354E-002   3.5543372092334560E-002   0.0000000000000000     
  -1.1484226103859721E-002   4.0312892090859948E-002   0.0000000000000000     
  -1.2310530055999932E-002   4.5287533546914838E-002   0.0000000000000000     
  -1.3112776742648977E-002   5.0467296460499231E-002   0.0000000000000000     
  -1.3890966163806865E-002   5.5852180831613141E-002   0.0000000000000000     
   2.4257288885887185E-014   5.5396108258929384E-002   0.0000000000000000     
   2.4611606155855448E-014   6.0986200281178952E-002   0.0000000000000000     
   2.4581411125351726E-014   6.6761156556214979E-002   0.0000000000000000     
   2.4165009728481512E-014   7.2720977084037464E-002   0.0000000000000000     
   2.3364123136193626E-014   7.8865661864646386E-002   0.0000000000000000     
  -3.4279077872292688E-003   5.5424612794725062E-002   0.0000000000000000     
  -3.6182158663715337E-003   6.1014026130498188E-002   0.0000000000000000     
  -3.8024724282407726E-003   6.6788223195600682E-002   0.0000000000000000     
  -3.9806774728369859E-003   7.2747203990032580E-002   0.0000000000000000     
  -4.1528310001601714E-003   7.8890968513793833E-002   0.0000000000000000     
  -6.8857047436189653E-003   5.5510126402104246E-002   0.0000000000000000     
  -7.2653208480804709E-003   6.1097503678446116E-002   0.0000000000000000     
  -7.6332253312502672E-003   6.6869423113746052E-002   0.0000000000000000     
  -7.9894181931283483E-003   7.2825884708004010E-002   0.0000000000000000     
  -8.3338994337147192E-003   7.8966888461220061E-002   0.0000000000000000     
  -1.0373390869144829E-002   5.5652649081066936E-002   0.0000000000000000     
  -1.0941314945102200E-002   6.1236632925022759E-002   0.0000000000000000     
  -1.1492258709003897E-002   6.7004756310651045E-002   0.0000000000000000     
  -1.2026222160849925E-002   7.2957019237951809E-002   0.0000000000000000     
  -1.2543205300640282E-002   7.9093421706925043E-002   0.0000000000000000     
  -1.3890966163806865E-002   5.5852180831613141E-002   0.0000000000000000     
  -1.4646198157436717E-002   6.1431413870228109E-002   0.0000000000000000     
  -1.5379572561501667E-002   6.7194222786315705E-002   0.0000000000000000     
  -1.6091089376001708E-002   7.3140607579875935E-002   0.0000000000000000     
  -1.6780748600936854E-002   7.9270568250908779E-002   0.0000000000000000     
   2.3364123136193626E-014   7.8865661864646386E-002   0.0000000000000000     
   2.2109050701324406E-014   8.5187803657373870E-002   0.0000000000000000     
   2.0330959138448179E-014   9.1679995221552027E-002   0.0000000000000000     
   1.8028981085826956E-014   9.8342236557180815E-002   0.0000000000000000     
   1.5205718628674703E-014  0.10517452766426029        0.0000000000000000     
  -4.1528310001601714E-003   7.8890968513793833E-002   0.0000000000000000     
  -4.3196269012501336E-003   8.5212011940014792E-002   0.0000000000000000     
  -4.4817590671466685E-003   9.1702829441825770E-002   0.0000000000000000     
  -4.6392274978497832E-003   9.8363421019226779E-002   0.0000000000000000     
  -4.7920321933594707E-003  0.10519378667221779        0.0000000000000000     
  -8.3338994337147192E-003   7.8966888461220061E-002   0.0000000000000000     
  -8.6675846028907589E-003   8.5284636787919060E-002   0.0000000000000000     
  -8.9913892505378429E-003   9.1771332102625933E-002   0.0000000000000000     
  -9.3053133766559746E-003   9.8426974405340706E-002   0.0000000000000000     
  -9.6093569812451523E-003  0.10525156369606338        0.0000000000000000     
  -1.2543205300640282E-002   7.9093421706925043E-002   0.0000000000000000     
  -1.3043873104899769E-002   8.5405678201086632E-002   0.0000000000000000     
  -1.3528890550153190E-002   9.1885503203952473E-002   0.0000000000000000     
  -1.3998257636400549E-002   9.8532896715522622E-002   0.0000000000000000     
  -1.4451974363641840E-002  0.10534785873579700        0.0000000000000000     
  -1.6780748600936854E-002   7.9270568250908779E-002   0.0000000000000000     
  -1.7448492407277163E-002   8.5575136179517522E-002   0.0000000000000000     
  -1.8094262965992713E-002   9.2045342745805434E-002   0.0000000000000000     
  -1.8718060277083500E-002   9.8681187949772486E-002   0.0000000000000000     
  -1.9319884340549529E-002  0.10548267179141869        0.0000000000000000     
   1.5205718628674703E-014  0.10517452766426029        0.0000000000000000     
   1.1738006400197065E-014  0.11216698347160328        0.0000000000000000     
   7.5078832040276211E-015  0.11930971890802261        0.0000000000000000     
   2.5127469549524051E-015  0.12660273397351832        0.0000000000000000     
  -3.2465349852905945E-015  0.13404602866809034        0.0000000000000000     
  -4.7920321933594707E-003  0.10519378667221779        0.0000000000000000     
  -4.9393003498605353E-003  0.11218381098716437        0.0000000000000000     
  -5.0801591635377770E-003  0.11932337855043207        0.0000000000000000     
  -5.2146086343911949E-003  0.12661248936202088        0.0000000000000000     
  -5.3426487624207916E-003  0.13405114342193081        0.0000000000000000     
  -9.6093569812451523E-003  0.10525156369606338        0.0000000000000000     
  -9.9022540538458610E-003  0.11223429353381754        0.0000000000000000     
  -1.0182738583998581E-002  0.11936435747762687        0.0000000000000000     
  -1.0450810571703311E-002  0.12664175552749135        0.0000000000000000     
  -1.0706470016960051E-002  0.13406648768341098        0.0000000000000000     
  -1.4451974363641840E-002  0.10534785873579700        0.0000000000000000     
  -1.4888861111944231E-002  0.11231843111156274        0.0000000000000000     
  -1.5307738261374899E-002  0.11943265568960701        0.0000000000000000     
  -1.5708605811933830E-002  0.12669053246992973        0.0000000000000000     
  -1.6091463763621031E-002  0.13409206145253091        0.0000000000000000     
  -1.9319884340549529E-002  0.10548267179141869        0.0000000000000000     
  -1.9899121524155655E-002  0.11243622372040003        0.0000000000000000     
  -2.0455158195666727E-002  0.11952827318637248        0.0000000000000000     
  -2.0987994355082758E-002  0.12675882018933601        0.0000000000000000     
  -2.1497630002403727E-002  0.13412786472929061        0.0000000000000000     
  -3.2465349852905945E-015  0.13404602866809034        0.0000000000000000     
  -1.0012173382034639E-014  0.14173249441006044        0.0000000000000000     
  -1.8029848447564945E-014  0.14975502261775020        0.0000000000000000     
  -2.7296958096667545E-014  0.15811361329115969        0.0000000000000000     
  -3.7812634967604453E-014  0.16680826643028890        0.0000000000000000     
  -5.3426487624207916E-003  0.13405114342193081        0.0000000000000000     
  -5.4624667426711026E-003  0.14173006339817595        0.0000000000000000     
  -5.5722497701866675E-003  0.14973997195877053        0.0000000000000000     
  -5.6719978449674899E-003  0.15808086910371458        0.0000000000000000     
  -5.7617109670135662E-003  0.16675275483300800        0.0000000000000000     
  -1.0706470016960051E-002  0.13406648768341098        0.0000000000000000     
  -1.0945705213912494E-002  0.14172277036247735        0.0000000000000000     
  -1.1164504456704322E-002  0.14969481998178211        0.0000000000000000     
  -1.1362867745335542E-002  0.15798263654132527        0.0000000000000000     
  -1.1540795079806146E-002  0.16658622004110676        0.0000000000000000     
  -1.6091463763621031E-002  0.13409206145253091        0.0000000000000000     
  -1.6449715413734189E-002  0.14171061530296464        0.0000000000000000     
  -1.6776764059570997E-002  0.14961956668678492        0.0000000000000000     
  -1.7072609701131447E-002  0.15781891560399172        0.0000000000000000     
  -1.7337252338415543E-002  0.16630866205458511        0.0000000000000000     
  -2.1497630002403727E-002  0.13412786472929061        0.0000000000000000     
  -2.1974497342136190E-002  0.14169359821963778        0.0000000000000000     
  -2.2409028578786683E-002  0.14951421207377891        0.0000000000000000     
  -2.2801223712355208E-002  0.15758970629171401        0.0000000000000000     
  -2.3151082742841771E-002  0.16592008087344312        0.0000000000000000     
   0.0000000000000000        0.0000000000000000        0.0000000000000000     
  -8.3988116189564078E-004   1.1129961260725441E-003   0.0000000000000000     
  -1.6979460279101580E-003   2.6043733475595490E-003   0.0000000000000000     
  -2.5741945980435523E-003   4.4741316644610150E-003   0.0000000000000000     
  -3.4686268722958226E-003   6.7222710767769417E-003   0.0000000000000000     
   0.0000000000000000        0.0000000000000000        0.0000000000000000     
  -1.0547002640060928E-003   1.1361627075315082E-003   0.0000000000000000     
  -2.1351041863923305E-003   2.6546851044428905E-003   0.0000000000000000     
  -3.2412117671587132E-003   4.5555671907341472E-003   0.0000000000000000     
  -4.3730230063052395E-003   6.8388089664052779E-003   0.0000000000000000     
   0.0000000000000000        0.0000000000000000        0.0000000000000000     
  -1.2857961713040153E-003   1.1709939085276996E-003   0.0000000000000000     
  -2.6007817293414465E-003   2.7269313718495066E-003   0.0000000000000000     
  -3.9449566741122941E-003   4.6678123899654197E-003   0.0000000000000000     
  -5.3183210056165558E-003   6.9936369628754401E-003   0.0000000000000000     
   0.0000000000000000        0.0000000000000000        0.0000000000000000     
  -1.5331688837894087E-003   1.2174897290611192E-003   0.0000000000000000     
  -3.0949786567575060E-003   2.8211121497793970E-003   0.0000000000000000     
  -4.6854293189042941E-003   4.8108672621548334E-003   0.0000000000000000     
  -6.3045208702297703E-003   7.1867550661874275E-003   0.0000000000000000     
   0.0000000000000000        0.0000000000000000        0.0000000000000000     
  -1.7968184014622724E-003   1.2756501691317665E-003   0.0000000000000000     
  -3.6176949686405105E-003   2.9372274382325619E-003   0.0000000000000000     
  -5.4626297015347141E-003   4.9847318073023865E-003   0.0000000000000000     
  -7.3316226001448820E-003   7.4181632763412400E-003   0.0000000000000000     
  -3.4686268722958226E-003   6.7222710767769417E-003   0.0000000000000000     
  -4.3727545472109185E-003   9.3115761216718933E-003   0.0000000000000000     
  -5.2780893193327882E-003   1.2204831336310432E-002   0.0000000000000000     
  -6.1846311886614314E-003   1.5402036720692560E-002   0.0000000000000000     
  -7.0923801551968481E-003   1.8903192274818278E-002   0.0000000000000000     
  -4.3730230063052395E-003   6.8388089664052779E-003   0.0000000000000000     
  -5.5172156945150607E-003   9.4625068525355377E-003   0.0000000000000000     
  -6.6604676224713217E-003   1.2384757270204183E-002   0.0000000000000000     
  -7.8027787901740232E-003   1.5605560219411212E-002   0.0000000000000000     
  -8.9441491976231680E-003   1.9124915700156626E-002   0.0000000000000000     
  -5.3183210056165558E-003   6.9936369628754401E-003   0.0000000000000000     
  -6.7060036916209752E-003   9.6583742201012384E-003   0.0000000000000000     
  -8.0931336998922888E-003   1.2615993291164489E-002   0.0000000000000000     
  -9.4797110304304984E-003   1.5866494176065192E-002   0.0000000000000000     
  -1.0865735683235607E-002   1.9409876874803340E-002   0.0000000000000000     
  -6.3045208702297703E-003   7.1867550661874275E-003   0.0000000000000000     
  -7.9391185385286594E-003   9.8991782243689937E-003   0.0000000000000000     
  -9.5760875515956898E-003   1.2898539399191351E-002   0.0000000000000000     
  -1.1215427909430857E-002   1.6184838590654501E-002   0.0000000000000000     
  -1.2857139612034166E-002   1.9758075798758427E-002   0.0000000000000000     
  -7.3316226001448820E-003   7.4181632763412400E-003   0.0000000000000000     
  -9.2165602352381176E-003   1.0184918865338807E-002   0.0000000000000000     
  -1.1109329177581524E-002   1.3232395594284768E-002   0.0000000000000000     
  -1.3009929427175103E-002   1.6560593463179125E-002   0.0000000000000000     
  -1.4918360984018848E-002   2.0169512472021880E-002   0.0000000000000000     
  -7.0923801551968481E-003   1.8903192274818278E-002   0.0000000000000000     
  -7.9949873372404216E-003   2.2683051492661178E-002   0.0000000000000000     
  -8.8861038530935309E-003   2.6716367868194861E-002   0.0000000000000000     
  -9.7657297027561735E-003   3.1003141401419323E-002   0.0000000000000000     
  -1.0633864886228354E-002   3.5543372092334560E-002   0.0000000000000000     
  -8.9441491976231680E-003   1.9124915700156626E-002   0.0000000000000000     
  -1.0077807771487897E-002   2.2918796628668966E-002   0.0000000000000000     
  -1.1196983438437367E-002   2.6963175921176773E-002   0.0000000000000000     
  -1.2301676198471570E-002   3.1258053577680044E-002   0.0000000000000000     
  -1.3391886051590514E-002   3.5803429598178782E-002   0.0000000000000000     
  -1.0865735683235607E-002   1.9409876874803340E-002   0.0000000000000000     
  -1.2241067966617458E-002   2.3222248213077092E-002   0.0000000000000000     
  -1.3595568188885906E-002   2.7279715016584577E-002   0.0000000000000000     
  -1.4929236350040948E-002   3.1582277285325804E-002   0.0000000000000000     
  -1.6242072450082586E-002   3.6129935019300778E-002   0.0000000000000000     
  -1.2857139612034166E-002   1.9758075798758427E-002   0.0000000000000000     
  -1.4484767922629099E-002   2.3593406245885552E-002   0.0000000000000000     
  -1.6081858104439139E-002   2.7665985154418284E-002   0.0000000000000000     
  -1.7648410157464302E-002   3.1975812524356613E-002   0.0000000000000000     
  -1.9184424081704569E-002   3.6522888355700556E-002   0.0000000000000000     
  -1.4918360984018848E-002   2.0169512472021880E-002   0.0000000000000000     
  -1.6808907639522825E-002   2.4032270727094358E-002   0.0000000000000000     
  -1.8655853185097084E-002   2.8121986334677884E-002   0.0000000000000000     
  -2.0459197620741634E-002   3.2438659294772472E-002   0.0000000000000000     
  -2.2218940946456465E-002   3.6982289607378094E-002   0.0000000000000000     
  -1.0633864886228354E-002   3.5543372092334560E-002   0.0000000000000000     
  -1.1484226103859721E-002   4.0312892090859948E-002   0.0000000000000000     
  -1.2310530055999932E-002   4.5287533546914838E-002   0.0000000000000000     
  -1.3112776742648977E-002   5.0467296460499231E-002   0.0000000000000000     
  -1.3890966163806865E-002   5.5852180831613141E-002   0.0000000000000000     
  -1.3391886051590514E-002   3.5803429598178782E-002   0.0000000000000000     
  -1.4459016572354159E-002   4.0575566177218046E-002   0.0000000000000000     
  -1.5494471335322465E-002   4.5550725509342908E-002   0.0000000000000000     
  -1.6498250340495443E-002   5.0728907594553355E-002   0.0000000000000000     
  -1.7470353587873085E-002   5.6110112432849406E-002   0.0000000000000000     
  -1.6242072450082586E-002   3.6129935019300778E-002   0.0000000000000000     
  -1.7525225230416840E-002   4.0901207847031003E-002   0.0000000000000000     
  -1.8769843432449754E-002   4.5874615397037993E-002   0.0000000000000000     
  -1.9975927056181311E-002   5.1050157669321757E-002   0.0000000000000000     
  -2.1143476101611512E-002   5.6427834663882279E-002   0.0000000000000000     
  -1.9184424081704569E-002   3.6522888355700556E-002   0.0000000000000000     
  -2.0682852078047792E-002   4.1289817100298797E-002   0.0000000000000000     
  -2.2136646347381786E-002   4.6259203210000092E-002   0.0000000000000000     
  -2.3545806889706575E-002   5.1431046684804416E-002   0.0000000000000000     
  -2.4910333705022148E-002   5.6805347524711787E-002   0.0000000000000000     
  -2.2218940946456465E-002   3.6982289607378094E-002   0.0000000000000000     
  -2.3931897115246979E-002   4.1741393937021455E-002   0.0000000000000000     
  -2.5594880080118572E-002   4.6704488948229206E-002   0.0000000000000000     
  -2.7207889841071236E-002   5.1871574641001360E-002   0.0000000000000000     
  -2.8770926398104985E-002   5.7242651015337917E-002   0.0000000000000000     
  -1.3890966163806865E-002   5.5852180831613141E-002   0.0000000000000000     
  -1.4646198157436717E-002   6.1431413870228109E-002   0.0000000000000000     
  -1.5379572561501667E-002   6.7194222786315705E-002   0.0000000000000000     
  -1.6091089376001708E-002   7.3140607579875935E-002   0.0000000000000000     
  -1.6780748600936854E-002   7.9270568250908779E-002   0.0000000000000000     
  -1.7470353587873085E-002   5.6110112432849406E-002   0.0000000000000000     
  -1.8413176597706953E-002   6.1684124108770895E-002   0.0000000000000000     
  -1.9329114890248612E-002   6.7440726706857690E-002   0.0000000000000000     
  -2.0218168465498048E-002   7.3379920227109818E-002   0.0000000000000000     
  -2.1080337323455278E-002   7.9501704669527273E-002   0.0000000000000000     
  -2.1143476101611512E-002   5.6427834663882279E-002   0.0000000000000000     
  -2.2275456378535837E-002   6.1997041235359845E-002   0.0000000000000000     
  -2.3374833696749763E-002   6.7747172238394729E-002   0.0000000000000000     
  -2.4441608056253276E-002   7.3678227672986943E-002   0.0000000000000000     
  -2.5475779457046391E-002   7.9790207539136473E-002   0.0000000000000000     
  -2.4910333705022148E-002   5.6805347524711787E-002   0.0000000000000000     
  -2.6233037499923374E-002   6.2370165249994981E-002   0.0000000000000000     
  -2.7516728981005118E-002   6.8113559380926822E-002   0.0000000000000000     
  -2.8761408148267401E-002   7.4035529917507267E-002   0.0000000000000000     
  -2.9967075001710194E-002   8.0136076859736380E-002   0.0000000000000000     
  -2.8770926398104985E-002   5.7242651015337917E-002   0.0000000000000000     
  -3.0285919961869554E-002   6.2803496152676289E-002   0.0000000000000000     
  -3.1754800743014698E-002   6.8539888134453927E-002   0.0000000000000000     
  -3.3177568741540403E-002   7.4451826960670833E-002   0.0000000000000000     
  -3.4554223957446679E-002   8.0539312631327006E-002   0.0000000000000000     
  -1.6780748600936854E-002   7.9270568250908779E-002   0.0000000000000000     
  -1.7448492407277163E-002   8.5575136179517522E-002   0.0000000000000000     
  -1.8094262965992713E-002   9.2045342745805434E-002   0.0000000000000000     
  -1.8718060277083500E-002   9.8681187949772486E-002   0.0000000000000000     
  -1.9319884340549529E-002  0.10548267179141869        0.0000000000000000     
  -2.1080337323455278E-002   7.9501704669527273E-002   0.0000000000000000     
  -2.1914833522436561E-002   8.5796571859162077E-002   0.0000000000000000     
  -2.2720869120758165E-002   9.2255013621066334E-002   0.0000000000000000     
  -2.3498444118420104E-002   9.8877029955239990E-002   0.0000000000000000     
  -2.4247558515422363E-002  0.10566262086168306        0.0000000000000000     
  -2.5475779457046391E-002   7.9790207539136473E-002   0.0000000000000000     
  -2.6476287462791580E-002   8.6073546375970617E-002   0.0000000000000000     
  -2.7442071637151323E-002   9.2518678722616723E-002   0.0000000000000000     
  -2.8373131980125626E-002   9.9125604579074766E-002   0.0000000000000000     
  -2.9269468491714488E-002  0.10589432394534473        0.0000000000000000     
  -2.9967075001710194E-002   8.0136076859736380E-002   0.0000000000000000     
  -3.1132854228342215E-002   8.6406059729943155E-002   0.0000000000000000     
  -3.2257870515172177E-002   9.2836338050456615E-002   0.0000000000000000     
  -3.3342123862200063E-002   9.9426911821276789E-002   0.0000000000000000     
  -3.4385614269425893E-002  0.10617778104240365        0.0000000000000000     
  -3.4554223957446679E-002   8.0539312631327006E-002   0.0000000000000000     
  -3.5884533819088481E-002   8.6794111921079664E-002   0.0000000000000000     
  -3.7168265754820726E-002   9.3207991604586010E-002   0.0000000000000000     
  -3.8405419764643421E-002   9.9780951681846086E-002   0.0000000000000000     
  -3.9595995848556595E-002  0.10651299215285986        0.0000000000000000     
  -1.9319884340549529E-002  0.10548267179141869        0.0000000000000000     
  -1.9899121524155655E-002  0.11243622372040003        0.0000000000000000     
  -2.0455158195666727E-002  0.11952827318637248        0.0000000000000000     
  -2.0987994355082758E-002  0.12675882018933601        0.0000000000000000     
  -2.1497630002403727E-002  0.13412786472929061        0.0000000000000000     
  -2.4247558515422363E-002  0.10566262086168306        0.0000000000000000     
  -2.4968164189743479E-002  0.11259675587298072        0.0000000000000000     
  -2.5660213019361968E-002  0.11966440452171802        0.0000000000000000     
  -2.6323705004277827E-002  0.12686556680789499        0.0000000000000000     
  -2.6958640144491060E-002  0.13420024273151165        0.0000000000000000     
  -2.9269468491714488E-002  0.10589432394534473        0.0000000000000000     
  -3.0131118007971063E-002  0.11280911208195610        0.0000000000000000     
  -3.0958117364948502E-002  0.11985424424943837        0.0000000000000000     
  -3.1750466562646795E-002  0.12702972044779151        0.0000000000000000     
  -3.2508165601065966E-002  0.13433554067701553        0.0000000000000000     
  -3.4385614269425893E-002  0.10617778104240365        0.0000000000000000     
  -3.5387982978838398E-002  0.11307329234732624        0.0000000000000000     
  -3.6348871232426319E-002  0.12009779236953354        0.0000000000000000     
  -3.7268279030189665E-002  0.12725128110902553        0.0000000000000000     
  -3.8146206372128427E-002  0.13453375856580227        0.0000000000000000     
  -3.9595995848556595E-002  0.10651299215285986        0.0000000000000000     
  -4.0738759102345506E-002  0.11338929666909110        0.0000000000000000     
  -4.1832474621795450E-002  0.12039504888200352        0.0000000000000000     
  -4.2877142406906439E-002  0.12753024879159711        0.0000000000000000     
  -4.3872762457678460E-002  0.13479489639787195        0.0000000000000000     
  -2.1497630002403727E-002  0.13412786472929061        0.0000000000000000     
  -2.1974497342136190E-002  0.14169359821963778        0.0000000000000000     
  -2.2409028578786683E-002  0.14951421207377891        0.0000000000000000     
  -2.2801223712355208E-002  0.15758970629171401        0.0000000000000000     
  -2.3151082742841771E-002  0.16592008087344312        0.0000000000000000     
  -2.6958640144491060E-002  0.13420024273151165        0.0000000000000000     
  -2.7554439107387016E-002  0.14170974205820577        0.0000000000000000     
  -2.8100522560351022E-002  0.14943537455361533        0.0000000000000000     
  -2.8596890503383088E-002  0.15737714021774027        0.0000000000000000     
  -2.9043542936483209E-002  0.16553503905058056        0.0000000000000000     
  -3.2508165601065966E-002  0.13433554067701553        0.0000000000000000     
  -3.3223928817755183E-002  0.14179706976437770        0.0000000000000000     
  -3.3890470550263632E-002  0.14943967253714543        0.0000000000000000     
  -3.4507790798591335E-002  0.15726334899531860        0.0000000000000000     
  -3.5075889562738265E-002  0.16526809913889726        0.0000000000000000     
  -3.8146206372128427E-002  0.13453375856580227        0.0000000000000000     
  -3.8982966473240684E-002  0.14195558133815356        0.0000000000000000     
  -3.9778872548524524E-002  0.14952710602436911        0.0000000000000000     
  -4.0533924597979935E-002  0.15724833262444901        0.0000000000000000     
  -4.1248122621606917E-002  0.16511926113839323        0.0000000000000000     
  -4.3872762457678460E-002  0.13479489639787195        0.0000000000000000     
  -4.4831552073843546E-002  0.14218527677953327        0.0000000000000000     
  -4.5765728555133695E-002  0.14969767501528650        0.0000000000000000     
  -4.6675291901548906E-002  0.15733209110513152        0.0000000000000000     
  -4.7560242113089193E-002  0.16508852504906846        0.0000000000000000     
   0.0000000000000000        0.0000000000000000        0.0000000000000000     
  -1.7968184014622724E-003   1.2756501691317665E-003   0.0000000000000000     
  -3.6176949686405105E-003   2.9372274382325619E-003   0.0000000000000000     
  -5.4626297015347141E-003   4.9847318073023865E-003   0.0000000000000000     
  -7.3316226001448820E-003   7.4181632763412400E-003   0.0000000000000000     
   0.0000000000000000        0.0000000000000000        0.0000000000000000     
  -2.0684263815985682E-003   1.3527503551636158E-003   0.0000000000000000     
  -4.1614772677694241E-003   3.0900811453314502E-003   0.0000000000000000     
  -6.2791526585125662E-003   5.2119923705035032E-003   0.0000000000000000     
  -8.4214525538279968E-003   7.7184840306797741E-003   0.0000000000000000     
   0.0000000000000000        0.0000000000000000        0.0000000000000000     
  -2.3396744814742562E-003   1.4560654135806418E-003   0.0000000000000000     
  -4.7188721569232121E-003   3.2944771791985090E-003   0.0000000000000000     
  -7.1375930263468659E-003   5.5152352968536036E-003   0.0000000000000000     
  -9.5958370897452194E-003   8.1183397665459209E-003   0.0000000000000000     
   0.0000000000000000        0.0000000000000000        0.0000000000000000     
  -2.6105627010893371E-003   1.5855953443828451E-003   0.0000000000000000     
  -5.2898796361018742E-003   3.5504155398337406E-003   0.0000000000000000     
  -8.0379508050376133E-003   5.8944605863526858E-003   0.0000000000000000     
  -1.0854776207896554E-002   8.6177304839396823E-003   0.0000000000000000     
   0.0000000000000000        0.0000000000000000        0.0000000000000000     
  -2.8810910404438103E-003   1.7413401475702243E-003   0.0000000000000000     
  -5.8744997053054113E-003   3.8578962272371427E-003   0.0000000000000000     
  -8.9802259945848065E-003   6.3496682390007542E-003   0.0000000000000000     
  -1.2198269908281992E-002   9.2166561828610580E-003   0.0000000000000000     
  -7.3316226001448820E-003   7.4181632763412400E-003   0.0000000000000000     
  -9.2165602352381176E-003   1.0184918865338807E-002   0.0000000000000000     
  -1.1109329177581524E-002   1.3232395594284768E-002   0.0000000000000000     
  -1.3009929427175103E-002   1.6560593463179125E-002   0.0000000000000000     
  -1.4918360984018848E-002   2.0169512472021880E-002   0.0000000000000000     
  -8.4214525538279968E-003   7.7184840306797741E-003   0.0000000000000000     
  -1.0579666906348376E-002   1.0551796232885387E-002   0.0000000000000000     
  -1.2745085668706380E-002   1.3654169084145460E-002   0.0000000000000000     
  -1.4917708840901999E-002   1.7025602584459995E-002   0.0000000000000000     
  -1.7097536422935232E-002   2.0666096733828999E-002   0.0000000000000000     
  -9.5958370897452194E-003   8.1183397665459209E-003   0.0000000000000000     
  -1.2069776676458479E-002   1.1036010416883440E-002   0.0000000000000000     
  -1.4535584115826844E-002   1.4200467076474141E-002   0.0000000000000000     
  -1.6993259407850313E-002   1.7611709745318026E-002   0.0000000000000000     
  -1.9442802552528896E-002   2.1269738423415081E-002   0.0000000000000000     
  -1.0854776207896554E-002   8.6177304839396823E-003   0.0000000000000000     
  -1.3686889545568412E-002   1.1637561417332975E-002   0.0000000000000000     
  -1.6480824518942915E-002   1.4871289571270818E-002   0.0000000000000000     
  -1.9236581128020062E-002   1.8318914945753200E-002   0.0000000000000000     
  -2.1954159372799840E-002   2.1980437540780134E-002   0.0000000000000000     
  -1.2198269908281992E-002   9.2166561828610580E-003   0.0000000000000000     
  -1.5431005513678184E-002   1.2356449234233988E-002   0.0000000000000000     
  -1.8580806878054593E-002   1.5666636568535480E-002   0.0000000000000000     
  -2.1647674001411224E-002   1.9147218185765532E-002   0.0000000000000000     
  -2.4631606883748072E-002   2.2798194085924144E-002   0.0000000000000000     
  -1.4918360984018848E-002   2.0169512472021880E-002   0.0000000000000000     
  -1.6808907639522825E-002   2.4032270727094358E-002   0.0000000000000000     
  -1.8655853185097084E-002   2.8121986334677884E-002   0.0000000000000000     
  -2.0459197620741634E-002   3.2438659294772472E-002   0.0000000000000000     
  -2.2218940946456465E-002   3.6982289607378094E-002   0.0000000000000000     
  -1.7097536422935232E-002   2.0666096733828999E-002   0.0000000000000000     
  -1.9252640564835558E-002   2.4550018295168913E-002   0.0000000000000000     
  -2.1351093416632438E-002   2.8651734031396189E-002   0.0000000000000000     
  -2.3392894978325876E-002   3.2971243942510831E-002   0.0000000000000000     
  -2.5378045249915871E-002   3.7508548028512834E-002   0.0000000000000000     
  -1.9442802552528896E-002   2.1269738423415081E-002   0.0000000000000000     
  -2.1855120146104218E-002   2.5157825588574642E-002   0.0000000000000000     
  -2.4201118784817906E-002   2.9259243718606005E-002   0.0000000000000000     
  -2.6480798468669957E-002   3.3573992813509181E-002   0.0000000000000000     
  -2.8694159197660381E-002   3.8102072873284161E-002   0.0000000000000000     
  -2.1954159372799840E-002   2.1980437540780134E-002   0.0000000000000000     
  -2.4616346383328810E-002   2.5855692607311530E-002   0.0000000000000000     
  -2.7205929289653485E-002   2.9944515396307325E-002   0.0000000000000000     
  -2.9722908091773886E-002   3.4246905907767522E-002   0.0000000000000000     
  -3.2167282789689999E-002   3.8762864141692097E-002   0.0000000000000000     
  -2.4631606883748072E-002   2.2798194085924144E-002   0.0000000000000000     
  -2.7536319276509326E-002   2.6643619351379596E-002   0.0000000000000000     
  -3.0365524931139188E-002   3.0707549064500156E-002   0.0000000000000000     
  -3.3119223847637644E-002   3.4989983225285848E-002   0.0000000000000000     
  -3.5797416026004718E-002   3.9490921833736634E-002   0.0000000000000000     
  -2.2218940946456465E-002   3.6982289607378094E-002   0.0000000000000000     
  -2.3931897115246979E-002   4.1741393937021455E-002   0.0000000000000000     
  -2.5594880080118572E-002   4.6704488948229206E-002   0.0000000000000000     
  -2.7207889841071236E-002   5.1871574641001360E-002   0.0000000000000000     
  -2.8770926398104985E-002   5.7242651015337917E-002   0.0000000000000000     
  -2.5378045249915871E-002   3.7508548028512834E-002   0.0000000000000000     
  -2.7307002148655939E-002   4.2257645085791426E-002   0.0000000000000000     
  -2.9180223591799594E-002   4.7212533910735800E-002   0.0000000000000000     
  -3.0997709579346840E-002   5.2373214503345998E-002   0.0000000000000000     
  -3.2759460111297663E-002   5.7739686863621978E-002   0.0000000000000000     
  -2.8694159197660381E-002   3.8102072873284161E-002   0.0000000000000000     
  -3.0842808984916172E-002   4.2840277275201163E-002   0.0000000000000000     
  -3.2928355843564350E-002   4.7785399396530343E-002   0.0000000000000000     
  -3.4950799773604893E-002   5.2937439237271726E-002   0.0000000000000000     
  -3.6910140775037806E-002   5.8296396797425307E-002   0.0000000000000000     
  -3.2167282789689999E-002   3.8762864141692097E-002   0.0000000000000000     
  -3.4539317624027691E-002   4.3489290505250681E-002   0.0000000000000000     
  -3.6839276835412833E-002   4.8423085405612840E-002   0.0000000000000000     
  -3.9067160423845393E-002   5.3564248842778585E-002   0.0000000000000000     
  -4.1222968389325425E-002   5.8912780816747903E-002   0.0000000000000000     
  -3.5797416026004718E-002   3.9490921833736634E-002   0.0000000000000000     
  -3.8396528065990476E-002   4.4204684775939973E-002   0.0000000000000000     
  -4.0912986567345030E-002   4.9125591937983278E-002   0.0000000000000000     
  -4.3346791530068374E-002   5.4253643319866540E-002   0.0000000000000000     
  -4.5697942954160506E-002   5.9588838921589775E-002   0.0000000000000000     
  -2.8770926398104985E-002   5.7242651015337917E-002   0.0000000000000000     
  -3.0285919961869554E-002   6.2803496152676289E-002   0.0000000000000000     
  -3.1754800743014698E-002   6.8539888134453927E-002   0.0000000000000000     
  -3.3177568741540403E-002   7.4451826960670833E-002   0.0000000000000000     
  -3.4554223957446679E-002   8.0539312631327006E-002   0.0000000000000000     
  -3.2759460111297663E-002   5.7739686863621978E-002   0.0000000000000000     
  -3.4466854444156932E-002   6.3295388540022715E-002   0.0000000000000000     
  -3.6121271834429508E-002   6.9023757081007164E-002   0.0000000000000000     
  -3.7722712282115378E-002   7.4924792486575326E-002   0.0000000000000000     
  -3.9271175787214556E-002   8.0998494756727199E-002   0.0000000000000000     
  -3.6910140775037806E-002   5.8296396797425307E-002   0.0000000000000000     
  -3.8808591626568051E-002   6.3844197008653222E-002   0.0000000000000000     
  -4.0648365106900584E-002   6.9562764802617624E-002   0.0000000000000000     
  -4.2429461216035400E-002   7.5452100179318485E-002   0.0000000000000000     
  -4.4151879953972482E-002   8.1512203138755845E-002   0.0000000000000000     
  -4.1222968389325425E-002   5.8912780816747903E-002   0.0000000000000000     
  -4.3311131509102922E-002   6.4449921558567824E-002   0.0000000000000000     
  -4.5336080560427927E-002   7.0156911299285293E-002   0.0000000000000000     
  -4.7297815543300446E-002   7.6033750038900338E-002   0.0000000000000000     
  -4.9196336457720487E-002   8.2080437777412932E-002   0.0000000000000000     
  -4.5697942954160506E-002   5.9588838921589775E-002   0.0000000000000000     
  -4.7974474091761532E-002   6.5112562189766479E-002   0.0000000000000000     
  -5.0184418195011550E-002   7.0806196571010158E-002   0.0000000000000000     
  -5.2327775263910553E-002   7.6669742065320845E-002   0.0000000000000000     
  -5.4404545298458541E-002   8.2703198672698500E-002   0.0000000000000000     
  -3.4554223957446679E-002   8.0539312631327006E-002   0.0000000000000000     
  -3.5884533819088481E-002   8.6794111921079664E-002   0.0000000000000000     
  -3.7168265754820726E-002   9.3207991604586010E-002   0.0000000000000000     
  -3.8405419764643421E-002   9.9780951681846086E-002   0.0000000000000000     
  -3.9595995848556595E-002  0.10651299215285986        0.0000000000000000     
  -3.9271175787214556E-002   8.0998494756727199E-002   0.0000000000000000     
  -4.0767022985337034E-002   8.7237323174102072E-002   0.0000000000000000     
  -4.2210614512092813E-002   9.3633737021339244E-002   0.0000000000000000     
  -4.3601950367481906E-002  0.10018773629843869        0.0000000000000000     
  -4.4941030551504328E-002  0.10689932100540044        0.0000000000000000     
  -4.4151879953972482E-002   8.1512203138755845E-002   0.0000000000000000     
  -4.5816018477394561E-002   8.7735313713732346E-002   0.0000000000000000     
  -4.7422273942984296E-002   9.4113671937050586E-002   0.0000000000000000     
  -4.8970646350741727E-002  0.10064727780871065        0.0000000000000000     
  -5.0461135700666841E-002  0.10733613132871245        0.0000000000000000     
  -4.9196336457720487E-002   8.2080437777412932E-002   0.0000000000000000     
  -5.1031520295261049E-002   8.8288083539970447E-002   0.0000000000000000     
  -5.2803244047495194E-002   9.4647796351720090E-002   0.0000000000000000     
  -5.4511507714422890E-002  0.10115957621266193        0.0000000000000000     
  -5.6156311296044148E-002  0.10782342312279593        0.0000000000000000     
  -5.4404545298458541E-002   8.2703198672698500E-002   0.0000000000000000     
  -5.6413528438936524E-002   8.8895632652816373E-002   0.0000000000000000     
  -5.8353524825625461E-002   9.5236110265347729E-002   0.0000000000000000     
  -6.0224534458525367E-002  0.10172463151029255        0.0000000000000000     
  -6.2026557337636255E-002  0.10836119638765085        0.0000000000000000     
  -3.9595995848556595E-002  0.10651299215285986        0.0000000000000000     
  -4.0738759102345506E-002  0.11338929666909110        0.0000000000000000     
  -4.1832474621795450E-002  0.12039504888200352        0.0000000000000000     
  -4.2877142406906439E-002  0.12753024879159711        0.0000000000000000     
  -4.3872762457678460E-002  0.13479489639787195        0.0000000000000000     
  -4.4941030551504328E-002  0.10689932100540044        0.0000000000000000     
  -4.6225475090363309E-002  0.11375527189244614        0.0000000000000000     
  -4.7452904010262198E-002  0.12074236970979753        0.0000000000000000     
  -4.8623317311200932E-002  0.12786061445745456        0.0000000000000000     
  -4.9736714993179568E-002  0.13511000613541718        0.0000000000000000     
  -5.0461135700666841E-002  0.10733613132871245        0.0000000000000000     
  -5.1890159654762825E-002  0.11416936486258689        0.0000000000000000     
  -5.3254135875032887E-002  0.12113611077586477        0.0000000000000000     
  -5.4553064361477020E-002  0.12823636906854610        0.0000000000000000     
  -5.5786945114095252E-002  0.13547013974063088        0.0000000000000000     
  -5.6156311296044148E-002  0.10782342312279593        0.0000000000000000     
  -5.7732812795544021E-002  0.11463157557951333        0.0000000000000000     
  -5.9236170216107553E-002  0.12157627208020527        0.0000000000000000     
  -6.0666383557734703E-002  0.12865751262487179        0.0000000000000000     
  -6.2023452820425519E-002  0.13587529721351294        0.0000000000000000     
  -6.2026557337636255E-002  0.10836119638765085        0.0000000000000000     
  -6.3753434512706902E-002  0.11514190404322540        0.0000000000000000     
  -6.5399007033486140E-002  0.12206285362281902        0.0000000000000000     
  -6.6963274899973960E-002  0.12912404512643164        0.0000000000000000     
  -6.8446238112170363E-002  0.13632547855406332        0.0000000000000000     
  -4.3872762457678460E-002  0.13479489639787195        0.0000000000000000     
  -4.4831552073843546E-002  0.14218527677953327        0.0000000000000000     
  -4.5765728555133695E-002  0.14969767501528650        0.0000000000000000     
  -4.6675291901548906E-002  0.15733209110513152        0.0000000000000000     
  -4.7560242113089193E-002  0.16508852504906846        0.0000000000000000     
  -4.9736714993179568E-002  0.13511000613541718        0.0000000000000000     
  -5.0815697742885045E-002  0.14247741248692153        0.0000000000000000     
  -5.1882866247004368E-002  0.14994970125520352        0.0000000000000000     
  -5.2938220505537523E-002  0.15752687244026317        0.0000000000000000     
  -5.3981760518484509E-002  0.16520892604210047        0.0000000000000000     
  -5.5786945114095252E-002  0.13547013974063088        0.0000000000000000     
  -5.6981415603686511E-002  0.14282324485872297        0.0000000000000000     
  -5.8162113301049770E-002  0.15028150648942634        0.0000000000000000     
  -5.9329038206185049E-002  0.15784492463274091        0.0000000000000000     
  -6.0482190319092320E-002  0.16551349928866677        0.0000000000000000     
  -6.2023452820425519E-002  0.13587529721351294        0.0000000000000000     
  -6.3328705656247930E-002  0.14322277389493762        0.0000000000000000     
  -6.4603469717269921E-002  0.15069309071795489        0.0000000000000000     
  -6.5847745003491484E-002  0.15828624768256486        0.0000000000000000     
  -6.7061531514912634E-002  0.16600224478876738        0.0000000000000000     
  -6.8446238112170363E-002  0.13632547855406332        0.0000000000000000     
  -6.9857567900569323E-002  0.14367599959556540        0.0000000000000000     
  -7.1206935495664814E-002  0.15118445394078928        0.0000000000000000     
  -7.2494340897456849E-002  0.15885084158973489        0.0000000000000000     
  -7.3719784105945416E-002  0.16667516254240228        0.0000000000000000     
   0.0000000000000000        0.0000000000000000        0.0000000000000000     
  -2.8810910404438103E-003   1.7413401475702243E-003   0.0000000000000000     
  -5.8744997053054113E-003   3.8578962272371427E-003   0.0000000000000000     
  -8.9802259945848065E-003   6.3496682390007542E-003   0.0000000000000000     
  -1.2198269908281992E-002   9.2166561828610580E-003   0.0000000000000000     
   0.0000000000000000        0.0000000000000000        0.0000000000000000     
  -3.2847577976624995E-003   1.9959037810482658E-003   0.0000000000000000     
  -6.6800786336461805E-003   4.3241449594921414E-003   0.0000000000000000     
  -1.0185962507951042E-002   6.9847235353316288E-003   0.0000000000000000     
  -1.3802409420577085E-002   9.9776395085667251E-003   0.0000000000000000     
   0.0000000000000000        0.0000000000000000        0.0000000000000000     
  -3.9550612708702283E-003   2.4218902027224533E-003   0.0000000000000000     
  -7.9139626902365329E-003   5.0563874546821659E-003   0.0000000000000000     
  -1.1876704258098916E-002   7.9034917558791357E-003   0.0000000000000000     
  -1.5843285974457375E-002   1.0963203106313366E-002   0.0000000000000000     
   0.0000000000000000        0.0000000000000000        0.0000000000000000     
  -4.8920014600669958E-003   3.0192994125927872E-003   0.0000000000000000     
  -9.5761518750764694E-003   6.0546237128072129E-003   0.0000000000000000     
  -1.4052451245028430E-002   9.1059729006432756E-003   0.0000000000000000     
  -1.8320899569922867E-002   1.2173346976100978E-002   0.0000000000000000     
   0.0000000000000000        0.0000000000000000        0.0000000000000000     
  -6.0955783652528019E-003   3.7881314106592667E-003   0.0000000000000000     
  -1.1666646188165996E-002   7.3188537338672822E-003   0.0000000000000000     
  -1.6713203468739581E-002   1.0592166969624048E-002   0.0000000000000000     
  -2.1235250206973557E-002   1.3608071117929561E-002   0.0000000000000000     
  -1.2198269908281992E-002   9.2166561828610580E-003   0.0000000000000000     
  -1.5431005513678184E-002   1.2356449234233988E-002   0.0000000000000000     
  -1.8580806878054593E-002   1.5666636568535480E-002   0.0000000000000000     
  -2.1647674001411224E-002   1.9147218185765532E-002   0.0000000000000000     
  -2.4631606883748072E-002   2.2798194085924144E-002   0.0000000000000000     
  -1.3802409420577085E-002   9.9776395085667251E-003   0.0000000000000000     
  -1.7412604629553005E-002   1.3204687074121845E-002   0.0000000000000000     
  -2.0899733392907485E-002   1.6567660426921399E-002   0.0000000000000000     
  -2.4263795710640541E-002   2.0066559566965386E-002   0.0000000000000000     
  -2.7504791582752160E-002   2.3701384494253804E-002   0.0000000000000000     
  -1.5843285974457375E-002   1.0963203106313366E-002   0.0000000000000000     
  -1.9742166941958083E-002   1.4194288143531913E-002   0.0000000000000000     
  -2.3501806263247205E-002   1.7555513505081832E-002   0.0000000000000000     
  -2.7122203938324745E-002   2.1046879190963125E-002   0.0000000000000000     
  -3.0603359967190692E-002   2.4668385201175789E-002   0.0000000000000000     
  -1.8320899569922867E-002   1.2173346976100978E-002   0.0000000000000000     
  -2.2419692450893428E-002   1.5325252442464191E-002   0.0000000000000000     
  -2.6387025489073748E-002   1.8630195803016784E-002   0.0000000000000000     
  -3.0222898684463824E-002   2.2088177057758750E-002   0.0000000000000000     
  -3.3927312037063666E-002   2.5699196206690107E-002   0.0000000000000000     
  -2.1235250206973557E-002   1.3608071117929561E-002   0.0000000000000000     
  -2.5445181156359027E-002   1.6597579970918680E-002   0.0000000000000000     
  -2.9555391070387106E-002   1.9791707320726253E-002   0.0000000000000000     
  -3.3565879949057791E-002   2.3190453167352278E-002   0.0000000000000000     
  -3.7476647792371080E-002   2.6793817510796757E-002   0.0000000000000000     
  -2.4631606883748072E-002   2.2798194085924144E-002   0.0000000000000000     
  -2.7536319276509326E-002   2.6643619351379596E-002   0.0000000000000000     
  -3.0365524931139188E-002   3.0707549064500156E-002   0.0000000000000000     
  -3.3119223847637644E-002   3.4989983225285848E-002   0.0000000000000000     
  -3.5797416026004718E-002   3.9490921833736634E-002   0.0000000000000000     
  -2.7504791582752160E-002   2.3701384494253804E-002   0.0000000000000000     
  -3.0645817106325014E-002   2.7515410646466835E-002   0.0000000000000000     
  -3.3709968378441771E-002   3.1551913461284650E-002   0.0000000000000000     
  -3.6697245399102435E-002   3.5810892938707269E-002   0.0000000000000000     
  -3.9607648168307003E-002   4.0292349078734670E-002   0.0000000000000000     
  -3.0603359967190692E-002   2.4668385201175789E-002   0.0000000000000000     
  -3.3975618153455102E-002   2.8464871318261264E-002   0.0000000000000000     
  -3.7269322300727999E-002   3.2481177324760975E-002   0.0000000000000000     
  -4.0484472409009410E-002   3.6717303220674923E-002   0.0000000000000000     
  -4.3621068478299316E-002   4.1173249006003117E-002   0.0000000000000000     
  -3.3927312037063666E-002   2.5699196206690107E-002   0.0000000000000000     
  -3.7525722417899574E-002   2.9492001366762881E-002   0.0000000000000000     
  -4.1043586697997889E-002   3.3495340654929109E-002   0.0000000000000000     
  -4.4480904877358576E-002   3.7709214071188803E-002   0.0000000000000000     
  -4.7837676955981658E-002   4.2133621615541954E-002   0.0000000000000000     
  -3.7476647792371080E-002   2.6793817510796757E-002   0.0000000000000000     
  -4.1296129899658460E-002   3.0596800791971690E-002   0.0000000000000000     
  -4.5032761570251413E-002   3.4594403451789074E-002   0.0000000000000000     
  -4.8686542804149940E-002   3.8786625490248909E-002   0.0000000000000000     
  -5.2257473601354035E-002   4.3173466907351195E-002   0.0000000000000000     
  -3.5797416026004718E-002   3.9490921833736634E-002   0.0000000000000000     
  -3.8396528065990476E-002   4.4204684775939973E-002   0.0000000000000000     
  -4.0912986567345030E-002   4.9125591937983278E-002   0.0000000000000000     
  -4.3346791530068374E-002   5.4253643319866540E-002   0.0000000000000000     
  -4.5697942954160506E-002   5.9588838921589775E-002   0.0000000000000000     
  -3.9607648168307003E-002   4.0292349078734670E-002   0.0000000000000000     
  -4.2433983753497287E-002   4.4988858143822523E-002   0.0000000000000000     
  -4.5169059222115115E-002   4.9892996396426477E-002   0.0000000000000000     
  -4.7812874574160495E-002   5.5004763836546525E-002   0.0000000000000000     
  -5.0365429809633419E-002   6.0324160464182652E-002   0.0000000000000000     
  -4.3621068478299316E-002   4.1173249006003117E-002   0.0000000000000000     
  -4.6671228129240891E-002   4.5844208665451802E-002   0.0000000000000000     
  -4.9627068982477270E-002   5.0725376183727217E-002   0.0000000000000000     
  -5.2488591038008486E-002   5.5816751560829402E-002   0.0000000000000000     
  -5.5255794295834507E-002   6.1118334796758315E-002   0.0000000000000000     
  -4.7837676955981658E-002   4.2133621615541954E-002   0.0000000000000000     
  -5.1108261193221247E-002   4.6770736340827783E-002   0.0000000000000000     
  -5.4287015848431472E-002   5.1622731299885517E-002   0.0000000000000000     
  -5.7373940921612326E-002   5.6689606492715192E-002   0.0000000000000000     
  -6.0369036412763803E-002   6.1971361919316750E-002   0.0000000000000000     
  -5.2257473601354035E-002   4.3173466907351195E-002   0.0000000000000000     
  -5.5745082945438403E-002   4.7768441169950507E-002   0.0000000000000000     
  -5.9148899819977736E-002   5.2585061744901407E-002   0.0000000000000000     
  -6.2468924224972022E-002   5.7623328632203895E-002   0.0000000000000000     
  -6.5705156160421274E-002   6.2883241831857978E-002   0.0000000000000000     
  -4.5697942954160506E-002   5.9588838921589775E-002   0.0000000000000000     
  -4.7974474091761532E-002   6.5112562189766479E-002   0.0000000000000000     
  -5.0184418195011550E-002   7.0806196571010158E-002   0.0000000000000000     
  -5.2327775263910553E-002   7.6669742065320845E-002   0.0000000000000000     
  -5.4404545298458541E-002   8.2703198672698500E-002   0.0000000000000000     
  -5.0365429809633419E-002   6.0324160464182652E-002   0.0000000000000000     
  -5.2836438021832237E-002   6.5832357806539496E-002   0.0000000000000000     
  -5.5235612304055312E-002   7.1510527390821657E-002   0.0000000000000000     
  -5.7562952656302652E-002   7.7358669217029080E-002   0.0000000000000000     
  -5.9818459078574242E-002   8.3376783285161848E-002   0.0000000000000000     
  -5.5255794295834507E-002   6.1118334796758315E-002   0.0000000000000000     
  -5.7934841946603380E-002   6.6609547313177170E-002   0.0000000000000000     
  -6.0531897180963114E-002   7.2269810531749135E-002   0.0000000000000000     
  -6.3046959998913701E-002   7.8099124452474231E-002   0.0000000000000000     
  -6.5480030400455136E-002   8.4097489075352416E-002   0.0000000000000000     
  -6.0369036412763803E-002   6.1971361919316750E-002   0.0000000000000000     
  -6.3269685866074982E-002   6.7444130709679487E-002   0.0000000000000000     
  -6.6073272825734969E-002   7.3084045993792646E-002   0.0000000000000000     
  -6.8779797291743716E-002   7.8891107771656199E-002   0.0000000000000000     
  -7.1389259264101237E-002   8.4865316043270148E-002   0.0000000000000000     
  -6.5705156160421274E-002   6.2883241831857978E-002   0.0000000000000000     
  -6.8840969780247022E-002   6.8336107996046461E-002   0.0000000000000000     
  -7.1859739238370815E-002   7.3953233776952135E-002   0.0000000000000000     
  -7.4761464534792668E-002   7.9734619174575028E-002   0.0000000000000000     
  -7.7546145669512540E-002   8.5680264188915112E-002   0.0000000000000000     
  -5.4404545298458541E-002   8.2703198672698500E-002   0.0000000000000000     
  -5.6413528438936524E-002   8.8895632652816373E-002   0.0000000000000000     
  -5.8353524825625461E-002   9.5236110265347729E-002   0.0000000000000000     
  -6.0224534458525367E-002  0.10172463151029255        0.0000000000000000     
  -6.2026557337636255E-002  0.10836119638765085        0.0000000000000000     
  -5.9818459078574242E-002   8.3376783285161848E-002   0.0000000000000000     
  -6.2001337160827445E-002   8.9552133575551529E-002   0.0000000000000000     
  -6.4110792493019611E-002   9.5871984068529828E-002   0.0000000000000000     
  -6.6146825075150767E-002  0.10233633476409666        0.0000000000000000     
  -6.8109434907220878E-002  0.10894518566225207        0.0000000000000000     
  -6.5480030400455136E-002   8.4097489075352416E-002   0.0000000000000000     
  -6.7834240713340321E-002   9.0251758831457363E-002   0.0000000000000000     
  -7.0112723265322169E-002   9.6548788151862672E-002   0.0000000000000000     
  -7.2315478056400637E-002  0.10298857703656839        0.0000000000000000     
  -7.4442505086575780E-002  0.10957112548557450        0.0000000000000000     
  -7.1389259264101237E-002   8.4865316043270148E-002   0.0000000000000000     
  -7.3912239096475166E-002   9.0994508420533790E-002   0.0000000000000000     
  -7.6359317142533065E-002   9.7266522515346301E-002   0.0000000000000000     
  -7.8730493402275004E-002  0.10368135832770775        0.0000000000000000     
  -8.1025767875700927E-002  0.11023901585761807        0.0000000000000000     
  -7.7546145669512540E-002   8.5680264188915112E-002   0.0000000000000000     
  -8.0235332310231958E-002   9.1780382342780853E-002   0.0000000000000000     
  -8.2850574124652396E-002   9.8025187158980717E-002   0.0000000000000000     
  -8.5391871112773868E-002  0.10441467863751472        0.0000000000000000     
  -8.7859223274596332E-002  0.11094885677838283        0.0000000000000000     
  -6.2026557337636255E-002  0.10836119638765085        0.0000000000000000     
  -6.3753434512706902E-002  0.11514190404322540        0.0000000000000000     
  -6.5399007033486140E-002  0.12206285362281902        0.0000000000000000     
  -6.6963274899973960E-002  0.12912404512643164        0.0000000000000000     
  -6.8446238112170363E-002  0.13632547855406332        0.0000000000000000     
  -6.8109434907220878E-002  0.10894518566225207        0.0000000000000000     
  -6.9992878748801529E-002  0.11569822837807822        0.0000000000000000     
  -7.1791413359464304E-002  0.12259515452665733        0.0000000000000000     
  -7.3505038739209203E-002  0.12963596410798933        0.0000000000000000     
  -7.5133754888036211E-002  0.13682065712207425        0.0000000000000000     
  -7.4442505086575780E-002  0.10957112548557450        0.0000000000000000     
  -7.6491999446377967E-002  0.11629842670842692        0.0000000000000000     
  -7.8462156226337648E-002  0.12317247391467159        0.0000000000000000     
  -8.0352975426454809E-002  0.13019326710430854        0.0000000000000000     
  -8.2164457046729464E-002  0.13736080627733777        0.0000000000000000     
  -8.1025767875700927E-002  0.11023901585761807        0.0000000000000000     
  -8.3250796605436175E-002  0.11694249903427138        0.0000000000000000     
  -8.5411235634106145E-002  0.12379481178686180        0.0000000000000000     
  -8.7507084961710807E-002  0.13079595411538930        0.0000000000000000     
  -8.9538344588250135E-002  0.13794592601985392        0.0000000000000000     
  -8.7859223274596332E-002  0.11094885677838283        0.0000000000000000     
  -9.0269270225976195E-002  0.11763044535561171        0.0000000000000000     
  -9.2638651582769821E-002  0.12446216814322797        0.0000000000000000     
  -9.4967367344977141E-002  0.13144402514123157        0.0000000000000000     
  -9.7255417512598225E-002  0.13857601634962260        0.0000000000000000     
  -6.8446238112170363E-002  0.13632547855406332        0.0000000000000000     
  -6.9857567900569323E-002  0.14367599959556540        0.0000000000000000     
  -7.1206935495664814E-002  0.15118445394078928        0.0000000000000000     
  -7.2494340897456849E-002  0.15885084158973489        0.0000000000000000     
  -7.3719784105945416E-002  0.16667516254240228        0.0000000000000000     
  -7.5133754888036211E-002  0.13682065712207425        0.0000000000000000     
  -7.6681669673057160E-002  0.14417791085557513        0.0000000000000000     
  -7.8152890961383920E-002  0.15173640259515500        0.0000000000000000     
  -7.9547418753016463E-002  0.15949613234081383        0.0000000000000000     
  -8.0865253047954833E-002  0.16745710009255171        0.0000000000000000     
  -8.2164457046729464E-002  0.13736080627733777        0.0000000000000000     
  -8.3914678310117966E-002  0.14472349656993544        0.0000000000000000     
  -8.5621716439576737E-002  0.15232974311827766        0.0000000000000000     
  -8.7285571435105735E-002  0.16017954592236450        0.0000000000000000     
  -8.8906243296704976E-002  0.16827290498219588        0.0000000000000000     
  -8.9538344588250135E-002  0.13794592601985392        0.0000000000000000     
  -9.1556593811751769E-002  0.14531275673864627        0.0000000000000000     
  -9.3613411930243251E-002  0.15296447551015724        0.0000000000000000     
  -9.5708798943724638E-002  0.16090108233438674        0.0000000000000000     
  -9.7842754852195887E-002  0.16912257721133481        0.0000000000000000     
  -9.7255417512598225E-002  0.13857601634962260        0.0000000000000000     
  -9.9607416177958513E-002  0.14594569136170776        0.0000000000000000     
 -0.10212797743338349       0.15364059977079378        0.0000000000000000     
 -0.10481710127887316       0.16166074157688068        0.0000000000000000     
 -0.10767478771442753       0.17000611677996849        0.0000000000000000     
 </DataArray>
 <DataArray  type="Float64" Name="stress" NumberOfComponents="3" format="ascii">
   13414330309.809227        4024299092.9427681        2892432704.7767982     
   11766772908.513004        1889308559.5994151        1715100261.2333608     
   10316612531.301998        412308106.54011774        810366204.75199139     
   9063849178.1762085       -406702266.23512268        178230535.33269048     
   8008482849.1356363       -567722558.72630739       -181306747.02454370     
   10540856930.306049        3162257079.0918150        2223719607.7167687     
   9669921244.1558609        1589384813.6286426        1445208597.5729070     
   8947737917.7487297        512353747.30899477        861780919.43003845     
   8374306951.0846577       -68836119.867127895        473436573.28816330     
   7949628344.1636381       -154184787.89972639        280175559.14728248     
   8340693513.7465467        2502208054.1239638        1709971700.7549367     
   8024907956.8536091        1425012580.7743373        1273530015.6114643     
   7809230095.3615665        681509425.42770290        954656607.40791094     
   7693659929.2704239        271698588.08406401        753351476.14427638     
   7678197458.5801792        195580068.74341726        669614621.82056141     
   6813840060.1307192        2044152018.0392158        1351188983.8913016     
   6831733046.6062450        1396191861.0364985        1200064515.3490326     
   6901089064.1405106        919775140.89624405        1088993268.6856081     
   7021908112.7335157        614901857.61845207        1017975243.9010291     
   7194190192.3852587        481572011.20312119        987010440.99529326     
   5960296569.4585638        1788088970.8375690        1147371457.1258633     
   6090396513.4137726        1502922654.4151273        1224812096.7856119     
   6223314824.0855589        1227150893.7146158        1264790903.2631304     
   6359051501.4739265        960773688.73603582        1267307876.5584195     
   6497606545.5788727        703791039.47938633        1232363016.6714778     
   8008482849.1356363       -567722558.72630739       -181306747.02454370     
   7927210947.6649685       -200414270.67122555       -79497010.952619478     
   7804212518.1147690        27805590.452101707       -9970826.4660215378     
   7639487560.4850435        116937024.64366579        27271806.435259167     
   7433036074.7757940        66980031.903481007        32230887.751214392     
   7949628344.1636381       -154184787.89972639        280175559.14728248     
   7748717402.2955875        17455066.400128365        278338933.85262823     
   7524235346.4975977        110524540.93351221        261910083.01190335     
   7276182176.7696648        125023635.70042419        230889006.62510589     
   7004557893.1117916        60952350.700873852        185275704.69223803     
   7678197458.5801792        195580068.74341726        669614621.82056141     
   7408194122.1411781        186715483.03596783        585312951.66718268     
   7132775085.9218225        159798564.72734022        504110382.00698310     
   6851940349.9221115        114829313.81753159        426006912.83996111     
   6565689914.1420479        51807730.306542873        351002544.16611981     
   7194190192.3852587        481572011.20312119        987010440.99529326     
   6905641107.2017355        307366979.23630071        841425042.49104035     
   6629831736.3874445        175627661.83358860        716630070.51921630     
   6366762079.9423838        86354058.994984627        612625525.07982254     
   6116432137.8665600        39546170.720491171        529411406.17285711     
   6497606545.5788727        703791039.47938633        1232363016.6714778     
   6241058357.4772587        379409555.00112391        1046675206.3242021     
   6015405297.8944635        158011832.25225687        899469148.54860651     
   5820647366.8304882        39597871.232789755        790744843.34468901     
   5656784564.2853308        24167671.942714453        720502290.71245325     
   7433036074.7757940        66980031.903481007        32230887.751214392     
   7247402172.9005404       -21556846.165064812        14572711.444065928     
   7073939748.2398310       -69522133.518449306       -1268500.1400140147     
   6912648800.7936649       -76915830.156688213       -15292747.001027357     
   6763529330.5620518       -43737936.079761982       -27500029.138970256     
   7004557893.1117916        60952350.700873852        185275704.69223803     
   6832558226.4362755        3115173.1726994514        175618228.44479483     
   6668534106.0269680       -28136850.134780884        167547114.42631286     
   6512485531.8838692       -32803719.221568108        161062362.63677350     
   6364412504.0069733       -10885434.087663174        156163973.07619631     
   6565689914.1420479        51807730.306542873        351002544.16611981     
   6406665618.3973703        24472594.038067579        344450515.20532286     
   6251420937.9705639        9736175.4958264828        339254245.97936642     
   6099955872.8616276        7598474.6798150539        335413736.48824859     
   5952270423.0705614        18059491.590037584        332928986.73196769     
   6116432137.8665600        39546170.720491171        529411406.17285711     
   5969724348.7838287        42515416.431048393        521069571.72564459     
   5822600244.0706244        44096943.373375177        513852894.51915503     
   5675059823.7269526        44290751.547469378        507761374.55338943     
   5527103087.7528076        43096840.953330278        502795011.82835227     
   5656784564.2853308        24167671.942714453        720502290.71245325     
   5521734417.5956421        57243640.351634264        705475398.00575936     
   5382072024.3271427        74945453.497859001        691343060.04567993     
   5237797384.4798374        77273111.381391525        678105276.83220589     
   5088910498.0537214        64226614.002229452        665762048.36534667     
   6763529330.5620518       -43737936.079761982       -27500029.138970256     
   6616035349.4587822        887265.33010101318       -22832254.197853345     
   6463596040.9834433        29028042.166399717       -26148031.913024344     
   6306211405.1360464        40684394.429173708       -37447362.284486450     
   6143881441.9165812        35856322.118385315       -56730245.312235191     
   6364412504.0069733       -10885434.087663174        156163973.07619631     
   6194710302.6842318        11149886.491093636        153324874.39285627     
   6021388019.3668871        21118267.087846279        146599131.46569702     
   5844445654.0549479        19019707.702614546        135986744.29472265     
   5663883206.7483997        4854208.3353624344        121487712.87992521     
   5952270423.0705614        18059491.590037584        332928986.73196769     
   5772065454.1353989        21016567.119809866        324129134.03121746     
   5589565648.5831003        16324187.259126186        315539545.49911714     
   5404771006.4136705        3982352.0080018044        307160221.13566226     
   5217681527.6271019       -16008938.633582592        298991160.94085783     
   5527103087.7528076        43096840.953330278        502795011.82835227     
   5348100803.8122835        30487307.216235876        489580524.71723241     
   5168128928.6320858        14645802.680234909        480673210.18722928     
   4987187462.2122183       -4427672.6546669006        476073068.23834276     
   4805276404.5526781       -26733118.788468122        475780098.87057185     
   5088910498.0537214        64226614.002229452        665762048.36534667     
   4922816351.7148848        39562106.780379534        649679046.45089960     
   4757077859.5138388        16083113.351176023        642000125.53003442     
   4591695021.4505901       -6210366.2853803635        642725285.60275710     
   4426667837.5251331       -27318332.129295349        651854526.66906524     
   6143881441.9165812        35856322.118385315       -56730245.312235191     
   5909990546.7982235        5302639.9514508247       -114098170.32079558     
   5678237948.0938044       -18123387.502338886       -154896891.54723462     
   5448623645.8033485       -34421760.242926836       -179126408.99155426     
   5221147639.9268274       -43592478.270400047       -186786722.65374228     
   5663883206.7483997        4854208.3353624344        121487712.87992521     
   5471227999.7501411       -16129855.621989489        76266919.690615162     
   5280089092.3183870       -32059587.690991402        43988309.378591910     
   5090466484.4531479       -42934987.871613503        24651881.943844717     
   4902360176.1544123       -48756056.163885117        18257637.386387844     
   5217681527.6271019       -16008938.633582592        298991160.94085783     
   5055899091.8779669       -30532259.442662716        265191836.58212855     
   4895010958.8479023       -42074571.188170910        240707674.19583970     
   4735017128.5369091       -50635873.870111465        225538673.78199187     
   4575917600.9449940       -56216167.488461733        219684835.34059340     
   4805276404.5526781       -26733118.788468122        475780098.87057185     
   4664003823.1816998       -37904571.510559797        452676580.35374194     
   4523003547.6823492       -48168337.993874073        435261202.90451318     
   4382275578.0546379       -57524418.238405943        423533966.52288616     
   4241819914.2985625       -65972812.244147539        417494871.20886010     
   4426667837.5251331       -27318332.129295349        651854526.66906524     
   4295542193.6613331       -38246791.825688601        638721151.00545561     
   4164066858.8217330       -50340888.108094454        627648895.50460696     
   4032241833.0063286       -63600620.976512432        618637760.16652215     
   3900067116.2151222       -78025990.430935621        611687744.99119866     
   5221147639.9268274       -43592478.270400047       -186786722.65374228     
   5084800142.5782089       -24837247.776294708       -201732290.97916019     
   4946701642.8573122       -11918691.856441498       -218909824.39843714     
   4806852140.7641382       -4836810.5108432770       -238319322.91155848     
   4665251636.2986946       -3591603.7394900322       -259960786.51852477     
   4902360176.1544123       -48756056.163885117        18257637.386387844     
   4759353837.3814764       -39672419.645280123        42415.452235104836     
   4615737603.8462811       -32621765.667521954       -18831120.797046218     
   4471511475.5488482       -27604094.230561256       -38362971.361455172     
   4326675452.4891615       -24619405.334456921       -58553136.240985662     
   4575917600.9449940       -56216167.488461733        219684835.34059340     
   4430748565.8297968       -55455281.420745611        199531252.00940630     
   4286110743.5623808       -52923685.860436201        180293005.14181182     
   4142004134.1427431       -48621380.807529688        161970094.73781446     
   3998428737.5708809       -42548366.262037277        144562520.79741865     
   4241819914.2985625       -65972812.244147539        417494871.20886010     
   4098984327.9231725       -72185833.102709532        396734218.69234121     
   3957821062.0055957       -72824452.435242653        378462553.41813916     
   3818330116.5458202       -67888670.241754055        362679875.38625407     
   3680511491.5438538       -57378486.522253513        349386184.59669232     
   3900067116.2151222       -78025990.430935621        611687744.99119866     
   3764061123.6616092       -89864074.691147089        591651315.50104117     
   3630868559.1759353       -92324065.391893387        575677524.03192925     
   3500489422.7580895       -85405962.533209562        563766370.58385456     
   3372923714.4080768       -69109766.115088224        555917855.15682673     
   4665251636.2986946       -3591603.7394900322       -259960786.51852477     
   4592701520.9009438        14834483.633838415       -289223017.00309551     
   4519572142.3029308        31329693.672979355       -339540425.57631493     
   4445863500.5046768        45894026.377968073       -410913012.23819071     
   4371575595.5061750        58527481.748811007       -503340776.98872548     
   4326675452.4891615       -24619405.334456921       -58553136.240985662     
   4204865579.8442430       -17278227.327568054       -81775329.364135712     
   4081983389.2053204       -13511442.634029865       -119276409.35034613     
   3958028880.5723934       -13319051.253831387       -171056376.19961569     
   3833002053.9454513       -16701053.187028408       -237115229.91194814     
   3998428737.5708809       -42548366.262037277        144562520.79741865     
   3846719939.7519255       -40483847.999643087        126805134.44297163     
   3693445769.1452041       -43637239.029798985        101545152.45105958     
   3538606225.7507234       -52008539.352487326        68782574.821672872     
   3382201309.5684795       -65597748.967725754        28517401.554823067     
   3680511491.5438538       -57378486.522253513        349386184.59669232     
   3518264600.6239815       -54782378.382414579        336518374.41823387     
   3353959282.1225872       -59047695.514314175        322924259.82789534     
   3187595536.0396781       -70174437.917935729        308603840.82568491     
   3019173362.3752418       -88162605.593304276        293557117.41159254     
   3372923714.4080768       -69109766.115088224        555917855.15682673     
   3219499562.4604111       -60173818.475870609        547364390.56163919     
   3063523928.1374664       -59742812.087578654        544860912.78016770     
   2904996811.4392486       -67816746.950205445        548407421.81241286     
   2743918212.3657446       -84395623.063774228        558003917.65837157     
   4371575595.5061750        58527481.748811007       -503340776.98872548     
   4725833997.9927387        160588246.96354342       -533895941.84658664     
   5054867323.6344957        178565422.69561028       -678258758.26298094     
   5358675572.4314861        112459008.94513631       -936429226.23790395     
   5637258744.3836966       -37730994.287991047       -1308407345.7713716     
   3833002053.9454513       -16701053.187028408       -237115229.91194814     
   3912167635.4490099        343290.56246161461       -248931093.25732589     
   3965483748.0741329       -68777261.949496984       -338929993.15449941     
   3992950391.8208499       -224062710.72283554       -507111929.60345918     
   3994567566.6891313       -465513055.75757766       -753476902.60421610     
   3382201309.5684795       -65597748.967725754        28517401.554823067     
   3288058684.3940005       -103034442.39202428        34712382.349356443     
   3167442198.3074636       -228717338.85652900       -1651058.4011731632     
   3020351851.3088794       -442646438.36119378       -80572920.696748614     
   2846787643.3982339       -744821740.90605068       -202053204.53737199     
   3019173362.3752418       -88162605.593304276        293557117.41159254     
   2853507144.8277211       -149544951.89987445        317034484.97345424     
   2660742674.3345027       -301254808.02541864        333578045.99699247     
   2440879950.8956046       -543292173.96992362        343187800.48223674     
   2193918974.5109887       -875657049.73344815        345863748.42915612     
   2743918212.3657446       -84395623.063774228        558003917.65837157     
   2608513016.7501564       -139188237.96111345        598035214.61497808     
   2445385176.1552391       -286389669.45621264        666757320.04000723     
   2254534690.5809860       -525999917.54909694        764170233.93348515     
   2035961560.0274055       -858018982.23973358        890273956.29538691     
   5960296569.4585638        1788088970.8375690        1147371457.1258633     
   6090396513.4137726        1502922654.4151273        1224812096.7856119     
   6223314824.0855589        1227150893.7146158        1264790903.2631304     
   6359051501.4739265        960773688.73603582        1267307876.5584195     
   6497606545.5788727        703791039.47938633        1232363016.6714778     
   5435468485.1897402        1630640545.5569222        1030879693.9213327     
   5490247612.3803930        1373210539.0844519        1111015008.3212585     
   5547283399.9478016        1123302733.8678279        1164272379.1729937     
   5606575847.8919630        880917129.90704989        1190651806.4765382     
   5668124956.2128773        646053727.20211768        1190153290.2318921     
   4894761250.7839060        1468428375.2351718        934074267.74041998     
   4904459245.8786907        1247806584.1132789        1016248932.8173929     
   4915852195.0104008        1032834639.7811469        1082129543.9802148     
   4928940098.1790409        823512542.23877656        1131716101.2288861     
   4943722955.3846102        619840291.48616731        1165008604.5634062     
   4338174866.2410612        1301452459.8723185        856955178.58312547     
   4333031413.9086590        1126710789.5016077        940513870.27401614     
   4329021209.2733583        955746611.45457363        1018362397.6847951     
   4326144252.3351603        788559925.73121548        1090500760.8154626     
   4324400543.0940666        625150732.33153474        1156928959.6660192     
   3765709331.5612073        1129712799.4683621        799522426.44944870     
   3775964116.4703016        1009923155.2494389        883809820.69112706     
   3786790442.7366734        892038648.88810730        972970940.28673410     
   3798188310.3603230        776059280.38436770        1067005785.2362688     
   3810157719.3412495        661985049.73821902        1165914355.5397308     
   6497606545.5788727        703791039.47938633        1232363016.6714778     
   6241058357.4772587        379409555.00112391        1046675206.3242021     
   6015405297.8944635        158011832.25225687        899469148.54860651     
   5820647366.8304882        39597871.232789755        790744843.34468901     
   5656784564.2853308        24167671.942714453        720502290.71245325     
   5668124956.2128773        646053727.20211768        1190153290.2318921     
   5517274724.4006424        387561152.66447949        1067937323.1203320     
   5390601214.7658758        209657652.05174065        973340590.59646702     
   5288104427.3085804        112343225.36389947        906363092.66030157     
   5209784362.0287533        95617872.600958824        867004829.31183183     
   4943722955.3846102        619840291.48616731        1165008604.5634062     
   4867534914.1932306        417925897.18859816        1098426339.9559853     
   4808805188.8379726        274205889.01142883        1048600791.9522792     
   4767533779.3188343        188680266.95466113        1015531960.5522890     
   4743720685.6358156        161349031.01829505        999219845.75601387     
   4324400543.0940666        625150732.33153474        1156928959.6660192     
   4291838926.8550243        470503788.57347798        1138142256.8311641     
   4270017220.1107521        351656543.13132370        1125249752.6160426     
   4258935422.8612518        268608996.00507259        1118251447.0206528     
   4258593535.1065230        221361147.19472432        1117147340.0449970     
   3810157719.3412495        661985049.73821902        1165914355.5397308     
   3790186762.3860235        545294826.81911838        1187085073.7458682     
   3774237308.5842175        442009614.41142249        1203287472.5877557     
   3762309357.9358330        352129412.51512945        1214521552.0653939     
   3754402910.4408712        275654221.13024604        1220787312.1787832     
   5656784564.2853308        24167671.942714453        720502290.71245325     
   5521734417.5956421        57243640.351634264        705475398.00575936     
   5382072024.3271427        74945453.497859001        691343060.04567993     
   5237797384.4798374        77273111.381391525        678105276.83220589     
   5088910498.0537214        64226614.002229452        665762048.36534667     
   5209784362.0287533        95617872.600958824        867004829.31183183     
   5070099468.6689377        94667828.309148788        842909067.73960149     
   4928777253.2822895        88260043.927890062        822205718.45159948     
   4785817715.8688030        76394519.457174540        804894781.44783270     
   4641220856.4284830        59071254.897012472        790976256.72829604     
   4743720685.6358156        161349031.01829505        999219845.75601387     
   4606537781.4276543        128513994.77229095        969525960.62887740     
   4470692479.7446299        100137633.61007810        945722345.32359374     
   4336184780.5867405        76219947.531653166        927808999.84016252     
   4203014683.9539886        56760936.537018538        915785924.17858481     
   4258593535.1065230        221361147.19472432        1117147340.0449970     
   4131049355.8717890        158782139.74106097        1085326076.6735892     
   4007817703.7141638        110578222.54442549        1061892940.6616572     
   3888898578.6336470        76749395.604822397        1046847932.0091990     
   3774291980.6302404        57295658.922247648        1040191050.7162151     
   3754402910.4408712        275654221.13024604        1220787312.1787832     
   3643634192.0013390        185472263.21544862        1190309415.8737383     
   3540152925.1908913        119581810.73092961        1170717504.4657917     
   3443959110.0095234        77982863.676679850        1162011577.9549394     
   3355052746.4572382        60675422.052703142        1164191636.3411849     
   5088910498.0537214        64226614.002229452        665762048.36534667     
   4922816351.7148848        39562106.780379534        649679046.45089960     
   4757077859.5138388        16083113.351176023        642000125.53003442     
   4591695021.4505901       -6210366.2853803635        642725285.60275710     
   4426667837.5251331       -27318332.129295349        651854526.66906524     
   4641220856.4284830        59071254.897012472        790976256.72829604     
   4496884531.5147371        39234158.748968363        777785421.35896635     
   4352476522.9492416        19158117.095096588        771813272.76754928     
   4207996830.7319970       -1156870.0646054745        773059810.95404708     
   4063445454.8630061       -21710802.730136395        781525035.91845810     
   4203014683.9539886        56760936.537018538        915785924.17858481     
   4077049339.8491292        40735199.277916431        904988694.59990728     
   3950584974.3029804        23046057.214514494        900224757.58347142     
   3823621587.3155389        3693510.3468072414        901494113.12928009     
   3696159178.8868046       -17322441.325203896        908796761.23733068     
   3774291980.6302404        57295658.922247648        1040191050.7162151     
   3663310776.7180643        44065228.367229939        1031288866.1737235     
   3551403213.5750546        27746933.709434986        1027234579.9778029     
   3438569291.2012129        8340774.9488618374        1028028192.1284536     
   3324809009.5965371       -14153247.914488316        1033669702.6256739     
   3355052746.4572382        60675422.052703142        1164191636.3411849     
   3255668842.1215391        49224246.016903162        1156685936.0804133     
   3154931240.7654662        33260746.579856515        1152842739.9505403     
   3052839942.3890171        12784923.741552591        1152662047.9515669     
   2949394946.9921932       -12203222.497999072        1156143860.0834942     
   4426667837.5251331       -27318332.129295349        651854526.66906524     
   4295542193.6613331       -38246791.825688601        638721151.00545561     
   4164066858.8217330       -50340888.108094454        627648895.50460696     
   4032241833.0063286       -63600620.976512432        618637760.16652215     
   3900067116.2151222       -78025990.430935621        611687744.99119866     
   4063445454.8630061       -21710802.730136395        781525035.91845810     
   3937690672.6319103       -36323372.068077326        767353114.09366512     
   3812206948.9335880       -50032412.963447094        756101683.27930987     
   3686994283.7680397       -62837925.416239023        747770743.47539961     
   3562052677.1352553       -74739909.426470518        742360294.68193161     
   3696159178.8868046       -17322441.325203896        908796761.23733068     
   3578230603.5675030       -34882516.720964909        894310501.01135039     
   3461193836.2895470       -49469898.645573616        883604102.64349723     
   3345048877.0529432       -61084587.099016666        876677566.13376319     
   3229795725.8576794       -69726582.081315517        873530891.48216248     
   3324809009.5965371       -14153247.914488316        1033669702.6256739     
   3217161986.4681139       -33924225.784345865        1019593311.7585181     
   3111027520.8896136       -48653345.154458761        1010156153.5971655     
   3006405612.8610339       -58340606.024843454        1005358228.1416215     
   2903296262.3823786       -62986008.395477414        1005199535.3918809     
   2949394946.9921932       -12203222.497999072        1156143860.0834942     
   2854484821.3337398       -33448499.258220673        1143201546.3351665     
   2761708002.7337856       -47582752.490123630        1135757836.1403201     
   2671064491.1923308       -54605982.193690062        1133812729.4989634     
   2582554286.7093663       -54518188.368953109        1137366226.4110916     
   3900067116.2151222       -78025990.430935621        611687744.99119866     
   3764061123.6616092       -89864074.691147089        591651315.50104117     
   3630868559.1759353       -92324065.391893387        575677524.03192925     
   3500489422.7580895       -85405962.533209562        563766370.58385456     
   3372923714.4080768       -69109766.115088224        555917855.15682673     
   3562052677.1352553       -74739909.426470518        742360294.68193161     
   3437867507.3891907       -82545929.283643484        727328718.55605483     
   3315962289.9369712       -82752108.161333561        716396968.62954509     
   3196337024.7786002       -75358446.059530854        709565044.90240431     
   3078991711.9140711       -60364942.978246570        706832947.37463856     
   3229795725.8576794       -69726582.081315517        873530891.48216248     
   3117537630.8571401       -73468661.954031944        862881780.31757009     
   3007026012.3764610       -71389153.427221179        856369683.53068078     
   2898260870.4156399       -63488056.500883341        853994601.12148905     
   2791242204.9746728       -49765371.175026417        855756533.08999634     
   2903296262.3823786       -62986008.395477414        1005199535.3918809     
   2803071494.0654521       -62632272.702310324        998310500.78559589     
   2704059726.4943929       -58235201.189577699        995595668.73533726     
   2606260959.6692047       -49794793.857284188        997055039.24111223     
   2509675193.5898833       -37311050.705425143        1002688612.3029057     
   2582554286.7093663       -54518188.368953109        1137366226.4110916     
   2494469097.0141311       -50036761.528478622        1133614879.9601276     
   2407063432.2907701       -43290251.448411345        1134074924.2435143     
   2320337292.5392976       -34278658.128722668        1138746359.2612607     
   2234290677.7597041       -23001981.569437504        1147629185.0133615     
   3372923714.4080768       -69109766.115088224        555917855.15682673     
   3219499562.4604111       -60173818.475870609        547364390.56163919     
   3063523928.1374664       -59742812.087578654        544860912.78016770     
   2904996811.4392486       -67816746.950205445        548407421.81241286     
   2743918212.3657446       -84395623.063774228        558003917.65837157     
   3078991711.9140711       -60364942.978246570        706832947.37463856     
   2941289317.8403473       -51250818.028878450        697688898.25481188     
   2801457133.8227854       -49235992.892306566        694547404.38349187     
   2659495159.8613858       -54320467.568532348        697408465.76068938     
   2515403395.9561410       -66504242.057560802        706272082.38639736     
   2791242204.9746728       -49765371.175026417        855756533.08999634     
   2669126050.0171671       -40513724.542819619        846513873.94887018     
   2545301797.5472565       -36955736.285289645        843226338.49105442     
   2419769447.5649471       -39091406.402432203        845893926.71654332     
   2292529000.0702319       -46920734.894245625        854516638.62534285     
   2509675193.5898833       -37311050.705425143        1002688612.3029057     
   2403009758.9908643       -27962538.017704964        993839317.64382756     
   2295057919.3108845       -22902042.266518474        990897715.10285389     
   2185819674.5499358       -22129563.451898694        993863804.67997956     
   2075295024.7080252       -25645101.573813081        1002737586.3752079     
   2234290677.7597041       -23001981.569437504        1147629185.0133615     
   2142940444.7614474       -13597258.453509688        1139665229.3396761     
   2050725499.1136603       -7074910.8360182047        1137561534.2188866     
   1957645840.8163488       -3434938.7169433832        1141318099.6509943     
   1863701469.8695130       -2677342.0962821245        1150934925.6360068     
   2743918212.3657446       -84395623.063774228        558003917.65837157     
   2608513016.7501564       -139188237.96111345        598035214.61497808     
   2445385176.1552391       -286389669.45621264        666757320.04000723     
   2254534690.5809860       -525999917.54909694        764170233.93348515     
   2035961560.0274055       -858018982.23973358        890273956.29538691     
   2515403395.9561410       -66504242.057560802        706272082.38639736     
   2451893249.1863103       -83076572.551596880        716913676.61246991     
   2371680117.9785924       -155325517.83859682        745348280.46608174     
   2274764002.3329768       -283251077.91857815        791575893.94723344     
   2161144902.2494726       -466853252.79153895        855596517.05592835     
   2292529000.0702319       -46920734.894245625        854516638.62534285     
   2269777334.0293307       -34613751.420018435        848624800.75255442     
   2241342344.0919809       -41251180.933957100        849628173.66642106     
   2207224030.2581706       -66833023.436103463        857526757.36693823     
   2167422392.5279069       -111359278.92642725        872320551.85411239     
   2075295024.7080252       -25645101.573813081        1002737586.3752079     
   2062165271.2792161        6200225.4336286783        993168587.03524530     
   2054371854.4953923        55833341.257676125        979596999.64104247     
   2051914774.3565497        123254245.89832914        962022824.19259655     
   2054794030.8626850        208462939.35558426        940446060.68990910     
   1863701469.8695130       -2677342.0962821245        1150934925.6360068     
   1829057060.9359643        39365358.009317875        1150545035.4605398     
   1810768649.1888394        135928048.73632765        1135254758.3899426     
   1808836234.6281271        287010730.08471996        1105064094.4242132     
   1823259817.2538333        492613402.05450660        1059973043.5633490     
   3765709331.5612073        1129712799.4683621        799522426.44944870     
   3775964116.4703016        1009923155.2494389        883809820.69112706     
   3786790442.7366734        892038648.88810730        972970940.28673410     
   3798188310.3603230        776059280.38436770        1067005785.2362688     
   3810157719.3412495        661985049.73821902        1165914355.5397308     
   3204603300.2917185        961380990.08751559        756497267.61998510     
   3231910447.7304144        869103124.13884974        852956278.01594937     
   3258906319.3335590        775787672.07168019        951309893.09531212     
   3285590915.1011529        681434633.88600659        1051558112.8580731     
   3311964235.0331964        586044009.58182955        1153700937.3042331     
   2682095425.9799738        804628627.79399216        722600958.37532926     
   2717943162.6039014        737309008.11227298        830201631.53394604     
   2752596806.1994491        666009078.33595431        936717788.70543170     
   2786056356.7666173        590728838.46503592        1042149429.8897862     
   2818321814.3054047        511468288.49951762        1146496555.0870097     
   2198185708.6259732        659455712.58779192        697833498.71548152     
   2234062261.0907617        614540807.16970825        815545881.24511731     
   2267861903.3343420        562702867.68092918        929194627.11709213     
   2299584635.3567128        503941894.12145460        1038779736.3314060     
   2329230457.1578755        438257886.49128479        1144301208.8880594     
   1752874148.2297156        525862244.46891469        682194888.64044189     
   1780267743.1909955        500798521.31115562        808989027.14946282     
   1804701610.7382374        465869040.10660517        928740408.33029330     
   1826175750.8714423        421073800.85526359        1041449032.1829337     
   1844690163.5906098        366412803.55713081        1147114898.7073834     
   3810157719.3412495        661985049.73821902        1165914355.5397308     
   3790186762.3860235        545294826.81911838        1187085073.7458682     
   3774237308.5842175        442009614.41142249        1203287472.5877557     
   3762309357.9358330        352129412.51512945        1214521552.0653939     
   3754402910.4408712        275654221.13024604        1220787312.1787832     
   3311964235.0331964        586044009.58182955        1153700937.3042331     
   3284680391.5219183        479921258.02753866        1181991799.1600187     
   3261245200.8458958        386627349.25743043        1207187035.7912123     
   3241658663.0051265        306162283.27150130        1229286647.1978140     
   3225920777.9996119        238526060.06975365        1248290633.3798249     
   2818321814.3054047        511468288.49951762        1146496555.0870097     
   2789075638.9228134        417518174.71545845        1181705901.8879149     
   2763505266.0573082        335820735.98835635        1215692317.6038861     
   2741610695.7088900        266375972.31821156        1248455802.2349229     
   2723391927.8775606        209183883.70502424        1279996355.7810256     
   2329230457.1578755        438257886.49128479        1144301208.8880594     
   2303372504.5887051        358085576.88287729        1186227381.9295568     
   2281017504.2184544        289589774.60420352        1228803318.0257776     
   2262165456.0471239        232770479.65526283        1272029017.1767211     
   2246816360.0747151        187627692.03605700        1315904479.3823879     
   1844690163.5906098        366412803.55713081        1147114898.7073834     
   1827570988.5195975        301623464.52979690        1195556239.2849436     
   1813781915.3293371        247934465.10497147        1246520037.0568857     
   1803322944.0198302        205345805.28265703        1300006292.0232081     
   1796194074.5910757        173857485.06285053        1356015004.1839113     
   3754402910.4408712        275654221.13024604        1220787312.1787832     
   3643634192.0013390        185472263.21544862        1190309415.8737383     
   3540152925.1908913        119581810.73092961        1170717504.4657917     
   3443959110.0095234        77982863.676679850        1162011577.9549394     
   3355052746.4572382        60675422.052703142        1164191636.3411849     
   3225920777.9996119        238526060.06975365        1248290633.3798249     
   3145542053.4886975        166041002.59020734        1233256498.2493422     
   3070903742.6747203        112690657.43378079        1226629396.5279517     
   3002005845.5576782        78475024.600473642        1228409328.2156520     
   2938848362.1375709        63394104.090283155        1238596293.3124423     
   2723391927.8775606        209183883.70502424        1279996355.7810256     
   2666320478.7581034        152270911.09957850        1278601104.2376034     
   2613442405.4034371        109335857.71009922        1283133934.6152663     
   2564757707.8135605        80378723.536584616        1293594846.9140127     
   2520266385.9884720        65399508.579034925        1309983841.1338439     
   2246816360.0747151        187627692.03605700        1315904479.3823879     
   2205969467.8095565        144161988.74356449        1326343233.8385215     
   2167768913.3770418        109517411.55988383        1340231118.7277331     
   2132214696.7771719        83693960.485015035        1357568134.0500247     
   2099306818.0099442        66691635.518958211        1378354279.8053932     
   1796194074.5910757        173857485.06285053        1356015004.1839113     
   1764489020.6430573        141714235.52216500        1376482887.0520968     
   1733883266.5955348        113235318.98313403        1397920948.8653545     
   1704376812.4485109        88420735.445764244        1420329189.6236854     
   1675969658.2019839        67270484.910050809        1443707609.3270898     
   3355052746.4572382        60675422.052703142        1164191636.3411849     
   3255668842.1215391        49224246.016903162        1156685936.0804133     
   3154931240.7654662        33260746.579856515        1152842739.9505403     
   3052839942.3890171        12784923.741552591        1152662047.9515669     
   2949394946.9921932       -12203222.497999072        1156143860.0834942     
   2938848362.1375709        63394104.090283155        1238596293.3124423     
   2848527232.0179067        47979523.219374418        1229406634.8809013     
   2757618721.3765688        30607007.276219964        1224440468.9850531     
   2666122830.2135563        11276556.260815978        1223697795.6248939     
   2574039558.5288677       -10011829.826835394        1227178614.8004243     
   2520266385.9884720        65399508.579034925        1309983841.1338439     
   2440610854.0985298        46502370.077119589        1300004260.4466903     
   2361134258.1856127        28201684.831961393        1294809160.7000141     
   2281836598.2497253        10497452.843561649        1294398541.8938222     
   2202717874.2908654       -6610325.8880739212        1298772404.0281093     
   2099306818.0099442        66691635.518958211        1378354279.8053932     
   2031919708.3634093        44792786.590142965        1368478812.7777746     
   1965477851.1926029        26044779.247087955        1363948815.0954280     
   1899981246.4975266        10447613.489801168        1364764286.7583513     
   1835429894.2781796       -1998710.6817219257        1370925227.7665470     
   1675969658.2019839        67270484.910050809        1443707609.3270898     
   1622453794.8125465        42850772.758443594        1434830291.8741589     
   1570649500.3975365        24136290.521598220        1431859432.1712897     
   1520556774.9569602        11127038.199527621        1434795030.2184823     
   1472175618.4908154        3823015.7922330499        1443637086.0157385     
   2949394946.9921932       -12203222.497999072        1156143860.0834942     
   2854484821.3337398       -33448499.258220673        1143201546.3351665     
   2761708002.7337856       -47582752.490123630        1135757836.1403201     
   2671064491.1923308       -54605982.193690062        1133812729.4989634     
   2582554286.7093663       -54518188.368953109        1137366226.4110916     
   2574039558.5288677       -10011829.826835394        1227178614.8004243     
   2494374119.5161490       -25884484.754030943        1217630131.5228336     
   2416410598.1847925       -36084080.743350506        1213069890.9193130     
   2340148994.5348034       -40610617.794779181        1213497892.9898632     
   2265589308.5661731       -39464095.908346057        1218914137.7344813     
   2202717874.2908654       -6610325.8880739212        1298772404.0281093     
   2136838947.9826870       -17547811.164600968        1292114463.6146004     
   2072230549.9787407       -24250202.093692064        1289934404.9957476     
   2008892680.2790241       -26717498.675349116        1292232228.1715491     
   1946825338.8835392       -24949700.909566402        1299007933.1420009     
   1835429894.2781796       -1998710.6817219257        1370925227.7665470     
   1781879306.7333539       -8438478.4899374247        1366654542.6104672     
   1729167858.1156287       -12081116.541154981        1366351378.3696268     
   1677295548.4249995       -12926624.835384965        1370015735.0440202     
   1626262377.6614676       -10975003.372622252        1377647612.6336553     
   1472175618.4908154        3823015.7922330499        1443637086.0157385     
   1429495195.7681541        1443513.2699745893        1441250368.5104325     
   1387222522.5954556        423175.91426438093        1442320811.0409462     
   1345357598.9727221        762003.72509920597        1446848413.6072810     
   1303900424.8999543        2459996.7024895549        1454833176.2094374     
   2582554286.7093663       -54518188.368953109        1137366226.4110916     
   2494469097.0141311       -50036761.528478622        1133614879.9601276     
   2407063432.2907701       -43290251.448411345        1134074924.2435143     
   2320337292.5392976       -34278658.128722668        1138746359.2612607     
   2234290677.7597041       -23001981.569437504        1147629185.0133615     
   2265589308.5661731       -39464095.908346057        1218914137.7344813     
   2188616281.2467494       -35158038.902232766        1215513169.6289377     
   2112501910.4382079       -27989793.526515603        1216489097.9629784     
   2037246196.1405549       -17959359.781166792        1221841922.7366004     
   1962849138.3537741       -5066737.6662456989        1231571643.9498117     
   1946825338.8835392       -24949700.909566402        1299007933.1420009     
   1881437347.3834403       -20677151.704766870        1296166330.1773808     
   1817087143.9332240       -12945309.000349164        1297867129.3575766     
   1753774728.5328963       -1754172.7963091135        1304110330.6825867     
   1691500101.1824529        12896256.907343864        1314895934.1524036     
   1626262377.6614676       -10975003.372622252        1377647612.6336553     
   1572932295.4241989       -6594099.9360831380        1375574361.6054635     
   1520819132.7758250        1843202.1301009059        1378209018.4273102     
   1469922889.7163315        14336902.825884938        1385551583.0992029     
   1420243566.2457261        30887002.151307583        1397602055.6211357     
   1303900424.8999543        2459996.7024895549        1454833176.2094374     
   1263101125.3690312        7091116.4038293958        1453737263.9131758     
   1223697876.9660010        16375739.864810884        1457514765.1721826     
   1185690679.6908572        30313867.085411489        1466165679.9864609     
   1149079533.5436027        48905498.065648854        1479690008.3560071     
   2234290677.7597041       -23001981.569437504        1147629185.0133615     
   2142940444.7614474       -13597258.453509688        1139665229.3396761     
   2050725499.1136603       -7074910.8360182047        1137561534.2188866     
   1957645840.8163488       -3434938.7169433832        1141318099.6509943     
   1863701469.8695130       -2677342.0962821245        1150934925.6360068     
   1962849138.3537741       -5066737.6662456989        1231571643.9498117     
   1887509366.3598621        9275606.3062140942        1223029009.0080609     
   1812453269.3625228        24563533.600587606        1219802401.7806237     
   1737680847.3617611        40797044.216884315        1221891822.2675147     
   1663192100.3575823        57976138.155121028        1229297270.4687192     
   1691500101.1824529        12896256.907343864        1314895934.1524036     
   1630615839.2255092        31709736.446110129        1307114405.5297062     
   1571163639.9112492        55296758.127149820        1304104671.7827544     
   1513143503.2396719        83657321.950468242        1305866732.9115388     
   1456555429.2107770        116791427.91606337        1312400588.9160652     
   1420243566.2457261        30887002.151307583        1397602055.6211357     
   1372259863.3583889        53705131.966171384        1391921418.9046183     
   1326856610.7598395        85124762.743669331        1390468344.2252634     
   1284033808.4500794        125145894.48379445        1393242831.5830708     
   1243791456.4291062        173768527.18654191        1400244880.9780416     
   1149079533.5436027        48905498.065648854        1479690008.3560071     
   1112441438.7585039        75261792.866413236        1477450049.1327908     
   1079532181.9082971        114047547.45015055        1478893419.1081593     
   1050351762.9929835        165262761.81687006        1484020118.2821116     
   1024900182.0125636        228907435.96656224        1492830146.6546476     
   1863701469.8695130       -2677342.0962821245        1150934925.6360068     
   1829057060.9359643        39365358.009317875        1150545035.4605398     
   1810768649.1888394        135928048.73632765        1135254758.3899426     
   1808836234.6281271        287010730.08471996        1105064094.4242132     
   1823259817.2538333        492613402.05450660        1059973043.5633490     
   1663192100.3575823        57976138.155121028        1229297270.4687192     
   1599511987.8839395        107174861.89478052        1250113551.6674254     
   1554522072.5734525        218674242.84495836        1261843673.1225641     
   1528222354.4261270        392474281.00566679        1264487634.8341310     
   1520612833.4419537        628574976.37689948        1258045436.8021457     
   1456555429.2107770        116791427.91606337        1312400588.9160652     
   1380451690.7729559        178129798.56255722        1357146274.7951295     
   1325372349.4750271        309549493.00869709        1398620028.0822020     
   1291317405.3169949        511050511.25449228        1436821848.7772694     
   1278286858.2988584        782632853.29993415        1471751736.8803453     
   1243791456.4291062        173768527.18654191        1400244880.9780416     
   1171876169.6030104        252230168.01263788        1471643204.8436604     
   1123319479.8935497        408553799.22751045        1545583823.2688465     
   1098121387.3007231        642739420.83117008        1622066736.2536159     
   1096281891.8245294        954787032.82359898        1701091943.7979562     
   1024900182.0125636        228907435.96656224        1492830146.6546476     
   973785424.37410820        329475970.24503475        1593604341.8130169     
   948363463.82902658        515687161.50141585        1702735058.6825211     
   948634300.37731695        787541009.73570395        1820222297.2631686     
   974597934.01897740        1145037514.9478900        1946066057.5549643     
   1752874148.2297156        525862244.46891469        682194888.64044189     
   1780267743.1909955        500798521.31115562        808989027.14946282     
   1804701610.7382374        465869040.10660517        928740408.33029330     
   1826175750.8714423        421073800.85526359        1041449032.1829337     
   1844690163.5906098        366412803.55713081        1147114898.7073834     
   1323810152.5274830        397143045.75824487        672504976.51810837     
   1336457279.1801658        375975832.51931846        795063108.42554712     
   1346884610.2723320        347409300.74533617        912421365.90406334     
   1355092145.8039815        311443450.43629825        1024579748.9536569     
   1361079885.7751143        268078281.59220448        1131538257.5743284     
   888643129.25555634        266592938.77666691        665583610.71637952     
   891809167.31183636        250901849.37023142        784768989.85134363     
   893495341.66112030        230277880.94047552        900597377.45665276     
   893701652.30340803        204721033.48739910        1013068773.5323076     
   892428099.23869979        174231307.01100248        1122183178.0783079     
   447373078.41393584        134211923.52418074        661430791.23525548     
   446323407.58600694        125576571.86389431        778106671.42685211     
   444533804.90460241        114474780.69202280        893268442.98806167     
   442004270.36972266        100906550.00856662        1006916105.9188851     
   438734803.98136711        84871879.813524902        1119049660.2193213     
   2.6211862350962959E-003   7.8635587052888875E-004   660046518.07473612     
   2.6772139907912788E-003   3.0715471375133518E-004   775076153.15207243     
   2.7784980131691488E-003  -2.1495797358223566E-005   890434562.49829030     
   2.9247623668198540E-003  -2.0014681876131700E-004   1006121746.1133891     
   3.1161886258215107E-003  -2.2791121096604077E-004   1122137703.9973691     
   1844690163.5906098        366412803.55713081        1147114898.7073834     
   1827570988.5195975        301623464.52979690        1195556239.2849436     
   1813781915.3293371        247934465.10497147        1246520037.0568857     
   1803322944.0198302        205345805.28265703        1300006292.0232081     
   1796194074.5910757        173857485.06285053        1356015004.1839113     
   1361079885.7751143        268078281.59220448        1131538257.5743284     
   1354123302.8493521        221251116.83495885        1187928222.6254685     
   1349664296.3341615        182749206.77961951        1245467991.9162464     
   1347702866.2295425        152572551.42618561        1304157565.4466617     
   1348239012.5354962        130721150.77465951        1363996943.2167141     
   892428099.23869979        174231307.01100248        1122183178.0783079     
   891712242.87320697        144189756.84835219        1185550487.8878164     
   892661437.44810510        119698376.48700419        1248694948.9822187     
   895275682.96339369        100757165.92695785        1311616561.3615155     
   899554979.41907310        87366125.168214440        1374315325.0257061     
   438734803.98136711        84871879.813524902        1119049660.2193213     
   440337808.59116280        70439384.569975600        1188423035.0719869     
   442773338.67116773        58781974.227123499        1256200908.2548027     
   446041394.22138244        49899648.784970969        1322383279.7677696     
   450141975.24180681        43792408.243516430        1386970149.6108854     
   3.1161886258215107E-003  -2.2791121096604077E-004   1122137703.9973691     
   3.2187050643831378E-003  -1.7155176089213493E-004   1196545864.1779799     
   3.3496857416946734E-003  -2.0094674550703720E-005   1267985869.7339981     
   3.5087399875447351E-003   2.2474581719476665E-004   1336457720.6654236     
   3.6964250341927421E-003   5.6519578394765224E-004   1401961416.9722559     
   1796194074.5910757        173857485.06285053        1356015004.1839113     
   1764489020.6430573        141714235.52216500        1376482887.0520968     
   1733883266.5955348        113235318.98313403        1397920948.8653545     
   1704376812.4485109        88420735.445764244        1420329189.6236854     
   1675969658.2019839        67270484.910050809        1443707609.3270898     
   1348239012.5354962        130721150.77465951        1363996943.2167141     
   1321993418.9034128        105873672.66792279        1385619681.8986626     
   1296572300.1967165        83774444.312476397        1408788186.9322691     
   1271975656.4154077        64423465.708320737        1433502458.3175349     
   1248203487.5594850        47820736.855451167        1459762496.0544567     
   899554979.41907310        87366125.168214440        1374315325.0257061     
   880413381.55031431        70307779.129649907        1396772290.3837869     
   861821433.63182986        55081599.592000604        1421350609.5001130     
   843779135.66362202        41687586.555271626        1448050282.3746824     
   826286487.64568830        30125740.019458473        1476871309.0074954     
   450141975.24180681        43792408.243516430        1386970149.6108854     
   439748908.58375716        35016554.907334581        1409940712.5074720     
   429630666.90087306        27156784.821702972        1435608216.5688860     
   419787250.19315261        20213097.986618236        1463972661.7951303     
   410218658.46059602        14185494.402079001        1495034048.1862035     
   3.6964250341927421E-003   5.6519578394765224E-004   1401961416.9722559     
   3.7448981644643228E-003   9.8732835094463706E-004   1425124948.2697151     
   3.8457218179197223E-003   1.5837891895400867E-003   1451561008.1385887     
   3.9999654229875368E-003   2.3587502143792485E-003   1481269596.5788777     
   4.2072115022598125E-003   3.3096922638428884E-003   1514250713.5905817     
   1675969658.2019839        67270484.910050809        1443707609.3270898     
   1622453794.8125465        42850772.758443594        1434830291.8741589     
   1570649500.3975365        24136290.521598220        1431859432.1712897     
   1520556774.9569602        11127038.199527621        1434795030.2184823     
   1472175618.4908154        3823015.7922330499        1443637086.0157385     
   1248203487.5594850        47820736.855451167        1459762496.0544567     
   1211206125.2214456        30447813.303220272        1454313335.9108360     
   1175492439.6142464        17353812.187126756        1454038075.3029864     
   1141062430.7378869        8538733.5071637034        1458936714.2309072     
   1107916098.5923686        4002577.2633383870        1469009252.6946046     
   826286487.64568830        30125740.019458473        1476871309.0074954     
   803714602.88964903        19171698.025793344        1474351098.5556595     
   781998502.62085807        11070270.989622623        1476272229.4253066     
   761138186.83931708        5821458.9109508991        1482634701.6164351     
   741133655.54502428        3425261.7897734940        1493438515.1290462     
   410218658.46059602        14185494.402079001        1495034048.1862035     
   399979227.81715488        9022426.9261528552        1494943579.8086307     
   390167689.41737413        5285666.9290939122        1498561894.5382512     
   380784043.26124811        2975214.4108841419        1505888992.3750629     
   371828289.34878170        2091069.3715412468        1516924873.3190687     
   4.2072115022598125E-003   3.3096922638428884E-003   1514250713.5905817     
   3.9655549906085722E-003   4.3075890839642458E-003   1516090779.6697495     
   3.7905118604348422E-003   5.5271835643154387E-003   1520907070.6418207     
   3.6847756988502211E-003   6.9774543286017978E-003   1528699586.5067928     
   3.6418670277285044E-003   8.6381908951834278E-003   1539468327.2646668     
   1472175618.4908154        3823015.7922330499        1443637086.0157385     
   1429495195.7681541        1443513.2699745893        1441250368.5104325     
   1387222522.5954556        423175.91426438093        1442320811.0409462     
   1345357598.9727221        762003.72509920597        1446848413.6072810     
   1303900424.8999543        2459996.7024895549        1454833176.2094374     
   1107916098.5923686        4002577.2633383870        1469009252.6946046     
   1074667023.1177590        1846322.8423246741        1466300278.2365744     
   1041723759.8056273        709442.29623842239        1467337507.4486315     
   1009086308.6559790        591935.62509715557        1472120940.3307745     
   976754669.66881311        1493802.8288974762        1480650576.8830011     
   741133655.54502428        3425261.7897734940        1493438515.1290462     
   718141766.27350521        1740007.1565053165        1490288356.7662339     
   695353751.77698529        734335.10656821728        1491173445.7077699     
   672769612.05546474        408245.63996204734        1496093781.9536562     
   650389347.10894299        761738.75668501854        1505049365.5038929     
   371828289.34878170        2091069.3715412468        1516924873.3190687     
   359919425.23539561        1124566.2125309855        1513214604.0994058     
   348112498.50952941        497854.34525394440        1513828625.8183606     
   336407509.17117709        210933.76969075203        1518766938.4759290     
   324804457.22034365        263804.48585626483        1528029542.0721128     
   3.6418670277285044E-003   8.6381908951834278E-003   1539468327.2646668     
   3.4332884520719351E-003   1.0408317980386434E-002   1535079020.2360961     
   3.2593204691954035E-003   1.2294160652884764E-002   1535303047.7804036     
   3.1204434640614890E-003   1.4296799778844217E-002   1540140409.8975935     
   3.0143012628061172E-003   1.6408554917732146E-002   1549591106.5876615     
   1303900424.8999543        2459996.7024895549        1454833176.2094374     
   1263101125.3690312        7091116.4038293958        1453737263.9131758     
   1223697876.9660010        16375739.864810884        1457514765.1721826     
   1185690679.6908572        30313867.085411489        1466165679.9864609     
   1149079533.5436027        48905498.065648854        1479690008.3560071     
   976754669.66881311        1493802.8288974762        1480650576.8830011     
   947905510.72132361        5492237.3156918883        1481048748.0496552     
   920103390.11976862        12980799.622268021        1485911925.7747281     
   893348307.86414003        23959489.748601526        1495240110.0582204     
   867640263.95444858        38428307.694722950        1509033300.9001324     
   650389347.10894299        761738.75668501854        1505049365.5038929     
   632323451.61102605        3777424.8887707293        1506534438.5545127     
   614955581.67708743        9119862.9007833600        1512076111.1667018     
   598285737.30711865        16789052.792696923        1521674383.3404574     
   582313918.50113320        26784994.564553648        1535329255.0757859     
   324804457.22034365        263804.48585626483        1528029542.0721128     
   316354948.03813905        1946679.1230677366        1530194335.4277496     
   308254451.63795942        4792929.7003616244        1536007321.3481061     
   300502968.01979625        8802556.2177103460        1545468499.8331821     
   293100497.18365556        13975558.675134838        1558577870.8829787     
   3.0143012628061172E-003   1.6408554917732146E-002   1549591106.5876615     
   2.6705286333953983E-003   1.8608580793493819E-002   1552028438.6693661     
   2.3897779359800583E-003   2.1019026720601942E-002   1557705556.3189421     
   2.1673139473575376E-003   2.3623067787629078E-002   1566622459.5363846     
   2.0156038010804627E-003   2.6463995829893283E-002   1578779148.3216970     
   1149079533.5436027        48905498.065648854        1479690008.3560071     
   1112441438.7585039        75261792.866413236        1477450049.1327908     
   1079532181.9082971        114047547.45015055        1478893419.1081593     
   1050351762.9929835        165262761.81687006        1484020118.2821116     
   1024900182.0125636        228907435.96656224        1492830146.6546476     
   867640263.95444858        38428307.694722950        1509033300.9001324     
   838876316.58280087        57809915.911228538        1509389347.7493174     
   812908997.66233420        86513618.965005338        1513728644.9297113     
   789738307.19306076        124539416.85609248        1522051192.4413114     
   769364245.17497063        171887309.58445400        1534356990.2841222     
   582313918.50113320        26784994.564553648        1535329255.0757859     
   562281036.06471670        39448991.453317791        1537193730.2663839     
   544112572.59578323        58327718.233692795        1543341376.9208157     
   527808528.09432882        83421174.905665189        1553772195.0390801     
   513368902.56035656        114729361.46924108        1568486184.6211753     
   293100497.18365556        13975558.675134838        1558577870.8829787     
   282655597.20426154        20179019.492714942        1560863196.6839964     
   273142906.70863569        29489845.256190054        1567731615.0814731     
   264562425.69678947        41908035.965599157        1579183126.0754092     
   256914154.16871765        57433591.620919913        1595217729.6658001     
   2.0156038010804627E-003   2.6463995829893283E-002   1578779148.3216970     
   1.4197891946370524E-003   2.9367785675832005E-002   1580397747.0021486     
   8.9859438571412119E-004   3.2519614290781935E-002   1586899359.4116850     
   4.4325806761322077E-004   3.5891665097862360E-002   1598283985.5502992     
   5.7737697407017965E-005   3.9495741841868048E-002   1614551625.4179990     
   1024900182.0125636        228907435.96656224        1492830146.6546476     
   973785424.37410820        329475970.24503475        1593604341.8130169     
   948363463.82902658        515687161.50141585        1702735058.6825211     
   948634300.37731695        787541009.73570395        1820222297.2631686     
   974597934.01897740        1145037514.9478900        1946066057.5549643     
   769364245.17497063        171887309.58445400        1534356990.2841222     
   732186660.71150720        247661255.42389774        1661063300.6806893     
   714278674.06809318        387667193.99683750        1795855819.9097309     
   715640285.24471629        591905125.30323708        1938734547.9712520     
   736271494.24138618        860375049.34312224        2089699484.8652389     
   513368902.56035656        114729361.46924108        1568486184.6211753     
   489356168.76140928        165477022.11651993        1713630877.7703965     
   478189833.50917894        259046011.25285530        1866591466.8734231     
   479869896.80366409        395436328.87823963        2027367951.9302533     
   494396358.64486480        574647974.99267530        2195960332.9408937     
   256914154.16871765        57433591.620919913        1595217729.6658001     
   245293948.52380827        82923270.322883695        1751307073.0821242     
   240096942.15229273        129823613.26949297        1914941999.5735810     
   241323135.05415672        198134620.46070319        2086122509.1401775     
   248972527.22941405        287856291.89655638        2264848601.7819252     
   5.7737697407017965E-005   3.9495741841868048E-002   1614551625.4179990     
  -1.2898564999968571E-003   4.3004999744450559E-002   1774091886.6158702     
  -2.5730333614664355E-003   4.6727594321366611E-002   1940907418.0102150     
  -3.8028417411410144E-003   5.0628777726989704E-002   2114998219.6010408     
  -4.9687360453182922E-003   5.4744395829717941E-002   2296364291.3883290     
   2.6211862350962959E-003   7.8635587052888875E-004   660046518.07473612     
   2.6772139907912788E-003   3.0715471375133518E-004   775076153.15207243     
   2.7784980131691488E-003  -2.1495797358223566E-005   890434562.49829030     
   2.9247623668198540E-003  -2.0014681876131700E-004   1006121746.1133891     
   3.1161886258215107E-003  -2.2791121096604077E-004   1122137703.9973691     
  -447373078.40877843       -134211923.52263352        661430791.23483992     
  -446323407.58071333       -125576571.86321788        778106671.42647541     
  -444533804.89909285       -114474780.69195116        893268442.98772228     
  -442004270.36391711       -100906550.00883326        1006916105.9185805     
  -438734803.97518623       -84871879.813864708        1119049660.2190509     
  -888643129.25065422       -266592938.77519625        665583610.71558523     
  -891809167.30677891       -250901849.36954552        784768989.85061455     
  -893495341.65583789       -230277880.94034296        900597377.45598614     
  -893701652.29783142       -204721033.48758861        1013068773.5316997     
  -892428099.23275959       -174231307.01128265        1122183178.0777550     
  -1323810152.5230057       -397143045.75690174        672504976.51697230     
  -1336457279.1755190       -375975832.51867557        795063108.42449105     
  -1346884610.2674568       -347409300.74519700        912421365.90308237     
  -1355092145.7988181       -311443450.43646562        1024579748.9527462     
  -1361079885.7696044       -268078281.59248218        1131538257.5734823     
  -1752874148.2258334       -525862244.46775007        682194888.63900089     
  -1780267743.1869340       -500798521.31060791        808989027.14810431     
  -1804701610.7339487       -465869040.10651278        928740408.32901049     
  -1826175750.8668773       -421073800.85546422        1041449032.1817195     
  -1844690163.5857201       -366412803.55746281        1147114898.7062314     
   3.1161886258215107E-003  -2.2791121096604077E-004   1122137703.9973691     
   3.2187050643831378E-003  -1.7155176089213493E-004   1196545864.1779799     
   3.3496857416946734E-003  -2.0094674550703720E-005   1267985869.7339981     
   3.5087399875447351E-003   2.2474581719476665E-004   1336457720.6654236     
   3.6964250341927421E-003   5.6519578394765224E-004   1401961416.9722559     
  -438734803.97518623       -84871879.813864708        1119049660.2190509     
  -440337808.58478492       -70439384.570231512        1188423035.0717173     
  -442773338.66453522       -58781974.227103293        1256200908.2545345     
  -446041394.21443635       -49899648.784478202        1322383279.7675030     
  -450141975.23448861       -43792408.242356688        1386970149.6106224     
  -892428099.23275959       -174231307.01128265        1122183178.0777550     
  -891712242.86707711       -144189756.84857881        1185550487.8872674     
  -892661437.44172561       -119698376.48697776        1248694948.9816747     
  -895275682.95670426       -100757165.92647839        1311616561.3609772     
  -899554979.41201353       -87366125.167080075        1374315325.0251749     
  -1361079885.7696044       -268078281.59248218        1131538257.5734823     
  -1354123302.8436577       -221251116.83521268        1187928222.6246309     
  -1349664296.3282213       -182749206.77964333        1245467991.9154189     
  -1347702866.2232952       -152572551.42577422        1304157565.4458461     
  -1348239012.5288792       -130721150.77360630        1363996943.2159116     
  -1844690163.5857201       -366412803.55746281        1147114898.7062314     
  -1827570988.5145266       -301623464.53013307        1195556239.2838078     
  -1813781915.3240232       -247934465.10510176        1246520037.0557671     
  -1803322944.0142093       -205345805.28236943        1300006292.0221088     
  -1796194074.5850840       -173857485.06193310        1356015004.1828339     
   3.6964250341927421E-003   5.6519578394765224E-004   1401961416.9722559     
   3.7448981644643228E-003   9.8732835094463706E-004   1425124948.2697151     
   3.8457218179197223E-003   1.5837891895400867E-003   1451561008.1385887     
   3.9999654229875368E-003   2.3587502143792485E-003   1481269596.5788777     
   4.2072115022598125E-003   3.3096922638428884E-003   1514250713.5905817     
  -450141975.23448861       -43792408.242356688        1386970149.6106224     
  -439748908.57634693       -35016554.905353099        1409940712.5072656     
  -429630666.89326733       -27156784.818557188        1435608216.5687392     
  -419787250.18525088       -20213097.981970862        1463972661.7950437     
  -410218658.45229685       -14185494.395593882        1495034048.1861794     
  -899554979.41201353       -87366125.167080075        1374315325.0251749     
  -880413381.54315937       -70307779.127705753        1396772290.3833661     
  -861821433.62448418       -55081599.588927627        1421350609.4998038     
  -843779135.65598726       -41687586.550743580        1448050282.3744886     
  -826286487.63766968       -30125740.013157696        1476871309.0074208     
  -1348239012.5288792       -130721150.77360630        1363996943.2159116     
  -1321993418.8966951       -105873672.66607660        1385619681.8980165     
  -1296572300.1898062       -83774444.309531331        1408788186.9317834     
  -1271975656.4082115       -64423465.703964829        1433502458.3172150     
  -1248203487.5519116       -47820736.849383235        1459762496.0543079     
  -1796194074.5850840       -173857485.06193310        1356015004.1828339     
  -1764489020.6369529       -141714235.52046508        1376482887.0512164     
  -1733883266.5892322       -113235318.98036450        1397920948.8646779     
  -1704376812.4419222       -88420735.441631436        1420329189.6232188     
  -1675969658.1950221       -67270484.904267728        1443707609.3268397     
   4.2072115022598125E-003   3.3096922638428884E-003   1514250713.5905817     
   3.9655549906085722E-003   4.3075890839642458E-003   1516090779.6697495     
   3.7905118604348422E-003   5.5271835643154387E-003   1520907070.6418207     
   3.6847756988502211E-003   6.9774543286017978E-003   1528699586.5067928     
   3.6418670277285044E-003   8.6381908951834278E-003   1539468327.2646668     
  -410218658.45229685       -14185494.395593882        1495034048.1861794     
  -399979227.80934989       -9022426.9177399576        1494943579.8087099     
  -390167689.40992439       -5285666.9182908982        1498561894.5384407     
  -380784043.25402105       -2975214.3972504139        1505888992.3753703     
  -371828289.34164017       -2091069.3546168804        1516924873.3195000     
  -826286487.63766968       -30125740.013157696        1476871309.0074208     
  -803714602.88211274       -19171698.017621905        1474351098.5557947     
  -781998502.61366558       -11070270.979120284        1476272229.4256651     
  -761138186.83232927       -5821458.8976539969        1482634701.6170330     
  -741133655.53810477       -3425261.7732275426        1493438515.1298974     
  -1248203487.5519116       -47820736.849383235        1459762496.0543079     
  -1211206125.2143216       -30447813.295335948        1454313335.9110043     
  -1175492439.6074314       -17353812.176953673        1454038075.3034930     
  -1141062430.7312434       -8538733.4942452908        1458936714.2317772     
  -1107916098.5857518       -4002577.2471941710        1469009252.6958580     
  -1675969658.1950221       -67270484.904267728        1443707609.3268397     
  -1622453794.8059788       -42850772.750887811        1434830291.8743367     
  -1570649500.3912246       -24136290.511801958        1431859432.1719258     
  -1520556774.9507570       -11127038.187006235        1434795030.2196074     
  -1472175618.4845803       -3823015.7765119076        1443637086.0173802     
   3.6418670277285044E-003   8.6381908951834278E-003   1539468327.2646668     
   3.4332884520719351E-003   1.0408317980386434E-002   1535079020.2360961     
   3.2593204691954035E-003   1.2294160652884764E-002   1535303047.7804036     
   3.1204434640614890E-003   1.4296799778844217E-002   1540140409.8975935     
   3.0143012628061172E-003   1.6408554917732146E-002   1549591106.5876615     
  -371828289.34164017       -2091069.3546168804        1516924873.3195000     
  -359919425.22867864       -1124566.1921147853        1513214604.0998933     
  -348112498.50316834       -497854.32111662626        1513828625.8189068     
  -336407509.16510803       -210933.74161767960        1518766938.4765391     
  -324804457.21449745       -263804.45361930132        1528029542.0727942     
  -741133655.53810477       -3425261.7732275426        1493438515.1298974     
  -718141766.26700115       -1740007.1365056038        1490288356.7671890     
  -695353751.77083218       -734335.08289849758        1491173445.7088418     
  -672769612.04959905       -408245.61241096258        1496093781.9548542     
  -650389347.10329843       -761738.72503226995        1505049365.5052285     
  -1107916098.5857518       -4002577.2471941710        1469009252.6958580     
  -1074667023.1115317       -1846322.8227557540        1466300278.2379808     
  -1041723759.7997316       -709442.27304923534        1467337507.4502075     
  -1009086308.6503495       -591935.59807378054        1472120940.3325350     
  -976754669.66339004       -1493802.7978349328        1480650576.8849645     
  -1472175618.4845803       -3823015.7765119076        1443637086.0173802     
  -1429495195.7622721       -1443513.2508704662        1441250368.5122733     
  -1387222522.5898674       -423175.89157420397        1442320811.0430076     
  -1345357598.9673679       -762003.69863021374        1446848413.6095846     
  -1303900424.8947692       -2459996.6720205545        1454833176.2120032     
   3.0143012628061172E-003   1.6408554917732146E-002   1549591106.5876615     
   2.6705286333953983E-003   1.8608580793493819E-002   1552028438.6693661     
   2.3897779359800583E-003   2.1019026720601942E-002   1557705556.3189421     
   2.1673139473575376E-003   2.3623067787629078E-002   1566622459.5363846     
   2.0156038010804627E-003   2.6463995829893283E-002   1578779148.3216970     
  -324804457.21449745       -263804.45361930132        1528029542.0727942     
  -316354948.03299338       -1946679.0865178555        1530194335.4285817     
  -308254451.63337564       -4792929.6590394676        1536007321.3490980     
  -300502968.01565069       -8802556.1712031364        1545468499.8343456     
  -293100497.17981517       -13975558.622997671        1558577870.8843224     
  -650389347.10329843       -761738.72503226995        1505049365.5052285     
  -632323451.60605431       -3777424.8528525829        1506534438.5561521     
  -614955581.67265308       -9119862.8601516783        1512076111.1686659     
  -598285737.30309570       -16789052.746927440        1521674383.3427677     
  -582313918.49738085       -26784994.513179809        1535329255.0784628     
  -976754669.66339004       -1493802.7978349328        1480650576.8849645     
  -947905510.71651697       -5492237.2804115415        1481048748.0520773     
  -920103390.11544263       -12980799.582314074        1485911925.7776418     
  -893348307.86016142       -23959489.703527898        1495240110.0616577     
  -867640263.95067954       -38428307.644076854        1509033300.9041243     
  -1303900424.8947692       -2459996.6720205545        1454833176.2120032     
  -1263101125.3643832       -7091116.3691932559        1453737263.9163592     
  -1223697876.9617448       -16375739.825534463        1457514765.1760275     
  -1185690679.6868544       -30313867.041029274        1466165679.9910111     
  -1149079533.5397196       -48905498.015709579        1479690008.3613040     
   2.0156038010804627E-003   2.6463995829893283E-002   1578779148.3216970     
   1.4197891946370524E-003   2.9367785675832005E-002   1580397747.0021486     
   8.9859438571412119E-004   3.2519614290781935E-002   1586899359.4116850     
   4.4325806761322077E-004   3.5891665097862360E-002   1598283985.5502992     
   5.7737697407017965E-005   3.9495741841868048E-002   1614551625.4179990     
  -293100497.17981517       -13975558.622997671        1558577870.8843224     
  -282655597.20161134       -20179019.434788078        1560863196.6855457     
  -273142906.70703703       -29489845.192010999        1567731615.0832305     
  -264562425.69610682       -41908035.894713700        1579183126.0773759     
  -256914154.16880327       -57433591.542838901        1595217729.6679847     
  -582313918.49738085       -26784994.513179809        1535329255.0784628     
  -562281036.06214988       -39448991.396201998        1537193730.2694693     
  -544112572.59425354       -58327718.170338795        1543341376.9243164     
  -527808528.09370071       -83421174.835622132        1553772195.0430062     
  -513368902.56048185       -114729361.39201382        1568486184.6255395     
  -867640263.95067954       -38428307.644076854        1509033300.9041243     
  -838876316.58019471       -57809915.854866564        1509389347.7539253     
  -812908997.66074491       -86513618.902442575        1513728644.9349470     
  -789738307.19234204       -124539416.78684311        1522051192.4471920     
  -769364245.17497885       -171887309.50804013        1534356990.2906601     
  -1149079533.5397196       -48905498.015709579        1479690008.3613040     
  -1112441438.7557445       -75261792.810782552        1477450049.1389103     
  -1079532181.9065104       -114047547.38832283        1478893419.1151190     
  -1050351762.9920346       -165262761.74838808        1484020118.2899294     
  -1024900182.0122920       -228907435.89090461        1492830146.6633470     
   5.7737697407017965E-005   3.9495741841868048E-002   1614551625.4179990     
  -1.2898564999968571E-003   4.3004999744450559E-002   1774091886.6158702     
  -2.5730333614664355E-003   4.6727594321366611E-002   1940907418.0102150     
  -3.8028417411410144E-003   5.0628777726989704E-002   2114998219.6010408     
  -4.9687360453182922E-003   5.4744395829717941E-002   2296364291.3883290     
  -256914154.16880327       -57433591.542838901        1595217729.6679847     
  -245293948.52655536       -82923270.237710774        1751307073.0845411     
  -240096942.15751952       -129823613.17662509        1914941999.5762353     
  -241323135.06169862       -198134620.35958266        2086122509.1430850     
  -248972527.23909491       -287856291.78660423        2264848601.7850828     
  -513368902.56048185       -114729361.39201382        1568486184.6255395     
  -489356168.76413608       -165477022.03211778        1713630877.7752819     
  -478189833.51427752       -259046011.16050830        1866591466.8788495     
  -479869896.81091064       -395436328.77720243        2027367951.9362400     
  -494396358.65402687       -574647974.88218117        2195960332.9474578     
  -769364245.17497885       -171887309.50804013        1534356990.2906601     
  -732186660.71403337       -247661255.34022141        1661063300.6881068     
  -714278674.07284713       -387667193.90493143        1795855819.9180532     
  -715640285.25143290       -591905125.20221186        1938734547.9805057     
  -736271494.24976909       -860375049.23200464        2089699484.8754525     
  -1024900182.0122920       -228907435.89090461        1492830146.6633470     
  -973785424.37625086       -329475970.16203111        1593604341.8230102     
  -948363463.83323741       -515687161.40991747        1702735058.6938512     
  -948634300.38326716       -787541009.63460910        1820222297.2758749     
  -974597934.02632737       -1145037514.8360796        1946066057.5690608     
  -1752874148.2258334       -525862244.46775007        682194888.63900089     
  -1780267743.1869340       -500798521.31060791        808989027.14810431     
  -1804701610.7339487       -465869040.10651278        928740408.32901049     
  -1826175750.8668773       -421073800.85546422        1041449032.1817195     
  -1844690163.5857201       -366412803.55746281        1147114898.7062314     
  -2198185708.6228118       -659455712.58684349        697833498.71377552     
  -2234062261.0874200       -614540807.16927660        815545881.24351346     
  -2267861903.3307772       -562702867.68087399        929194627.11557543     
  -2299584635.3528848       -503941894.12163675        1038779736.3299617     
  -2329230457.1537409       -438257886.49156386        1144301208.8866720     
  -2682095425.9776158       -804628627.79328477        722600958.37340045     
  -2717943162.6013851       -737309008.11198902        830201631.53213191     
  -2752596806.1967397       -666009078.33597577        936717788.70370853     
  -2786056356.7636795       -590728838.46524537        1042149429.8881302     
  -2818321814.3022032       -511468288.49979758        1146496555.0853972     
  -3204603300.2902451       -961380990.08707356        756497267.61787581     
  -3231910447.7288294       -869103124.13874507        852956278.01395905     
  -3258906319.3318348       -775787672.07181728        951309893.09340894     
  -3285590915.0992594       -681434633.88628960        1051558112.8562254     
  -3311964235.0311055       -586044009.58216298        1153700937.3024082     
  -3765709331.5606999       -1129712799.4682100        799522426.44720125     
  -3775964116.4697537       -1009923155.2495451        883809820.68899560     
  -3786790442.7360630       -892038648.88839853        972970940.28467774     
  -3798188310.3596277       -776059280.38477015        1067005785.2342470     
  -3810157719.3404474       -661985049.73866057        1165914355.5377042     
  -1844690163.5857201       -366412803.55746281        1147114898.7062314     
  -1827570988.5145266       -301623464.53013307        1195556239.2838078     
  -1813781915.3240232       -247934465.10510176        1246520037.0557671     
  -1803322944.0142093       -205345805.28236943        1300006292.0221088     
  -1796194074.5850840       -173857485.06193310        1356015004.1828339     
  -2329230457.1537409       -438257886.49156386        1144301208.8866720     
  -2303372504.5843801       -358085576.88314199        1186227381.9281905     
  -2281017504.2138867       -289589774.60427350        1228803318.0244334     
  -2262165456.0422583       -232770479.65495509        1272029017.1753998     
  -2246816360.0694938       -187627692.03518742        1315904479.3810916     
  -2818321814.3022032       -511468288.49979758        1146496555.0853972     
  -2789075638.9194160       -417518174.71570623        1181705901.8863199     
  -2763505266.0536699       -335820735.98841977        1215692317.6023076     
  -2741610695.7049670       -266375972.31794012        1248455802.2333605     
  -2723391927.8733029       -209183883.70426250        1279996355.7794788     
  -3311964235.0311055       -586044009.58216298        1153700937.3024082     
  -3284680391.5196304       -479921258.02782357        1181991799.1581957     
  -3261245200.8433733       -386627349.25754333        1207187035.7893898     
  -3241658663.0023341       -306162283.27132094        1229286647.1959901     
  -3225920777.9965124       -238526060.06915760        1248290633.3779974     
  -3810157719.3404474       -661985049.73866057        1165914355.5377042     
  -3790186762.3850250       -545294826.81949496        1187085073.7438183     
  -3774237308.5829964       -442009614.41164207        1203287472.5856802     
  -3762309357.9343619       -352129412.51510251        1214521552.0632889     
  -3754402910.4391193       -275654221.12987089        1220787312.1766460     
  -1796194074.5850840       -173857485.06193310        1356015004.1828339     
  -1764489020.6369529       -141714235.52046508        1376482887.0512164     
  -1733883266.5892322       -113235318.98036450        1397920948.8646779     
  -1704376812.4419222       -88420735.441631436        1420329189.6232188     
  -1675969658.1950221       -67270484.904267728        1443707609.3268397     
  -2246816360.0694938       -187627692.03518742        1315904479.3810916     
  -2205969467.8042302       -144161988.74199665        1326343233.8374557     
  -2167768913.3715253       -109517411.55732894        1340231118.7269058     
  -2132214696.7713773       -83693960.481185079        1357568134.0494428     
  -2099306818.0037858       -66691635.513568163        1378354279.8050642     
  -2723391927.8733029       -209183883.70426250        1279996355.7794788     
  -2666320478.7537470       -152270911.09819984        1278601104.2363207     
  -2613442405.3988943       -109335857.70781732        1283133934.6142552     
  -2564757707.8087463       -80378723.533114672        1293594846.9132829     
  -2520266385.9833035       -65399508.574095130        1309983841.1334004     
  -3225920777.9965124       -238526060.06915760        1248290633.3779974     
  -3145542053.4855008       -166041002.58907437        1233256498.2478125     
  -3070903742.6713414       -112690657.43182862        1226629396.5267262     
  -3002005845.5540338       -78475024.597419500        1228409328.2147381     
  -2938848362.1335740       -63394104.085847616        1238596293.3118496     
  -3754402910.4391193       -275654221.12987089        1220787312.1766460     
  -3643634191.9994931       -185472263.21462023        1190309415.8719294     
  -3540152925.1888633       -119581810.72936082        1170717504.4643171     
  -3443959110.0072346       -77982863.674095988        1162011577.9538109     
  -3355052746.4546018       -60675422.048827410        1164191636.3404102     
  -1675969658.1950221       -67270484.904267728        1443707609.3268397     
  -1622453794.8059788       -42850772.750887811        1434830291.8743367     
  -1570649500.3912246       -24136290.511801958        1431859432.1719258     
  -1520556774.9507570       -11127038.187006235        1434795030.2196074     
  -1472175618.4845803       -3823015.7765119076        1443637086.0173802     
  -2099306818.0037858       -66691635.513568163        1378354279.8050642     
  -2031919708.3575933       -44792786.583060622        1368478812.7779715     
  -1965477851.1869953       -26044779.237867475        1363948815.0961797     
  -1899981246.4919872       -10447613.477975726        1364764286.7596881     
  -1835429894.2725725        1998710.6966073513        1370925227.7684999     
  -2520266385.9833035       -65399508.574095130        1309983841.1334004     
  -2440610854.0936513       -46502370.070571780        1300004260.4468625     
  -2361134258.1808972       -28201684.823370814        1294809160.7008352     
  -2281836598.2450385       -10497452.832491398        1294398541.8953178     
  -2202717874.2860751        6610325.9020683765        1298772404.0303090     
  -2938848362.1335740       -63394104.085847616        1238596293.3118496     
  -2848527232.0141525       -47979523.213412404        1229406634.8810124     
  -2757618721.3729324       -30607007.268312335        1224440468.9858940     
  -2666122830.2099133       -11276556.250552177        1223697795.6264932     
  -2574039558.5250926        10011829.839877605        1227178614.8028131     
  -3355052746.4546018       -60675422.048827410        1164191636.3404102     
  -3255668842.1190977       -49224246.011586785        1156685936.0804181     
  -3154931240.7631006       -33260746.572700500        1152842739.9513545     
  -3052839942.3866072       -12784923.732161283        1152662047.9532182     
  -2949394946.9896169        12203222.510034680        1156143860.0860088     
  -1472175618.4845803       -3823015.7765119076        1443637086.0173802     
  -1429495195.7622721       -1443513.2508704662        1441250368.5122733     
  -1387222522.5898674       -423175.89157420397        1442320811.0430076     
  -1345357598.9673679       -762003.69863021374        1446848413.6095846     
  -1303900424.8947692       -2459996.6720205545        1454833176.2120032     
  -1835429894.2725725        1998710.6966073513        1370925227.7684999     
  -1781879306.7280884        8438478.5080472231        1366654542.6126204     
  -1729167858.1106515        12081116.562667608        1366351378.3720024     
  -1677295548.4202528        12926624.860491395        1370015735.0466483     
  -1626262377.6568968        10975003.401507139        1377647612.6365538     
  -2202717874.2860751        6610325.9020683765        1298772404.0303090     
  -2136838947.9782212        17547811.181658030        1292114463.6169968     
  -2072230549.9745452        24250202.113983274        1289934404.9983675     
  -2008892680.2750516        26717498.699037194        1292232228.1744194     
  -1946825338.8797369        24949700.936824441        1299007933.1451538     
  -2574039558.5250926        10011829.839877605        1227178614.8028131     
  -2494374119.5126648        25884484.769977808        1217630131.5254064     
  -2416410598.1815548        36084080.762357473        1213069890.9221034     
  -2340148994.5317636        40610617.817001462        1213497892.9929018     
  -2265589308.5632892        39464095.933924794        1218914137.7378008     
  -2949394946.9896169        12203222.510034680        1156143860.0860088     
  -2854484821.3314161        33448499.273012161        1143201546.3378496     
  -2761708002.7316723        47582752.507806659        1135757836.1432097     
  -2671064491.1903877        54605982.214403272        1133812729.5020919     
  -2582554286.7075548        54518188.392817855        1137366226.4144964     
  -1303900424.8947692       -2459996.6720205545        1454833176.2120032     
  -1263101125.3643832       -7091116.3691932559        1453737263.9163592     
  -1223697876.9617448       -16375739.825534463        1457514765.1760275     
  -1185690679.6868544       -30313867.041029274        1466165679.9910111     
  -1149079533.5397196       -48905498.015709579        1479690008.3613040     
  -1626262377.6568968        10975003.401507139        1377647612.6365538     
  -1572932295.4200919        6594099.9689466357        1375574361.6090984     
  -1520819132.7720375       -1843202.0927812457        1378209018.4317374     
  -1469922889.7127225       -14336902.783641696        1385551583.1044781     
  -1420243566.2421579       -30887002.103665173        1397602055.6273117     
  -1946825338.8797369        24949700.936824441        1299007933.1451538     
  -1881437347.3799891        20677151.735822320        1296166330.1813893     
  -1817087143.9299810        12945309.035687089        1297867129.3625083     
  -1753774728.5297146        1754172.8364154100        1304110330.6885111     
  -1691500101.1791909       -12896256.861997366        1314895934.1593957     
  -2265589308.5632892        39464095.933924794        1218914137.7378008     
  -2188616281.2440686        35158038.931447148        1215513169.6332338     
  -2112501910.4355810        27989793.559856653        1216489097.9683340     
  -2037246196.1378355        17959359.819130659        1221841922.7431037     
  -1962849138.3508217        5066737.7092901468        1231571643.9575417     
  -2582554286.7075548        54518188.392817855        1137366226.4144964     
  -2494469097.0123324        50036761.555816531        1133614879.9646306     
  -2407063432.2888398        43290251.479715943        1134074924.2492206     
  -2320337292.5370798        34278658.164507389        1138746359.2682631     
  -2234290677.7570500        23001981.610195160        1147629185.0217586     
  -1149079533.5397196       -48905498.015709579        1479690008.3613040     
  -1112441438.7557445       -75261792.810782552        1477450049.1389103     
  -1079532181.9065104       -114047547.38832283        1478893419.1151190     
  -1050351762.9920346       -165262761.74838808        1484020118.2899294     
  -1024900182.0122920       -228907435.89090461        1492830146.6633470     
  -1420243566.2421579       -30887002.103665173        1397602055.6273117     
  -1372259863.3559017       -53705131.912951827        1391921418.9118254     
  -1326856610.7582347       -85124762.684204578        1390468344.2335424     
  -1284033808.4491739       -125145894.41747254        1393242831.5924575     
  -1243791456.4287009       -173768527.11270350        1400244880.9885762     
  -1691500101.1791909       -12896256.861997366        1314895934.1593957     
  -1630615839.2232270       -31709736.395259798        1307114405.5379896     
  -1571163639.9097099       -55296758.070007980        1304104671.7923839     
  -1513143503.2386429       -83657321.886252582        1305866732.9225736     
  -1456555429.2100174       -116791427.84397465        1312400588.9285676     
  -1962849138.3508217        5066737.7092901468        1231571643.9575417     
  -1887509366.3577323       -9275606.2577309608        1223029009.0173943     
  -1812453269.3609371       -24563533.545738816        1219802401.7916424     
  -1737680847.3604391       -40797044.154732406        1221891822.2802885     
  -1663192100.3562381       -57976138.084717035        1229297270.4833314     
  -2234290677.7570500        23001981.610195160        1147629185.0217586     
  -2142940444.7594075        13597258.499650359        1139665229.3500423     
  -2050725499.1119156        7074910.8886082172        1137561534.2313216     
  -1957645840.8145676        3434938.7770837545        1141318099.6655943     
  -1863701469.8673663        2677342.1650716066        1150934925.6528599     
  -1024900182.0122920       -228907435.89090461        1492830146.6633470     
  -973785424.37625086       -329475970.16203111        1593604341.8230102     
  -948363463.83323741       -515687161.40991747        1702735058.6938512     
  -948634300.38326716       -787541009.63460910        1820222297.2758749     
  -974597934.02632737       -1145037514.8360796        1946066057.5690608     
  -1243791456.4287009       -173768527.11270350        1400244880.9885762     
  -1171876169.6048980       -252230167.93112564        1471643204.8558958     
  -1123319479.8974497       -408553799.13739407        1545583823.2827728     
  -1098121387.3063593       -642739420.73152387        1622066736.2692111     
  -1096281891.8316255       -954787032.71350420        1701091943.8151908     
  -1456555429.2100174       -116791427.84397465        1312400588.9285676     
  -1380451690.7745245       -178129798.48252881        1357146274.8096795     
  -1325372349.4786987       -309549492.91997838        1398620028.0987201     
  -1291317405.3225539       -511050511.15636766        1436821848.7956979     
  -1278286858.3060822       -782632853.19166315        1471751736.9006023     
  -1663192100.3562381       -57976138.084717035        1229297270.4833314     
  -1599511987.8851140       -107174861.81621683        1250113551.6843550     
  -1554522072.5769839       -218674242.75768846        1261843673.1416941     
  -1528222354.4318466       -392474280.90914172        1264487634.8553360     
  -1520612833.4497051       -628574976.27057862        1258045436.8252907     
  -1863701469.8673663        2677342.1650716066        1150934925.6528599     
  -1829057060.9366779       -39365357.932190418        1150545035.4799294     
  -1810768649.1922982       -135928048.65048480        1135254758.4116840     
  -1808836234.6342402       -287010729.98985708        1105064094.4481242     
  -1823259817.2624886       -492613401.95024210        1059973043.5892514     
  -3765709331.5606999       -1129712799.4682100        799522426.44720125     
  -3775964116.4697537       -1009923155.2495451        883809820.68899560     
  -3786790442.7360630       -892038648.88839853        972970940.28467774     
  -3798188310.3596277       -776059280.38477015        1067005785.2342470     
  -3810157719.3404474       -661985049.73866057        1165914355.5377042     
  -4338174866.2415991       -1301452459.8724797        856955178.58080471     
  -4333031413.9091988       -1126710789.5018392        940513870.27180302     
  -4329021209.2738962       -955746611.45485926        1018362397.6826533     
  -4326144252.3356924       -788559925.73154068        1090500760.8133552     
  -4324400543.0945864       -625150732.33188272        1156928959.6639097     
  -4894761250.7855606       -1468428375.2356682        934074267.73811364     
  -4904459245.8803797       -1247806584.1136539        1016248932.8151656     
  -4915852195.0121384       -1032834639.7814429        1082129543.9780343     
  -4928940098.1808395       -823512542.23903573        1131716101.2267194     
  -4943722955.3864794       -619840291.48643184        1165008604.5612211     
  -5435468485.1925869       -1630640545.5577760        1030879693.9191283     
  -5490247612.3832960       -1373210539.0849893        1111015008.3190844     
  -5547283399.9507914       -1123302733.8681498        1164272379.1708212     
  -5606575847.8950672       -880917129.90725529        1190651806.4743395     
  -5668124956.2161283       -646053727.20230770        1190153290.2296388     
  -5960296569.4626760       -1788088970.8388028        1147371457.1238484     
  -6090396513.4179487       -1502922654.4158459        1224812096.7835581     
  -6223314824.0898504       -1227150893.7149782        1264790903.2610137     
  -6359051501.4783764       -960773688.73619866        1267307876.5562148     
  -6497606545.5835304       -703791039.47950912        1232363016.6691620     
  -3810157719.3404474       -661985049.73866057        1165914355.5377042     
  -3790186762.3850250       -545294826.81949496        1187085073.7438183     
  -3774237308.5829964       -442009614.41164207        1203287472.5856802     
  -3762309357.9343619       -352129412.51510251        1214521552.0632889     
  -3754402910.4391193       -275654221.12987089        1220787312.1766460     
  -4324400543.0945864       -625150732.33188272        1156928959.6639097     
  -4291838926.8553777       -470503788.57376432        1138142256.8290441     
  -4270017220.1109157       -351656543.13147652        1125249752.6138935     
  -4258935422.8612037       -268608996.00502086        1118251447.0184584     
  -4258593535.1062422       -221361147.19439816        1117147340.0427387     
  -4943722955.3864794       -619840291.48643184        1165008604.5612211     
  -4867534914.1950016       -417925897.18881321        1098426339.9537928     
  -4808805188.8396301       -274205889.01154733        1048600791.9500481     
  -4767533779.3203621       -188680266.95463467        1015531960.5499861     
  -4743720685.6372023       -161349031.01807427        999219845.75360787     
  -5668124956.2161283       -646053727.20230770        1190153290.2296388     
  -5517274724.4039011       -387561152.66464639        1067937323.1180658     
  -5390601214.7691355       -209657652.05185652        973340590.59414387     
  -5288104427.3118343       -112343225.36394238        906363092.65787399     
  -5209784362.0319920       -95617872.600899935        867004829.30925500     
  -6497606545.5835304       -703791039.47950912        1232363016.6691620     
  -6241058357.4820766       -379409555.00126052        1046675206.3218621     
  -6015405297.8994398       -158011832.25240541        899469148.54618180     
  -5820647366.8356209       -39597871.232945919        790744843.34212029     
  -5656784564.2906218       -24167671.942878246        720502290.70967865     
  -3754402910.4391193       -275654221.12987089        1220787312.1766460     
  -3643634191.9994931       -185472263.21462023        1190309415.8719294     
  -3540152925.1888633       -119581810.72936082        1170717504.4643171     
  -3443959110.0072346       -77982863.674095988        1162011577.9538109     
  -3355052746.4546018       -60675422.048827410        1164191636.3404102     
  -4258593535.1062422       -221361147.19439816        1117147340.0427387     
  -4131049355.8714228       -158782139.74035549        1085326076.6716800     
  -4007817703.7136354       -110578222.54309630        1061892940.6600987     
  -3888898578.6328826       -76749395.602617979        1046847932.0079945     
  -3774291980.6291661       -57295658.918921947        1040191050.7153680     
  -4743720685.6372023       -161349031.01807427        999219845.75360787     
  -4606537781.4289789       -128513994.77177978        969525960.62683165     
  -4470692479.7458305       -100137633.60905910        945722345.32190418     
  -4336184780.5877495       -76219947.529903889        927808999.83882737     
  -4203014683.9547420       -56760936.534323692        915785924.17759800     
  -5209784362.0319920       -95617872.600899935        867004829.30925500     
  -5070099468.6721659       -94667828.308892488        842909067.73738444     
  -4928777253.2854481       -88260043.927246332        822205718.44973493     
  -4785817715.8718357       -76394519.455959320        804894781.44630718     
  -4641220856.4313326       -59071254.895028353        790976256.72710049     
  -5656784564.2906218       -24167671.942878246        720502290.70967865     
  -5521734417.6009808       -57243640.351694584        705475398.00333858     
  -5382072024.3324871       -74945453.497663021        691343060.04359150     
  -5237797384.4851360       -77273111.380771637        678105276.83043790     
  -5088910498.0589304       -64226614.001035929        665762048.36387920     
  -3355052746.4546018       -60675422.048827410        1164191636.3404102     
  -3255668842.1190977       -49224246.011586785        1156685936.0804181     
  -3154931240.7631006       -33260746.572700500        1152842739.9513545     
  -3052839942.3866072       -12784923.732161283        1152662047.9532182     
  -2949394946.9896169        12203222.510034680        1156143860.0860088     
  -3774291980.6291661       -57295658.918921947        1040191050.7153680     
  -3663310776.7171655       -44065228.362636328        1031288866.1737016     
  -3551403213.5742111       -27746933.703170061        1027234579.9786330     
  -3438569291.2003069       -8340774.9405398369        1028028192.1301615     
  -3324809009.5954475        14153247.925276518        1033669702.6282910     
  -4203014683.9547420       -56760936.534323692        915785924.17759800     
  -4077049339.8500423       -40735199.274121761        904988694.59979033     
  -3950584974.3039341       -23046057.209228277        900224757.58425021     
  -3823621587.3164177       -3693510.3396396637        901494113.13097763     
  -3696159178.8874931        17322441.334647179        908796761.23997486     
  -4641220856.4313326       -59071254.895028353        790976256.72710049     
  -4496884531.5177298       -39234158.746051550        777785421.35868347     
  -4352476522.9522667       -19158117.090866089        771813272.76820588     
  -4207996830.7349329        1156870.0705440044        773059810.95566452     
  -4063445454.8657403        21710802.738159180        781525035.92106140     
  -5088910498.0589304       -64226614.001035929        665762048.36387920     
  -4922816351.7202291       -39562106.778428793        649679046.45038557     
  -4757077859.5192060       -16083113.348088503        642000125.53049934     
  -4591695021.4558649        6210366.2899894714        642725285.60422206     
  -4426667837.5301971        27318332.135812998        651854526.67155170     
  -2949394946.9896169        12203222.510034680        1156143860.0860088     
  -2854484821.3314161        33448499.273012161        1143201546.3378496     
  -2761708002.7316723        47582752.507806659        1135757836.1432097     
  -2671064491.1903877        54605982.214403272        1133812729.5020919     
  -2582554286.7075548        54518188.392817855        1137366226.4144964     
  -3324809009.5954475        14153247.925276518        1033669702.6282910     
  -3217161986.4672637        33924225.797686577        1019593311.7612402     
  -3111027520.8889694        48653345.170458078        1010156153.6000208     
  -3006405612.8605666        58340606.043592095        1005358228.1446308     
  -2903296262.3820553        62986008.417082191        1005199535.3950703     
  -3696159178.8874931        17322441.334647179        908796761.23997486     
  -3578230603.5684376        34882516.732759476        894310501.01402771     
  -3461193836.2907104        49469898.659781218        883604102.64621925     
  -3345048877.0543084        61084587.115710258        876677566.13654947     
  -3229795725.8592367        69726582.100547433        873530891.48501658     
  -4063445454.8657403        21710802.738159180        781525035.92106140     
  -3937690672.6349378        36323372.078235149        767353114.09621012     
  -3812206948.9368968        50032412.975769043        756101683.28180397     
  -3686994283.7716217        62837925.430756092        747770743.47784841     
  -3562052677.1391082        74739909.443199873        742360294.68433392     
  -4426667837.5301971        27318332.135812998        651854526.67155170     
  -4295542193.6667614        38246791.834118843        638721151.00778902     
  -4164066858.8275323        50340888.118420839        627648895.50677836     
  -4032241833.0124960        63600620.988735437        618637760.16852343     
  -3900067116.2216587        78025990.445058346        611687744.99302423     
  -2582554286.7075548        54518188.392817855        1137366226.4144964     
  -2494469097.0123324        50036761.555816531        1133614879.9646306     
  -2407063432.2888398        43290251.479715943        1134074924.2492206     
  -2320337292.5370798        34278658.164507389        1138746359.2682631     
  -2234290677.7570500        23001981.610195160        1147629185.0217586     
  -2903296262.3820553        62986008.417082191        1005199535.3950703     
  -2803071494.0650163        62632272.727066636        998310500.78989089     
  -2704059726.4937243        58235201.217884421        995595668.74081397     
  -2606260959.6681881        49794793.889514565        997055039.24783969     
  -2509675193.5884085        37311050.741967082        1002688612.3109694     
  -3229795725.8592367        69726582.100547433        873530891.48501658     
  -3117537630.8585267        73468661.976065278        862881780.32149720     
  -3007026012.3775864        71389153.452345967        856369683.53573167     
  -2898260870.4164209        63488056.529377580        853994601.12771475     
  -2791242204.9750280        49765371.207162380        855756533.09745121     
  -3562052677.1391082        74739909.443199873        742360294.68433392     
  -3437867507.3928690        82545929.302824736        727328718.55945373     
  -3315962289.9404287        82752108.183113813        716396968.63397169     
  -3196337024.7817731        75358446.084113121        709565044.90788984     
  -3078991711.9169192        60364943.005783916        706832947.38120914     
  -3900067116.2216587        78025990.445058346        611687744.99302423     
  -3764061123.6680393        89864074.707321882        591651315.50375509     
  -3630868559.1822371        92324065.410204887        575677524.03553474     
  -3500489422.7642479        85405962.553705454        563766370.58836281     
  -3372923714.4140806        69109766.137807369        555917855.16224289     
  -2234290677.7570500        23001981.610195160        1147629185.0217586     
  -2142940444.7594075        13597258.499650359        1139665229.3500423     
  -2050725499.1119156        7074910.8886082172        1137561534.2313216     
  -1957645840.8145676        3434938.7770837545        1141318099.6655943     
  -1863701469.8673663        2677342.1650716066        1150934925.6528599     
  -2509675193.5884085        37311050.741967082        1002688612.3109694     
  -2403009758.9898572        27962538.059000015        993839317.65406334     
  -2295057919.3099728        22902042.313815713        990897715.11542428     
  -2185819674.5487661        22129563.506369948        993863804.69504571     
  -2075295024.7062235        25645101.636707067        1002737586.3929309     
  -2791242204.9750280        49765371.207162380        855756533.09745121     
  -2669126050.0176558        40513724.579170346        846513873.95874691     
  -2545301797.5474782        36955736.327188730        843226338.50357580     
  -2419769447.5644984        39091406.451215863        845893926.73193419     
  -2292529000.0687156        46920734.951256871        854516638.64382386     
  -3078991711.9169192        60364943.005783916        706832947.38120914     
  -2941289317.8428183        51250818.060115576        697688898.26409340     
  -2801457133.8244371        49235992.928724051        694547404.39577842     
  -2659495159.8617744        54320467.611595392        697408465.77626359     
  -2515403395.9548407        66504242.108711243        706272082.40554225     
  -3372923714.4140806        69109766.137807369        555917855.16224289     
  -3219499562.4653406        60173818.501861453        547364390.57010293     
  -3063523928.1408439        59742812.118429184        544860912.79202807     
  -2904996811.4405947        67816746.987498641        548407421.82802320     
  -2743918212.3645964        84395623.109086156        558003917.67808270     
  -1863701469.8673663        2677342.1650716066        1150934925.6528599     
  -1829057060.9366779       -39365357.932190418        1150545035.4799294     
  -1810768649.1922982       -135928048.65048480        1135254758.4116840     
  -1808836234.6342402       -287010729.98985708        1105064094.4481242     
  -1823259817.2624886       -492613401.95024210        1059973043.5892514     
  -2075295024.7062235        25645101.636707067        1002737586.3929309     
  -2062165271.2804105       -6200225.3620119095        993168587.05599892     
  -2054371854.4990015       -55833341.175428987        979596999.66481280     
  -2051914774.3620217       -123254245.80358779        962022824.21936858     
  -2054794030.8694525       -208462939.24647325        940446060.71967793     
  -2292529000.0687156        46920734.951256871        854516638.64382386     
  -2269777334.0304532        34613751.486299992        848624800.77510178     
  -2241342344.0947156        41251181.012937546        849628173.69318438     
  -2207224030.2614965        66833023.531170130        857526757.39807606     
  -2167422392.5308061        111359279.04099178        872320551.88976848     
  -2515403395.9548407        66504242.108711243        706272082.40554225     
  -2451893249.1868191        83076572.612708449        716913676.63724208     
  -2371680117.9794321        155325517.91459966        745348280.49680638     
  -2274764002.3326621        283251078.01442242        791575893.98423350     
  -2161144902.2465343        466853252.91214132        855596517.09953034     
  -2743918212.3645964        84395623.109086156        558003917.67808270     
  -2608513016.7495136        139188238.01720834        598035214.64241385     
  -2445385176.1531587        286389669.52956450        666757320.07567286     
  -2254534690.5755315        525999917.64616179        764170233.97785628     
  -2035961560.0166461        858018982.36696887        890273956.34895945     
  -5960296569.4626760       -1788088970.8388028        1147371457.1238484     
  -6090396513.4179487       -1502922654.4158459        1224812096.7835581     
  -6223314824.0898504       -1227150893.7149782        1264790903.2610137     
  -6359051501.4783764       -960773688.73619866        1267307876.5562148     
  -6497606545.5835304       -703791039.47950912        1232363016.6691620     
  -6813840060.1358957       -2044152018.0407686        1351188983.8895707     
  -6831733046.6115284       -1396191861.0373192        1200064515.3473444     
  -6901089064.1459713       -919775140.89656997        1088993268.6839049     
  -7021908112.7392254       -614901857.61852026        1017975243.8992518     
  -7194190192.3912878       -481572011.20316935        987010440.99338531     
  -8340693513.7523098       -2502208054.1256928        1709971700.7535927     
  -8024907956.8596144       -1425012580.7751441        1273530015.6102164     
  -7809230095.3679113       -681509425.42790580        954656607.40666771     
  -7693659929.2772055       -271698588.08398056        753351476.14294660     
  -7678197458.5874891       -195580068.74336529        669614621.81905365     
  -10540856930.311922       -3162257079.0935769        2223719607.7159142     
  -9669921244.1622066       -1589384813.6293211        1445208597.5721738     
  -8947737917.7556725       -512353747.30898952        861780919.42930233     
  -8374306951.0923119        68836119.867421150        473436573.28729951     
  -7949628344.1721325        154184787.89990902        280175559.14616603     
  -13414330309.814730       -4024299092.9444189        2892432704.7765355     
  -11766772908.519312       -1889308559.5998516        1715100261.2332170     
  -10316612531.309252       -412308106.53981876        810366204.75180805     
  -9063849178.1845512        406702266.23568296        178230535.33230963     
  -8008482849.1452141        567722558.72664833       -181306747.02527887     
  -6497606545.5835304       -703791039.47950912        1232363016.6691620     
  -6241058357.4820766       -379409555.00126052        1046675206.3218621     
  -6015405297.8994398       -158011832.25240541        899469148.54618180     
  -5820647366.8356209       -39597871.232945919        790744843.34212029     
  -5656784564.2906218       -24167671.942878246        720502290.70967865     
  -7194190192.3912878       -481572011.20316935        987010440.99338531     
  -6905641107.2081156       -307366979.23642802        841425042.48914635     
  -6629831736.3941603       -175627661.83375001        716630070.51726508     
  -6366762079.9494238       -86354058.995136738        612625525.07774305     
  -6116432137.8739109       -39546170.720590591        529411406.17057747     
  -7678197458.5874891       -195580068.74336529        669614621.81905365     
  -7408194122.1490555       -186715483.03606510        585312951.66573811     
  -7132775085.9302406       -159798564.72749996        504110382.00552082     
  -6851940349.9310513       -114829313.81767750        426006912.83840287     
  -6565689914.1514769       -51807730.306589127        351002544.16438043     
  -7949628344.1721325        154184787.89990902        280175559.14616603     
  -7748717402.3048964       -17455066.400174141        278338933.85163987     
  -7524235346.5076818       -110524540.93366194        261910083.01095033     
  -7276182176.7804909       -125023635.70056200        230889006.62410155     
  -7004557893.1233225       -60952350.700870991        185275704.69108695     
  -8008482849.1452141        567722558.72664833       -181306747.02527887     
  -7927210947.6756353        200414270.67125177       -79497010.953150466     
  -7804212518.1264820       -27805590.452229977       -9970826.4664436765     
  -7639487560.4977503       -116937024.64378929        27271806.434838980     
  -7433036074.7894459       -66980031.903432846        32230887.750698779     
  -5656784564.2906218       -24167671.942878246        720502290.70967865     
  -5521734417.6009808       -57243640.351694584        705475398.00333858     
  -5382072024.3324871       -74945453.497663021        691343060.04359150     
  -5237797384.4851360       -77273111.380771637        678105276.83043790     
  -5088910498.0589304       -64226614.001035929        665762048.36387920     
  -6116432137.8739109       -39546170.720590591        529411406.17057747     
  -5969724348.7913265       -42515416.430994987        521069571.72372299     
  -5822600244.0782499       -44096943.373092175        513852894.51752102     
  -5675059823.7346821       -44290751.546885729        507761374.55197275     
  -5527103087.7606249       -43096840.952371120        502795011.82707787     
  -6565689914.1514769       -51807730.306589127        351002544.16438043     
  -6406665618.4072075       -24472594.037956715        344450515.20392066     
  -6251420937.9808102       -9736175.4955666065        339254245.97817099     
  -6099955872.8722839       -7598474.6794130802        335413736.48713624     
  -5952270423.0816298       -18059491.589501858        332928986.73081285     
  -7004557893.1233225       -60952350.700870991        185275704.69108695     
  -6832558226.4486246       -3115173.1725769043        175618228.44392949     
  -6668534106.0401592        28136850.134927750        167547114.42554381     
  -6512485531.8979301        32803719.221645832        161062362.63592857     
  -6364412504.0219393        10885434.087579250        156163973.07508883     
  -7433036074.7894459       -66980031.903432846        32230887.750698779     
  -7247402172.9155741        21556846.165139198        14572711.443752717     
  -7073939748.2563047        69522133.518382549       -1268500.1403640551     
  -6912648800.8116341        76915830.156286240       -15292747.001646172     
  -6763529330.5815639        43737936.078861713       -27500029.140097558     
  -5088910498.0589304       -64226614.001035929        665762048.36387920     
  -4922816351.7202291       -39562106.778428793        649679046.45038557     
  -4757077859.5192060       -16083113.348088503        642000125.53049934     
  -4591695021.4558649        6210366.2899894714        642725285.60422206     
  -4426667837.5301971        27318332.135812998        651854526.67155170     
  -5527103087.7606249       -43096840.952371120        502795011.82707787     
  -5348100803.8202133       -30487307.214715004        489580524.71682072     
  -5168128928.6400270       -14645802.677821636        480673210.18772072     
  -4987187462.2200670        4427672.6583228111        476073068.23978078     
  -4805276404.5603371        26733118.793702841        475780098.87299877     
  -5952270423.0816298       -18059491.589501858        332928986.73081285     
  -5772065454.1465044       -21016567.118896484        324129134.03082263     
  -5589565648.5941591       -16324187.257544518        315539545.49953717     
  -5404771006.4245901       -3982352.0054454803        307160221.13695908     
  -5217681527.6377935        16008938.637400150        298991160.94308984     
  -6364412504.0219393        10885434.087579250        156163973.07508883     
  -6194710302.6991110       -11149886.490974903        153324874.39238986     
  -6021388019.3816061       -21118267.087270975        146599131.46594828     
  -5844445654.0694256       -19019707.701306820        135986744.29576132     
  -5663883206.7625704       -4854208.3330981731        121487712.88182838     
  -6763529330.5815639        43737936.078861713       -27500029.140097558     
  -6616035349.4780273       -887265.33093643188       -22832254.198477205     
  -6463596041.0023670       -29028042.166978359       -26148031.913053807     
  -6306211405.1545801       -40684394.429269075       -37447362.283824004     
  -6143881441.9346619       -35856322.117794514       -56730245.310783789     
  -4426667837.5301971        27318332.135812998        651854526.67155170     
  -4295542193.6667614        38246791.834118843        638721151.00778902     
  -4164066858.8275323        50340888.118420839        627648895.50677836     
  -4032241833.0124960        63600620.988735437        618637760.16852343     
  -3900067116.2216587        78025990.445058346        611687744.99302423     
  -4805276404.5603371        26733118.793702841        475780098.87299877     
  -4664003823.1898260        37904571.517321110        452676580.35586274     
  -4523003547.6909580        48168338.002129555        435261202.90634906     
  -4382275578.0637264        57524418.248134136        423533966.52445185     
  -4241819914.3081498        65972812.255318403        417494871.21017522     
  -5217681527.6377935        16008938.637400150        298991160.94308984     
  -5055899091.8891611        30532259.447645664        265191836.58390293     
  -4895010958.8596239        42074571.194252014        240707674.19719830     
  -4735017128.5491676        50635873.877256632        225538673.78297454     
  -4575917600.9577932        56216167.496640682        219684835.34123167     
  -5663883206.7625704       -4854208.3330981731        121487712.88182838     
  -5471227999.7647800        16129855.625078201        76266919.691902637     
  -5280089092.3335247        32059587.694817781        43988309.379322276     
  -5090466484.4687958        42934987.876127481        24651881.944084480     
  -4902360176.1705971        48756056.169009447        18257637.386197850     
  -6143881441.9346619       -35856322.117794514       -56730245.310783789     
  -5909990546.8166761       -5302639.9503672123       -114098170.32013586     
  -5678237948.1126642        18123387.503812075       -154896891.54727468     
  -5448623645.8226233        34421760.244750500       -179126408.99220720     
  -5221147639.9465599        43592478.272433519       -186786722.65492854     
  -3900067116.2216587        78025990.445058346        611687744.99302423     
  -3764061123.6680393        89864074.707321882        591651315.50375509     
  -3630868559.1822371        92324065.410204887        575677524.03553474     
  -3500489422.7642479        85405962.553705454        563766370.58836281     
  -3372923714.4140806        69109766.137807369        555917855.16224289     
  -4241819914.3081498        65972812.255318403        417494871.21017522     
  -4098984327.9329286        72185833.115459442        396734218.69445717     
  -3957821062.0154743        72824452.449709654        378462553.42094916     
  -3818330116.5557852        67888670.258066177        362679875.38965875     
  -3680511491.5538697        57378486.540533066        349386184.60057610     
  -4575917600.9577932        56216167.496640682        219684835.34123167     
  -4430748565.8433580        55455281.429948092        199531252.01078996     
  -4286110743.5766521        52923685.870838642        180293005.14372119     
  -4142004134.1576586        48621380.819343090        161970094.74002188     
  -3998428737.5863934        42548366.275432587        144562520.79970592     
  -4902360176.1705971        48756056.169009447        18257637.386197850     
  -4759353837.3993454        39672419.650758028        42415.452748596334     
  -4615737603.8657732        32621765.673588276       -18831120.796159230     
  -4471511475.5698719        27604094.237506151       -38362971.360534661     
  -4326675452.5116434        24619405.342523575       -58553136.240373172     
  -5221147639.9465599        43592478.272433519       -186786722.65492854     
  -5084800142.6008844        24837247.777902126       -201732290.97966364     
  -4946701642.8828421        11918691.857936859       -218909824.39869529     
  -4806852140.7924185        4836810.5125782490       -238319322.91202462     
  -4665251636.3296242        3591603.7417752743       -259960786.51965463     
  -3372923714.4140806        69109766.137807369        555917855.16224289     
  -3219499562.4653406        60173818.501861453        547364390.57010293     
  -3063523928.1408439        59742812.118429184        544860912.79202807     
  -2904996811.4405947        67816746.987498641        548407421.82802320     
  -2743918212.3645964        84395623.109086156        558003917.67808270     
  -3680511491.5538697        57378486.540533066        349386184.60057610     
  -3518264600.6325927        54782378.403670549        336518374.42493331     
  -3353959282.1294594        59047695.539655447        322924259.83738470     
  -3187595536.0444727        70174437.948483944        308603840.83793706     
  -3019173362.3776321        88162605.630165458        293557117.42658067     
  -3998428737.5863934        42548366.275432587        144562520.79970592     
  -3846719939.7667780        40483848.015388489        126805134.44768101     
  -3693445769.1592131        43637239.048533201        101545152.45777680     
  -3538606225.7636862        52008539.374864578        68782574.830001712     
  -3382201309.5802097        65597748.994387388        28517401.564350061     
  -4326675452.5116434        24619405.342523575       -58553136.240373172     
  -4204865579.8679061        17278227.337017775       -81775329.361662328     
  -4081983389.2300987        13511442.645074844       -119276409.34680338     
  -3958028880.5982370        13319051.266649246       -171056376.19578332     
  -3833002053.9723182        16701053.201750994       -237115229.90860990     
  -4665251636.3296242        3591603.7417752743       -259960786.51965463     
  -4592701520.9359484       -14834483.631397247       -289223017.00309932     
  -4519572142.3421173       -31329693.670717955       -339540425.57635140     
  -4445863500.5481262       -45894026.376184464       -410913012.23941749     
  -4371575595.5539732       -58527481.747756243       -503340776.99230468     
  -2743918212.3645964        84395623.109086156        558003917.67808270     
  -2608513016.7495136        139188238.01720834        598035214.64241385     
  -2445385176.1531587        286389669.52956450        666757320.07567286     
  -2254534690.5755315        525999917.64616179        764170233.97785628     
  -2035961560.0166461        858018982.36696887        890273956.34895945     
  -3019173362.3776321        88162605.630165458        293557117.42658067     
  -2853507144.8299494        149544951.94620836        317034484.99645859     
  -2660742674.3343830        301254808.08852291        333578046.02835482     
  -2440879950.8909330        543292174.05711544        343187800.52227157     
  -2193918974.4995980        875657049.85200000        345863748.47820085     
  -3382201309.5802097        65597748.994387388        28517401.564350061     
  -3288058684.4053736        103034442.42671680        34712382.367491610     
  -3167442198.3160458        228717338.90734696       -1651058.3742557527     
  -3020351851.3122201        442646438.43631053       -80572920.660892040     
  -2846787643.3938923        744821741.01362157       -202053204.49242717     
  -3833002053.9723182        16701053.201750994       -237115229.90860990     
  -3912167635.4757829       -343290.54127287865       -248931093.24448639     
  -3965483748.0981407        68777261.986063004       -338929993.13216680     
  -3992950391.8393826        224062710.78377295       -507111929.57163811     
  -3994567566.6995163        465513055.85185742       -753476902.56291258     
  -4371575595.5539732       -58527481.747756243       -503340776.99230468     
  -4725833998.0411921       -160588246.95778918       -533895941.83948720     
  -5054867323.6806870       -178565422.67539644       -678258758.24537325     
  -5358675572.4724560       -112459008.90059137       -936429226.20995581     
  -5637258744.4164877        37730994.366669416       -1308407345.7332585     
 </DataArray>
 <DataArray  type="Float64" Name="VM" NumberOfComponents="1" format="ascii">
   12932689759.168964     
   11341079025.261366     
   10213664830.728458     
   9279027698.5705166     
   8312840623.5632410     
   10129729606.121040     
   9323635484.6711922     
   8829955391.4096107     
   8448824574.2382822     
   8042485346.6516552     
   7983111711.6979284     
   7736914751.7117596     
   7672064492.5683327     
   7673231524.5842037     
   7670489985.3092728     
   6492733164.0035048     
   6588169896.0690451     
   6758793193.4947367     
   6962494832.1141005     
   7172609867.9743414     
   5658112811.4100027     
   5890569184.6097088     
   6115364948.5795307     
   6330025313.8034716     
   6534325611.5791121     
   8312840623.5632410     
   8030474756.4171095     
   7790366082.1440887     
   7581842570.4898109     
   7399983993.9380693     
   8042485346.6516552     
   7755004150.1925230     
   7483348932.1850376     
   7225558278.0437737     
   6981660508.6506996     
   7670489985.3092728     
   7386525030.9709702     
   7108065181.0548573     
   6835196733.8815231     
   6568136947.0551643     
   7172609867.9743414     
   6912580981.1518145     
   6660466053.9722424     
   6412429396.0851364     
   6165326742.2074995     
   6534325611.5791121     
   6325617030.7976942     
   6138949231.8946991     
   5960440481.8186283     
   5781042727.9401188     
   7399983993.9380693     
   7258248492.4996967     
   7108956118.8498526     
   6951476333.3748016     
   6785671196.0400295     
   6981660508.6506996     
   6837770273.0015926     
   6688945092.9872427     
   6534906341.1642208     
   6375602400.2532883     
   6568136947.0551643     
   6422235903.4274712     
   6274135313.7866554     
   6123779564.2318487     
   5971170696.5694046     
   6165326742.2074995     
   6016656175.9971571     
   5868559760.3700628     
   5721046918.9954872     
   5574130754.6019812     
   5781042727.9401188     
   5627595423.0272322     
   5477482993.8068733     
   5330593960.6506662     
   5186907454.3535137     
   6785671196.0400295     
   6615709961.0876932     
   6449290040.6590014     
   6286302572.1710148     
   6126819959.6792336     
   6375602400.2532883     
   6194837793.5789051     
   6016217440.9330339     
   5839710976.4380083     
   5665366772.5130348     
   5971170696.5694046     
   5788873067.2267723     
   5608115647.6027317     
   5428911861.0059881     
   5251302076.2668867     
   5574130754.6019812     
   5399919421.8022242     
   5227544349.9754553     
   5057081838.3715744     
   4888655859.8626146     
   5186907454.3535137     
   5030623976.9068069     
   4877502669.3092279     
   4727737854.9235296     
   4581681633.3174219     
   6126819959.6792336     
   5910645735.1680565     
   5693645817.9310627     
   5474714103.8751974     
   5253051835.4947224     
   5665366772.5130348     
   5480902849.3780613     
   5296739660.7101536     
   5112247519.9412336     
   4927020623.2377748     
   5251302076.2668867     
   5091993322.8037205     
   4933830012.9906149     
   4776538077.8831797     
   4619979110.2373257     
   4888655859.8626146     
   4748252704.3996401     
   4609349605.8583059     
   4471898837.8866053     
   4335912739.9582062     
   4581681633.3174219     
   4454360828.3225555     
   4328214324.8286629     
   4203285662.2234306     
   4079632809.1842198     
   5253051835.4947224     
   5109225926.8450575     
   4967164376.6745062     
   4826954425.9172659     
   4688718406.6021347     
   4927020623.2377748     
   4779313542.5866842     
   4632249469.8561659     
   4485869373.8028584     
   4340222594.7867870     
   4619979110.2373257     
   4472108530.8887844     
   4324106809.9979277     
   4175961587.5876842     
   4027662387.8573747     
   4335912739.9582062     
   4192250712.2655325     
   4048157460.4286523     
   3903599003.5677223     
   3758570396.7167616     
   4079632809.1842198     
   3945204608.3748178     
   3810664063.9626245     
   3676027830.0863466     
   3541415888.7459316     
   4688718406.6021347     
   4612585698.6224909     
   4542221944.1851034     
   4479990899.6438675     
   4429254695.2963018     
   4340222594.7867870     
   4215911208.5700645     
   4093971790.1701589     
   3975760060.3672729     
   3863271895.5135846     
   4027662387.8573747     
   3873352796.8073511     
   3719617169.5589142     
   3566885164.6821442     
   3415829808.7220440     
   3758570396.7167616     
   3593558078.0821075     
   3429783272.4089398     
   3267275083.2896791     
   3106104629.7597790     
   3541415888.7459316     
   3385461745.6902575     
   3234562078.4054174     
   3089152815.9332705     
   2949896537.3178196     
   4429254695.2963018     
   4738725228.8594713     
   5105002407.3350382     
   5545819926.9711456     
   6093324093.1325932     
   3863271895.5135846     
   3935684538.0500140     
   4043160571.0481296     
   4202382151.3387332     
   4442519345.2138376     
   3415829808.7220440     
   3341308748.0659032     
   3287774145.1128788     
   3267244274.8174114     
   3301785143.4138412     
   3106104629.7597790     
   2982134621.5300121     
   2881959489.6976514     
   2816470467.6424842     
   2803576563.8687592     
   2949896537.3178196     
   2873973940.1046338     
   2845339474.7031589     
   2880513163.4731007     
   3000998644.6482096     
   5658112811.4100027     
   5890569184.6097088     
   6115364948.5795307     
   6330025313.8034716     
   6534325611.5791121     
   5150548492.7603388     
   5309644356.5028410     
   5465297252.7819405     
   5614600092.2768774     
   5756084367.5380316     
   4641642758.5159063     
   4752810842.8251400     
   4864987236.8932257     
   4975532474.9427423     
   5082520547.4227324     
   4131673735.7478957     
   4220931675.8663297     
   4315972055.4033308     
   4415144684.6253099     
   4517001791.2303801     
   3622203207.9018555     
   3715881536.2193975     
   3820676475.4527521     
   3936545083.9421310     
   4063413276.8332739     
   6534325611.5791121     
   6325617030.7976942     
   6138949231.8946991     
   5960440481.8186283     
   5781042727.9401188     
   5756084367.5380316     
   5645680920.6817341     
   5551083922.0617218     
   5463247101.6961203     
   5376610410.0207281     
   5082520547.4227324     
   5045087766.6545382     
   5017956194.9586916     
   4995933798.8604784     
   4975826124.1274204     
   4517001791.2303801     
   4528579479.7543163     
   4544633198.2814026     
   4562691339.2364550     
   4581046500.7987041     
   4063413276.8332739     
   4101658911.2998219     
   4137111650.4557309     
   4168852941.2002134     
   4196138038.5060253     
   5781042727.9401188     
   5627595423.0272322     
   5477482993.8068733     
   5330593960.6506662     
   5186907454.3535137     
   5376610410.0207281     
   5231288789.9002943     
   5088584054.6565714     
   4948519365.9436369     
   4811152463.5145531     
   4975826124.1274204     
   4844031726.8998175     
   4715146497.3978586     
   4589149461.0530109     
   4466092113.2999725     
   4581046500.7987041     
   4468628623.0309267     
   4360562209.6041870     
   4256597677.4181666     
   4156717992.3054948     
   4196138038.5060253     
   4109158858.2308264     
   4029315459.4700599     
   3955904271.6634154     
   3888768146.2555022     
   5186907454.3535137     
   5030623976.9068069     
   4877502669.3092279     
   4727737854.9235296     
   4581681633.3174219     
   4811152463.5145531     
   4675674155.9308500     
   4544020339.4631815     
   4416443273.1895504     
   4293323320.1774187     
   4466092113.2999725     
   4349129208.3313313     
   4236486893.0626574     
   4128443775.4593801     
   4025376243.6390848     
   4156717992.3054948     
   4055987320.2088785     
   3959839236.0152044     
   3868549327.2992487     
   3782463651.2834764     
   3888768146.2555022     
   3802014184.1005073     
   3719798541.8453794     
   3642369315.7923932     
   3570024855.7091761     
   4581681633.3174219     
   4454360828.3225555     
   4328214324.8286629     
   4203285662.2234306     
   4079632809.1842198     
   4293323320.1774187     
   4173278067.5638528     
   4054778445.5613685     
   3937898142.3616819     
   3822738448.3599782     
   4025376243.6390848     
   3915244889.8884697     
   3807335496.3990164     
   3701770510.3128262     
   3598723870.8913250     
   3782463651.2834764     
   3684987570.4040570     
   3590747504.8291574     
   3499929908.0753975     
   3412805559.2181363     
   3570024855.7091761     
   3487894774.4141693     
   3410358114.0556006     
   3337666452.2036643     
   3270192785.8586020     
   4079632809.1842198     
   3945204608.3748178     
   3810664063.9626245     
   3676027830.0863466     
   3541415888.7459316     
   3822738448.3599782     
   3700885028.1337209     
   3580018231.7622018     
   3460284370.0301471     
   3341935890.1659760     
   3598723870.8913250     
   3491013426.3336968     
   3385569080.1258564     
   3282662348.2213154     
   3182667839.2739406     
   3412805559.2181363     
   3320627487.1751156     
   3232094369.3093567     
   3147572110.7616320     
   3067515879.3318615     
   3270192785.8586020     
   3194517647.0026350     
   3123845161.9073296     
   3058579415.1106024     
   2999189103.0333400     
   3541415888.7459316     
   3385461745.6902575     
   3234562078.4054174     
   3089152815.9332705     
   2949896537.3178196     
   3341935890.1659760     
   3203882391.3235836     
   3071759604.8485312     
   2946093335.8342462     
   2827617869.8670845     
   3182667839.2739406     
   3063293764.3459539     
   2950776583.0054646     
   2845700988.1690025     
   2748827745.4286518     
   3067515879.3318615     
   2967420062.1018705     
   2875067254.0641413     
   2791050767.9312129     
   2716095775.9080615     
   2999189103.0333400     
   2918565958.6871276     
   2846431548.3666506     
   2783331536.8699961     
   2729896282.3706231     
   2949896537.3178196     
   2873973940.1046338     
   2845339474.7031589     
   2880513163.4731007     
   3000998644.6482096     
   2827617869.8670845     
   2786444467.2124991     
   2772004188.0488820     
   2789065969.5959611     
   2844920556.9795175     
   2748827745.4286518     
   2718849926.6484871     
   2698773662.6813436     
   2688842956.9081335     
   2689667776.3167143     
   2716095775.9080615     
   2683082124.3716965     
   2643423817.4825134     
   2597903459.5219660     
   2547666242.2914133     
   2729896282.3706231     
   2691887723.0331097     
   2630139803.4063334     
   2549236794.2072248     
   2457521243.6380596     
   3622203207.9018555     
   3715881536.2193975     
   3820676475.4527521     
   3936545083.9421310     
   4063413276.8332739     
   3135244069.3540211     
   3251818745.2713122     
   3377731354.2462454     
   3512530252.3218699     
   3655772891.4178052     
   2692476327.7778997     
   2827468811.1929126     
   2969751413.0023594     
   3118251601.5873179     
   3272066392.4813380     
   2297435722.5781908     
   2447675921.7993479     
   2602673183.2043099     
   2760503561.4581923     
   2919735715.8322697     
   1955376726.8973401     
   2119430744.6129265     
   2284929648.2504950     
   2448900674.6482654     
   2609375369.7451048     
   4063413276.8332739     
   4101658911.2998219     
   4137111650.4557309     
   4168852941.2002134     
   4196138038.5060253     
   3655772891.4178052     
   3692475535.8001146     
   3727762867.7398148     
   3760724610.5263066     
   3790604422.7985635     
   3272066392.4813380     
   3313315724.7105527     
   3354909534.2698131     
   3396028831.0125589     
   3436001135.3525991     
   2919735715.8322697     
   2971590804.2836809     
   3025924078.7509713     
   3082074426.4353681     
   3139528107.0925922     
   2609375369.7451048     
   2677278151.9822521     
   2750093433.8166213     
   2827345896.0570917     
   2908708969.4451985     
   4196138038.5060253     
   4109158858.2308264     
   4029315459.4700599     
   3955904271.6634154     
   3888768146.2555022     
   3790604422.7985635     
   3736640234.2182770     
   3689301539.4039249     
   3648230170.4537916     
   3613433987.5690479     
   3436001135.3525991     
   3410412090.7158465     
   3390514806.2875557     
   3376159618.8775249     
   3367397891.7005348     
   3139528107.0925922     
   3137933419.9704027     
   3140456342.6043983     
   3147040580.5074701     
   3157706801.9712625     
   2908708969.4451985     
   2927040592.6316891     
   2947097815.2586975     
   2968841746.3257847     
   2992245194.7390194     
   3888768146.2555022     
   3802014184.1005073     
   3719798541.8453794     
   3642369315.7923932     
   3570024855.7091761     
   3613433987.5690479     
   3537521797.7270303     
   3466808147.4716406     
   3401555865.6981616     
   3342073127.4922709     
   3367397891.7005348     
   3303828514.6105056     
   3246344812.8484149     
   3195205430.2206922     
   3150714154.8404903     
   3157706801.9712625     
   3107714840.8703985     
   3064907859.6111231     
   3029510240.1546268     
   3001796682.8834229     
   2992245194.7390194     
   2956498436.5959158     
   2929210996.4056258     
   2910533930.3547168     
   2900681234.6154428     
   3570024855.7091761     
   3487894774.4141693     
   3410358114.0556006     
   3337666452.2036643     
   3270192785.8586020     
   3342073127.4922709     
   3276432092.2471981     
   3215921621.5265336     
   3160808890.8018980     
   3111449306.8704133     
   3150714154.8404903     
   3100413653.5125322     
   3055613169.5232115     
   3016559067.4995914     
   2983553071.2089491     
   3001796682.8834229     
   2965372714.9211397     
   2934587872.4018340     
   2909638906.7190323     
   2890750221.0605106     
   2900681234.6154428     
   2876282840.2931290     
   2857388218.8110361     
   2844129652.1317439     
   2836648284.6294761     
   3270192785.8586020     
   3194517647.0026350     
   3123845161.9073296     
   3058579415.1106024     
   2999189103.0333400     
   3111449306.8704133     
   3049695323.6708899     
   2993678910.4432378     
   2943802862.3130026     
   2900526468.7592340     
   2983553071.2089491     
   2935860737.2699432     
   2894628349.3104815     
   2860230159.1413264     
   2833086450.9983435     
   2890750221.0605106     
   2856771960.4144049     
   2829924265.8363109     
   2810527401.6008749     
   2798937878.1794233     
   2836648284.6294761     
   2815417204.8206043     
   2801912484.8798666     
   2796384067.3779707     
   2799111783.7147269     
   2999189103.0333400     
   2918565958.6871276     
   2846431548.3666506     
   2783331536.8699961     
   2729896282.3706231     
   2900526468.7592340     
   2834196486.0984197     
   2775756412.6186757     
   2725686291.5076556     
   2684522132.1203408     
   2833086450.9983435     
   2780980282.4618754     
   2736201681.8869567     
   2699236938.1141291     
   2670630390.9270835     
   2798937878.1794233     
   2761271389.4050117     
   2730394291.2043109     
   2706859715.5958939     
   2691307871.4133315     
   2799111783.7147269     
   2776336056.3952193     
   2759828946.2137318     
   2750257025.7400537     
   2748424505.9355044     
   2729896282.3706231     
   2691887723.0331097     
   2630139803.4063334     
   2549236794.2072248     
   2457521243.6380596     
   2684522132.1203408     
   2662113680.9298215     
   2627008132.3807197     
   2585826481.4162827     
   2549428500.1687155     
   2670630390.9270835     
   2686450362.0320277     
   2703808122.5200014     
   2731687376.2420564     
   2782851363.0714555     
   2691307871.4133315     
   2763789510.5231318     
   2852422564.0262003     
   2967571419.6027427     
   3122159178.1201682     
   2748424505.9355044     
   2890449439.9525714     
   3061729525.2078099     
   3273021096.3941002     
   3536455873.9354048     
   1955376726.8973401     
   2119430744.6129265     
   2284929648.2504950     
   2448900674.6482654     
   2609375369.7451048     
   1655669880.4633086     
   1822464344.4204497     
   1991082464.8587911     
   2158825643.4433985     
   2323933077.4998155     
   1397446618.4400442     
   1575470044.7332733     
   1754661369.8825343     
   1933023238.0165021     
   2109308133.4872937     
   1212676702.6297827     
   1405445222.1449029     
   1598002629.2236671     
   1789577859.1400247     
   1979715040.7988186     
   1143234104.6643722     
   1342471276.9944258     
   1542277903.0624037     
   1742653982.8683047     
   1943599516.4121289     
   2609375369.7451048     
   2677278151.9822521     
   2750093433.8166213     
   2827345896.0570917     
   2908708969.4451985     
   2323933077.4998155     
   2411746476.9877877     
   2502381358.3200283     
   2595465237.8258290     
   2690735230.7981234     
   2109308133.4872937     
   2214487642.0031080     
   2319922249.8322148     
   2425382264.0082760     
   2530705278.3163977     
   1979715040.7988186     
   2098782956.6685905     
   2215310051.5842919     
   2329222661.5806189     
   2440469495.7081423     
   1943599516.4121289     
   2072478230.3426702     
   2196215949.6586967     
   2314812674.3602080     
   2428268404.4472036     
   2908708969.4451985     
   2927040592.6316891     
   2947097815.2586975     
   2968841746.3257847     
   2992245194.7390194     
   2690735230.7981234     
   2716383118.0967188     
   2744731449.5442114     
   2775772913.5092497     
   2809506788.2761617     
   2530705278.3163977     
   2563413640.0897312     
   2599810056.2027125     
   2639900534.0653911     
   2683693540.2682815     
   2440469495.7081423     
   2478508666.1687417     
   2521223010.3205867     
   2568616858.8140612     
   2620694914.9463210     
   2428268404.4472036     
   2468388817.5371146     
   2514177416.3819361     
   2565634200.9816704     
   2622759171.3363156     
   2992245194.7390194     
   2956498436.5959158     
   2929210996.4056258     
   2910533930.3547168     
   2900681234.6154428     
   2809506788.2761617     
   2788575013.5437899     
   2775673707.1665440     
   2770891943.2545328     
   2774351119.7874818     
   2683693540.2682815     
   2674331622.7937360     
   2672288599.6427579     
   2677601775.7464275     
   2690321179.0455346     
   2620694914.9463210     
   2619355822.3255997     
   2624358916.5686998     
   2635711933.6906633     
   2653425398.3230896     
   2622759171.3363156     
   2625946259.2747183     
   2634288319.9423809     
   2647785353.3392992     
   2666437359.4654746     
   2900681234.6154428     
   2876282840.2931290     
   2857388218.8110361     
   2844129652.1317439     
   2836648284.6294761     
   2774351119.7874818     
   2757360686.4322476     
   2746577494.7109046     
   2742093799.1707969     
   2744006419.4075651     
   2690321179.0455346     
   2679059389.2666206     
   2674659135.7103648     
   2677169078.6183314     
   2686639580.2409215     
   2653425398.3230896     
   2645485554.3482475     
   2645002944.2703452     
   2651991353.1605620     
   2666464919.0427203     
   2666437359.4654746     
   2658834856.6819711     
   2659222883.7710066     
   2667601440.7325888     
   2683970527.5667095     
   2836648284.6294761     
   2815417204.8206043     
   2801912484.8798666     
   2796384067.3779707     
   2799111783.7147269     
   2744006419.4075651     
   2733837062.1174932     
   2731047019.9922395     
   2735775949.6839814     
   2748177382.3958855     
   2686639580.2409215     
   2684473264.1068497     
   2689194624.1622629     
   2700863164.1891294     
   2719543606.0020719     
   2666464919.0427203     
   2669073343.6270561     
   2677969718.0734067     
   2693167832.9515538     
   2714682654.2547922     
   2683970527.5667095     
   2688192110.5671391     
   2698025166.7767506     
   2713469696.1955357     
   2734525698.8234997     
   2799111783.7147269     
   2776336056.3952193     
   2759828946.2137318     
   2750257025.7400537     
   2748424505.9355044     
   2748177382.3958855     
   2737394509.5431437     
   2733514436.9313359     
   2736925758.8009815     
   2748086017.5142779     
   2719543606.0020719     
   2717430488.4889798     
   2722761757.2415133     
   2735714646.9327846     
   2756493915.1307273     
   2714682654.2547922     
   2717255862.6196074     
   2727777301.6110950     
   2746292101.3544283     
   2772851747.3112183     
   2734525698.8234997     
   2737329193.9751058     
   2748590316.9995432     
   2768309067.8967996     
   2796485446.6668887     
   2748424505.9355044     
   2890449439.9525714     
   3061729525.2078099     
   3273021096.3941002     
   3536455873.9354048     
   2748086017.5142779     
   2948472995.0552783     
   3171572456.3586831     
   3422714782.8890810     
   3708018760.2970524     
   2756493915.1307273     
   2999244448.0130038     
   3259507370.2078605     
   3539427842.9239731     
   3841519170.8248835     
   2772851747.3112183     
   3041041631.7807727     
   3323302430.5381317     
   3620138268.7666864     
   3932149262.5036106     
   2796485446.6668887     
   3072817284.9144111     
   3361750260.7810173     
   3663284374.2667208     
   3977419625.3714881     
   1143234104.6643722     
   1342471276.9944258     
   1542277903.0624037     
   1742653982.8683047     
   1943599516.4121289     
   1212676702.6275995     
   1405445222.1428797     
   1598002629.2217674     
   1789577859.1382225     
   1979715040.7970998     
   1397446618.4364464     
   1575470044.7298086     
   1754661369.8791807     
   1933023238.0132396     
   2109308133.4841073     
   1655669880.4590962     
   1822464344.4162426     
   1991082464.8545926     
   2158825643.4392047     
   2323933077.4956212     
   1955376726.8930826     
   2119430744.6085398     
   2284929648.2459984     
   2448900674.6436644     
   2609375369.7404008     
   1943599516.4121289     
   2072478230.3426702     
   2196215949.6586967     
   2314812674.3602080     
   2428268404.4472036     
   1979715040.7970998     
   2098782956.6668830     
   2215310051.5825996     
   2329222661.5789456     
   2440469495.7064962     
   2109308133.4841073     
   2214487641.9999261     
   2319922249.8290501     
   2425382264.0051403     
   2530705278.3133073     
   2323933077.4956212     
   2411746476.9835658     
   2502381358.3158007     
   2595465237.8216219     
   2690735230.7939610     
   2609375369.7404008     
   2677278151.9774776     
   2750093433.8118038     
   2827345896.0522652     
   2908708969.4403996     
   2428268404.4472036     
   2468388817.5371146     
   2514177416.3819361     
   2565634200.9816704     
   2622759171.3363156     
   2440469495.7064962     
   2478508666.1672745     
   2521223010.3193150     
   2568616858.8129959     
   2620694914.9454756     
   2530705278.3133073     
   2563413640.0869646     
   2599810056.2002926     
   2639900534.0633440     
   2683693540.2666335     
   2690735230.7939610     
   2716383118.0929689     
   2744731449.5409107     
   2775772913.5064373     
   2809506788.2738743     
   2908708969.4403996     
   2927040592.6273451     
   2947097815.2548566     
   2968841746.3224940     
   2992245194.7363257     
   2622759171.3363156     
   2625946259.2747183     
   2634288319.9423809     
   2647785353.3392992     
   2666437359.4654746     
   2620694914.9454756     
   2619355822.3251700     
   2624358916.5687060     
   2635711933.6911197     
   2653425398.3240037     
   2683693540.2666335     
   2674331622.7928910     
   2672288599.6427550     
   2677601775.7473025     
   2690321179.0473084     
   2809506788.2738743     
   2788575013.5426240     
   2775673707.1665659     
   2770891943.2558017     
   2774351119.7900352     
   2992245194.7363257     
   2956498436.5945816     
   2929210996.4057460     
   2910533930.3563747     
   2900681234.6187024     
   2666437359.4654746     
   2658834856.6819711     
   2659222883.7710066     
   2667601440.7325888     
   2683970527.5667095     
   2653425398.3240037     
   2645485554.3495517     
   2645002944.2720299     
   2651991353.1626191     
   2666464919.0451403     
   2690321179.0473084     
   2679059389.2691407     
   2674659135.7136288     
   2677169078.6223240     
   2686639580.2456226     
   2774351119.7900352     
   2757360686.4358668     
   2746577494.7155867     
   2742093799.1765280     
   2744006419.4143262     
   2900681234.6187024     
   2876282840.2977123     
   2857388218.8169498     
   2844129652.1389804     
   2836648284.6380186     
   2683970527.5667095     
   2688192110.5671391     
   2698025166.7767506     
   2713469696.1955357     
   2734525698.8234997     
   2666464919.0451403     
   2669073343.6300187     
   2677969718.0768938     
   2693167832.9555435     
   2714682654.2592483     
   2686639580.2456226     
   2684473264.1126223     
   2689194624.1690774     
   2700863164.1969404     
   2719543606.0108156     
   2744006419.4143262     
   2733837062.1258130     
   2731047020.0020885     
   2735775949.6953001     
   2748177382.4085846     
   2836648284.6380186     
   2815417204.8311386     
   2801912484.8923678     
   2796384067.3923802     
   2799111783.7309451     
   2734525698.8234997     
   2737329193.9751058     
   2748590316.9995432     
   2768309067.8967996     
   2796485446.6668887     
   2714682654.2592483     
   2717255862.6245942     
   2727777301.6164927     
   2746292101.3600931     
   2772851747.3169956     
   2719543606.0108156     
   2717430488.4987836     
   2722761757.2521496     
   2735714646.9439836     
   2756493915.1421752     
   2748177382.4085846     
   2737394509.5574408     
   2733514436.9469094     
   2736925758.8174415     
   2748086017.5311480     
   2799111783.7309451     
   2776336056.4135575     
   2759828946.2337952     
   2750257025.7613373     
   2748424505.9573956     
   2796485446.6668887     
   3072817284.9144111     
   3361750260.7810173     
   3663284374.2667208     
   3977419625.3714881     
   2772851747.3169956     
   3041041631.7862449     
   3323302430.5427227     
   3620138268.7698450     
   3932149262.5047569     
   2756493915.1421752     
   2999244448.0239763     
   3259507370.2171631     
   3539427842.9303989     
   3841519170.8272157     
   2748086017.5311480     
   2948472995.0716968     
   3171572456.3727155     
   3422714782.8987198     
   3708018760.3002620     
   2748424505.9573956     
   2890449439.9742208     
   3061729525.2264228     
   3273021096.4066334     
   3536455873.9387159     
   1955376726.8930826     
   2119430744.6085398     
   2284929648.2459984     
   2448900674.6436644     
   2609375369.7404008     
   2297435722.5742464     
   2447675921.7952027     
   2602673183.1999769     
   2760503561.4536796     
   2919735715.8275809     
   2692476327.7744908     
   2827468811.1892862     
   2969751412.9985161     
   3118251601.5832572     
   3272066392.4770584     
   3135244069.3513050     
   3251818745.2684064     
   3377731354.2431369     
   3512530252.3185458     
   3655772891.4142532     
   3622203207.8999510     
   3715881536.2173691     
   3820676475.4505711     
   3936545083.9397693     
   4063413276.8307071     
   2609375369.7404008     
   2677278151.9774776     
   2750093433.8118038     
   2827345896.0522652     
   2908708969.4403996     
   2919735715.8275809     
   2971590804.2788825     
   3025924078.7460895     
   3082074426.4304342     
   3139528107.0876408     
   3272066392.4770584     
   3313315724.7061272     
   3354909534.2652631     
   3396028831.0079107     
   3436001135.3478808     
   3655772891.4142532     
   3692475535.7963881     
   3727762867.7359309     
   3760724610.5222878     
   3790604422.7944341     
   4063413276.8307071     
   4101658911.2970614     
   4137111650.4527950     
   4168852941.1971188     
   4196138038.5027928     
   2908708969.4403996     
   2927040592.6273451     
   2947097815.2548566     
   2968841746.3224940     
   2992245194.7363257     
   3139528107.0876408     
   3137933419.9659090     
   3140456342.6004205     
   3147040580.5040636     
   3157706801.9684806     
   3436001135.3478808     
   3410412090.7115726     
   3390514806.2837849     
   3376159618.8743215     
   3367397891.6979518     
   3790604422.7944341     
   3736640234.2145686     
   3689301539.4006948     
   3648230170.4510994     
   3613433987.5669489     
   4196138038.5027928     
   4109158858.2279897     
   4029315459.4676657     
   3955904271.6615248     
   3888768146.2541642     
   2992245194.7363257     
   2956498436.5945816     
   2929210996.4057460     
   2910533930.3563747     
   2900681234.6187024     
   3157706801.9684806     
   3107714840.8691115     
   3064907859.6114326     
   3029510240.1566362     
   3001796682.8872290     
   3367397891.6979518     
   3303828514.6094651     
   3246344812.8490381     
   3195205430.2230878     
   3150714154.8447781     
   3613433987.5669489     
   3537521797.7264681     
   3466808147.4727302     
   3401555865.7010269     
   3342073127.4970508     
   3888768146.2541642     
   3802014184.1006441     
   3719798541.8471112     
   3642369315.7958479     
   3570024855.7144990     
   2900681234.6187024     
   2876282840.2977123     
   2857388218.8169498     
   2844129652.1389804     
   2836648284.6380186     
   3001796682.8872290     
   2965372714.9264379     
   2934587872.4086361     
   2909638906.7273459     
   2890750221.0703092     
   3150714154.8447781     
   3100413653.5184126     
   3055613169.5307093     
   3016559067.5087137     
   2983553071.2196918     
   3342073127.4970508     
   3276432092.2535963     
   3215921621.5345945     
   3160808890.8116398     
   3111449306.8818331     
   3570024855.7144990     
   3487894774.4210896     
   3410358114.0641685     
   3337666452.2139091     
   3270192785.8705301     
   2836648284.6380186     
   2815417204.8311386     
   2801912484.8923678     
   2796384067.3923802     
   2799111783.7309451     
   2890750221.0703092     
   2856771960.4265127     
   2829924265.8507485     
   2810527401.6176295     
   2798937878.1984458     
   2983553071.2196918     
   2935860737.2831984     
   2894628349.3263216     
   2860230159.1597986     
   2833086451.0194693     
   3111449306.8818331     
   3049695323.6849070     
   2993678910.4599762     
   2943802862.3325787     
   2900526468.7817197     
   3270192785.8705301     
   3194517647.0171123     
   3123845161.9245381     
   3058579415.1307030     
   2999189103.0564861     
   2799111783.7309451     
   2776336056.4135575     
   2759828946.2337952     
   2750257025.7613373     
   2748424505.9573956     
   2798937878.1984458     
   2761271389.4268880     
   2730394291.2287993     
   2706859715.6226439     
   2691307871.4418950     
   2833086451.0194693     
   2780980282.4865584     
   2736201681.9151077     
   2699236938.1455927     
   2670630390.9616237     
   2900526468.7817197     
   2834196486.1250730     
   2775756412.6495953     
   2725686291.5428824     
   2684522132.1598849     
   2999189103.0564861     
   2918565958.7149229     
   2846431548.3993754     
   2783331536.9079261     
   2729896282.4140215     
   2748424505.9573956     
   2890449439.9742208     
   3061729525.2264228     
   3273021096.4066334     
   3536455873.9387159     
   2691307871.4418950     
   2763789510.5532331     
   2852422564.0549316     
   2967571419.6266451     
   3122159178.1354060     
   2670630390.9616237     
   2686450362.0700879     
   2703808122.5588112     
   2731687376.2780786     
   2782851363.1003146     
   2684522132.1598849     
   2662113680.9747934     
   2627008132.4287853     
   2585826481.4642096     
   2549428500.2121406     
   2729896282.4140215     
   2691887723.0835266     
   2630139803.4618917     
   2549236794.2652888     
   2457521243.6949077     
   3622203207.8999510     
   3715881536.2173691     
   3820676475.4505711     
   3936545083.9397693     
   4063413276.8307071     
   4131673735.7468977     
   4220931675.8652749     
   4315972055.4022141     
   4415144684.6241217     
   4517001791.2291031     
   4641642758.5158920     
   4752810842.8251371     
   4864987236.8932552     
   4975532474.9428110     
   5082520547.4228382     
   5150548492.7613878     
   5309644356.5039644     
   5465297252.7831821     
   5614600092.2782650     
   5756084367.5395813     
   5658112811.4121990     
   5890569184.6120243     
   6115364948.5820436     
   6330025313.8062239     
   6534325611.5821342     
   4063413276.8307071     
   4101658911.2970614     
   4137111650.4527950     
   4168852941.1971188     
   4196138038.5027928     
   4517001791.2291031     
   4528579479.7529278     
   4544633198.2798939     
   4562691339.2348194     
   4581046500.7969341     
   5082520547.4228382     
   5045087766.6546545     
   5017956194.9587860     
   4995933798.8605146     
   4975826124.1273689     
   5756084367.5395813     
   5645680920.6834517     
   5551083922.0635519     
   5463247101.6980076     
   5376610410.0226183     
   6534325611.5821342     
   6325617030.8010817     
   6138949231.8983774     
   5960440481.8225260     
   5781042727.9441681     
   4196138038.5027928     
   4109158858.2279897     
   4029315459.4676657     
   3955904271.6615248     
   3888768146.2541642     
   4581046500.7969341     
   4468628623.0295038     
   4360562209.6031466     
   4256597677.4175539     
   4156717992.3053546     
   4975826124.1273689     
   4844031726.9000616     
   4715146497.3984280     
   4589149461.0539436     
   4466092113.3013029     
   5376610410.0226183     
   5231288789.9024420     
   5088584054.6590004     
   4948519365.9463701     
   4811152463.5176277     
   5781042727.9441681     
   5627595423.0315046     
   5477482993.8113899     
   5330593960.6554556     
   5186907454.3585968     
   3888768146.2541642     
   3802014184.1006441     
   3719798541.8471112     
   3642369315.7958479     
   3570024855.7144990     
   4156717992.3053546     
   4055987320.2100797     
   3959839236.0178623     
   3868549327.3034873     
   3782463651.2894440     
   4466092113.3013029     
   4349129208.3338528     
   4236486893.0664768     
   4128443775.4646182     
   4025376243.6458859     
   4811152463.5176277     
   4675674155.9349518     
   4544020339.4684162     
   4416443273.1960278     
   4293323320.1852717     
   5186907454.3585968     
   5030623976.9127560     
   4877502669.3161325     
   4727737854.9314985     
   4581681633.3265781     
   3570024855.7144990     
   3487894774.4210896     
   3410358114.0641685     
   3337666452.2139091     
   3270192785.8705301     
   3782463651.2894440     
   3684987570.4115167     
   3590747504.8381519     
   3499929908.0859504     
   3412805559.2302651     
   4025376243.6458859     
   3915244889.8966570     
   3807335496.4086194     
   3701770510.3238683     
   3598723870.9038181     
   4293323320.1852717     
   4173278067.5730066     
   4054778445.5718393     
   3937898142.3734875     
   3822738448.3731270     
   4581681633.3265781     
   4454360828.3329544     
   4328214324.8403082     
   4203285662.2363248     
   4079632809.1983728     
   3270192785.8705301     
   3194517647.0171123     
   3123845161.9245381     
   3058579415.1307030     
   2999189103.0564861     
   3412805559.2302651     
   3320627487.1895332     
   3232094369.3262033     
   3147572110.7810292     
   3067515879.3539457     
   3598723870.9038181     
   3491013426.3481641     
   3385569080.1423883     
   3282662348.2400017     
   3182667839.2948632     
   3822738448.3731270     
   3700885028.1485195     
   3580018231.7786918     
   3460284370.0483766     
   3341935890.1859775     
   4079632809.1983728     
   3945204608.3903313     
   3810664063.9795070     
   3676027830.1045914     
   3541415888.7655215     
   2999189103.0564861     
   2918565958.7149229     
   2846431548.3993754     
   2783331536.9079261     
   2729896282.4140215     
   3067515879.3539457     
   2967420062.1284437     
   2875067254.0956612     
   2791050767.9681487     
   2716095775.9509268     
   3182667839.2948632     
   3063293764.3708887     
   2950776583.0349870     
   2845700988.2037539     
   2748827745.4693561     
   3341935890.1859775     
   3203882391.3467736     
   3071759604.8755751     
   2946093335.8658919     
   2827617869.9042125     
   3541415888.7655215     
   3385461745.7119155     
   3234562078.4298210     
   3089152815.9612184     
   2949896537.3502913     
   2729896282.4140215     
   2691887723.0835266     
   2630139803.4618917     
   2549236794.2652888     
   2457521243.6949077     
   2716095775.9509268     
   2683082124.4230161     
   2643423817.5419292     
   2597903459.5888195     
   2547666242.3646345     
   2748827745.4693561     
   2718849926.6990552     
   2698773662.7429166     
   2688842956.9820786     
   2689667776.4047060     
   2827617869.9042125     
   2786444467.2607841     
   2772004188.1111803     
   2789065969.6760111     
   2844920557.0819826     
   2949896537.3502913     
   2873973940.1493349     
   2845339474.7652426     
   2880513163.5593572     
   3000998644.7665882     
   5658112811.4121990     
   5890569184.6120243     
   6115364948.5820436     
   6330025313.8062239     
   6534325611.5821342     
   6492733164.0067158     
   6588169896.0727892     
   6758793193.4989948     
   6962494832.1187983     
   7172609867.9793777     
   7983111711.7018213     
   7736914751.7165489     
   7672064492.5739594     
   7673231524.5905304     
   7670489985.3161259     
   10129729606.125305     
   9323635484.6766548     
   8829955391.4162312     
   8448824574.2459021     
   8042485346.6601095     
   12932689759.173298     
   11341079025.267166     
   10213664830.735733     
   9279027698.5791264     
   8312840623.5730295     
   6534325611.5821342     
   6325617030.8010817     
   6138949231.8983774     
   5960440481.8225260     
   5781042727.9441681     
   7172609867.9793777     
   6912580981.1572962     
   6660466053.9781332     
   6412429396.0914097     
   6165326742.2141333     
   7670489985.3161259     
   7386525030.9783821     
   7108065181.0628223     
   6835196733.8900471     
   6568136947.0642509     
   8042485346.6601095     
   7755004150.2016859     
   7483348932.1949301     
   7225558278.0544195     
   6981660508.6621275     
   8312840623.5730295     
   8030474756.4278021     
   7790366082.1557388     
   7581842570.5024509     
   7399983993.9517374     
   5781042727.9441681     
   5627595423.0315046     
   5477482993.8113899     
   5330593960.6554556     
   5186907454.3585968     
   6165326742.2141333     
   6016656176.0040970     
   5868559760.3773098     
   5721046919.0030327     
   5574130754.6098261     
   6568136947.0642509     
   6422235903.4370956     
   6274135313.7967911     
   6123779564.2424746     
   5971170696.5804930     
   6981660508.6621275     
   6837770273.0139256     
   6688945093.0004377     
   6534906341.1782455     
   6375602400.2681160     
   7399983993.9517374     
   7258248492.5147657     
   7108956118.8662930     
   6951476333.3925695     
   6785671196.0590992     
   5186907454.3585968     
   5030623976.9127560     
   4877502669.3161325     
   4727737854.9314985     
   4581681633.3265781     
   5574130754.6098261     
   5399919421.8106880     
   5227544349.9846172     
   5057081838.3815298     
   4888655859.8734732     
   5971170696.5804930     
   5788873067.2382116     
   5608115647.6145926     
   5428911861.0183458     
   5251302076.2798147     
   6375602400.2681160     
   6194837793.5937939     
   6016217440.9480438     
   5839710976.4531965     
   5665366772.5284481     
   6785671196.0590992     
   6615709961.1065264     
   6449290040.6776381     
   6286302572.1894875     
   6126819959.6975660     
   4581681633.3265781     
   4454360828.3329544     
   4328214324.8403082     
   4203285662.2363248     
   4079632809.1983728     
   4888655859.8734732     
   4748252704.4116364     
   4609349605.8714542     
   4471898837.9009075     
   4335912739.9736719     
   5251302076.2798147     
   5091993322.8176498     
   4933830013.0055609     
   4776538077.8991528     
   4619979110.2543221     
   5665366772.5284481     
   5480902849.3943005     
   5296739660.7272377     
   5112247519.9591694     
   4927020623.2565565     
   6126819959.6975660     
   5910645735.1870012     
   5693645817.9506435     
   5474714103.8954239     
   5253051835.5155706     
   4079632809.1983728     
   3945204608.3903313     
   3810664063.9795070     
   3676027830.1045914     
   3541415888.7655215     
   4335912739.9736719     
   4192250712.2822089     
   4048157460.4465199     
   3903599003.5867667     
   3758570396.7369585     
   4619979110.2543221     
   4472108530.9071608     
   4324106810.0176821     
   4175961587.6088185     
   4027662387.8798933     
   4927020623.2565565     
   4779313542.6073256     
   4632249469.8787127     
   4485869373.8273602     
   4340222594.8133049     
   5253051835.5155706     
   5109225926.8685455     
   4967164376.7007437     
   4826954425.9463778     
   4688718406.6342478     
   3541415888.7655215     
   3385461745.7119155     
   3234562078.4298210     
   3089152815.9612184     
   2949896537.3502913     
   3758570396.7369585     
   3593558078.1032152     
   3429783272.4312263     
   3267275083.3134379     
   3106104629.7853470     
   4027662387.8798933     
   3873352796.8306246     
   3719617169.5829782     
   3566885164.7070069     
   3415829808.7477217     
   4340222594.8133049     
   4215911208.5983210     
   4093971790.2001381     
   3975760060.3989725     
   3863271895.5470519     
   4688718406.6342478     
   4612585698.6584969     
   4542221944.2250767     
   4479990899.6879673     
   4429254695.3448887     
   2949896537.3502913     
   2873973940.1493349     
   2845339474.7652426     
   2880513163.5593572     
   3000998644.7665882     
   3106104629.7853470     
   2982134621.5640283     
   2881959489.7441516     
   2816470467.7072215     
   2803576563.9596319     
   3415829808.7477217     
   3341308748.0959754     
   3287774145.1494188     
   3267244274.8629704     
   3301785143.4719968     
   3863271895.5470519     
   3935684538.0847187     
   4043160571.0848179     
   4202382151.3775163     
   4442519345.2549686     
   4429254695.3448887     
   4738725228.9072466     
   5105002407.3822508     
   5545819927.0167780     
   6093324093.1753616     
 </DataArray>
 <DataArray  type="Float64" Name="strain" NumberOfComponents="3" format="ascii">
  0.20345067636543995        0.0000000000000000       0.12533875054032792     
  0.18666633901055302       -2.7345388549241442E-002   7.4321011320112304E-002
  0.16988200165566605       -4.4711260880841361E-002   3.5115868872586296E-002
  0.15309766430077909       -5.2097616994799756E-002   7.7233231977499213E-003
  0.13631332694589215       -4.9504456891116641E-002  -7.8566257043968940E-003
  0.15986966344297510        0.0000000000000000        9.6361183001059975E-002
  0.15321843000112115       -2.1859859326968600E-002   6.2625705894825967E-002
  0.14656719655926720       -3.6199460466927076E-002   3.7343839841968332E-002
  0.13991596311741325       -4.3018803419875420E-002   2.0515584842487077E-002
  0.13326472967555927       -4.2317888185813626E-002   1.2140940896382242E-002
  0.12650051829182263        0.0000000000000000        7.4098773699380588E-002
  0.12662340304368846       -1.6374330104695758E-002   5.5186300676496783E-002
  0.12674628779555427       -2.7687660053012784E-002   4.1368452987676142E-002
  0.12686917254742008       -3.3939989844951057E-002   3.2645230632918645E-002
  0.12699205729928589       -3.5131319480510605E-002   2.9016633612224330E-002
  0.10334324091198258        0.0000000000000000        5.8551522635289739E-002
  0.10688125813825493       -1.0888800882422917E-002   5.2002795665124751E-002
  0.11041927536452729       -1.9175859639098489E-002   4.7189708309709685E-002
  0.11395729259079967       -2.4861176270026715E-002   4.4112260569044597E-002
  0.11749530981707203       -2.7944750775207600E-002   4.2770452443129374E-002
   9.0397831303454884E-002   0.0000000000000000        4.9719429808787415E-002
   9.3991995284820565E-002  -5.4032716601500755E-003   5.3075190860709845E-002
   9.7586159266186245E-002  -1.0664059225184201E-002   5.4807605808068989E-002
  0.10118032324755193       -1.5782362695102369E-002   5.4916674650864847E-002
  0.10477448722891761       -2.0758182069904589E-002   5.3402397389097377E-002
  0.13631332694589215       -4.9504456891116641E-002  -7.8566257043968940E-003
  0.13312225381443893       -4.2976292582845264E-002  -3.4448704746135109E-003
  0.12993118068298565       -3.8557636083038818E-002  -4.3206914686093334E-004
  0.12674010755153239       -3.6248487391697448E-002   1.1817782788612306E-003
  0.12354903442007917       -3.6048846508820953E-002   1.3966718025526237E-003
  0.13326472967555927       -4.2317888185813626E-002   1.2140940896382242E-002
  0.12905801470625916       -3.8452669238142473E-002   1.2061353800280557E-002
  0.12485129973695906       -3.5779101050262781E-002   1.1349436930515811E-002
  0.12064458476765896       -3.4297183622174585E-002   1.0005190287087922E-002
  0.11643786979835882       -3.4006916953877725E-002   8.0286138699969811E-003
  0.12699205729928589       -3.5131319480510605E-002   2.9016633612224330E-002
  0.12253632462050645       -3.3929045893439758E-002   2.5363561238911252E-002
  0.11808059194172700       -3.3000566017486778E-002   2.1844783220302602E-002
  0.11362485926294753       -3.2345879852651693E-002   1.8460299556398316E-002
  0.10916912658416808       -3.1964987398934525E-002   1.5210110247198524E-002
  0.11749530981707203       -2.7944750775207600E-002   4.2770452443129374E-002
  0.11355718355718075       -2.9405422548737001E-002   3.6461751841278416E-002
  0.10961905729728946       -3.0222030984710744E-002   3.1053969722499374E-002
  0.10568093103739815       -3.0394576083128844E-002   2.6547106086792310E-002
  0.10174280477750688       -2.9923057843991283E-002   2.2941160934157143E-002
  0.10477448722891761       -2.0758182069904589E-002   5.3402397389097377E-002
  0.10212059151628203       -2.4881799204034230E-002   4.5355925607382087E-002
   9.9466695803646449E-002  -2.7443495951934706E-002   3.8976996437106282E-002
   9.6812800091010856E-002  -2.8443272313605945E-002   3.4265609878269855E-002
   9.4158904378375277E-002  -2.7881128289048082E-002   3.1221765930872974E-002
  0.12354903442007917       -3.6048846508820953E-002   1.3966718025526237E-003
  0.12089782044583433       -3.6596291633920447E-002   6.3148416257619022E-004
  0.11824660647158942       -3.6528400966506641E-002  -5.4968339400607302E-005
  0.11559539249734452       -3.5845174506579792E-002  -6.6268570337785215E-004
  0.11294417852309968       -3.4546612254139630E-002  -1.1916679293553778E-003
  0.11643786979835882       -3.4006916953877725E-002   8.0286138699969811E-003
  0.11386039457474109       -3.4110871579303051E-002   7.6101232326077767E-003
  0.11128291935112337       -3.3811618032381190E-002   7.2603749584735575E-003
  0.10870544412750566       -3.3109156313112148E-002   6.9793690475935186E-003
  0.10612796890388787       -3.2003486421495919E-002   6.7671054999685065E-003
  0.10916912658416808       -3.1964987398934525E-002   1.5210110247198524E-002
  0.10665539733643251       -3.1625451524685724E-002   1.4926188992230659E-002
  0.10414166808869693       -3.1094835098255710E-002   1.4701017325772545E-002
  0.10162793884096138       -3.0373138119644556E-002   1.4534595247824106E-002
   9.9114209593225838E-002  -2.9460360588852180E-002   1.4426922758385266E-002
  0.10174280477750688       -2.9923057843991283E-002   2.2941160934157143E-002
   9.9282828730908559E-002  -2.9140031470068335E-002   2.2579681441444600E-002
   9.6822852684310207E-002  -2.8378052164130203E-002   2.2266958762496718E-002
   9.4362876637711854E-002  -2.7637119926176935E-002   2.2002992897313542E-002
   9.1902900591113487E-002  -2.6917234756208538E-002   2.1787783845895265E-002
   9.4158904378375277E-002  -2.7881128289048082E-002   3.1221765930872974E-002
   9.1742688758169183E-002  -2.6654611415450967E-002   3.0570600580249574E-002
   8.9326473137963075E-002  -2.5661269230004728E-002   2.9958199268646131E-002
   8.6910257517757009E-002  -2.4901101732709333E-002   2.9384561996062254E-002
   8.4494041897550887E-002  -2.4374108923564786E-002   2.8849688762498354E-002
  0.11294417852309968       -3.4546612254139630E-002  -1.1916679293553778E-003
  0.11026281949766253       -3.3065388991792233E-002  -9.8939768190697830E-004
  0.10758146047222539       -3.1834179502143886E-002  -1.1330813828977215E-003
  0.10490010144678824       -3.0852983785194004E-002  -1.6227190323277463E-003
  0.10221874242135109       -3.0121801840943152E-002  -2.4583106301968582E-003
  0.10612796890388787       -3.2003486421495919E-002   6.7671054999685065E-003
  0.10318942227894840       -3.0787720071902933E-002   6.6440778903571057E-003
  0.10025087565400889       -2.9754968978703666E-002   6.3526290301802041E-003
   9.7312329029069389E-002  -2.8905233141897829E-002   5.8927589194379820E-003
   9.4373782404129858E-002  -2.8238512561485962E-002   5.2644675581300926E-003
   9.9114209593225838E-002  -2.9460360588852180E-002   1.4426922758385266E-002
   9.6096008066657593E-002  -2.8510051152013494E-002   1.4045595808019423E-002
   9.3077806540089375E-002  -2.7675758455263398E-002   1.3673380304961742E-002
   9.0059605013521171E-002  -2.6957482498601658E-002   1.3310276249212032E-002
   8.7041403486952940E-002  -2.6355223282028550E-002   1.2956283640770505E-002
   9.1902900591113487E-002  -2.6917234756208538E-002   2.1787783845895265E-002
   8.8982576860790211E-002  -2.6232382232124152E-002   2.1215156071080071E-002
   8.6062253130466920E-002  -2.5596547931823182E-002   2.0829172441446601E-002
   8.3141929400143644E-002  -2.5009731855305539E-002   2.0629832956994852E-002
   8.0221605669820312E-002  -2.4471934002571194E-002   2.0617137617724782E-002
   8.4494041897550887E-002  -2.4374108923564786E-002   2.8849688762498354E-002
   8.1849128661346193E-002  -2.3954713312234768E-002   2.8152758679538981E-002
   7.9204215425141444E-002  -2.3517337408382931E-002   2.7820005439634823E-002
   7.6559302188936737E-002  -2.3061981212009287E-002   2.7851429042786140E-002
   7.3914388952732030E-002  -2.2588644723113921E-002   2.8247029488992825E-002
  0.10221874242135109       -3.0121801840943152E-002  -2.4583106301968582E-003
   9.8473329246879793E-002  -2.9461575401466933E-002  -4.9442540472344754E-003
   9.4727916072408436E-002  -2.8693246198841338E-002  -6.7121986337135009E-003
   9.0982502897937106E-002  -2.7816814233065520E-002  -7.7621443896340181E-003
   8.7237089723465777E-002  -2.6832279504140799E-002  -8.0940913149954996E-003
   9.4373782404129858E-002  -2.8238512561485962E-002   5.2644675581300926E-003
   9.1267782607278969E-002  -2.7624970925783865E-002   3.3048998532599905E-003
   8.8161782810428080E-002  -2.6934771923108461E-002   1.9061600730723161E-003
   8.5055783013577191E-002  -2.6167915553459296E-002   1.0682482175666044E-003
   8.1949783216726302E-002  -2.5324401816836817E-002   7.9116428674347317E-004
   8.7041403486952940E-002  -2.6355223282028550E-002   1.2956283640770505E-002
   8.4417646161846105E-002  -2.5788366450100880E-002   1.1491646251892237E-002
   8.1793888836739229E-002  -2.5176297647375695E-002   1.0430665881819720E-002
   7.9170131511632380E-002  -2.4519016873853071E-002   9.7733425305529809E-003
   7.6546374186525545E-002  -2.3816524129532668E-002   9.5196761980923805E-003
   8.0221605669820312E-002  -2.4471934002571194E-002   2.0617137617724782E-002
   7.7922919910581118E-002  -2.3951761974417826E-002   1.9615985148662151E-002
   7.5624234151341868E-002  -2.3417823371642985E-002   1.8861318792528906E-002
   7.3325548392102660E-002  -2.2870118194246624E-002   1.8353138549325066E-002
   7.1026862632863438E-002  -2.2308646442228602E-002   1.8091444419050605E-002
   7.3914388952732030E-002  -2.2588644723113921E-002   2.8247029488992825E-002
   7.1783603853484007E-002  -2.2115157498734814E-002   2.7677916543569742E-002
   6.9652818754236026E-002  -2.1659349095910239E-002   2.7198118805199636E-002
   6.7522033654988045E-002  -2.1221219514640184E-002   2.6807636273882628E-002
   6.5391248555740050E-002  -2.0800768754924537E-002   2.6506468949618611E-002
   8.7237089723465777E-002  -2.6832279504140799E-002  -8.0940913149954996E-003
   8.4870855281851620E-002  -2.5837954842495958E-002  -8.7417326090969416E-003
   8.2504620840237408E-002  -2.4932153078560587E-002  -9.4860923905989436E-003
   8.0138386398623196E-002  -2.4114874212334748E-002  -1.0327170659500867E-002
   7.7772151957009039E-002  -2.3386118243818310E-002  -1.1264967415802740E-002
   8.1949783216726302E-002  -2.5324401816836817E-002   7.9116428674347317E-004
   7.9520926054584329E-002  -2.4457976180995378E-002   1.8380029301878764E-006
   7.7092068892442300E-002  -2.3622384113690109E-002  -8.1601523453866953E-004
   7.4663211730300272E-002  -2.2817625614920262E-002  -1.6623954256630574E-003
   7.2234354568158299E-002  -2.2043700684686751E-002  -2.5373025704427121E-003
   7.6546374186525545E-002  -2.3816524129532668E-002   9.5196761980923805E-003
   7.4123085837600342E-002  -2.3077997519494742E-002   8.6463542537409399E-003
   7.1699797488675193E-002  -2.2312615148819173E-002   7.8126968894785126E-003
   6.9276509139750045E-002  -2.1520377017505882E-002   7.0187041053052929E-003
   6.6853220790824869E-002  -2.0701283125555026E-002   6.2643759012214750E-003
   7.1026862632863438E-002  -2.2308646442228602E-002   1.8091444419050605E-002
   6.8677334630899756E-002  -2.1698018857994356E-002   1.7191816143334787E-002
   6.6327806628936142E-002  -2.1002846183948688E-002   1.6400043981452696E-002
   6.3978278626972446E-002  -2.0223128420091670E-002   1.5716127933404343E-002
   6.1628750625008832E-002  -1.9358865566423494E-002   1.5140067999190002E-002
   6.5391248555740050E-002  -2.0800768754924537E-002   2.6506468949618611E-002
   6.3183672434482557E-002  -2.0318040196493831E-002   2.5638223671711785E-002
   6.0976096313225051E-002  -1.9693077219077898E-002   2.4946026041383601E-002
   5.8768520191967537E-002  -1.8925879822677273E-002   2.4429876058633698E-002
   5.6560944070710051E-002  -1.8016448007291852E-002   2.4089773723462493E-002
   7.7772151957009039E-002  -2.3386118243818310E-002  -1.1264967415802740E-002
   7.6470852930179856E-002  -2.2716266210607405E-002  -1.2532997403467472E-002
   7.5169553903350617E-002  -2.2075699150298334E-002  -1.4713418441640314E-002
   7.3868254876521433E-002  -2.1464417062890581E-002  -1.7806230530321598E-002
   7.2566955849692194E-002  -2.0882419948384023E-002  -2.1811433669511437E-002
   7.2234354568158299E-002  -2.2043700684686751E-002  -2.5373025704427121E-003
   7.0167484134041891E-002  -2.1312298354680681E-002  -3.5435976057792140E-003
   6.8100613699925483E-002  -2.0635107656593765E-002  -5.1686444051816660E-003
   6.6033743265809047E-002  -2.0012128590425823E-002  -7.4124429686500126E-003
   6.3966872831692667E-002  -1.9443361156177730E-002  -1.0274993296184420E-002
   6.6853220790824869E-002  -2.0701283125555026E-002   6.2643759012214750E-003
   6.4314418235863646E-002  -1.9908330498753679E-002   5.4948891591954374E-003
   6.1775615680902396E-002  -1.9194516162889336E-002   4.4002899395459150E-003
   5.9236813125941160E-002  -1.8559840117961739E-002   2.9805782422724914E-003
   5.6698010570979951E-002  -1.8004302363971159E-002   1.2357540673756662E-003
   6.1628750625008832E-002  -1.9358865566423494E-002   1.5140067999190002E-002
   5.8911655235645094E-002  -1.8504362642826816E-002   1.4582462891456802E-002
   5.6194559846281356E-002  -1.7753924669184837E-002   1.3993384592542131E-002
   5.3477464456917645E-002  -1.7107551645497317E-002   1.3372833102446347E-002
   5.0760369067553886E-002  -1.6565243571764615E-002   1.2720808421169010E-002
   5.6560944070710051E-002  -1.8016448007291852E-002   2.4089773723462493E-002
   5.3959195133386206E-002  -1.7100394786899897E-002   2.3719123591004365E-002
   5.1357446196062334E-002  -1.6313333175480310E-002   2.3610639553807267E-002
   4.8755697258738503E-002  -1.5655263173033000E-002   2.3764321611871225E-002
   4.6153948321414617E-002  -1.5126184779558294E-002   2.4180169765196102E-002
   7.2566955849692194E-002  -2.0882419948384023E-002  -2.1811433669511437E-002
   7.7960958731727925E-002  -2.0952699207237968E-002  -2.3135490813352089E-002
   8.3354961613763545E-002  -2.2298246239912306E-002  -2.9391212858062510E-002
   8.8748964495799082E-002  -2.4919061046405157E-002  -4.0578599803642507E-002
   9.4142967377834896E-002  -2.8815143626718331E-002  -5.6697651650092773E-002
   6.3966872831692667E-002  -1.9443361156177730E-002  -1.0274993296184420E-002
   6.5201077471337854E-002  -1.9555116667870687E-002  -1.0787014041150789E-002
   6.6435282110983040E-002  -2.0973706439528950E-002  -1.4686966370028309E-002
   6.7669486750628338E-002  -2.3699130471151506E-002  -2.1974850282816566E-002
   6.8903691390273414E-002  -2.7731388762738618E-002  -3.2650665779516030E-002
   5.6698010570979951E-002  -1.8004302363971159E-002   1.2357540673756662E-003
   5.5316150285193461E-002  -1.8157534128503738E-002   1.5042032351387791E-003
   5.3934289999407040E-002  -1.9649166639146134E-002  -7.1545864050837071E-005
   5.2552429713620626E-002  -2.2479199895897629E-002  -3.4914932301924398E-003
   5.1170569427834156E-002  -2.6647633898758682E-002  -8.7556388632861193E-003
   5.0760369067553886E-002  -1.6565243571764615E-002   1.2720808421169010E-002
   4.8306177173294725E-002  -1.6759951589136513E-002   1.3738161015516351E-002
   4.5851985279035473E-002  -1.8324626838762827E-002   1.4455048659869674E-002
   4.3397793384776367E-002  -2.1259269320643419E-002   1.4871471354230259E-002
   4.0943601490517054E-002  -2.5563879034779080E-002   1.4987429098596766E-002
   4.6153948321414617E-002  -1.5126184779558294E-002   2.4180169765196102E-002
   4.4171158135641514E-002  -1.5362369049769342E-002   2.5914859299982385E-002
   4.2188367949868383E-002  -1.7000087038379741E-002   2.8892817201733645E-002
   4.0205577764095252E-002  -2.0039338745389879E-002   3.3114043470451021E-002
   3.8222787578322093E-002  -2.4480124170799256E-002   3.8578538106133431E-002
   9.0397831303454884E-002   0.0000000000000000        4.9719429808787415E-002
   9.3991995284820565E-002  -5.4032716601500755E-003   5.3075190860709845E-002
   9.7586159266186245E-002  -1.0664059225184201E-002   5.4807605808068989E-002
  0.10118032324755193       -1.5782362695102369E-002   5.4916674650864847E-002
  0.10477448722891761       -2.0758182069904589E-002   5.3402397389097377E-002
   8.2437938692044396E-002   0.0000000000000000        4.4671453403257753E-002
   8.4638074177584302E-002  -4.5643957438277717E-003   4.8143983693921200E-002
   8.6838209663124222E-002  -9.0147047686085450E-003   5.0451803097496389E-002
   8.9038345148664128E-002  -1.3350927074342316E-002   5.1594911613983323E-002
   9.1238480634204033E-002  -1.7573062661029093E-002   5.1573309243381993E-002
   7.4237212303555913E-002   0.0000000000000000        4.0476551602084868E-002
   7.5501954510745109E-002  -3.7255198275054683E-003   4.4037453755420362E-002
   7.6766696717934277E-002  -7.3653503120328888E-003   4.6892280239142645E-002
   7.8031438925123472E-002  -1.0919491453582264E-002   4.9041031053251728E-002
   7.9296181132312654E-002  -1.4387943252153593E-002   5.0483706197747599E-002
   6.5795652137989435E-002   0.0000000000000000        3.7134724405268771E-002
   6.6583636284302944E-002  -2.8866439111831649E-003   4.0755601045207368E-002
   6.7371620430616438E-002  -5.7159958554572335E-003   4.4129037233007790E-002
   6.8159604576929933E-002  -8.4880558328222118E-003   4.7255032968670042E-002
   6.8947588723243441E-002  -1.1202823843278089E-002   5.0133588252194161E-002
   5.7113258195344976E-002   0.0000000000000000        3.4645971812809442E-002
   5.7883119498257835E-002  -2.0477679948608610E-003   3.8298425563282175E-002
   5.8652980801170686E-002  -4.0666413988815781E-003   4.2162074079091810E-002
   5.9422842104083551E-002  -6.0566202120621564E-003   4.6236917360238314E-002
   6.0192703406996395E-002  -8.0177044344025960E-003   5.0522955406721665E-002
  0.10477448722891761       -2.0758182069904589E-002   5.3402397389097377E-002
  0.10212059151628203       -2.4881799204034230E-002   4.5355925607382087E-002
   9.9466695803646449E-002  -2.7443495951934706E-002   3.8976996437106282E-002
   9.6812800091010856E-002  -2.8443272313605945E-002   3.4265609878269855E-002
   9.4158904378375277E-002  -2.7881128289048082E-002   3.1221765930872974E-002
   9.1238480634204033E-002  -1.7573062661029093E-002   5.1573309243381993E-002
   9.0016772976688308E-002  -2.1127021077595218E-002   4.6277284001881053E-002
   8.8795065319172556E-002  -2.3458711872967032E-002   4.2178092259180240E-002
   8.7573357661656831E-002  -2.4568135047144574E-002   3.9275734015279735E-002
   8.6351650004141092E-002  -2.4455290600127785E-002   3.7570209270179379E-002
   7.9296181132312654E-002  -1.4387943252153593E-002   5.0483706197747599E-002
   7.9035952417277525E-002  -1.7372242951156185E-002   4.7598474731426026E-002
   7.8775723702242395E-002  -1.9473927793999382E-002   4.5439367651265432E-002
   7.8515494987207265E-002  -2.0692997780683151E-002   4.4006384957265859E-002
   7.8255266272172122E-002  -2.1029452911207495E-002   4.3299526649427267E-002
   6.8947588723243441E-002  -1.1202823843278089E-002   5.0133588252194161E-002
   6.9178129838049690E-002  -1.3617464824717158E-002   4.9319497796017110E-002
   6.9408670952855911E-002  -1.5489143715031696E-002   4.8760822613361843E-002
   6.9639212067662173E-002  -1.6817860514221718E-002   4.8457562704228282E-002
   6.9869753182468436E-002  -1.7603615222287209E-002   4.8409718068616533E-002
   6.0192703406996395E-002  -8.0177044344025960E-003   5.0522955406721665E-002
   6.0443305239004798E-002  -9.8626866982781426E-003   5.1440353195654293E-002
   6.0693907071013180E-002  -1.1504359636064044E-002   5.2142457145469411E-002
   6.0944508903021569E-002  -1.2942723247760340E-002   5.2629267256167067E-002
   6.1195110735029958E-002  -1.4177777533366923E-002   5.2900783527747269E-002
   9.4158904378375277E-002  -2.7881128289048082E-002   3.1221765930872974E-002
   9.1742688758169183E-002  -2.6654611415450967E-002   3.0570600580249574E-002
   8.9326473137963075E-002  -2.5661269230004728E-002   2.9958199268646131E-002
   8.6910257517757009E-002  -2.4901101732709333E-002   2.9384561996062254E-002
   8.4494041897550887E-002  -2.4374108923564786E-002   2.8849688762498354E-002
   8.6351650004141092E-002  -2.4455290600127785E-002   3.7570209270179379E-002
   8.4028318669603225E-002  -2.3772700204858877E-002   3.6526059602049396E-002
   8.1704987335065371E-002  -2.3172885534279947E-002   3.5628914466235978E-002
   7.9381656000527503E-002  -2.2655846588391104E-002   3.4878773862739416E-002
   7.7058324665989664E-002  -2.2221583367192210E-002   3.4275637791559496E-002
   7.8255266272172122E-002  -2.1029452911207495E-002   4.3299526649427267E-002
   7.6133059716599449E-002  -2.0890788994266756E-002   4.2012791627251356E-002
   7.4010853161026763E-002  -2.0684501838555178E-002   4.0981301630689061E-002
   7.1888646605454076E-002  -2.0410591444072819E-002   4.0205056659740376E-002
   6.9766440049881390E-002  -2.0069057810819635E-002   3.9684056714405343E-002
   6.9869753182468436E-002  -1.7603615222287209E-002   4.8409718068616533E-002
   6.8056911899157843E-002  -1.8008877783674597E-002   4.7030796655855536E-002
   6.6244070615847264E-002  -1.8196118142830391E-002   4.6015360762005145E-002
   6.4431229332536671E-002  -1.8165336299754531E-002   4.5363410387065289E-002
   6.2618388049226106E-002  -1.7916532254447073E-002   4.5074945531035991E-002
   6.1195110735029958E-002  -1.4177777533366923E-002   5.2900783527747269E-002
   5.9799875217278406E-002  -1.5126966573082552E-002   5.1580074687861993E-002
   5.8404639699526875E-002  -1.5707734447105631E-002   5.0731091860184305E-002
   5.7009404181775324E-002  -1.5920081155436284E-002   5.0353835044714038E-002
   5.5614168664023786E-002  -1.5764006698074470E-002   5.0448304241451344E-002
   8.4494041897550887E-002  -2.4374108923564786E-002   2.8849688762498354E-002
   8.1849128661346193E-002  -2.3954713312234768E-002   2.8152758679538981E-002
   7.9204215425141444E-002  -2.3517337408382931E-002   2.7820005439634823E-002
   7.6559302188936737E-002  -2.3061981212009287E-002   2.7851429042786140E-002
   7.3914388952732030E-002  -2.2588644723113921E-002   2.8247029488992825E-002
   7.7058324665989664E-002  -2.2221583367192210E-002   3.4275637791559496E-002
   7.4751904731500771E-002  -2.1830520011757545E-002   3.3704034925555210E-002
   7.2445484797011878E-002  -2.1443080663161265E-002   3.3445241819927134E-002
   7.0139064862522971E-002  -2.1059265321403408E-002   3.3499258474675372E-002
   6.7832644928034119E-002  -2.0679073986483970E-002   3.3866084889799850E-002
   6.9766440049881390E-002  -2.0069057810819635E-002   3.9684056714405343E-002
   6.7747146334429242E-002  -1.9706326711280371E-002   3.9216176765995980E-002
   6.5727852618977095E-002  -1.9368823917939659E-002   3.9009739495283760E-002
   6.3708558903524948E-002  -1.9056549430797574E-002   3.9064744902268807E-002
   6.1689265188072766E-002  -1.8769503249854089E-002   3.9381192986950996E-002
   6.2618388049226106E-002  -1.7916532254447073E-002   4.5074945531035991E-002
   6.0834853470131595E-002  -1.7582133410803159E-002   4.4689184200861348E-002
   5.9051318891037069E-002  -1.7294567172718024E-002   4.4513498465704793E-002
   5.7267784311942578E-002  -1.7053833540191701E-002   4.4547888325566325E-002
   5.5484249732848059E-002  -1.6859932513224159E-002   4.4792353780445868E-002
   5.5614168664023786E-002  -1.5764006698074470E-002   5.0448304241451344E-002
   5.4015026138607800E-002  -1.5457940110325974E-002   5.0123057230151244E-002
   5.2415883613191820E-002  -1.5220310427496390E-002   4.9956518731190079E-002
   5.0816741087775855E-002  -1.5051117649585874E-002   4.9948688744567898E-002
   4.9217598562359882E-002  -1.4950361776594284E-002   5.0099567270284751E-002
   7.3914388952732030E-002  -2.2588644723113921E-002   2.8247029488992825E-002
   7.1783603853484007E-002  -2.2115157498734814E-002   2.7677916543569742E-002
   6.9652818754236026E-002  -2.1659349095910239E-002   2.7198118805199636E-002
   6.7522033654988045E-002  -2.1221219514640184E-002   2.6807636273882628E-002
   6.5391248555740050E-002  -2.0800768754924537E-002   2.6506468949618611E-002
   6.7832644928034119E-002  -2.0679073986483970E-002   3.3866084889799850E-002
   6.5809794737538896E-002  -2.0293842897627506E-002   3.3251968277392158E-002
   6.3786944547043700E-002  -1.9894908294058725E-002   3.2764406275436760E-002
   6.1764094356548525E-002  -1.9482270175777517E-002   3.2403398883933981E-002
   5.9741244166053281E-002  -1.9055928542784123E-002   3.2168946102883705E-002
   6.1689265188072766E-002  -1.8769503249854089E-002   3.9381192986950996E-002
   5.9811589309729872E-002  -1.8472528296520262E-002   3.8753455043825186E-002
   5.7933913431386985E-002  -1.8130467492207297E-002   3.8289511114551547E-002
   5.6056237553044133E-002  -1.7743320836914992E-002   3.7989361199129740E-002
   5.4178561674701232E-002  -1.7311088330643654E-002   3.7853005297560374E-002
   5.5484249732848059E-002  -1.6859932513224159E-002   4.4792353780445868E-002
   5.3788987570056956E-002  -1.6651213695413000E-002   4.4182376842869117E-002
   5.2093725407265860E-002  -1.6366026690355716E-002   4.3773433322543839E-002
   5.0398463244474785E-002  -1.6004371498052561E-002   4.3565523219470263E-002
   4.8703201081683696E-002  -1.5566248118503184E-002   4.3558646533648174E-002
   4.9217598562359882E-002  -1.4950361776594284E-002   5.0099567270284751E-002
   4.7741989518520100E-002  -1.4829899094305710E-002   4.9538733674523883E-002
   4.6266380474680374E-002  -1.4601585888504319E-002   4.9216172899413865E-002
   4.4790771430840627E-002  -1.4265422159189819E-002   4.9131884944955080E-002
   4.3315162387000866E-002  -1.3821407906362715E-002   4.9285869811147298E-002
   6.5391248555740050E-002  -2.0800768754924537E-002   2.6506468949618611E-002
   6.3183672434482557E-002  -2.0318040196493831E-002   2.5638223671711785E-002
   6.0976096313225051E-002  -1.9693077219077898E-002   2.4946026041383601E-002
   5.8768520191967537E-002  -1.8925879822677273E-002   2.4429876058633698E-002
   5.6560944070710051E-002  -1.8016448007291852E-002   2.4089773723462493E-002
   5.9741244166053281E-002  -1.9055928542784123E-002   3.2168946102883705E-002
   5.7710521436238060E-002  -1.8565103025006677E-002   3.1517577804095712E-002
   5.5679798706422853E-002  -1.7959013252373750E-002   3.1043868640613620E-002
   5.3649075976607660E-002  -1.7237659224885182E-002   3.0747818612437521E-002
   5.1618353246792426E-002  -1.6401040942541134E-002   3.0629427719567670E-002
   5.4178561674701232E-002  -1.7311088330643654E-002   3.7853005297560374E-002
   5.2326303824055828E-002  -1.6812165853519564E-002   3.7391543813761370E-002
   5.0474045973410459E-002  -1.6224949285669324E-002   3.7109352952996166E-002
   4.8621788122765082E-002  -1.5549438627092921E-002   3.7006432715264527E-002
   4.6769530272119678E-002  -1.4785633877790472E-002   3.7082783100566508E-002
   4.8703201081683696E-002  -1.5566248118503184E-002   4.3558646533648174E-002
   4.7031019597935750E-002  -1.5059228682032431E-002   4.3260121700709156E-002
   4.5358838114187769E-002  -1.4490885318964926E-002   4.3142478978531282E-002
   4.3686656630439830E-002  -1.3861218029300760E-002   4.3205718367114863E-002
   4.2014475146691849E-002  -1.3170226813039837E-002   4.3449839866459249E-002
   4.3315162387000866E-002  -1.3821407906362715E-002   4.9285869811147298E-002
   4.1824668757877909E-002  -1.3306291510545298E-002   4.9123311464938868E-002
   4.0334175128754896E-002  -1.2756821352260708E-002   4.9143246717218952E-002
   3.8843681499631903E-002  -1.2172997431508532E-002   4.9345675567987968E-002
   3.7353187870508925E-002  -1.1554819748289147E-002   4.9730598017245664E-002
   5.6560944070710051E-002  -1.8016448007291852E-002   2.4089773723462493E-002
   5.3959195133386206E-002  -1.7100394786899897E-002   2.3719123591004365E-002
   5.1357446196062334E-002  -1.6313333175480310E-002   2.3610639553807267E-002
   4.8755697258738503E-002  -1.5655263173033000E-002   2.3764321611871225E-002
   4.6153948321414617E-002  -1.5126184779558294E-002   2.4180169765196102E-002
   5.1618353246792426E-002  -1.6401040942541134E-002   3.0629427719567670E-002
   4.9277742720816850E-002  -1.5560626889683044E-002   3.0233185591041850E-002
   4.6937132194841288E-002  -1.4827885550652370E-002   3.0097054189951317E-002
   4.4596521668865761E-002  -1.4202816925449134E-002   3.0221033516296542E-002
   4.2255911142890151E-002  -1.3685421014073385E-002   3.0605123570077220E-002
   4.6769530272119678E-002  -1.4785633877790472E-002   3.7082783100566508E-002
   4.4688002789666878E-002  -1.4020858992466162E-002   3.6682267871117710E-002
   4.2606475307214058E-002  -1.3342437925824444E-002   3.6539808001279026E-002
   4.0524947824761279E-002  -1.2750370677865271E-002   3.6655403491050211E-002
   3.8443420342308424E-002  -1.2244657248588586E-002   3.7029054340431522E-002
   4.2014475146691849E-002  -1.3170226813039837E-002   4.3449839866459249E-002
   4.0189975339936262E-002  -1.2481091095249405E-002   4.3066370431232529E-002
   3.8365475533180669E-002  -1.1856990300996399E-002   4.2938900987790338E-002
   3.6540975726425090E-002  -1.1297924430281324E-002   4.3067431536132447E-002
   3.4716475919669483E-002  -1.0803893483103677E-002   4.3451962076259010E-002
   3.7353187870508925E-002  -1.1554819748289147E-002   4.9730598017245664E-002
   3.5783660371625003E-002  -1.0941323198032399E-002   4.9385493271385972E-002
   3.4214132872741096E-002  -1.0371542676168605E-002   4.9294333149485087E-002
   3.2644605373857195E-002  -9.8454781826974661E-003   4.9457117651543092E-002
   3.1075077874973295E-002  -9.3631297176189343E-003   4.9873846777560293E-002
   4.6153948321414617E-002  -1.5126184779558294E-002   2.4180169765196102E-002
   4.4171158135641514E-002  -1.5362369049769342E-002   2.5914859299982385E-002
   4.2188367949868383E-002  -1.7000087038379741E-002   2.8892817201733645E-002
   4.0205577764095252E-002  -2.0039338745389879E-002   3.3114043470451021E-002
   3.8222787578322093E-002  -2.4480124170799256E-002   3.8578538106133431E-002
   4.2255911142890151E-002  -1.3685421014073385E-002   3.0605123570077220E-002
   4.1280270349196485E-002  -1.3644075788458165E-002   3.1066259319873696E-002
   4.0304629555502861E-002  -1.4447159220536243E-002   3.2298425486863541E-002
   3.9328988761809174E-002  -1.6094671310307854E-002   3.4301622071046783E-002
   3.8353347968115570E-002  -1.8586612057773011E-002   3.7075849072423561E-002
   3.8443420342308424E-002  -1.2244657248588586E-002   3.7029054340431522E-002
   3.8002690990922273E-002  -1.1925782527146961E-002   3.6773741365944024E-002
   3.7561961639536137E-002  -1.1894231402692523E-002   3.6817220858878244E-002
   3.7121232288150029E-002  -1.2150003875225912E-002   3.7159492819233989E-002
   3.6680502936763920E-002  -1.2693099944746655E-002   3.7800557247011535E-002
   3.4716475919669483E-002  -1.0803893483103677E-002   4.3451962076259010E-002
   3.4338420060818796E-002  -1.0207489265835604E-002   4.3037305438193965E-002
   3.3960364201968157E-002  -9.3413035848490256E-003   4.2449203317778510E-002
   3.3582308343117512E-002  -8.2053364401439288E-003   4.1687655715012518E-002
   3.3204252484266832E-002  -6.7995878317203551E-003   4.0752662629896061E-002
   3.1075077874973295E-002  -9.3631297176189343E-003   4.9873846777560293E-002
   3.0287457558886149E-002  -8.4891960045245241E-003   4.9856951536623395E-002
   2.9499837242799018E-002  -6.7883757670054029E-003   4.9194372863564179E-002
   2.8712216926711852E-002  -4.2606690050619699E-003   4.7886110758382575E-002
   2.7924596610624686E-002  -9.0607571869405490E-004   4.5932165221078458E-002
   5.7113258195344976E-002   0.0000000000000000        3.4645971812809442E-002
   5.7883119498257835E-002  -2.0477679948608610E-003   3.8298425563282175E-002
   5.8652980801170686E-002  -4.0666413988815781E-003   4.2162074079091810E-002
   5.9422842104083551E-002  -6.0566202120621564E-003   4.6236917360238314E-002
   6.0192703406996395E-002  -8.0177044344025960E-003   5.0522955406721665E-002
   4.8603150054424400E-002   0.0000000000000000        3.2781548263532689E-002
   4.9519658508145992E-002  -1.6745001696712430E-003   3.6961438714024471E-002
   5.0436166961867590E-002  -3.3647370621397946E-003   4.1223428700796858E-002
   5.1352675415589188E-002  -5.0707106774056567E-003   4.5567518223849836E-002
   5.2269183869310794E-002  -6.7924210154688223E-003   4.9993707283183433E-002
   4.0678447294029606E-002   0.0000000000000000        3.1312708196264270E-002
   4.1612507669503654E-002  -1.3012323444816232E-003   3.5975404033137662E-002
   4.2546568044977716E-002  -2.6628327253980068E-003   4.0591104177235375E-002
   4.3480628420451771E-002  -4.0848011427491544E-003   4.5159808628557403E-002
   4.4414688795925826E-002  -5.5671375965350633E-003   4.9681517387103753E-002
   3.3339149914160593E-002   0.0000000000000000        3.0239451611004199E-002
   3.4161666982330821E-002  -9.2796451929200380E-004   3.5340321520621748E-002
   3.4984184050501049E-002  -1.9609283886562212E-003   4.0265100508407328E-002
   3.5806701118671271E-002  -3.0988916080926534E-003   4.5013788574360926E-002
   3.6629218186841506E-002  -4.3418541776012991E-003   4.9586385718482576E-002
   2.6585257914817355E-002   0.0000000000000000        2.9561778507752483E-002
   2.7167136446627480E-002  -5.5469669410238443E-004   3.5056191176476723E-002
   2.7749014978437597E-002  -1.2590240519144338E-003   4.0245417694312710E-002
   2.8330893510247722E-002  -2.1129820734361524E-003   4.5129458061260459E-002
   2.8912772042057843E-002  -3.1165707586675341E-003   4.9708312277319949E-002
   6.0192703406996395E-002  -8.0177044344025960E-003   5.0522955406721665E-002
   6.0443305239004798E-002  -9.8626866982781426E-003   5.1440353195654293E-002
   6.0693907071013180E-002  -1.1504359636064044E-002   5.2142457145469411E-002
   6.0944508903021569E-002  -1.2942723247760340E-002   5.2629267256167067E-002
   6.1195110735029958E-002  -1.4177777533366923E-002   5.2900783527747269E-002
   5.2269183869310794E-002  -6.7924210154688223E-003   4.9993707283183433E-002
   5.2345066901894284E-002  -8.4247143238172818E-003   5.1219644630267472E-002
   5.2420949934477781E-002  -9.8624368499389738E-003   5.2311438217619202E-002
   5.2496832967061272E-002  -1.1105588593833945E-002   5.3269088045238611E-002
   5.2572715999644762E-002  -1.2154169555502164E-002   5.4092594113125746E-002
   4.4414688795925826E-002  -5.5671375965350633E-003   4.9681517387103753E-002
   4.4397003108469599E-002  -6.9867419493564262E-003   5.1207255748476316E-002
   4.4379317421013351E-002  -8.2205140638139333E-003   5.2680000429501737E-002
   4.4361631733557109E-002  -9.2684539399075904E-003   5.4099751430179997E-002
   4.4343946046100889E-002  -1.0130561577637399E-002   5.5466508750511109E-002
   3.6629218186841506E-002  -4.3418541776012991E-003   4.9586385718482576E-002
   3.6599113858730700E-002  -5.5487695748955715E-003   5.1403186550280797E-002
   3.6569009530619895E-002  -6.5785912776888814E-003   5.3248143781117030E-002
   3.6538905202509089E-002  -7.4313192859812400E-003   5.5121257410991248E-002
   3.6508800874398298E-002  -8.1069535997726240E-003   5.7022527439903478E-002
   2.8912772042057843E-002  -3.1165707586675341E-003   4.9708312277319949E-002
   2.8951399152677641E-002  -4.1107972004347064E-003   5.1807437035680894E-002
   2.8990026263297428E-002  -4.9366684915638287E-003   5.4015868272465045E-002
   2.9028653373917218E-002  -5.5941846320548671E-003   5.6333605987672349E-002
   2.9067280484537009E-002  -6.0833456219078694E-003   5.8760650181302825E-002
   6.1195110735029958E-002  -1.4177777533366923E-002   5.2900783527747269E-002
   5.9799875217278406E-002  -1.5126966573082552E-002   5.1580074687861993E-002
   5.8404639699526875E-002  -1.5707734447105631E-002   5.0731091860184305E-002
   5.7009404181775324E-002  -1.5920081155436284E-002   5.0353835044714038E-002
   5.5614168664023786E-002  -1.5764006698074470E-002   5.0448304241451344E-002
   5.2572715999644762E-002  -1.2154169555502164E-002   5.4092594113125746E-002
   5.1595495878527263E-002  -1.2960360224273368E-002   5.3441114924138167E-002
   5.0618275757409764E-002  -1.3476341089477255E-002   5.3153940516211237E-002
   4.9641055636292272E-002  -1.3702112151113830E-002   5.3231070889344922E-002
   4.8663835515174766E-002  -1.3637673409183135E-002   5.3672506043539167E-002
   4.4343946046100889E-002  -1.0130561577637399E-002   5.5466508750511109E-002
   4.3677320090470498E-002  -1.0793753875464208E-002   5.5406047850296146E-002
   4.3010694134840120E-002  -1.1244947731848864E-002   5.5602470499994873E-002
   4.2344068179209750E-002  -1.1484143146791390E-002   5.6055776699607221E-002
   4.1677442223579358E-002  -1.1511340120291778E-002   5.6765966449133232E-002
   3.6508800874398298E-002  -8.1069535997726240E-003   5.7022527439903478E-002
   3.6045347853108124E-002  -8.6271475266550424E-003   5.7474873466335931E-002
   3.5581894831817951E-002  -9.0135543742204810E-003   5.8076681811535108E-002
   3.5118441810527791E-002  -9.2661741424689432E-003   5.8827952475501072E-002
   3.4654988789237617E-002  -9.3850068314004186E-003   5.9728685458233705E-002
   2.9067280484537009E-002  -6.0833456219078694E-003   5.8760650181302825E-002
   2.8699579166440128E-002  -6.4605411778458702E-003   5.9647591772257536E-002
   2.8331877848343245E-002  -6.7821610165921063E-003   6.0576574450832033E-002
   2.7964176530246361E-002  -7.0482051381464839E-003   6.1547598217026371E-002
   2.7596475212149481E-002  -7.2586735425090726E-003   6.2560663070840558E-002
   5.5614168664023786E-002  -1.5764006698074470E-002   5.0448304241451344E-002
   5.4015026138607800E-002  -1.5457940110325974E-002   5.0123057230151244E-002
   5.2415883613191820E-002  -1.5220310427496390E-002   4.9956518731190079E-002
   5.0816741087775855E-002  -1.5051117649585874E-002   4.9948688744567898E-002
   4.9217598562359882E-002  -1.4950361776594284E-002   5.0099567270284751E-002
   4.8663835515174766E-002  -1.3637673409183135E-002   5.3672506043539167E-002
   4.7235556250868241E-002  -1.3442977439766628E-002   5.3274287511505723E-002
   4.5807276986561708E-002  -1.3277976818945842E-002   5.3059086989352300E-002
   4.4378997722255190E-002  -1.3142671546720847E-002   5.3026904477078737E-002
   4.2950718457948636E-002  -1.3037061623091595E-002   5.3177739974685057E-002
   4.1677442223579358E-002  -1.1511340120291778E-002   5.6765966449133232E-002
   4.0444335717923233E-002  -1.1428014769207323E-002   5.6333517952689913E-002
   3.9211229212267079E-002  -1.1335643210395376E-002   5.6108396963667276E-002
   3.7978122706610946E-002  -1.1234225443855932E-002   5.6090603482065626E-002
   3.6745016200954793E-002  -1.1123761469588891E-002   5.6280137507884735E-002
   3.4654988789237617E-002  -9.3850068314004186E-003   5.9728685458233705E-002
   3.3641364539772775E-002  -9.4130520986479976E-003   5.9300748553703563E-002
   3.2627740290307940E-002  -9.3933096018448820E-003   5.9104448654135215E-002
   3.1614116040843104E-002  -9.3257793409909466E-003   5.9139785759528558E-002
   3.0600491791378269E-002  -9.2104613160862644E-003   5.9406759869883703E-002
   2.7596475212149481E-002  -7.2586735425090726E-003   6.2560663070840558E-002
   2.6826642716416889E-002  -7.3980894280886722E-003   6.2175979314546881E-002
   2.6056810220684287E-002  -7.4509759932943793E-003   6.2047242060755882E-002
   2.5286977724951698E-002  -7.4173332381260075E-003   6.2174451309467568E-002
   2.4517145229219092E-002  -7.2971611625835264E-003   6.2557607060682002E-002
   4.9217598562359882E-002  -1.4950361776594284E-002   5.0099567270284751E-002
   4.7741989518520100E-002  -1.4829899094305710E-002   4.9538733674523883E-002
   4.6266380474680374E-002  -1.4601585888504319E-002   4.9216172899413865E-002
   4.4790771430840627E-002  -1.4265422159189819E-002   4.9131884944955080E-002
   4.3315162387000866E-002  -1.3821407906362715E-002   4.9285869811147298E-002
   4.2950718457948636E-002  -1.3037061623091595E-002   5.3177739974685057E-002
   4.1702324415705976E-002  -1.2903278676814595E-002   5.2763972365989453E-002
   4.0453930373463294E-002  -1.2683454336646471E-002   5.2566361939836895E-002
   3.9205536331220620E-002  -1.2377588602587003E-002   5.2584908696227409E-002
   3.7957142288977952E-002  -1.1985681474636634E-002   5.2819612635160856E-002
   3.6745016200954793E-002  -1.1123761469588891E-002   5.6280137507884735E-002
   3.5701721522201121E-002  -1.0976658259323452E-002   5.5991626756632690E-002
   3.4658426843447471E-002  -1.0765322784788572E-002   5.5897157549815724E-002
   3.3615132164693813E-002  -1.0489755045984272E-002   5.5996729887433795E-002
   3.2571837485940149E-002  -1.0149955042910469E-002   5.6290343769486703E-002
   3.0600491791378269E-002  -9.2104613160862644E-003   5.9406759869883703E-002
   2.9740180838005583E-002  -9.0500378418323923E-003   5.9221696846453578E-002
   2.8879869884632921E-002  -8.8471912329307258E-003   5.9208559729350498E-002
   2.8019558931260249E-002  -8.6019214893814141E-003   5.9367348518574205E-002
   2.7159247977887567E-002  -8.3142286111843738E-003   5.9698063214125061E-002
   2.4517145229219092E-002  -7.2971611625835264E-003   6.2557607060682002E-002
   2.3817702363119364E-002  -7.1234174243411941E-003   6.2454182635452077E-002
   2.3118259497019608E-002  -6.9290596810728730E-003   6.2500568478441001E-002
   2.2418816630919873E-002  -6.7140879327786240E-003   6.2696764589648846E-002
   2.1719373764820124E-002  -6.4785021794582787E-003   6.3042770969075623E-002
   4.3315162387000866E-002  -1.3821407906362715E-002   4.9285869811147298E-002
   4.1824668757877909E-002  -1.3306291510545298E-002   4.9123311464938868E-002
   4.0334175128754896E-002  -1.2756821352260708E-002   4.9143246717218952E-002
   3.8843681499631903E-002  -1.2172997431508532E-002   4.9345675567987968E-002
   3.7353187870508925E-002  -1.1554819748289147E-002   4.9730598017245664E-002
   3.7957142288977952E-002  -1.1985681474636634E-002   5.2819612635160856E-002
   3.6652728215290323E-002  -1.1529048721270960E-002   5.2672237350587306E-002
   3.5348314141602707E-002  -1.1029006110966300E-002   5.2714527578395731E-002
   3.4043900067915085E-002  -1.0485553643722223E-002   5.2946483318586021E-002
   3.2739485994227463E-002  -9.8986913195396320E-003   5.3368104571158509E-002
   3.2571837485940149E-002  -1.0149955042910469E-002   5.6290343769486703E-002
   3.1460674881581170E-002  -9.7518059319966488E-003   5.6167207641019831E-002
   3.0349512277222147E-002  -9.3011908696719395E-003   5.6240908938828320E-002
   2.9238349672863151E-002  -8.7981098559363011E-003   5.6511447662912093E-002
   2.8127187068504166E-002  -8.2425628907898674E-003   5.6978823813270824E-002
   2.7159247977887567E-002  -8.3142286111843738E-003   5.9698063214125061E-002
   2.6248508756750395E-002  -7.9745631427223795E-003   5.9608222336236749E-002
   2.5337769535613248E-002  -7.5733756283774441E-003   5.9722390798516774E-002
   2.4427030314476100E-002  -7.1106660681502414E-003   6.0040568600965454E-002
   2.3516291093338901E-002  -6.5864344620401721E-003   6.0562755743582546E-002
   2.1719373764820124E-002  -6.4785021794582787E-003   6.3042770969075623E-002
   2.1016229840798040E-002  -6.1973203534479993E-003   6.2995281436237616E-002
   2.0313085916775962E-002  -5.8455603870831568E-003   6.3158973157461246E-002
   1.9609941992753895E-002  -5.4232222803640949E-003   6.3533846132746638E-002
   1.8906798068731800E-002  -4.9303060332905324E-003   6.4119900362093640E-002
   3.7353187870508925E-002  -1.1554819748289147E-002   4.9730598017245664E-002
   3.5783660371625003E-002  -1.0941323198032399E-002   4.9385493271385972E-002
   3.4214132872741096E-002  -1.0371542676168605E-002   4.9294333149485087E-002
   3.2644605373857195E-002  -9.8454781826974661E-003   4.9457117651543092E-002
   3.1075077874973295E-002  -9.3631297176189343E-003   4.9873846777560293E-002
   3.2739485994227463E-002  -9.8986913195396320E-003   5.3368104571158509E-002
   3.1412111407799967E-002  -9.2829533933624087E-003   5.2997923723682644E-002
   3.0084736821372443E-002  -8.6528741201361559E-003   5.2858104077160364E-002
   2.8757362234944933E-002  -8.0084534998607348E-003   5.2948645631592302E-002
   2.7429987648517437E-002  -7.3496915325358958E-003   5.3269548386977839E-002
   2.8127187068504166E-002  -8.2425628907898674E-003   5.6978823813270824E-002
   2.7018381971527936E-002  -7.6245835886923768E-003   5.6641624239620603E-002
   2.5909576874551737E-002  -6.9342055641037487E-003   5.6511202443919356E-002
   2.4800771777575524E-002  -6.1714288170238892E-003   5.6587558426166688E-002
   2.3691966680599301E-002  -5.3362533474528295E-003   5.6870692186362828E-002
   2.3516291093338901E-002  -6.5864344620401721E-003   6.0562755743582546E-002
   2.2602472062808958E-002  -5.9662137840224214E-003   6.0316594819200126E-002
   2.1688653032278980E-002  -5.2155370080713762E-003   6.0253628249761410E-002
   2.0774834001749017E-002  -4.3344041341871562E-003   6.0373856035266397E-002
   1.9861014971219060E-002  -3.3228151623698327E-003   6.0677278175715138E-002
   1.8906798068731800E-002  -4.9303060332905324E-003   6.4119900362093640E-002
   1.8164381681642999E-002  -4.3078439793522993E-003   6.4022835462420935E-002
   1.7421965294554198E-002  -3.4968684520389759E-003   6.4085381494686899E-002
   1.6679548907465376E-002  -2.4973794513504163E-003   6.4307538458891506E-002
   1.5937132520376582E-002  -1.3093769772867803E-003   6.4689306355034726E-002
   3.1075077874973295E-002  -9.3631297176189343E-003   4.9873846777560293E-002
   3.0287457558886149E-002  -8.4891960045245241E-003   4.9856951536623395E-002
   2.9499837242799018E-002  -6.7883757670054029E-003   4.9194372863564179E-002
   2.8712216926711852E-002  -4.2606690050619699E-003   4.7886110758382575E-002
   2.7924596610624686E-002  -9.0607571869405490E-004   4.5932165221078458E-002
   2.7429987648517437E-002  -7.3496915325358958E-003   5.3269548386977839E-002
   2.6122658821925090E-002  -6.2113122411733557E-003   5.4171587238921765E-002
   2.4815329995332751E-002  -4.1280396487846233E-003   5.4679892501977773E-002
   2.3508001168740449E-002  -1.0998737553695216E-003   5.4794464176145682E-002
   2.2200672342148065E-002   2.8731854390718903E-003   5.4515302261426313E-002
   2.3691966680599301E-002  -5.3362533474528295E-003   5.6870692186362828E-002
   2.2116879186736479E-002  -3.9334284778221595E-003   5.8809671907788949E-002
   2.0541791692873634E-002  -1.4677035305635175E-003   6.0606867883562086E-002
   1.8966704199010788E-002   2.0609214943232302E-003   6.2262280113681678E-002
   1.7391616705147966E-002   6.6524465968379465E-003   6.3775908598148301E-002
   1.9861014971219060E-002  -3.3228151623698327E-003   6.0677278175715138E-002
   1.8270118653320320E-002  -1.6555447144710883E-003   6.3771205543225282E-002
   1.6679222335421611E-002   1.1926325876574252E-003   6.6975299008316683E-002
   1.5088326017522866E-002   5.2217167440158857E-003   7.0289558570990021E-002
   1.3497429699624162E-002   1.0431707754604003E-002   7.3713984231244770E-002
   1.5937132520376582E-002  -1.3093769772867803E-003   6.4689306355034726E-002
   1.4582377221676629E-002   6.2233904888003844E-004   6.9056188145230735E-002
   1.3227621922976697E-002   3.8529687058784651E-003   7.3785185876242582E-002
   1.1872866624276762E-002   8.3825119937084823E-003   7.8876299548070641E-002
   1.0518111325576840E-002   1.4210968912369948E-002   8.4329529160715122E-002
   2.6585257914817355E-002   0.0000000000000000        2.9561778507752483E-002
   2.7167136446627480E-002  -5.5469669410238443E-004   3.5056191176476723E-002
   2.7749014978437597E-002  -1.2590240519144338E-003   4.0245417694312710E-002
   2.8330893510247722E-002  -2.1129820734361524E-003   4.5129458061260459E-002
   2.8912772042057843E-002  -3.1165707586675341E-003   4.9708312277319949E-002
   2.0077787313333491E-002   0.0000000000000000        2.9141882315784698E-002
   2.0394408823739503E-002  -4.1602252057885460E-004   3.4452734698440374E-002
   2.0711030334145519E-002  -9.4426803893938975E-004   3.9538259189176077E-002
   2.1027651844551534E-002  -1.5847365550816029E-003   4.4398455787991800E-002
   2.1344273354957546E-002  -2.3374280690054957E-003   4.9033324494887565E-002
   1.3477754127042605E-002   0.0000000000000000        2.8841956464376449E-002
   1.3608976875012783E-002  -2.7734834705532519E-004   3.4006656226891557E-002
   1.3740199622982962E-002  -6.2951202596434313E-004   3.9025886356454952E-002
   1.3871422370953139E-002  -1.0564910367270551E-003   4.3899646853066666E-002
   1.4002645118923317E-002  -1.5582853793434572E-003   4.8627937716726674E-002
   6.7851583559446933E-003   0.0000000000000000        2.8662000953527739E-002
   6.8108406004473111E-003  -1.3867417353179644E-004   3.3717955761830259E-002
   6.8365228449499263E-003  -3.1475601298929868E-004   3.8708299196149341E-002
   6.8622050894525449E-003  -5.2824551837250301E-004   4.3633031256485023E-002
   6.8878873339551609E-003  -7.7914268968142051E-004   4.8492151942837250E-002
   3.9754657898960488E-014   0.0000000000000000        2.8602015783238566E-002
   4.3084459611097969E-014  -8.2668247247674742E-015   3.3586633303256473E-002
   4.6415779206276930E-014  -1.4250753355149470E-014   3.8585497708259246E-002
   4.9746773540804146E-014  -1.7959592146787884E-014   4.3598608998246864E-002
   5.3076033151855384E-014  -1.9379463311874900E-014   4.8625967173219327E-002
   2.8912772042057843E-002  -3.1165707586675341E-003   4.9708312277319949E-002
   2.8951399152677641E-002  -4.1107972004347064E-003   5.1807437035680894E-002
   2.8990026263297428E-002  -4.9366684915638287E-003   5.4015868272465045E-002
   2.9028653373917218E-002  -5.5941846320548671E-003   5.6333605987672349E-002
   2.9067280484537009E-002  -6.0833456219078694E-003   5.8760650181302825E-002
   2.1344273354957546E-002  -2.3374280690054957E-003   4.9033324494887565E-002
   2.1462466129981074E-002  -3.0830979003307795E-003   5.1476889647103639E-002
   2.1580658905004595E-002  -3.7025013686771491E-003   5.3970279649704009E-002
   2.1698851680028115E-002  -4.1956384740446193E-003   5.6513494502688680E-002
   2.1817044455051639E-002  -4.5625092164331554E-003   5.9106534206057611E-002
   1.4002645118923317E-002  -1.5582853793434572E-003   4.8627937716726674E-002
   1.4140921930311690E-002  -2.0553986002268317E-003   5.1373854475138710E-002
   1.4279198741700066E-002  -2.4683342457904561E-003   5.4110114455896141E-002
   1.4417475553088439E-002  -2.7970923160343377E-003   5.6836717658999010E-002
   1.4555752364476813E-002  -3.0416728109584588E-003   5.9553664084447268E-002
   6.8878873339551609E-003  -7.7914268968142051E-004   4.8492151942837250E-002
   6.9867665536695019E-003  -1.0276993001228875E-003   5.1498331519786104E-002
   7.0856457733838446E-003  -1.2341671229037802E-003   5.4435372691041456E-002
   7.1845249930981864E-003  -1.3985461580240627E-003   5.7303275456603346E-002
   7.2834042128125318E-003  -1.5208364054837605E-003   6.0102039816471706E-002
   5.3076033151855384E-014  -1.9379463311874900E-014   4.8625967173219327E-002
   5.4502843210846308E-014  -1.8952721336784606E-014   5.1850320781045803E-002
   5.5928569067664746E-014  -1.7083339950985099E-014   5.4946054355139912E-002
   5.7355270706438422E-014  -1.3797936317810899E-014   5.7913167895501695E-002
   5.8781104983474108E-014  -9.0621954385028403E-015   6.0751661402131091E-002
   2.9067280484537009E-002  -6.0833456219078694E-003   5.8760650181302825E-002
   2.8699579166440128E-002  -6.4605411778458702E-003   5.9647591772257536E-002
   2.8331877848343245E-002  -6.7821610165921063E-003   6.0576574450832033E-002
   2.7964176530246361E-002  -7.0482051381464839E-003   6.1547598217026371E-002
   2.7596475212149481E-002  -7.2586735425090726E-003   6.2560663070840558E-002
   2.1817044455051639E-002  -4.5625092164331554E-003   5.9106534206057611E-002
   2.1503855285050600E-002  -4.8454058833850185E-003   6.0043519548942048E-002
   2.1190666115049564E-002  -5.0866207624423107E-003   6.1047488100398326E-002
   2.0877476945048525E-002  -5.2861538536050270E-003   6.2118439860426519E-002
   2.0564287775047492E-002  -5.4440051568732384E-003   6.3256374829026463E-002
   1.4555752364476813E-002  -3.0416728109584588E-003   5.9553664084447268E-002
   1.4322017463523656E-002  -3.2302705889240731E-003   6.0526799249964104E-002
   1.4088282562570494E-002  -3.3910805082924727E-003   6.1591859745004897E-002
   1.3854547661617341E-002  -3.5241025690635830E-003   6.2748845569569570E-002
   1.3620812760664179E-002  -3.6293367712374666E-003   6.3997756723658136E-002
   7.2834042128125318E-003  -1.5208364054837605E-003   6.0102039816471706E-002
   7.1540657018592793E-003  -1.6151352944632092E-003   6.1097430875323787E-002
   7.0247271909060363E-003  -1.6955402541426489E-003   6.2209689384651733E-002
   6.8953886799527856E-003  -1.7620512845221256E-003   6.3438815344455640E-002
   6.7660501689995392E-003  -1.8146683856016636E-003   6.4784808754735482E-002
   5.8781104983474108E-014  -9.0621954385028403E-015   6.0751661402131091E-002
   5.7478327653015526E-014  -2.2690183065776637E-015   6.1755414425020992E-002
   5.6176417684294933E-014   7.1678774027361669E-015   6.2900977019338847E-002
   5.4872339311229368E-014   1.9312676458049793E-014   6.4188349185084703E-002
   5.3571730385115757E-014   3.4125480219415749E-014   6.5617530922258541E-002
   2.7596475212149481E-002  -7.2586735425090726E-003   6.2560663070840558E-002
   2.6826642716416889E-002  -7.3980894280886722E-003   6.2175979314546881E-002
   2.6056810220684287E-002  -7.4509759932943793E-003   6.2047242060755882E-002
   2.5286977724951698E-002  -7.4173332381260075E-003   6.2174451309467568E-002
   2.4517145229219092E-002  -7.2971611625835264E-003   6.2557607060682002E-002
   2.0564287775047492E-002  -5.4440051568732384E-003   6.3256374829026463E-002
   2.0034529687174656E-002  -5.5485670710535562E-003   6.3020244556136223E-002
   1.9504771599301807E-002  -5.5882319949524528E-003   6.3008316596462749E-002
   1.8975013511428964E-002  -5.5629999285700393E-003   6.3220590950005984E-002
   1.8445255423556121E-002  -5.4728708719062047E-003   6.3657067616766205E-002
   1.3620812760664179E-002  -3.6293367712374666E-003   6.3997756723658136E-002
   1.3299384891365186E-002  -3.6990447140183569E-003   6.3888547604078583E-002
   1.2977957022066187E-002  -3.7254879966105801E-003   6.3971796608429957E-002
   1.2656529152767198E-002  -3.7086666190140707E-003   6.4247503736712189E-002
   1.2335101283468205E-002  -3.6485805812288968E-003   6.4715668988925334E-002
   6.7660501689995392E-003  -1.8146683856016636E-003   6.4784808754735482E-002
   6.6212083289884840E-003  -1.8495223569832270E-003   6.4780888458374000E-002
   6.4763664889774322E-003  -1.8627439982686388E-003   6.4937682096657554E-002
   6.3315246489663813E-003  -1.8543333094581717E-003   6.5255189669586058E-002
   6.1866828089553218E-003  -1.8242902905515543E-003   6.5733411177159640E-002
   5.3571730385115757E-014   3.4125480219415749E-014   6.5617530922258541E-002
   4.4554637756988313E-014   5.1965376446361233E-014   6.5697267119022476E-002
   3.5539279852336847E-014   7.3167166769749770E-014   6.5905973061145567E-002
   2.6525656671161357E-014   9.7867026982445537E-014   6.6243648748627690E-002
   1.7506829319557937E-014   1.2576051311441461E-013   6.6710294181468899E-002
   2.4517145229219092E-002  -7.2971611625835264E-003   6.2557607060682002E-002
   2.3817702363119364E-002  -7.1234174243411941E-003   6.2454182635452077E-002
   2.3118259497019608E-002  -6.9290596810728730E-003   6.2500568478441001E-002
   2.2418816630919873E-002  -6.7140879327786240E-003   6.2696764589648846E-002
   2.1719373764820124E-002  -6.4785021794582787E-003   6.3042770969075623E-002
   1.8445255423556121E-002  -5.4728708719062047E-003   6.3657067616766205E-002
   1.7901885437751029E-002  -5.3425630682167186E-003   6.3539678723584889E-002
   1.7358515451945930E-002  -5.1967947607574963E-003   6.3584625322774035E-002
   1.6815145466140831E-002  -5.0355659495282760E-003   6.3791907414333562E-002
   1.6271775480335732E-002  -4.8588766345291079E-003   6.4161524998263386E-002
   1.2335101283468205E-002  -3.6485805812288968E-003   6.4715668988925334E-002
   1.1960329402109227E-002  -3.5617087120924373E-003   6.4579162126536804E-002
   1.1585557520750248E-002  -3.4645298404421231E-003   6.4617515980670032E-002
   1.1210785639391270E-002  -3.3570439662779566E-003   6.4830730551325100E-002
   1.0836013758032292E-002  -3.2392510895999649E-003   6.5218805838502023E-002
   6.1866828089553218E-003  -1.8242902905515543E-003   6.5733411177159640E-002
   5.9930342561939388E-003  -1.7808543559681284E-003   6.5572632844307588E-002
   5.7993857034325542E-003  -1.7322649201267481E-003   6.5599240452128962E-002
   5.6057371506711643E-003  -1.6785219830277062E-003   6.5813234000623597E-002
   5.4120885979097788E-003  -1.6196255446707802E-003   6.6214613489791560E-002
   1.7506829319557937E-014   1.2576051311441461E-013   6.6710294181468899E-002
   5.1798842992667460E-015   1.5630552407941423E-013   6.6520090876897503E-002
  -7.1487954445004220E-015   1.8860607520210237E-013   6.6529798737150828E-002
  -1.9476607826529602E-014   2.2267777899376284E-013   6.6739417762229053E-002
  -3.1804420208558781E-014   2.5840440898150518E-013   6.7148947952131999E-002
   2.1719373764820124E-002  -6.4785021794582787E-003   6.3042770969075623E-002
   2.1016229840798040E-002  -6.1973203534479993E-003   6.2995281436237616E-002
   2.0313085916775962E-002  -5.8455603870831568E-003   6.3158973157461246E-002
   1.9609941992753895E-002  -5.4232222803640949E-003   6.3533846132746638E-002
   1.8906798068731800E-002  -4.9303060332905324E-003   6.4119900362093640E-002
   1.6271775480335732E-002  -4.8588766345291079E-003   6.4161524998263386E-002
   1.5770963992110268E-002  -4.6479902650117533E-003   6.4178779082151721E-002
   1.5270152503884804E-002  -4.3841702902277097E-003   6.4389516783571549E-002
   1.4769341015659326E-002  -4.0674167101773413E-003   6.4793738102522883E-002
   1.4268529527433862E-002  -3.6977295248601938E-003   6.5391443039005737E-002
   1.0836013758032292E-002  -3.2392510895999649E-003   6.5218805838502023E-002
   1.0519837069073248E-002  -3.0986601765756183E-003   6.5283159004028882E-002
   1.0203660380114206E-002  -2.9227801933723804E-003   6.5523298150557074E-002
   9.8874836911551599E-003  -2.7116111399906450E-003   6.5939223278086490E-002
   9.5713070021961194E-003  -2.4651530164297719E-003   6.6530934386617391E-002
   5.4120885979097788E-003  -1.6196255446707802E-003   6.6214613489791560E-002
   5.2628490716869793E-003  -1.5493300881395666E-003   6.6308421201869153E-002
   5.1136095454641824E-003  -1.4613900965171032E-003   6.6560317258417934E-002
   4.9643700192413863E-003  -1.3558055698038090E-003   6.6970301659437889E-002
   4.8151304930185851E-003  -1.2325765079993639E-003   6.7538374404929075E-002
  -3.1804420208558781E-014   2.5840440898150518E-013   6.7148947952131999E-002
  -4.8534093410879109E-014   2.9679037005791997E-013   6.7254565675672534E-002
  -6.5265501336675413E-014   3.3836822233013208E-013   6.7500574107154154E-002
  -8.1993439815519764E-014   3.8288122672369695E-013   6.7886973246576665E-002
  -9.8726582464792045E-014   4.3098857815948577E-013   6.8413763093940205E-002
   1.8906798068731800E-002  -4.9303060332905324E-003   6.4119900362093640E-002
   1.8164381681642999E-002  -4.3078439793522993E-003   6.4022835462420935E-002
   1.7421965294554198E-002  -3.4968684520389759E-003   6.4085381494686899E-002
   1.6679548907465376E-002  -2.4973794513504163E-003   6.4307538458891506E-002
   1.5937132520376582E-002  -1.3093769772867803E-003   6.4689306355034726E-002
   1.4268529527433862E-002  -3.6977295248601938E-003   6.5391443039005737E-002
   1.3692222363490540E-002  -3.2308829843935294E-003   6.5406871735803757E-002
   1.3115915199547211E-002  -2.6226513388949158E-003   6.5594907946954162E-002
   1.2539608035603885E-002  -1.8730345883637631E-003   6.5955551672456827E-002
   1.1963300871660573E-002  -9.8203273280061953E-004   6.6488802912311962E-002
   9.5713070021961194E-003  -2.4651530164297719E-003   6.6530934386617391E-002
   9.1741056438120229E-003  -2.1539219894349537E-003   6.6611728311543300E-002
   8.7769042854279229E-003  -1.7484342257507030E-003   6.6878126333235352E-002
   8.3797029270438212E-003  -1.2486897253772243E-003   6.7330128451693477E-002
   7.9825015686597368E-003  -6.5468848831443105E-004   6.7967734666917592E-002
   4.8151304930185851E-003  -1.2325765079993639E-003   6.7538374404929075E-002
   4.6100315226074518E-003  -1.0769609944760589E-003   6.7637405189639843E-002
   4.4049325521963115E-003  -8.7421711260667750E-004   6.7935036653530498E-002
   4.1998335817851626E-003  -6.2434486239062829E-004   6.8431268796601066E-002
   3.9947346113740284E-003  -3.2734424382825644E-004   6.9126101618851341E-002
  -9.8726582464792045E-014   4.3098857815948577E-013   6.8413763093940205E-002
  -1.2317577513520916E-013   4.8236414862401489E-013   6.8483902370093108E-002
  -1.4762149835867433E-013   5.3750059958446172E-013   6.8765638907839682E-002
  -1.7207069102909145E-013   5.9597812795963989E-013   6.9258972707179636E-002
  -1.9651641425255661E-013   6.5797367554409902E-013   6.9963903768113289E-002
   1.5937132520376582E-002  -1.3093769772867803E-003   6.4689306355034726E-002
   1.4582377221676629E-002   6.2233904888003844E-004   6.9056188145230735E-002
   1.3227621922976697E-002   3.8529687058784651E-003   7.3785185876242582E-002
   1.1872866624276762E-002   8.3825119937084823E-003   7.8876299548070641E-002
   1.0518111325576840E-002   1.4210968912369948E-002   8.4329529160715122E-002
   1.1963300871660573E-002  -9.8203273280061953E-004   6.6488802912311962E-002
   1.0964804734738966E-002   4.6675428684075926E-004   7.1979409696163205E-002
   9.9663085978173652E-003   2.8897265296068259E-003   7.7820418862755009E-002
   8.9678124608957542E-003   6.2868839954970356E-003   8.4011830412087582E-002
   7.9693163239741571E-003   1.0658226684511773E-002   9.0553644344160356E-002
   7.9825015686597368E-003  -6.5468848831443105E-004   6.7967734666917592E-002
   7.3285510354408889E-003   3.1116952480161886E-004   7.4257338036717177E-002
   6.6746005022220393E-003   1.9264843533350270E-003   8.0885630231181671E-002
   6.0206499690032026E-003   4.1912559972856738E-003   8.7852611250310977E-002
   5.3666994357843695E-003   7.1054844566535991E-003   9.5158281094105401E-002
   3.9947346113740284E-003  -3.2734424382825644E-004   6.9126101618851341E-002
   3.6736161237823865E-003   1.5558476276235356E-004   7.5889973166892055E-002
   3.3524976361907475E-003   9.6324217706341905E-004   8.2980819981521847E-002
   3.0313791485990964E-003   2.0956279990742696E-003   9.0398642062741022E-002
   2.7102606610074527E-003   3.5527422287955357E-003   9.8143439410550093E-002
  -1.9651641425255661E-013   6.5797367554409902E-013   6.9963903768113289E-002
  -2.3652260705553374E-013   7.2319927824082697E-013   7.6877315086687714E-002
  -2.7652186096460696E-013   7.9165840549677569E-013   8.4105988113775981E-002
  -3.1652458432063213E-013   8.6282717082220017E-013   9.1649922849378437E-002
  -3.5653424657056121E-013   9.3725027738855715E-013   9.9509119293494264E-002
   3.9754657898960488E-014   0.0000000000000000        2.8602015783238566E-002
   4.3084459611097969E-014  -8.2668247247674742E-015   3.3586633303256473E-002
   4.6415779206276930E-014  -1.4250753355149470E-014   3.8585497708259246E-002
   4.9746773540804146E-014  -1.7959592146787884E-014   4.3598608998246864E-002
   5.3076033151855384E-014  -1.9379463311874900E-014   4.8625967173219327E-002
  -6.7851583558664729E-003   0.0000000000000000        2.8662000953509729E-002
  -6.8108406003624666E-003   1.3867417351660222E-004   3.3717955761813932E-002
  -6.8365228448584586E-003   3.1475601296294519E-004   3.8708299196134631E-002
  -6.8622050893544524E-003   5.2824551833903152E-004   4.3633031256471826E-002
  -6.8878873338504469E-003   7.7914268964485254E-004   4.8492151942825537E-002
  -1.3477754126968255E-002   0.0000000000000000        2.8841956464342029E-002
  -1.3608976874931920E-002   2.7734834704146909E-004   3.4006656226859965E-002
  -1.3740199622895584E-002   6.2951202594014027E-004   3.9025886356426065E-002
  -1.3871422370859247E-002   1.0564910366960131E-003   4.3899646853040319E-002
  -1.4002645118822914E-002   1.5582853793090876E-003   4.8627937716702721E-002
  -2.0077787313265587E-002   0.0000000000000000        2.9141882315735466E-002
  -2.0394408823665274E-002   4.1602252056633618E-004   3.4452734698394612E-002
  -2.0711030334064962E-002   9.4426803891733404E-004   3.9538259189133569E-002
  -2.1027651844464642E-002   1.5847365550529977E-003   4.4398455787952332E-002
  -2.1344273354864329E-002   2.3374280689733191E-003   4.9033324494850899E-002
  -2.6585257914758475E-002   0.0000000000000000        2.9561778507690040E-002
  -2.7167136446562528E-002   5.5469669409120414E-004   3.5056191176417853E-002
  -2.7749014978366581E-002   1.2590240518945313E-003   4.0245417694257123E-002
  -2.8330893510170634E-002   2.1129820734099823E-003   4.5129458061207849E-002
  -2.8912772041974687E-002   3.1165707586375537E-003   4.9708312277270031E-002
   5.3076033151855384E-014  -1.9379463311874900E-014   4.8625967173219327E-002
   5.4502843210846308E-014  -1.8952721336784606E-014   5.1850320781045803E-002
   5.5928569067664746E-014  -1.7083339950985099E-014   5.4946054355139912E-002
   5.7355270706438422E-014  -1.3797936317810899E-014   5.7913167895501695E-002
   5.8781104983474108E-014  -9.0621954385028403E-015   6.0751661402131091E-002
  -6.8878873338504469E-003   7.7914268964485254E-004   4.8492151942825537E-002
  -6.9867665535619248E-003   1.0276993000867328E-003   5.1498331519774419E-002
  -7.0856457732734034E-003   1.2341671228709545E-003   5.4435372691029833E-002
  -7.1845249929848821E-003   1.3985461579975452E-003   5.7303275456591800E-002
  -7.2834042126963599E-003   1.5208364054664983E-003   6.0102039816460305E-002
  -1.4002645118822914E-002   1.5582853793090876E-003   4.8627937716702721E-002
  -1.4140921930208390E-002   2.0553986001924048E-003   5.1373854475114916E-002
  -1.4279198741593871E-002   2.4683342457589991E-003   5.4110114455872570E-002
  -1.4417475552979345E-002   2.7970923160088815E-003   5.6836717658975681E-002
  -1.4555752364364825E-002   3.0416728109420657E-003   5.9553664084424245E-002
  -2.1344273354864329E-002   2.3374280689733191E-003   4.9033324494850899E-002
  -2.1462466129884897E-002   3.0830979002980765E-003   5.1476889647067342E-002
  -2.1580658904905473E-002   3.7025013686470508E-003   5.3970279649668156E-002
  -2.1698851679926048E-002   4.1956384740202387E-003   5.6513494502653333E-002
  -2.1817044454946619E-002   4.5625092164176227E-003   5.9106534206022840E-002
  -2.8912772041974687E-002   3.1165707586375537E-003   4.9708312277270031E-002
  -2.8951399152591446E-002   4.1107972004037494E-003   5.1807437035631669E-002
  -2.8990026263208214E-002   4.9366684915350886E-003   5.4015868272416570E-002
  -2.9028653373824972E-002   5.5941846320315559E-003   5.6333605987624720E-002
  -2.9067280484441734E-002   6.0833456218932005E-003   5.8760650181256140E-002
   5.8781104983474108E-014  -9.0621954385028403E-015   6.0751661402131091E-002
   5.7478327653015526E-014  -2.2690183065776637E-015   6.1755414425020992E-002
   5.6176417684294933E-014   7.1678774027361669E-015   6.2900977019338847E-002
   5.4872339311229368E-014   1.9312676458049793E-014   6.4188349185084703E-002
   5.3571730385115757E-014   3.4125480219415749E-014   6.5617530922258541E-002
  -7.2834042126963599E-003   1.5208364054664983E-003   6.0102039816460305E-002
  -7.1540657017456835E-003   1.6151352944591829E-003   6.1097430875314843E-002
  -7.0247271907950028E-003   1.6955402541570502E-003   6.2209689384645370E-002
  -6.8953886798443272E-003   1.7620512845600736E-003   6.3438815344451893E-002
  -6.7660501688936447E-003   1.8146683856682527E-003   6.4784808754734441E-002
  -1.4555752364364825E-002   3.0416728109420657E-003   5.9553664084424245E-002
  -1.4322017463414128E-002   3.2302705889207008E-003   6.0526799249945862E-002
  -1.4088282562463431E-002   3.3910805083069602E-003   6.1591859744991498E-002
  -1.3854547661512735E-002   3.5241025691008761E-003   6.2748845569561174E-002
  -1.3620812760562040E-002   3.6293367713023869E-003   6.3997756723654903E-002
  -2.1817044454946619E-002   4.5625092164176227E-003   5.9106534206022840E-002
  -2.1503855284947870E-002   4.8454058833821995E-003   6.0043519548914043E-002
  -2.1190666114949113E-002   5.0866207624568425E-003   6.1047488100377280E-002
  -2.0877476944950367E-002   5.2861538536416435E-003   6.2118439860412648E-002
  -2.0564287774951610E-002   5.4440051569365037E-003   6.3256374829020010E-002
  -2.9067280484441734E-002   6.0833456218932005E-003   5.8760650181256140E-002
  -2.8699579166346890E-002   6.4605411778436810E-003   5.9647591772219379E-002
  -2.8331877848252050E-002   6.7821610166067543E-003   6.0576574450802709E-002
  -2.7964176530157210E-002   7.0482051381824187E-003   6.1547598217006144E-002
  -2.7596475212062363E-002   7.2586735425706483E-003   6.2560663070829720E-002
   5.3571730385115757E-014   3.4125480219415749E-014   6.5617530922258541E-002
   4.4554637756988313E-014   5.1965376446361233E-014   6.5697267119022476E-002
   3.5539279852336847E-014   7.3167166769749770E-014   6.5905973061145567E-002
   2.6525656671161357E-014   9.7867026982445537E-014   6.6243648748627690E-002
   1.7506829319557937E-014   1.2576051311441461E-013   6.6710294181468899E-002
  -6.7660501688936447E-003   1.8146683856682527E-003   6.4784808754734441E-002
  -6.6212083289004650E-003   1.8495223570844169E-003   6.4780888458377428E-002
  -6.4763664889072852E-003   1.8627439984114404E-003   6.4937682096665769E-002
  -6.3315246489140994E-003   1.8543333096492651E-003   6.5255189669599381E-002
  -6.1866828089209187E-003   1.8242902907979197E-003   6.5733411177178333E-002
  -1.3620812760562040E-002   3.6293367713023869E-003   6.3997756723654903E-002
  -1.3299384891280436E-002   3.6990447141168649E-003   6.3888547604084439E-002
  -1.2977957021998825E-002   3.7254879967496563E-003   6.3971796608445486E-002
  -1.2656529152717217E-002   3.7086666192007460E-003   6.4247503736738099E-002
  -1.2335101283435609E-002   3.6485805814700650E-003   6.4715668988962222E-002
  -2.0564287774951610E-002   5.4440051569365037E-003   6.3256374829020010E-002
  -2.0034529687095348E-002   5.5485670711493424E-003   6.3020244556143523E-002
  -1.9504771599239090E-002   5.5882319950879287E-003   6.3008316596484704E-002
  -1.8975013511382831E-002   5.5629999287521298E-003   6.3220590950043676E-002
  -1.8445255423526558E-002   5.4728708721421895E-003   6.3657067616820509E-002
  -2.7596475212062363E-002   7.2586735425706483E-003   6.2560663070829720E-002
  -2.6826642716345210E-002   7.3980894281817644E-003   6.2175979314554597E-002
  -2.6056810220628068E-002   7.4509759934260900E-003   6.2047242060783450E-002
  -2.5286977724910918E-002   7.4173332383036805E-003   6.2174451309516321E-002
  -2.4517145229193779E-002   7.2971611628143696E-003   6.2557607060753140E-002
   1.7506829319557937E-014   1.2576051311441461E-013   6.6710294181468899E-002
   5.1798842992667460E-015   1.5630552407941423E-013   6.6520090876897503E-002
  -7.1487954445004220E-015   1.8860607520210237E-013   6.6529798737150828E-002
  -1.9476607826529602E-014   2.2267777899376284E-013   6.6739417762229053E-002
  -3.1804420208558781E-014   2.5840440898150518E-013   6.7148947952131999E-002
  -6.1866828089209187E-003   1.8242902907979197E-003   6.5733411177178333E-002
  -5.9930342561840700E-003   1.7808543562748136E-003   6.5572632844328710E-002
  -5.7993857034472230E-003   1.7322649204972312E-003   6.5599240452152624E-002
  -5.6057371507103786E-003   1.6785219834652455E-003   6.5813234000650034E-002
  -5.4120885979735273E-003   1.6196255451788322E-003   6.6214613489821078E-002
  -1.2335101283435609E-002   3.6485805814700650E-003   6.4715668988962222E-002
  -1.1960329402100824E-002   3.5617087123932453E-003   6.4579162126578188E-002
  -1.1585557520766045E-002   3.4645298408058529E-003   6.4617515980716481E-002
  -1.1210785639431262E-002   3.3570439667078124E-003   6.4830730551377017E-002
  -1.0836013758096480E-002   3.2392510900992877E-003   6.5218805838559907E-002
  -1.8445255423526558E-002   5.4728708721421895E-003   6.3657067616820509E-002
  -1.7901885437745083E-002   5.3425630685117291E-003   6.3539678723645840E-002
  -1.7358515451963614E-002   5.1967947611145041E-003   6.3584625322842328E-002
  -1.6815145466182124E-002   5.0355659499505181E-003   6.3791907414409849E-002
  -1.6271775480400659E-002   4.8588766350197016E-003   6.4161524998348457E-002
  -2.4517145229193779E-002   7.2971611628143696E-003   6.2557607060753140E-002
  -2.3817702363116849E-002   7.1234174246301851E-003   6.2454182635531846E-002
  -2.3118259497039918E-002   6.9290596814230998E-003   6.2500568478530333E-002
  -2.2418816630962981E-002   6.7140879331930026E-003   6.2696764589748669E-002
  -2.1719373764886054E-002   6.4785021799401710E-003   6.3042770969186812E-002
  -3.1804420208558781E-014   2.5840440898150518E-013   6.7148947952131999E-002
  -4.8534093410879109E-014   2.9679037005791997E-013   6.7254565675672534E-002
  -6.5265501336675413E-014   3.3836822233013208E-013   6.7500574107154154E-002
  -8.1993439815519764E-014   3.8288122672369695E-013   6.7886973246576665E-002
  -9.8726582464792045E-014   4.3098857815948577E-013   6.8413763093940205E-002
  -5.4120885979735273E-003   1.6196255451788322E-003   6.6214613489821078E-002
  -5.2628490717839668E-003   1.5493300887230027E-003   6.6308421201905207E-002
  -5.1136095455943959E-003   1.4613900971828866E-003   6.6560317258460913E-002
  -4.9643700194048294E-003   1.3558055705582012E-003   6.6970301659488307E-002
  -4.8151304932152646E-003   1.2325765088491147E-003   6.7538374404987306E-002
  -1.0836013758096480E-002   3.2392510900992877E-003   6.5218805838559907E-002
  -1.0519837069169976E-002   3.0986601771493955E-003   6.5283159004099922E-002
  -1.0203660380243462E-002   2.9227801940274051E-003   6.5523298150642187E-002
  -9.8874836913169593E-003   2.7116111407333547E-003   6.5939223278186604E-002
  -9.5713070023904501E-003   2.4651530172672409E-003   6.6530934386733395E-002
  -1.6271775480400659E-002   4.8588766350197016E-003   6.4161524998348457E-002
  -1.5770963992206559E-002   4.6479902655757258E-003   6.4178779082256679E-002
  -1.5270152504012474E-002   4.3841702908719790E-003   6.4389516783697809E-002
  -1.4769341015818383E-002   4.0674167109086747E-003   6.4793738102671833E-002
  -1.4268529527624276E-002   3.6977295256854503E-003   6.5391443039178723E-002
  -2.1719373764886054E-002   6.4785021799401710E-003   6.3042770969186812E-002
  -2.1016229840893751E-002   6.1973203540020283E-003   6.2995281436375561E-002
  -2.0313085916901411E-002   5.8455603877164836E-003   6.3158973157627862E-002
  -1.9609941992909091E-002   5.4232222810837831E-003   6.3533846132943814E-002
  -1.8906798068916777E-002   4.9303060341034377E-003   6.4119900362323179E-002
  -9.8726582464792045E-014   4.3098857815948577E-013   6.8413763093940205E-002
  -1.2317577513520916E-013   4.8236414862401489E-013   6.8483902370093108E-002
  -1.4762149835867433E-013   5.3750059958446172E-013   6.8765638907839682E-002
  -1.7207069102909145E-013   5.9597812795963989E-013   6.9258972707179636E-002
  -1.9651641425255661E-013   6.5797367554409902E-013   6.9963903768113289E-002
  -4.8151304932152646E-003   1.2325765088491147E-003   6.7538374404987306E-002
  -4.6100315228529160E-003   1.0769609954282555E-003   6.7637405189706984E-002
  -4.4049325524905623E-003   8.7421711366833521E-004   6.7935036653606659E-002
  -4.1998335821282120E-003   6.2434486356863911E-004   6.8431268796686290E-002
  -3.9947346117658600E-003   3.2734424513003457E-004   6.9126101618946001E-002
  -9.5713070023904501E-003   2.4651530172672409E-003   6.6530934386733395E-002
  -9.1741056440548217E-003   2.1539219903740497E-003   6.6611728311676999E-002
  -8.7769042857191986E-003   1.7484342267989547E-003   6.6878126333387050E-002
  -8.3797029273835685E-003   1.2486897265414684E-003   6.7330128451863605E-002
  -7.9825015690479610E-003   6.5468848960217874E-004   6.7967734667106719E-002
  -1.4268529527624276E-002   3.6977295256854503E-003   6.5391443039178723E-002
  -1.3692222363728914E-002   3.2308829853198648E-003   6.5406871736003430E-002
  -1.3115915199833536E-002   2.6226513399296818E-003   6.5594907947181036E-002
  -1.2539608035938151E-002   1.8730345895143245E-003   6.5955551672711651E-002
  -1.1963300872042781E-002   9.8203273407422575E-004   6.6488802912595277E-002
  -1.8906798068916777E-002   4.9303060341034377E-003   6.4119900362323179E-002
  -1.8164381681875161E-002   4.3078439802656798E-003   6.4022835462686112E-002
  -1.7421965294833561E-002   3.4968684530605060E-003   6.4085381494988491E-002
  -1.6679548907791969E-002   2.4973794524870384E-003   6.4307538459230276E-002
  -1.5937132520750345E-002   1.3093769785463838E-003   6.4689306355411702E-002
  -1.9651641425255661E-013   6.5797367554409902E-013   6.9963903768113289E-002
  -2.3652260705553374E-013   7.2319927824082697E-013   7.6877315086687714E-002
  -2.7652186096460696E-013   7.9165840549677569E-013   8.4105988113775981E-002
  -3.1652458432063213E-013   8.6282717082220017E-013   9.1649922849378437E-002
  -3.5653424657056121E-013   9.3725027738855715E-013   9.9509119293494264E-002
  -3.9947346117658600E-003   3.2734424513003457E-004   6.9126101618946001E-002
  -3.6736161242540352E-003  -1.5558476132906951E-004   7.5889973166996777E-002
  -3.3524976367422001E-003  -9.6324217548948710E-004   8.2980819981636866E-002
  -3.0313791492303970E-003  -2.0956279973512182E-003   9.0398642062867018E-002
  -2.7102606617185609E-003  -3.5527422269145958E-003   9.8143439410686928E-002
  -7.9825015690479610E-003   6.5468848960217874E-004   6.7967734667106719E-002
  -7.3285510359083457E-003  -3.1116952338128279E-004   7.4257338036928883E-002
  -6.6746005027687513E-003  -1.9264843517704175E-003   8.0885630231416816E-002
  -6.0206499696291646E-003  -4.1912559955654873E-003   8.7852611250570395E-002
  -5.3666994364895415E-003  -7.1054844547662199E-003   9.5158281094389841E-002
  -1.1963300872042781E-002   9.8203273407422575E-004   6.6488802912595277E-002
  -1.0964804735199448E-002  -4.6675428543352382E-004   7.1979409696484628E-002
  -9.9663085983561286E-003  -2.8897265280512889E-003   7.7820418863115637E-002
  -8.9678124615128231E-003  -6.2868839937797001E-003   8.4011830412488581E-002
  -7.9693163246694620E-003  -1.0658226682617900E-002   9.0553644344602946E-002
  -1.5937132520750345E-002   1.3093769785463838E-003   6.4689306355411702E-002
  -1.4582377222127359E-002  -6.2233904748593138E-004   6.9056188145663777E-002
  -1.3227621923504369E-002  -3.8529687043324379E-003   7.3785185876733550E-002
  -1.1872866624881408E-002  -8.3825119919938157E-003   7.8876299548621243E-002
  -1.0518111326258392E-002  -1.4210968910469690E-002   8.4329529161325967E-002
  -2.6585257914758475E-002   0.0000000000000000        2.9561778507690040E-002
  -2.7167136446562528E-002   5.5469669409120414E-004   3.5056191176417853E-002
  -2.7749014978366581E-002   1.2590240518945313E-003   4.0245417694257123E-002
  -2.8330893510170634E-002   2.1129820734099823E-003   4.5129458061207849E-002
  -2.8912772041974687E-002   3.1165707586375537E-003   4.9708312277270031E-002
  -3.3339149914112645E-002   0.0000000000000000        3.0239451610930272E-002
  -3.4161666982277288E-002   9.2796451928249101E-004   3.5340321520552248E-002
  -3.4984184050441916E-002   1.9609283886393184E-003   4.0265100508341603E-002
  -3.5806701118606558E-002   3.0988916080704762E-003   4.5013788574298337E-002
  -3.6629218186771194E-002   4.3418541775759730E-003   4.9586385718422450E-002
  -4.0678447293993843E-002   0.0000000000000000        3.1312708196180684E-002
  -4.1612507669463145E-002   1.3012323444737775E-003   3.5975404033059051E-002
  -4.2546568044932447E-002   2.6628327253841021E-003   4.0591104177160706E-002
  -4.3480628420401762E-002   4.0848011427309736E-003   4.5159808628485641E-002
  -4.4414688795871064E-002   5.5671375965143897E-003   4.9681517387033886E-002
  -4.8603150054402050E-002   0.0000000000000000        3.2781548263441283E-002
  -4.9519658508120096E-002   1.6745001696650632E-003   3.6961438713938227E-002
  -5.0436166961838162E-002   3.3647370621288863E-003   4.1223428700714389E-002
  -5.1352675415556208E-002   5.0707106773914710E-003   4.5567518223769768E-002
  -5.2269183869274274E-002   6.7924210154528108E-003   4.9993707283104358E-002
  -5.7113258195337281E-002   0.0000000000000000        3.4645971812712055E-002
  -5.7883119498248169E-002   2.0477679948563508E-003   3.8298425563189811E-002
  -5.8652980801159056E-002   4.0666413988736730E-003   4.2162074079002701E-002
  -5.9422842104069944E-002   6.0566202120519684E-003   4.6236917360150703E-002
  -6.0192703406980824E-002   8.0177044343912266E-003   5.0522955406633846E-002
  -2.8912772041974687E-002   3.1165707586375537E-003   4.9708312277270031E-002
  -2.8951399152591446E-002   4.1107972004037494E-003   5.1807437035631669E-002
  -2.8990026263208214E-002   4.9366684915350886E-003   5.4015868272416570E-002
  -2.9028653373824972E-002   5.5941846320315559E-003   5.6333605987624720E-002
  -2.9067280484441734E-002   6.0833456218932005E-003   5.8760650181256140E-002
  -3.6629218186771194E-002   4.3418541775759730E-003   4.9586385718422450E-002
  -3.6599113858657294E-002   5.5487695748695351E-003   5.1403186550221587E-002
  -3.6569009530543414E-002   6.5785912776648772E-003   5.3248143781058785E-002
  -3.6538905202429528E-002   7.4313192859620401E-003   5.5121257410933995E-002
  -3.6508800874315628E-002   8.1069535997610118E-003   5.7022527439847301E-002
  -4.4414688795871064E-002   5.5671375965143897E-003   4.9681517387033886E-002
  -4.4397003108411735E-002   6.9867419493353095E-003   5.1207255748407191E-002
  -4.4379317420952399E-002   8.2205140637946865E-003   5.2680000429433327E-002
  -4.4361631733493084E-002   9.2684539398925000E-003   5.4099751430112294E-002
  -4.4343946046033735E-002   1.0130561577628806E-002   5.5466508750444080E-002
  -5.2269183869274274E-002   6.7924210154528108E-003   4.9993707283104358E-002
  -5.2345066901854725E-002   8.4247143238010934E-003   5.1219644630188486E-002
  -5.2420949934435176E-002   9.8624368499244785E-003   5.2311438217540231E-002
  -5.2496832967015628E-002   1.1105588593822987E-002   5.3269088045159570E-002
  -5.2572715999596085E-002   1.2154169555496601E-002   5.4092594113046552E-002
  -6.0192703406980824E-002   8.0177044343912266E-003   5.0522955406633846E-002
  -6.0443305238986278E-002   9.8626866982668773E-003   5.1440353195565461E-002
  -6.0693907070991725E-002   1.1504359636054277E-002   5.2142457145379476E-002
  -6.0944508902997192E-002   1.2942723247753437E-002   5.2629267256075855E-002
  -6.1195110735002639E-002   1.4177777533364418E-002   5.2900783527654656E-002
  -2.9067280484441734E-002   6.0833456218932005E-003   5.8760650181256140E-002
  -2.8699579166346890E-002   6.4605411778436810E-003   5.9647591772219379E-002
  -2.8331877848252050E-002   6.7821610166067543E-003   6.0576574450802709E-002
  -2.7964176530157210E-002   7.0482051381824187E-003   6.1547598217006144E-002
  -2.7596475212062363E-002   7.2586735425706483E-003   6.2560663070829720E-002
  -3.6508800874315628E-002   8.1069535997610118E-003   5.7022527439847301E-002
  -3.6045347853027189E-002   8.6271475266545411E-003   5.7474873466289753E-002
  -3.5581894831738778E-002   9.0135543742354777E-003   5.8076681811499255E-002
  -3.5118441810450360E-002   9.2661741425038007E-003   5.8827952475475849E-002
  -3.4654988789161921E-002   9.3850068314594581E-003   5.9728685458219452E-002
  -4.4343946046033735E-002   1.0130561577628806E-002   5.5466508750444080E-002
  -4.3677320090404780E-002   1.0793753875465403E-002   5.5406047850240565E-002
  -4.3010694134775825E-002   1.1244947731864186E-002   5.5602470499951061E-002
  -4.2344068179146870E-002   1.1484143146825155E-002   5.6055776699575594E-002
  -4.1677442223517921E-002   1.1511340120348268E-002   5.6765966449114025E-002
  -5.2572715999596085E-002   1.2154169555496601E-002   5.4092594113046552E-002
  -5.1595495878479641E-002   1.2960360224276265E-002   5.3441114924071872E-002
  -5.0618275757363211E-002   1.3476341089492895E-002   5.3153940516158134E-002
  -4.9641055636246795E-002   1.3702112151146509E-002   5.3231070889305315E-002
  -4.8663835515130330E-002   1.3637673409237078E-002   5.3672506043513479E-002
  -6.1195110735002639E-002   1.4177777533364418E-002   5.2900783527654656E-002
  -5.9799875217251781E-002   1.5126966573087128E-002   5.1580074687783611E-002
  -5.8404639699500924E-002   1.5707734447121639E-002   5.0731091860120411E-002
  -5.7009404181750094E-002   1.5920081155467905E-002   5.0353835044665139E-002
  -5.5614168663999229E-002   1.5764006698125888E-002   5.0448304241417774E-002
  -2.7596475212062363E-002   7.2586735425706483E-003   6.2560663070829720E-002
  -2.6826642716345210E-002   7.3980894281817644E-003   6.2175979314554597E-002
  -2.6056810220628068E-002   7.4509759934260900E-003   6.2047242060783450E-002
  -2.5286977724910918E-002   7.4173332383036805E-003   6.2174451309516321E-002
  -2.4517145229193779E-002   7.2971611628143696E-003   6.2557607060753140E-002
  -3.4654988789161921E-002   9.3850068314594581E-003   5.9728685458219452E-002
  -3.3641364539711248E-002   9.4130520987369543E-003   5.9300748553712104E-002
  -3.2627740290260582E-002   9.3933096019705176E-003   5.9104448654167793E-002
  -3.1614116040809909E-002   9.3257793411603424E-003   5.9139785759586491E-002
  -3.0600491791359246E-002   9.2104613163063176E-003   5.9406759869968323E-002
  -4.1677442223517921E-002   1.1511340120348268E-002   5.6765966449114025E-002
  -4.0444335717874667E-002   1.1428014769292061E-002   5.6333517952697379E-002
  -3.9211229212231434E-002   1.1335643210514973E-002   5.6108396963702858E-002
  -3.7978122706588187E-002   1.1234225444017004E-002   5.6090603482130436E-002
  -3.6745016200944933E-002   1.1123761469798182E-002   5.6280137507980055E-002
  -4.8663835515130330E-002   1.3637673409237078E-002   5.3672506043513479E-002
  -4.7235556250835482E-002   1.3442977439847223E-002   5.3274287511510539E-002
  -4.5807276986540642E-002   1.3277976819059456E-002   5.3059086989388736E-002
  -4.4378997722245787E-002   1.3142671546873694E-002   5.3026904477148043E-002
  -4.2950718457950926E-002   1.3037061623290089E-002   5.3177739974788571E-002
  -5.5614168663999229E-002   1.5764006698125888E-002   5.0448304241417774E-002
  -5.4015026138593700E-002   1.5457940110402378E-002   5.0123057230151452E-002
  -5.2415883613188177E-002   1.5220310427603828E-002   4.9956518731225363E-002
  -5.0816741087782648E-002   1.5051117649730349E-002   4.9948688744639452E-002
  -4.9217598562377118E-002   1.4950361776781995E-002   5.0099567270393719E-002
  -2.4517145229193779E-002   7.2971611628143696E-003   6.2557607060753140E-002
  -2.3817702363116849E-002   7.1234174246301851E-003   6.2454182635531846E-002
  -2.3118259497039918E-002   6.9290596814230998E-003   6.2500568478530333E-002
  -2.2418816630962981E-002   6.7140879331930026E-003   6.2696764589748669E-002
  -2.1719373764886054E-002   6.4785021799401710E-003   6.3042770969186812E-002
  -3.0600491791359246E-002   9.2104613163063176E-003   5.9406759869968323E-002
  -2.9740180838008376E-002   9.0500378421078942E-003   5.9221696846546878E-002
  -2.8879869884657530E-002   8.8471912332643843E-003   5.9208559729453436E-002
  -2.8019558931306671E-002   8.6019214897761209E-003   5.9367348518688093E-002
  -2.7159247977955818E-002   8.3142286116429376E-003   5.9698063214250668E-002
  -3.6745016200944933E-002   1.1123761469798182E-002   5.6280137507980055E-002
  -3.5701721522211981E-002   1.0976658259585409E-002   5.5991626756736523E-002
  -3.4658426843479001E-002   1.0765322785105780E-002   5.5897157549929258E-002
  -3.3615132164746042E-002   1.0489755046359212E-002   5.5996729887558175E-002
  -3.2571837486013069E-002   1.0149955043345760E-002   5.6290343769623330E-002
  -4.2950718457950926E-002   1.3037061623290089E-002   5.3177739974788571E-002
  -4.1702324415727632E-002   1.2903278677062952E-002   5.2763972366100947E-002
  -4.0453930373504365E-002   1.2683454336947064E-002   5.2566361939957819E-002
  -3.9205536331281071E-002   1.2377588602942177E-002   5.2584908696359081E-002
  -3.7957142289057777E-002   1.1985681475048526E-002   5.2819612635304700E-002
  -4.9217598562377118E-002   1.4950361776781995E-002   5.0099567270393719E-002
  -4.7741989518555336E-002   1.4829899094540619E-002   4.9538733674640151E-002
  -4.6266380474733575E-002   1.4601585888788474E-002   4.9216172899539085E-002
  -4.4790771430911813E-002   1.4265422159525327E-002   4.9131884945090645E-002
  -4.3315162387090003E-002   1.3821407906751404E-002   4.9285869811294847E-002
  -2.1719373764886054E-002   6.4785021799401710E-003   6.3042770969186812E-002
  -2.1016229840893751E-002   6.1973203540020283E-003   6.2995281436375561E-002
  -2.0313085916901411E-002   5.8455603877164836E-003   6.3158973157627862E-002
  -1.9609941992909091E-002   5.4232222810837831E-003   6.3533846132943814E-002
  -1.8906798068916777E-002   4.9303060341034377E-003   6.4119900362323179E-002
  -2.7159247977955818E-002   8.3142286116429376E-003   5.9698063214250668E-002
  -2.6248508756846263E-002   7.9745631432495689E-003   5.9608222336394262E-002
  -2.5337769535736718E-002   7.5733756289804999E-003   5.9722390798708627E-002
  -2.4427030314627167E-002   7.1106660688362508E-003   6.0040568601194048E-002
  -2.3516291093517640E-002   6.5864344628163707E-003   6.0562755743850172E-002
  -3.2571837486013069E-002   1.0149955043345760E-002   5.6290343769623330E-002
  -3.1460674881678932E-002   9.7518059324969847E-003   5.6167207641193539E-002
  -3.0349512277344785E-002   9.3011908702446897E-003   5.6240908939042024E-002
  -2.9238349673010654E-002   8.7981098565888313E-003   5.6511447663168818E-002
  -2.8127187068676528E-002   8.2425628915293314E-003   5.6978823813573817E-002
  -3.7957142289057777E-002   1.1985681475048526E-002   5.2819612635304700E-002
  -3.6652728215391714E-002   1.1529048721744463E-002   5.2672237350773470E-002
  -3.5348314141725630E-002   1.1029006111508848E-002   5.2714527578627809E-002
  -3.4043900068059581E-002   1.0485553644341356E-002   5.2946483318867830E-002
  -3.2739485994393483E-002   9.8986913202422783E-003   5.3368104571493477E-002
  -4.3315162387090003E-002   1.3821407906751404E-002   4.9285869811294847E-002
  -4.1824668757984629E-002   1.3306291510991941E-002   4.9123311465133990E-002
  -4.0334175128879247E-002   1.2756821352772799E-002   4.9143246717466227E-002
  -3.8843681499773866E-002   1.2172997432093855E-002   4.9345675568291406E-002
  -3.7353187870668478E-002   1.1554819748955170E-002   4.9730598017609540E-002
  -1.8906798068916777E-002   4.9303060341034377E-003   6.4119900362323179E-002
  -1.8164381681875161E-002   4.3078439802656798E-003   6.4022835462686112E-002
  -1.7421965294833561E-002   3.4968684530605060E-003   6.4085381494988491E-002
  -1.6679548907791969E-002   2.4973794524870384E-003   6.4307538459230276E-002
  -1.5937132520750345E-002   1.3093769785463838E-003   6.4689306355411702E-002
  -2.3516291093517640E-002   6.5864344628163707E-003   6.0562755743850172E-002
  -2.2602472063033605E-002   5.9662137848969787E-003   6.0316594819512431E-002
  -2.1688653032549556E-002   5.2155370090544301E-003   6.0253628250120178E-002
  -2.0774834002065534E-002   4.3344041352879926E-003   6.0373856035673162E-002
  -1.9861014971581499E-002   3.3228151635984471E-003   6.0677278176171634E-002
  -2.8127187068676528E-002   8.2425628915293314E-003   5.6978823813573817E-002
  -2.7018381971744151E-002   7.6245835895284719E-003   5.6641624239979552E-002
  -2.5909576874811793E-002   6.9342055650484166E-003   5.6511202444336640E-002
  -2.4800771777879451E-002   6.1714288180890042E-003   5.6587558426644854E-002
  -2.3691966680947085E-002   5.3362533486505104E-003   5.6870692186904603E-002
  -3.2739485994393483E-002   9.8986913202422783E-003   5.3368104571493477E-002
  -3.1412111408006885E-002   9.2829533941598125E-003   5.2997923724087084E-002
  -3.0084736821620255E-002   8.6528741210423719E-003   5.2858104077637844E-002
  -2.8757362235233657E-002   8.0084535008899879E-003   5.2948645632145831E-002
  -2.7429987648847048E-002   7.3496915337025737E-003   5.3269548387611027E-002
  -3.7353187870668478E-002   1.1554819748955170E-002   4.9730598017609540E-002
  -3.5783660371821707E-002   1.0941323198791209E-002   4.9385493271835168E-002
  -3.4214132872974971E-002   1.0371542677036383E-002   4.9294333150023933E-002
  -3.2644605374128208E-002   9.8454781836909006E-003   4.9457117652175753E-002
  -3.1075077875281465E-002   9.3631297187546925E-003   4.9873846778290598E-002
  -1.5937132520750345E-002   1.3093769785463838E-003   6.4689306355411702E-002
  -1.4582377222127359E-002  -6.2233904748593138E-004   6.9056188145663777E-002
  -1.3227621923504369E-002  -3.8529687043324379E-003   7.3785185876733550E-002
  -1.1872866624881408E-002  -8.3825119919938157E-003   7.8876299548621243E-002
  -1.0518111326258392E-002  -1.4210968910469690E-002   8.4329529161325967E-002
  -1.9861014971581499E-002   3.3228151635984471E-003   6.0677278176171634E-002
  -1.8270118653759340E-002   1.6555447158390635E-003   6.3771205543755483E-002
  -1.6679222335937192E-002  -1.1926325861359860E-003   6.6975299008920158E-002
  -1.5088326018115038E-002  -5.2217167423269338E-003   7.0289558571665814E-002
  -1.3497429700292905E-002  -1.0431707752733610E-002   7.3713984231991603E-002
  -2.3691966680947085E-002   5.3362533486505104E-003   5.6870692186904603E-002
  -2.2116879187162763E-002   3.9334284791638086E-003   5.8809671908419445E-002
  -2.0541791693378421E-002   1.4677035320605214E-003   6.0606867884277868E-002
  -1.8966704199594061E-002  -2.0609214926600242E-003   6.2262280114480248E-002
  -1.7391616705809722E-002  -6.6524465949973077E-003   6.3775908599026099E-002
  -2.7429987648847048E-002   7.3496915337025737E-003   5.3269548387611027E-002
  -2.6122658822337483E-002   6.2113122424886230E-003   5.4171587239655386E-002
  -2.4815329995827959E-002   4.1280396502567790E-003   5.4679892502806741E-002
  -2.3508001169318404E-002   1.0998737570068716E-003   5.4794464177064559E-002
  -2.2200672342808862E-002  -2.8731854372611165E-003   5.4515302262429260E-002
  -3.1075077875281465E-002   9.3631297187546925E-003   4.9873846778290598E-002
  -3.0287457559283679E-002   8.4891960058135485E-003   4.9856951537463612E-002
  -2.9499837243285879E-002   6.7883757684534113E-003   4.9194372864506314E-002
  -2.8712216927288051E-002   4.2606690066735835E-003   4.7886110759418718E-002
  -2.7924596611290264E-002   9.0607572047507468E-004   4.5932165222200894E-002
  -5.7113258195337281E-002   0.0000000000000000        3.4645971812712055E-002
  -5.7883119498248169E-002   2.0477679948563508E-003   3.8298425563189811E-002
  -5.8652980801159056E-002   4.0666413988736730E-003   4.2162074079002701E-002
  -5.9422842104069944E-002   6.0566202120519684E-003   4.6236917360150703E-002
  -6.0192703406980824E-002   8.0177044343912266E-003   5.0522955406633846E-002
  -6.5795652137997582E-002   0.0000000000000000        3.7134724405168205E-002
  -6.6583636284310785E-002   2.8866439111820087E-003   4.0755601045111466E-002
  -6.7371620430623974E-002   5.7159958554551596E-003   4.4129037232914975E-002
  -6.8159604576937163E-002   8.4880558328194501E-003   4.7255032968578727E-002
  -6.8947588723250366E-002   1.1202823843274890E-002   5.0133588252102755E-002
  -7.4237212303581004E-002   0.0000000000000000        4.0476551601984927E-002
  -7.5501954510771394E-002   3.7255198275076657E-003   4.4037453755323842E-002
  -7.6766696717961755E-002   7.3653503120366436E-003   4.6892280239048151E-002
  -7.8031438925152144E-002   1.0919491453586935E-002   4.9041031053157838E-002
  -7.9296181132342505E-002   1.4387943252158534E-002   5.0483706197652918E-002
  -8.2437938692087570E-002   0.0000000000000000        4.4671453403162226E-002
  -8.4638074177629988E-002   4.5643957438333245E-003   4.8143983693826990E-002
  -8.6838209663172433E-002   9.0147047686181259E-003   5.0451803097402256E-002
  -8.9038345148714851E-002   1.3350927074354417E-002   5.1594911613888045E-002
  -9.1238480634257269E-002   1.7573062661042180E-002   5.1573309243284349E-002
  -9.0397831303517251E-002   0.0000000000000000        4.9719429808700095E-002
  -9.3991995284886581E-002   5.4032716601589807E-003   5.3075190860620854E-002
  -9.7586159266255940E-002   1.0664059225199614E-002   5.4807605807977264E-002
 -0.10118032324762528        1.5782362695121906E-002   5.4916674650769312E-002
 -0.10477448722899463        2.0758182069925836E-002   5.3402397388997019E-002
  -6.0192703406980824E-002   8.0177044343912266E-003   5.0522955406633846E-002
  -6.0443305238986278E-002   9.8626866982668773E-003   5.1440353195565461E-002
  -6.0693907070991725E-002   1.1504359636054277E-002   5.2142457145379476E-002
  -6.0944508902997192E-002   1.2942723247753437E-002   5.2629267256075855E-002
  -6.1195110735002639E-002   1.4177777533364418E-002   5.2900783527654656E-002
  -6.8947588723250366E-002   1.1202823843274890E-002   5.0133588252102755E-002
  -6.9178129838054131E-002   1.3617464824714145E-002   4.9319497795925246E-002
  -6.9408670952857882E-002   1.5489143715029971E-002   4.8760822613268716E-002
  -6.9639212067661618E-002   1.6817860514222335E-002   4.8457562704133192E-002
  -6.9869753182465383E-002   1.7603615222291244E-002   4.8409718068518681E-002
  -7.9296181132342505E-002   1.4387943252158534E-002   5.0483706197652918E-002
  -7.9035952417305960E-002   1.7372242951161455E-002   4.7598474731331018E-002
  -7.8775723702269429E-002   1.9473927794005693E-002   4.5439367651168752E-002
  -7.8515494987232870E-002   2.0692997780691235E-002   4.4006384957166064E-002
  -7.8255266272196339E-002   2.1029452911218108E-002   4.3299526649323010E-002
  -9.1238480634257269E-002   1.7573062661042180E-002   5.1573309243284349E-002
  -9.0016772976741793E-002   2.1127021077608735E-002   4.6277284001782854E-002
  -8.8795065319226305E-002   2.3458711872981403E-002   4.2178092259079571E-002
  -8.7573357661710857E-002   2.4568135047160131E-002   3.9275734015174542E-002
  -8.6351650004195368E-002   2.4455290600144959E-002   3.7570209270067718E-002
 -0.10477448722899463        2.0758182069925836E-002   5.3402397388997019E-002
 -0.10212059151636163        2.4881799204056036E-002   4.5355925607280689E-002
  -9.9466695803728633E-002   2.7443495951957109E-002   3.8976996437001213E-002
  -9.6812800091095622E-002   2.8443272313629007E-002   3.4265609878158548E-002
  -9.4158904378462638E-002   2.7881128289071806E-002   3.1221765930752744E-002
  -6.1195110735002639E-002   1.4177777533364418E-002   5.2900783527654656E-002
  -5.9799875217251781E-002   1.5126966573087128E-002   5.1580074687783611E-002
  -5.8404639699500924E-002   1.5707734447121639E-002   5.0731091860120411E-002
  -5.7009404181750094E-002   1.5920081155467905E-002   5.0353835044665139E-002
  -5.5614168663999229E-002   1.5764006698125888E-002   5.0448304241417774E-002
  -6.9869753182465383E-002   1.7603615222291244E-002   4.8409718068518681E-002
  -6.8056911899155276E-002   1.8008877783684527E-002   4.7030796655772797E-002
  -6.6244070615845113E-002   1.8196118142849906E-002   4.6015360761937608E-002
  -6.4431229332534951E-002   1.8165336299787446E-002   4.5363410387013095E-002
  -6.2618388049224830E-002   1.7916532254497131E-002   4.5074945530999284E-002
  -7.8255266272196339E-002   2.1029452911218108E-002   4.3299526649323010E-002
  -7.6133059716624082E-002   2.0890788994281900E-002   4.2012791627162704E-002
  -7.4010853161051882E-002   2.0684501838578170E-002   4.0981301630615849E-002
  -7.1888646605479639E-002   2.0410591444107014E-002   4.0205056659682520E-002
  -6.9766440049907424E-002   2.0069057810868318E-002   3.9684056714362578E-002
  -8.6351650004195368E-002   2.4455290600144959E-002   3.7570209270067718E-002
  -8.4028318669658292E-002   2.3772700204879288E-002   3.6526059601953327E-002
  -8.1704987335121229E-002   2.3172885534306464E-002   3.5628914466155182E-002
  -7.9381656000584139E-002   2.2655846588426527E-002   3.4878773862673310E-002
  -7.7058324666047062E-002   2.2221583367239520E-002   3.4275637791507690E-002
  -9.4158904378462638E-002   2.7881128289071806E-002   3.1221765930752744E-002
  -9.1742688758257890E-002   2.6654611415476665E-002   3.0570600580144672E-002
  -8.9326473138053142E-002   2.5661269230034721E-002   2.9958199268555630E-002
  -8.6910257517848408E-002   2.4901101732746150E-002   2.9384561995985645E-002
  -8.4494041897643660E-002   2.4374108923610721E-002   2.8849688762434766E-002
  -5.5614168663999229E-002   1.5764006698125888E-002   5.0448304241417774E-002
  -5.4015026138593700E-002   1.5457940110402378E-002   5.0123057230151452E-002
  -5.2415883613188177E-002   1.5220310427603828E-002   4.9956518731225363E-002
  -5.0816741087782648E-002   1.5051117649730349E-002   4.9948688744639452E-002
  -4.9217598562377118E-002   1.4950361776781995E-002   5.0099567270393719E-002
  -6.2618388049224830E-002   1.7916532254497131E-002   4.5074945530999284E-002
  -6.0834853470139574E-002   1.7582133410875223E-002   4.4689184200860405E-002
  -5.9051318891054340E-002   1.7294567172818222E-002   4.4513498465740764E-002
  -5.7267784311969085E-002   1.7053833540325872E-002   4.4547888325640335E-002
  -5.5484249732883843E-002   1.6859932513398512E-002   4.4792353780559277E-002
  -6.9766440049907424E-002   2.0069057810868318E-002   3.9684056714362578E-002
  -6.7747146334463423E-002   1.9706326711348181E-002   3.9216176765990915E-002
  -6.5727852619019422E-002   1.9368823918032532E-002   3.9009739495317511E-002
  -6.3708558903575435E-002   1.9056549430921426E-002   3.9064744902342366E-002
  -6.1689265188131462E-002   1.8769503250014918E-002   3.9381192987065577E-002
  -7.7058324666047062E-002   2.2221583367239520E-002   3.4275637791507690E-002
  -7.4751904731565247E-002   2.1830520011821127E-002   3.3704034925542949E-002
  -7.2445484797083445E-002   2.1443080663246898E-002   3.3445241819955590E-002
  -7.0139064862601602E-002   2.1059265321517064E-002   3.3499258474745462E-002
  -6.7832644928119801E-002   2.0679073986631352E-002   3.3866084889912662E-002
  -8.4494041897643660E-002   2.4374108923610721E-002   2.8849688762434766E-002
  -8.1849128661445003E-002   2.3954713312293999E-002   2.8152758679516707E-002
  -7.9204215425246333E-002   2.3517337408461222E-002   2.7820005439654974E-002
  -7.6559302189047704E-002   2.3061981212112486E-002   2.7851429042849624E-002
  -7.3914388952849019E-002   2.2588644723247869E-002   2.8247029489100572E-002
  -4.9217598562377118E-002   1.4950361776781995E-002   5.0099567270393719E-002
  -4.7741989518555336E-002   1.4829899094540619E-002   4.9538733674640151E-002
  -4.6266380474733575E-002   1.4601585888788474E-002   4.9216172899539085E-002
  -4.4790771430911813E-002   1.4265422159525327E-002   4.9131884945090645E-002
  -4.3315162387090003E-002   1.3821407906751404E-002   4.9285869811294847E-002
  -5.5484249732883843E-002   1.6859932513398512E-002   4.4792353780559277E-002
  -5.3788987570109491E-002   1.6651213695631092E-002   4.4182376842987078E-002
  -5.2093725407335117E-002   1.6366026690619151E-002   4.3773433322667567E-002
  -5.0398463244560737E-002   1.6004371498362702E-002   4.3565523219600666E-002
  -4.8703201081786336E-002   1.5566248118861647E-002   4.3558646533786383E-002
  -6.1689265188131462E-002   1.8769503250014918E-002   3.9381192987065577E-002
  -5.9811589309804430E-002   1.8472528296721517E-002   3.8753455043941204E-002
  -5.7933913431477413E-002   1.8130467492449905E-002   3.8289511114669501E-002
  -5.6056237553150361E-002   1.7743320837200045E-002   3.7989361199250476E-002
  -5.4178561674823350E-002   1.7311088330971974E-002   3.7853005297684053E-002
  -6.7832644928119801E-002   2.0679073986631352E-002   3.3866084889912662E-002
  -6.5809794737640134E-002   2.0293842897811939E-002   3.3251968277502437E-002
  -6.3786944547160454E-002   1.9894908294280634E-002   3.2764406275544840E-002
  -6.1764094356680815E-002   1.9482270176037379E-002   3.2403398884040098E-002
  -5.9741244166201135E-002   1.9055928543082204E-002   3.2168946102987803E-002
  -7.3914388952849019E-002   2.2588644723247869E-002   2.8247029489100572E-002
  -7.1783603853616623E-002   2.2115157498902457E-002   2.7677916543670855E-002
  -6.9652818754384310E-002   2.1659349096111342E-002   2.7198118805293728E-002
  -6.7522033655151956E-002   2.1221219514874740E-002   2.6807636273969350E-002
  -6.5391248555919601E-002   2.0800768755192600E-002   2.6506468949697715E-002
  -4.3315162387090003E-002   1.3821407906751404E-002   4.9285869811294847E-002
  -4.1824668757984629E-002   1.3306291510991941E-002   4.9123311465133990E-002
  -4.0334175128879247E-002   1.2756821352772799E-002   4.9143246717466227E-002
  -3.8843681499773866E-002   1.2172997432093855E-002   4.9345675568291406E-002
  -3.7353187870668478E-002   1.1554819748955170E-002   4.9730598017609540E-002
  -4.8703201081786336E-002   1.5566248118861647E-002   4.3558646533786383E-002
  -4.7031019598052275E-002   1.5059228682442860E-002   4.3260121700895271E-002
  -4.5358838114318165E-002   1.4490885319433364E-002   4.3142478978768606E-002
  -4.3686656630584041E-002   1.3861218029832850E-002   4.3205718367406387E-002
  -4.2014475146849979E-002   1.3170226813641495E-002   4.3449839866808670E-002
  -5.4178561674823350E-002   1.7311088330971974E-002   3.7853005297684053E-002
  -5.2326303824189103E-002   1.6812165853893724E-002   3.7391543813931546E-002
  -5.0474045973554843E-002   1.6224949286093700E-002   3.7109352953215040E-002
  -4.8621788122920569E-002   1.5549438627571731E-002   3.7006432715534304E-002
  -4.6769530272286280E-002   1.4785633878327847E-002   3.7082783100889555E-002
  -5.9741244166201135E-002   1.9055928543082204E-002   3.2168946102987803E-002
  -5.7710521436395268E-002   1.8565103025344754E-002   3.1517577804242997E-002
  -5.5679798706589380E-002   1.7959013252754039E-002   3.1043868640805439E-002
  -5.3649075976783450E-002   1.7237659225310752E-002   3.0747818612675226E-002
  -5.1618353246977569E-002   1.6401040943014325E-002   3.0629427719852394E-002
  -6.5391248555919601E-002   2.0800768755192600E-002   2.6506468949697715E-002
  -6.3183672434670601E-002   2.0318040196795562E-002   2.5638223671829385E-002
  -6.0976096313421643E-002   1.9693077219414601E-002   2.4946026041539837E-002
  -5.8768520192172664E-002   1.8925879823049663E-002   2.4429876058829056E-002
  -5.6560944070923713E-002   1.8016448007700525E-002   2.4089773723697194E-002
  -3.7353187870668478E-002   1.1554819748955170E-002   4.9730598017609540E-002
  -3.5783660371821707E-002   1.0941323198791209E-002   4.9385493271835168E-002
  -3.4214132872974971E-002   1.0371542677036383E-002   4.9294333150023933E-002
  -3.2644605374128208E-002   9.8454781836909006E-003   4.9457117652175753E-002
  -3.1075077875281465E-002   9.3631297187546925E-003   4.9873846778290598E-002
  -4.2014475146849979E-002   1.3170226813641495E-002   4.3449839866808670E-002
  -4.0189975340125958E-002   1.2481091095932623E-002   4.3066370431676076E-002
  -3.8365475533401958E-002   1.1856990301780126E-002   4.2938900988335055E-002
  -3.6540975726677950E-002   1.1297924431183329E-002   4.3067431536785314E-002
  -3.4716475919953929E-002   1.0803893484142901E-002   4.3451962077027007E-002
  -4.6769530272286280E-002   1.4785633878327847E-002   3.7082783100889555E-002
  -4.4688002789856789E-002   1.4020858993074453E-002   3.6682267871545701E-002
  -4.2606475307427248E-002   1.3342437926523870E-002   3.6539808001821619E-002
  -4.0524947824997722E-002   1.2750370678676091E-002   3.6655403491717149E-002
  -3.8443420342568216E-002   1.2244657249531193E-002   3.7029054341232367E-002
  -5.1618353246977569E-002   1.6401040943014325E-002   3.0629427719852394E-002
  -4.9277742721014220E-002   1.5560626890216020E-002   3.0233185591444046E-002
  -4.6937132195050905E-002   1.4827885551267586E-002   3.0097054190483731E-002
  -4.4596521669087556E-002   1.4202816926168798E-002   3.0221033516971422E-002
  -4.2255911143124228E-002   1.3685421014919388E-002   3.0605123570906830E-002
  -5.6560944070923713E-002   1.8016448007700525E-002   2.4089773723697194E-002
  -5.3959195133598314E-002   1.7100394787357726E-002   2.3719123591371127E-002
  -5.1357446196272874E-002   1.6313333176011371E-002   2.3610639554321217E-002
  -4.8755697258947413E-002   1.5655263173661286E-002   2.3764321612547670E-002
  -4.6153948321622035E-002   1.5126184780307750E-002   2.4180169766050252E-002
  -3.1075077875281465E-002   9.3631297187546925E-003   4.9873846778290598E-002
  -3.0287457559283679E-002   8.4891960058135485E-003   4.9856951537463612E-002
  -2.9499837243285879E-002   6.7883757684534113E-003   4.9194372864506314E-002
  -2.8712216927288051E-002   4.2606690066735835E-003   4.7886110759418718E-002
  -2.7924596611290264E-002   9.0607572047507468E-004   4.5932165222200894E-002
  -3.4716475919953929E-002   1.0803893484142901E-002   4.3451962077027007E-002
  -3.4338420061196778E-002   1.0207489267035186E-002   4.3037305439093287E-002
  -3.3960364202439551E-002   9.3413035862378591E-003   4.2449203318808554E-002
  -3.3582308343682421E-002   8.2053364417503105E-003   4.1687655716172639E-002
  -3.3204252484925173E-002   6.7995878335727067E-003   4.0752662631186043E-002
  -3.8443420342568216E-002   1.2244657249531193E-002   3.7029054341232367E-002
  -3.8002690991272389E-002   1.1925782528257267E-002   3.6773741366921076E-002
  -3.7561961639976611E-002   1.1894231404022536E-002   3.6817220860037990E-002
  -3.7121232288680792E-002   1.2150003876826984E-002   3.7159492820583298E-002
  -3.6680502937385062E-002   1.2693099946670561E-002   3.7800557248556632E-002
  -4.2255911143124228E-002   1.3685421014919388E-002   3.0605123570906830E-002
  -4.1280270349510532E-002   1.3644075789479237E-002   3.1066259320947157E-002
  -4.0304629555896865E-002   1.4447159221807154E-002   3.2298425488194941E-002
  -3.9328988762283149E-002   1.6094671311903685E-002   3.4301622072650119E-002
  -3.8353347968669613E-002   1.8586612059768359E-002   3.7075849074312980E-002
  -4.6153948321622035E-002   1.5126184780307750E-002   2.4180169766050252E-002
  -4.4171158135911270E-002   1.5362369050701041E-002   2.5914859301171267E-002
  -4.2188367950200464E-002   1.7000087039591869E-002   2.8892817203279159E-002
  -4.0205577764489665E-002   2.0039338746980353E-002   3.3114043472373775E-002
  -3.8222787578778950E-002   2.4480124172866047E-002   3.8578538108454907E-002
  -9.0397831303517251E-002   0.0000000000000000        4.9719429808700095E-002
  -9.3991995284886581E-002   5.4032716601589807E-003   5.3075190860620854E-002
  -9.7586159266255940E-002   1.0664059225199614E-002   5.4807605807977264E-002
 -0.10118032324762528        1.5782362695121906E-002   5.4916674650769312E-002
 -0.10477448722899463        2.0758182069925836E-002   5.3402397388997019E-002
 -0.10334324091206108        0.0000000000000000        5.8551522635214737E-002
 -0.10688125813833889        1.0888800882435660E-002   5.2002795665051595E-002
 -0.11041927536461668        1.9175859639120364E-002   4.7189708309635876E-002
 -0.11395729259089449        2.4861176270054127E-002   4.4112260568967582E-002
 -0.11749530981717228        2.7944750775236948E-002   4.2770452443046697E-002
 -0.12650051829191003        0.0000000000000000        7.4098773699322357E-002
 -0.12662340304378453        1.6374330104712339E-002   5.5186300676442715E-002
 -0.12674628779565900        2.7687660053041123E-002   4.1368452987622269E-002
 -0.12686917254753352        3.3939989844986349E-002   3.2645230632861018E-002
 -0.12699205729940799        3.5131319480548026E-002   2.9016633612158990E-002
 -0.15986966344306416        0.0000000000000000        9.6361183001022949E-002
 -0.15321843000122351        2.1859859326989015E-002   6.2625705894794201E-002
 -0.14656719655938294        3.6199460466961875E-002   3.7343839841936434E-002
 -0.13991596311754231        4.3018803419918587E-002   2.0515584842449645E-002
 -0.13326472967570174        4.2317888185859139E-002   1.2140940896333861E-002
 -0.20345067636552341        0.0000000000000000       0.12533875054031654     
 -0.18666633901065594        2.7345388549265697E-002   7.4321011320106073E-002
 -0.16988200165578846        4.4711260880882620E-002   3.5115868872578351E-002
 -0.15309766430092095        5.2097616994850805E-002   7.7233231977334171E-003
 -0.13631332694605347        4.9504456891170209E-002  -7.8566257044287505E-003
 -0.10477448722899463        2.0758182069925836E-002   5.3402397388997019E-002
 -0.10212059151636163        2.4881799204056036E-002   4.5355925607280689E-002
  -9.9466695803728633E-002   2.7443495951957109E-002   3.8976996437001213E-002
  -9.6812800091095622E-002   2.8443272313629007E-002   3.4265609878158548E-002
  -9.4158904378462638E-002   2.7881128289071806E-002   3.1221765930752744E-002
 -0.11749530981717228        2.7944750775236948E-002   4.2770452443046697E-002
 -0.11355718355728646        2.9405422548766783E-002   3.6461751841196342E-002
 -0.10961905729740060        3.0222030984741636E-002   3.1053969722414820E-002
 -0.10568093103751471        3.0394576083161505E-002   2.6547106086702198E-002
 -0.10174280477762890        2.9923057844026379E-002   2.2941160934058357E-002
 -0.12699205729940799        3.5131319480548026E-002   2.9016633612158990E-002
 -0.12253632462063727        3.3929045893477526E-002   2.5363561238848652E-002
 -0.11808059194186651        3.3000566017526205E-002   2.1844783220239236E-002
 -0.11362485926309579        3.2345879852693958E-002   1.8460299556330790E-002
 -0.10916912658432501        3.1964987398980904E-002   1.5210110247123152E-002
 -0.13326472967570174        4.2317888185859139E-002   1.2140940896333861E-002
 -0.12905801470641406        3.8452669238188242E-002   1.2061353800237727E-002
 -0.12485129973712639        3.5779101050310708E-002   1.1349436930474514E-002
 -0.12064458476783871        3.4297183622226418E-002   1.0005190287044401E-002
 -0.11643786979855103        3.4006916953935436E-002   8.0286138699471009E-003
 -0.13631332694605347        4.9504456891170209E-002  -7.8566257044287505E-003
 -0.13312225381461684        4.2976292582899034E-002  -3.4448704746365202E-003
 -0.12993118068318021        3.8557636083095245E-002  -4.3206914687922600E-004
 -0.12674010755174356        3.6248487391758927E-002   1.1817782788430225E-003
 -0.12354903442030693        3.6048846508890009E-002   1.3966718025302804E-003
  -9.4158904378462638E-002   2.7881128289071806E-002   3.1221765930752744E-002
  -9.1742688758257890E-002   2.6654611415476665E-002   3.0570600580144672E-002
  -8.9326473138053142E-002   2.5661269230034721E-002   2.9958199268555630E-002
  -8.6910257517848408E-002   2.4901101732746150E-002   2.9384561995985645E-002
  -8.4494041897643660E-002   2.4374108923610721E-002   2.8849688762434766E-002
 -0.10174280477762890        2.9923057844026379E-002   2.2941160934058357E-002
  -9.9282828731033793E-002   2.9140031470106711E-002   2.2579681441361330E-002
  -9.6822852684438701E-002   2.8378052164173048E-002   2.2266958762425910E-002
  -9.4362876637843610E-002   2.7637119926225313E-002   2.2002992897252154E-002
  -9.1902900591248560E-002   2.6917234756263606E-002   2.1787783845840042E-002
 -0.10916912658432501        3.1964987398980904E-002   1.5210110247123152E-002
 -0.10665539733659700        3.1625451524736760E-002   1.4926188992169895E-002
 -0.10414166808886900        3.1094835098311274E-002   1.4701017325720742E-002
 -0.10162793884114099        3.0373138119704532E-002   1.4534595247775903E-002
  -9.9114209593412980E-002   2.9460360588916448E-002   1.4426922758335223E-002
 -0.11643786979855103        3.4006916953935436E-002   8.0286138699471009E-003
 -0.11386039457494752        3.4110871579366840E-002   7.6101232325702780E-003
 -0.11128291935134396        3.3811618032449593E-002   7.2603749584402326E-003
 -0.10870544412774040        3.3109156313183750E-002   6.9793690475569055E-003
 -0.10612796890413689        3.2003486421569353E-002   6.7671054999205154E-003
 -0.12354903442030693        3.6048846508890009E-002   1.3966718025302804E-003
 -0.12089782044608527        3.6596291633996858E-002   6.3148416256261775E-004
 -0.11824660647186365        3.6528400966587896E-002  -5.4968339415775724E-005
 -0.11559539249764200        3.5845174506662941E-002  -6.6268570340466751E-004
 -0.11294417852342037        3.4546612254222175E-002  -1.1916679294042276E-003
  -8.4494041897643660E-002   2.4374108923610721E-002   2.8849688762434766E-002
  -8.1849128661445003E-002   2.3954713312293999E-002   2.8152758679516707E-002
  -7.9204215425246333E-002   2.3517337408461222E-002   2.7820005439654974E-002
  -7.6559302189047704E-002   2.3061981212112486E-002   2.7851429042849624E-002
  -7.3914388952849019E-002   2.2588644723247869E-002   2.8247029489100572E-002
  -9.1902900591248560E-002   2.6917234756263606E-002   2.1787783845840042E-002
  -8.8982576860929974E-002   2.6232382232189148E-002   2.1215156071062231E-002
  -8.6062253130611346E-002   2.5596547931903111E-002   2.0829172441467897E-002
  -8.3141929400292719E-002   2.5009731855405712E-002   2.0629832957057167E-002
  -8.0221605669974133E-002   2.4471934002696732E-002   2.0617137617829948E-002
  -9.9114209593412980E-002   2.9460360588916448E-002   1.4426922758335223E-002
  -9.6096008066847260E-002   2.8510051152084250E-002   1.4045595808002315E-002
  -9.3077806540281596E-002   2.7675758455345055E-002   1.3673380304979943E-002
  -9.0059605013715932E-002   2.6957482498698858E-002   1.3310276249268227E-002
  -8.7041403487150226E-002   2.6355223282145637E-002   1.2956283640867226E-002
 -0.10612796890413689        3.2003486421569353E-002   6.7671054999205154E-003
 -0.10318942227919697        3.0787720071979306E-002   6.6440778903368936E-003
 -0.10025087565425708        2.9754968978786846E-002   6.3526290301910929E-003
  -9.7312329029317218E-002   2.8905233141992014E-002   5.8927589194829903E-003
  -9.4373782404377354E-002   2.8238512561594549E-002   5.2644675582125631E-003
 -0.11294417852342037        3.4546612254222175E-002  -1.1916679294042276E-003
 -0.11026281949797911        3.3065388991874528E-002  -9.8939768193401223E-004
 -0.10758146047253789        3.1834179502228860E-002  -1.1330813828989983E-003
 -0.10490010144709665        3.0852983785285081E-002  -1.6227190322990401E-003
 -0.10221874242165541        3.0121801841043405E-002  -2.4583106301339641E-003
  -7.3914388952849019E-002   2.2588644723247869E-002   2.8247029489100572E-002
  -7.1783603853616623E-002   2.2115157498902457E-002   2.7677916543670855E-002
  -6.9652818754384310E-002   2.1659349096111342E-002   2.7198118805293728E-002
  -6.7522033655151956E-002   2.1221219514874740E-002   2.6807636273969350E-002
  -6.5391248555919601E-002   2.0800768755192600E-002   2.6506468949697715E-002
  -8.0221605669974133E-002   2.4471934002696732E-002   2.0617137617829948E-002
  -7.7922919910750371E-002   2.3951761974571148E-002   1.9615985148754053E-002
  -7.5624234151526609E-002   2.3417823371823611E-002   1.8861318792608460E-002
  -7.3325548392302792E-002   2.2870118194454205E-002   1.8353138549392915E-002
  -7.1026862633079085E-002   2.2308646442462721E-002   1.8091444419107594E-002
  -8.7041403487150226E-002   2.6355223282145637E-002   1.2956283640867226E-002
  -8.4417646162057575E-002   2.5788366450239901E-002   1.1491646251969127E-002
  -8.1793888836964992E-002   2.5176297647535654E-002   1.0430665881878593E-002
  -7.9170131511872410E-002   2.4519016874033447E-002   9.7733425305955631E-003
  -7.6546374186779759E-002   2.3816524129732980E-002   9.5196761981200390E-003
  -9.4373782404377354E-002   2.8238512561594549E-002   5.2644675582125631E-003
  -9.1267782607538400E-002   2.7624970925908540E-002   3.3048998533157809E-003
  -8.8161782810699502E-002   2.6934771923247919E-002   1.9061600731039652E-003
  -8.5055783013860575E-002   2.6167915553612774E-002   1.0682482175769941E-003
  -8.1949783217021663E-002   2.5324401817003142E-002   7.9116428673524017E-004
 -0.10221874242165541        3.0121801841043405E-002  -2.4583106301339641E-003
  -9.8473329247192765E-002   2.9461575401577261E-002  -4.9442540472058871E-003
  -9.4727916072730123E-002   2.8693246198960187E-002  -6.7121986337152356E-003
  -9.0982502898267481E-002   2.7816814233192294E-002  -7.7621443896623114E-003
  -8.7237089723804839E-002   2.6832279504273360E-002  -8.0940913150469029E-003
  -6.5391248555919601E-002   2.0800768755192600E-002   2.6506468949697715E-002
  -6.3183672434670601E-002   2.0318040196795562E-002   2.5638223671829385E-002
  -6.0976096313421643E-002   1.9693077219414601E-002   2.4946026041539837E-002
  -5.8768520192172664E-002   1.8925879823049663E-002   2.4429876058829056E-002
  -5.6560944070923713E-002   1.8016448007700525E-002   2.4089773723697194E-002
  -7.1026862633079085E-002   2.2308646442462721E-002   1.8091444419107594E-002
  -6.8677334631126102E-002   2.1698018858255633E-002   1.7191816143426478E-002
  -6.6327806629173119E-002   2.1002846184239199E-002   1.6400043981574464E-002
  -6.3978278627220081E-002   2.0223128420413364E-002   1.5716127933551878E-002
  -6.1628750625267167E-002   1.9358865566778238E-002   1.5140067999358298E-002
  -7.6546374186779759E-002   2.3816524129732980E-002   9.5196761981200390E-003
  -7.4123085837872374E-002   2.3077997519715926E-002   8.6463542538008989E-003
  -7.1699797488965072E-002   2.2312615149063908E-002   7.8126968895612520E-003
  -6.9276509140057688E-002   2.1520377017777342E-002   7.0187041054009490E-003
  -6.6853220791150386E-002   2.0701283125855841E-002   6.2643759013205902E-003
  -8.1949783217021663E-002   2.5324401817003142E-002   7.9116428673524017E-004
  -7.9520926054909541E-002   2.4457976181176025E-002   1.8380029524391744E-006
  -7.7092068892797502E-002   2.3622384113888673E-002  -8.1601523450023326E-004
  -7.4663211730685394E-002   2.2817625615141127E-002  -1.6623954256231688E-003
  -7.2234354568573342E-002   2.2043700684933609E-002  -2.5373025704161709E-003
  -8.7237089723804839E-002   2.6832279504273360E-002  -8.0940913150469029E-003
  -8.4870855282237589E-002   2.5837954842636124E-002  -8.7417326091187575E-003
  -8.2504620840670395E-002   2.4932153078713160E-002  -9.4860923906101291E-003
  -8.0138386399103201E-002   2.4114874212505064E-002  -1.0327170659521066E-002
  -7.7772151957535951E-002   2.3386118244011045E-002  -1.1264967415851701E-002
  -5.6560944070923713E-002   1.8016448007700525E-002   2.4089773723697194E-002
  -5.3959195133598314E-002   1.7100394787357726E-002   2.3719123591371127E-002
  -5.1357446196272874E-002   1.6313333176011371E-002   2.3610639554321217E-002
  -4.8755697258947413E-002   1.5655263173661286E-002   2.3764321612547670E-002
  -4.6153948321622035E-002   1.5126184780307750E-002   2.4180169766050252E-002
  -6.1628750625267167E-002   1.9358865566778238E-002   1.5140067999358298E-002
  -5.8911655235894894E-002   1.8504362643224137E-002   1.4582462891747111E-002
  -5.6194559846522600E-002   1.7753924669641555E-002   1.3993384592953337E-002
  -5.3477464457150292E-002   1.7107551646030426E-002   1.3372833102977273E-002
  -5.0760369067778033E-002   1.6565243572390920E-002   1.2720808421818497E-002
  -6.6853220791150386E-002   2.0701283125855841E-002   6.2643759013205902E-003
  -6.4314418236189913E-002   1.9908330499090368E-002   5.4948891593995103E-003
  -6.1775615681229551E-002   1.9194516163271620E-002   4.4002899398369946E-003
  -5.9236813126269092E-002   1.8559840118399507E-002   2.9805782426334075E-003
  -5.6698010571308764E-002   1.8004302364474173E-002   1.2357540677885026E-003
  -7.2234354568573342E-002   2.2043700684933609E-002  -2.5373025704161709E-003
  -7.0167484134483524E-002   2.1312298354956495E-002  -3.5435976056720341E-003
  -6.8100613700393692E-002   2.0635107656901745E-002  -5.1686444050281465E-003
  -6.6033743266303860E-002   2.0012128590768674E-002  -7.4124429684839441E-003
  -6.3966872832214056E-002   1.9443361156557440E-002  -1.0274993296039762E-002
  -7.7772151957535951E-002   2.3386118244011045E-002  -1.1264967415851701E-002
  -7.6470852930775490E-002   2.2716266210823122E-002  -1.2532997403467638E-002
  -7.5169553904015030E-002   2.2075699150531952E-002  -1.4713418441641896E-002
  -7.3868254877254513E-002   2.1464417063137557E-002  -1.7806230530374757E-002
  -7.2566955850494108E-002   2.0882419948640596E-002  -2.1811433669666536E-002
  -4.6153948321622035E-002   1.5126184780307750E-002   2.4180169766050252E-002
  -4.4171158135911270E-002   1.5362369050701041E-002   2.5914859301171267E-002
  -4.2188367950200464E-002   1.7000087039591869E-002   2.8892817203279159E-002
  -4.0205577764489665E-002   2.0039338746980353E-002   3.3114043472373775E-002
  -3.8222787578778950E-002   2.4480124172866047E-002   3.8578538108454907E-002
  -5.0760369067778033E-002   1.6565243572390920E-002   1.2720808421818497E-002
  -4.8306177173563530E-002   1.6759951589919886E-002   1.3738161016513206E-002
  -4.5851985279349000E-002   1.8324626839813965E-002   1.4455048661228709E-002
  -4.3397793385134463E-002   2.1259269322073258E-002   1.4871471355965102E-002
  -4.0943601490919967E-002   2.5563879036697990E-002   1.4987429100722038E-002
  -5.6698010571308764E-002   1.8004302364474173E-002   1.2357540677885026E-003
  -5.5316150285556476E-002   1.8157534129138814E-002   1.5042032359246366E-003
  -5.3934289999804166E-002   1.9649166640036013E-002  -7.1545862884415945E-005
  -5.2552429714051892E-002   2.2479199897166277E-002  -3.4914932286386549E-003
  -5.1170569428299645E-002   2.6647633900529821E-002  -8.7556388613385105E-003
  -6.3966872832214056E-002   1.9443361156557440E-002  -1.0274993296039762E-002
  -6.5201077471890023E-002   1.9555116668357700E-002  -1.0787014040594411E-002
  -6.6435282111565991E-002   2.0973706440258418E-002  -1.4686966369060563E-002
  -6.7669486751241903E-002   2.3699130472259793E-002  -2.1974850281437652E-002
  -6.8903691390917898E-002   2.7731388764361875E-002  -3.2650665777726212E-002
  -7.2566955850494108E-002   2.0882419948640596E-002  -2.1811433669666536E-002
  -7.7960958732564256E-002   2.0952699207576142E-002  -2.3135490813044446E-002
  -8.3354961614634460E-002   2.2298246240480157E-002  -2.9391212857299509E-002
  -8.8748964496704635E-002   2.4919061047352420E-002  -4.0578599802431420E-002
  -9.4142967378774811E-002   2.8815143628193596E-002  -5.6697651648441205E-002
 </DataArray>
 </PointData>
 </Piece>
 <Piece  NumberOfPoints="          1600 "  NumberOfCells="         1024 ">
 <Points>
 <DataArray  type="Float64" NumberOfComponents="3"  format="ascii" >
  0.50000000000000000        0.0000000000000000        0.0000000000000000     
  0.53125000000000000        0.0000000000000000        0.0000000000000000     
  0.56250000000000000        0.0000000000000000        0.0000000000000000     
  0.59375000000000000        0.0000000000000000        0.0000000000000000     
  0.62500000000000000        0.0000000000000000        0.0000000000000000     
  0.50000000000000000        3.1250000000000000E-002   0.0000000000000000     
  0.53125000000000000        3.1250000000000000E-002   0.0000000000000000     
  0.56250000000000000        3.1250000000000000E-002   0.0000000000000000     
  0.59375000000000000        3.1250000000000000E-002   0.0000000000000000     
  0.62500000000000000        3.1250000000000000E-002   0.0000000000000000     
  0.50000000000000000        6.2500000000000000E-002   0.0000000000000000     
  0.53125000000000000        6.2500000000000000E-002   0.0000000000000000     
  0.56250000000000000        6.2500000000000000E-002   0.0000000000000000     
  0.59375000000000000        6.2500000000000000E-002   0.0000000000000000     
  0.62500000000000000        6.2500000000000000E-002   0.0000000000000000     
  0.50000000000000000        9.3750000000000000E-002   0.0000000000000000     
  0.53125000000000000        9.3750000000000000E-002   0.0000000000000000     
  0.56250000000000000        9.3750000000000000E-002   0.0000000000000000     
  0.59375000000000000        9.3750000000000000E-002   0.0000000000000000     
  0.62500000000000000        9.3750000000000000E-002   0.0000000000000000     
  0.50000000000000000       0.12500000000000000        0.0000000000000000     
  0.53125000000000000       0.12500000000000000        0.0000000000000000     
  0.56250000000000000       0.12500000000000000        0.0000000000000000     
  0.59375000000000000       0.12500000000000000        0.0000000000000000     
  0.62500000000000000       0.12500000000000000        0.0000000000000000     
  0.62500000000000000        0.0000000000000000        0.0000000000000000     
  0.65625000000000000        0.0000000000000000        0.0000000000000000     
  0.68750000000000000        0.0000000000000000        0.0000000000000000     
  0.71875000000000000        0.0000000000000000        0.0000000000000000     
  0.75000000000000000        0.0000000000000000        0.0000000000000000     
  0.62500000000000000        3.1250000000000000E-002   0.0000000000000000     
  0.65625000000000000        3.1250000000000000E-002   0.0000000000000000     
  0.68750000000000000        3.1250000000000000E-002   0.0000000000000000     
  0.71875000000000000        3.1250000000000000E-002   0.0000000000000000     
  0.75000000000000000        3.1250000000000000E-002   0.0000000000000000     
  0.62500000000000000        6.2500000000000000E-002   0.0000000000000000     
  0.65625000000000000        6.2500000000000000E-002   0.0000000000000000     
  0.68750000000000000        6.2500000000000000E-002   0.0000000000000000     
  0.71875000000000000        6.2500000000000000E-002   0.0000000000000000     
  0.75000000000000000        6.2500000000000000E-002   0.0000000000000000     
  0.62500000000000000        9.3750000000000000E-002   0.0000000000000000     
  0.65625000000000000        9.3750000000000000E-002   0.0000000000000000     
  0.68750000000000000        9.3750000000000000E-002   0.0000000000000000     
  0.71875000000000000        9.3750000000000000E-002   0.0000000000000000     
  0.75000000000000000        9.3750000000000000E-002   0.0000000000000000     
  0.62500000000000000       0.12500000000000000        0.0000000000000000     
  0.65625000000000000       0.12500000000000000        0.0000000000000000     
  0.68750000000000000       0.12500000000000000        0.0000000000000000     
  0.71875000000000000       0.12500000000000000        0.0000000000000000     
  0.75000000000000000       0.12500000000000000        0.0000000000000000     
  0.75000000000000000        0.0000000000000000        0.0000000000000000     
  0.78125000000000000        0.0000000000000000        0.0000000000000000     
  0.81250000000000000        0.0000000000000000        0.0000000000000000     
  0.84375000000000000        0.0000000000000000        0.0000000000000000     
  0.87500000000000000        0.0000000000000000        0.0000000000000000     
  0.75000000000000000        3.1250000000000000E-002   0.0000000000000000     
  0.78125000000000000        3.1250000000000000E-002   0.0000000000000000     
  0.81250000000000000        3.1250000000000000E-002   0.0000000000000000     
  0.84375000000000000        3.1250000000000000E-002   0.0000000000000000     
  0.87500000000000000        3.1250000000000000E-002   0.0000000000000000     
  0.75000000000000000        6.2500000000000000E-002   0.0000000000000000     
  0.78125000000000000        6.2500000000000000E-002   0.0000000000000000     
  0.81250000000000000        6.2500000000000000E-002   0.0000000000000000     
  0.84375000000000000        6.2500000000000000E-002   0.0000000000000000     
  0.87500000000000000        6.2500000000000000E-002   0.0000000000000000     
  0.75000000000000000        9.3750000000000000E-002   0.0000000000000000     
  0.78125000000000000        9.3750000000000000E-002   0.0000000000000000     
  0.81250000000000000        9.3750000000000000E-002   0.0000000000000000     
  0.84375000000000000        9.3750000000000000E-002   0.0000000000000000     
  0.87500000000000000        9.3750000000000000E-002   0.0000000000000000     
  0.75000000000000000       0.12500000000000000        0.0000000000000000     
  0.78125000000000000       0.12500000000000000        0.0000000000000000     
  0.81250000000000000       0.12500000000000000        0.0000000000000000     
  0.84375000000000000       0.12500000000000000        0.0000000000000000     
  0.87500000000000000       0.12500000000000000        0.0000000000000000     
  0.87500000000000000        0.0000000000000000        0.0000000000000000     
  0.90625000000000000        0.0000000000000000        0.0000000000000000     
  0.93750000000000000        0.0000000000000000        0.0000000000000000     
  0.96875000000000000        0.0000000000000000        0.0000000000000000     
   1.0000000000000000        0.0000000000000000        0.0000000000000000     
  0.87500000000000000        3.1250000000000000E-002   0.0000000000000000     
  0.90625000000000000        3.1250000000000000E-002   0.0000000000000000     
  0.93750000000000000        3.1250000000000000E-002   0.0000000000000000     
  0.96875000000000000        3.1250000000000000E-002   0.0000000000000000     
   1.0000000000000000        3.1250000000000000E-002   0.0000000000000000     
  0.87500000000000000        6.2500000000000000E-002   0.0000000000000000     
  0.90625000000000000        6.2500000000000000E-002   0.0000000000000000     
  0.93750000000000000        6.2500000000000000E-002   0.0000000000000000     
  0.96875000000000000        6.2500000000000000E-002   0.0000000000000000     
   1.0000000000000000        6.2500000000000000E-002   0.0000000000000000     
  0.87500000000000000        9.3750000000000000E-002   0.0000000000000000     
  0.90625000000000000        9.3750000000000000E-002   0.0000000000000000     
  0.93750000000000000        9.3750000000000000E-002   0.0000000000000000     
  0.96875000000000000        9.3750000000000000E-002   0.0000000000000000     
   1.0000000000000000        9.3750000000000000E-002   0.0000000000000000     
  0.87500000000000000       0.12500000000000000        0.0000000000000000     
  0.90625000000000000       0.12500000000000000        0.0000000000000000     
  0.93750000000000000       0.12500000000000000        0.0000000000000000     
  0.96875000000000000       0.12500000000000000        0.0000000000000000     
   1.0000000000000000       0.12500000000000000        0.0000000000000000     
   1.0000000000000000        0.0000000000000000        0.0000000000000000     
   1.0312500000000000        0.0000000000000000        0.0000000000000000     
   1.0625000000000000        0.0000000000000000        0.0000000000000000     
   1.0937500000000000        0.0000000000000000        0.0000000000000000     
   1.1250000000000000        0.0000000000000000        0.0000000000000000     
   1.0000000000000000        3.1250000000000000E-002   0.0000000000000000     
   1.0312500000000000        3.1250000000000000E-002   0.0000000000000000     
   1.0625000000000000        3.1250000000000000E-002   0.0000000000000000     
   1.0937500000000000        3.1250000000000000E-002   0.0000000000000000     
   1.1250000000000000        3.1250000000000000E-002   0.0000000000000000     
   1.0000000000000000        6.2500000000000000E-002   0.0000000000000000     
   1.0312500000000000        6.2500000000000000E-002   0.0000000000000000     
   1.0625000000000000        6.2500000000000000E-002   0.0000000000000000     
   1.0937500000000000        6.2500000000000000E-002   0.0000000000000000     
   1.1250000000000000        6.2500000000000000E-002   0.0000000000000000     
   1.0000000000000000        9.3750000000000000E-002   0.0000000000000000     
   1.0312500000000000        9.3750000000000000E-002   0.0000000000000000     
   1.0625000000000000        9.3750000000000000E-002   0.0000000000000000     
   1.0937500000000000        9.3750000000000000E-002   0.0000000000000000     
   1.1250000000000000        9.3750000000000000E-002   0.0000000000000000     
   1.0000000000000000       0.12500000000000000        0.0000000000000000     
   1.0312500000000000       0.12500000000000000        0.0000000000000000     
   1.0625000000000000       0.12500000000000000        0.0000000000000000     
   1.0937500000000000       0.12500000000000000        0.0000000000000000     
   1.1250000000000000       0.12500000000000000        0.0000000000000000     
   1.1250000000000000        0.0000000000000000        0.0000000000000000     
   1.1562500000000000        0.0000000000000000        0.0000000000000000     
   1.1875000000000000        0.0000000000000000        0.0000000000000000     
   1.2187500000000000        0.0000000000000000        0.0000000000000000     
   1.2500000000000000        0.0000000000000000        0.0000000000000000     
   1.1250000000000000        3.1250000000000000E-002   0.0000000000000000     
   1.1562500000000000        3.1250000000000000E-002   0.0000000000000000     
   1.1875000000000000        3.1250000000000000E-002   0.0000000000000000     
   1.2187500000000000        3.1250000000000000E-002   0.0000000000000000     
   1.2500000000000000        3.1250000000000000E-002   0.0000000000000000     
   1.1250000000000000        6.2500000000000000E-002   0.0000000000000000     
   1.1562500000000000        6.2500000000000000E-002   0.0000000000000000     
   1.1875000000000000        6.2500000000000000E-002   0.0000000000000000     
   1.2187500000000000        6.2500000000000000E-002   0.0000000000000000     
   1.2500000000000000        6.2500000000000000E-002   0.0000000000000000     
   1.1250000000000000        9.3750000000000000E-002   0.0000000000000000     
   1.1562500000000000        9.3750000000000000E-002   0.0000000000000000     
   1.1875000000000000        9.3750000000000000E-002   0.0000000000000000     
   1.2187500000000000        9.3750000000000000E-002   0.0000000000000000     
   1.2500000000000000        9.3750000000000000E-002   0.0000000000000000     
   1.1250000000000000       0.12500000000000000        0.0000000000000000     
   1.1562500000000000       0.12500000000000000        0.0000000000000000     
   1.1875000000000000       0.12500000000000000        0.0000000000000000     
   1.2187500000000000       0.12500000000000000        0.0000000000000000     
   1.2500000000000000       0.12500000000000000        0.0000000000000000     
   1.2500000000000000        0.0000000000000000        0.0000000000000000     
   1.2812500000000000        0.0000000000000000        0.0000000000000000     
   1.3125000000000000        0.0000000000000000        0.0000000000000000     
   1.3437500000000000        0.0000000000000000        0.0000000000000000     
   1.3750000000000000        0.0000000000000000        0.0000000000000000     
   1.2500000000000000        3.1250000000000000E-002   0.0000000000000000     
   1.2812500000000000        3.1250000000000000E-002   0.0000000000000000     
   1.3125000000000000        3.1250000000000000E-002   0.0000000000000000     
   1.3437500000000000        3.1250000000000000E-002   0.0000000000000000     
   1.3750000000000000        3.1250000000000000E-002   0.0000000000000000     
   1.2500000000000000        6.2500000000000000E-002   0.0000000000000000     
   1.2812500000000000        6.2500000000000000E-002   0.0000000000000000     
   1.3125000000000000        6.2500000000000000E-002   0.0000000000000000     
   1.3437500000000000        6.2500000000000000E-002   0.0000000000000000     
   1.3750000000000000        6.2500000000000000E-002   0.0000000000000000     
   1.2500000000000000        9.3750000000000000E-002   0.0000000000000000     
   1.2812500000000000        9.3750000000000000E-002   0.0000000000000000     
   1.3125000000000000        9.3750000000000000E-002   0.0000000000000000     
   1.3437500000000000        9.3750000000000000E-002   0.0000000000000000     
   1.3750000000000000        9.3750000000000000E-002   0.0000000000000000     
   1.2500000000000000       0.12500000000000000        0.0000000000000000     
   1.2812500000000000       0.12500000000000000        0.0000000000000000     
   1.3125000000000000       0.12500000000000000        0.0000000000000000     
   1.3437500000000000       0.12500000000000000        0.0000000000000000     
   1.3750000000000000       0.12500000000000000        0.0000000000000000     
   1.3750000000000000        0.0000000000000000        0.0000000000000000     
   1.4062500000000000        0.0000000000000000        0.0000000000000000     
   1.4375000000000000        0.0000000000000000        0.0000000000000000     
   1.4687500000000000        0.0000000000000000        0.0000000000000000     
   1.5000000000000000        0.0000000000000000        0.0000000000000000     
   1.3750000000000000        3.1250000000000000E-002   0.0000000000000000     
   1.4062500000000000        3.1250000000000000E-002   0.0000000000000000     
   1.4375000000000000        3.1250000000000000E-002   0.0000000000000000     
   1.4687500000000000        3.1250000000000000E-002   0.0000000000000000     
   1.5000000000000000        3.1250000000000000E-002   0.0000000000000000     
   1.3750000000000000        6.2500000000000000E-002   0.0000000000000000     
   1.4062500000000000        6.2500000000000000E-002   0.0000000000000000     
   1.4375000000000000        6.2500000000000000E-002   0.0000000000000000     
   1.4687500000000000        6.2500000000000000E-002   0.0000000000000000     
   1.5000000000000000        6.2500000000000000E-002   0.0000000000000000     
   1.3750000000000000        9.3750000000000000E-002   0.0000000000000000     
   1.4062500000000000        9.3750000000000000E-002   0.0000000000000000     
   1.4375000000000000        9.3750000000000000E-002   0.0000000000000000     
   1.4687500000000000        9.3750000000000000E-002   0.0000000000000000     
   1.5000000000000000        9.3750000000000000E-002   0.0000000000000000     
   1.3750000000000000       0.12500000000000000        0.0000000000000000     
   1.4062500000000000       0.12500000000000000        0.0000000000000000     
   1.4375000000000000       0.12500000000000000        0.0000000000000000     
   1.4687500000000000       0.12500000000000000        0.0000000000000000     
   1.5000000000000000       0.12500000000000000        0.0000000000000000     
  0.50000000000000000       0.12500000000000000        0.0000000000000000     
  0.53125000000000000       0.12500000000000000        0.0000000000000000     
  0.56250000000000000       0.12500000000000000        0.0000000000000000     
  0.59375000000000000       0.12500000000000000        0.0000000000000000     
  0.62500000000000000       0.12500000000000000        0.0000000000000000     
  0.50000000000000000       0.15625000000000000        0.0000000000000000     
  0.53125000000000000       0.15625000000000000        0.0000000000000000     
  0.56250000000000000       0.15625000000000000        0.0000000000000000     
  0.59375000000000000       0.15625000000000000        0.0000000000000000     
  0.62500000000000000       0.15625000000000000        0.0000000000000000     
  0.50000000000000000       0.18750000000000000        0.0000000000000000     
  0.53125000000000000       0.18750000000000000        0.0000000000000000     
  0.56250000000000000       0.18750000000000000        0.0000000000000000     
  0.59375000000000000       0.18750000000000000        0.0000000000000000     
  0.62500000000000000       0.18750000000000000        0.0000000000000000     
  0.50000000000000000       0.21875000000000000        0.0000000000000000     
  0.53125000000000000       0.21875000000000000        0.0000000000000000     
  0.56250000000000000       0.21875000000000000        0.0000000000000000     
  0.59375000000000000       0.21875000000000000        0.0000000000000000     
  0.62500000000000000       0.21875000000000000        0.0000000000000000     
  0.50000000000000000       0.25000000000000000        0.0000000000000000     
  0.53125000000000000       0.25000000000000000        0.0000000000000000     
  0.56250000000000000       0.25000000000000000        0.0000000000000000     
  0.59375000000000000       0.25000000000000000        0.0000000000000000     
  0.62500000000000000       0.25000000000000000        0.0000000000000000     
  0.62500000000000000       0.12500000000000000        0.0000000000000000     
  0.65625000000000000       0.12500000000000000        0.0000000000000000     
  0.68750000000000000       0.12500000000000000        0.0000000000000000     
  0.71875000000000000       0.12500000000000000        0.0000000000000000     
  0.75000000000000000       0.12500000000000000        0.0000000000000000     
  0.62500000000000000       0.15625000000000000        0.0000000000000000     
  0.65625000000000000       0.15625000000000000        0.0000000000000000     
  0.68750000000000000       0.15625000000000000        0.0000000000000000     
  0.71875000000000000       0.15625000000000000        0.0000000000000000     
  0.75000000000000000       0.15625000000000000        0.0000000000000000     
  0.62500000000000000       0.18750000000000000        0.0000000000000000     
  0.65625000000000000       0.18750000000000000        0.0000000000000000     
  0.68750000000000000       0.18750000000000000        0.0000000000000000     
  0.71875000000000000       0.18750000000000000        0.0000000000000000     
  0.75000000000000000       0.18750000000000000        0.0000000000000000     
  0.62500000000000000       0.21875000000000000        0.0000000000000000     
  0.65625000000000000       0.21875000000000000        0.0000000000000000     
  0.68750000000000000       0.21875000000000000        0.0000000000000000     
  0.71875000000000000       0.21875000000000000        0.0000000000000000     
  0.75000000000000000       0.21875000000000000        0.0000000000000000     
  0.62500000000000000       0.25000000000000000        0.0000000000000000     
  0.65625000000000000       0.25000000000000000        0.0000000000000000     
  0.68750000000000000       0.25000000000000000        0.0000000000000000     
  0.71875000000000000       0.25000000000000000        0.0000000000000000     
  0.75000000000000000       0.25000000000000000        0.0000000000000000     
  0.75000000000000000       0.12500000000000000        0.0000000000000000     
  0.78125000000000000       0.12500000000000000        0.0000000000000000     
  0.81250000000000000       0.12500000000000000        0.0000000000000000     
  0.84375000000000000       0.12500000000000000        0.0000000000000000     
  0.87500000000000000       0.12500000000000000        0.0000000000000000     
  0.75000000000000000       0.15625000000000000        0.0000000000000000     
  0.78125000000000000       0.15625000000000000        0.0000000000000000     
  0.81250000000000000       0.15625000000000000        0.0000000000000000     
  0.84375000000000000       0.15625000000000000        0.0000000000000000     
  0.87500000000000000       0.15625000000000000        0.0000000000000000     
  0.75000000000000000       0.18750000000000000        0.0000000000000000     
  0.78125000000000000       0.18750000000000000        0.0000000000000000     
  0.81250000000000000       0.18750000000000000        0.0000000000000000     
  0.84375000000000000       0.18750000000000000        0.0000000000000000     
  0.87500000000000000       0.18750000000000000        0.0000000000000000     
  0.75000000000000000       0.21875000000000000        0.0000000000000000     
  0.78125000000000000       0.21875000000000000        0.0000000000000000     
  0.81250000000000000       0.21875000000000000        0.0000000000000000     
  0.84375000000000000       0.21875000000000000        0.0000000000000000     
  0.87500000000000000       0.21875000000000000        0.0000000000000000     
  0.75000000000000000       0.25000000000000000        0.0000000000000000     
  0.78125000000000000       0.25000000000000000        0.0000000000000000     
  0.81250000000000000       0.25000000000000000        0.0000000000000000     
  0.84375000000000000       0.25000000000000000        0.0000000000000000     
  0.87500000000000000       0.25000000000000000        0.0000000000000000     
  0.87500000000000000       0.12500000000000000        0.0000000000000000     
  0.90625000000000000       0.12500000000000000        0.0000000000000000     
  0.93750000000000000       0.12500000000000000        0.0000000000000000     
  0.96875000000000000       0.12500000000000000        0.0000000000000000     
   1.0000000000000000       0.12500000000000000        0.0000000000000000     
  0.87500000000000000       0.15625000000000000        0.0000000000000000     
  0.90625000000000000       0.15625000000000000        0.0000000000000000     
  0.93750000000000000       0.15625000000000000        0.0000000000000000     
  0.96875000000000000       0.15625000000000000        0.0000000000000000     
   1.0000000000000000       0.15625000000000000        0.0000000000000000     
  0.87500000000000000       0.18750000000000000        0.0000000000000000     
  0.90625000000000000       0.18750000000000000        0.0000000000000000     
  0.93750000000000000       0.18750000000000000        0.0000000000000000     
  0.96875000000000000       0.18750000000000000        0.0000000000000000     
   1.0000000000000000       0.18750000000000000        0.0000000000000000     
  0.87500000000000000       0.21875000000000000        0.0000000000000000     
  0.90625000000000000       0.21875000000000000        0.0000000000000000     
  0.93750000000000000       0.21875000000000000        0.0000000000000000     
  0.96875000000000000       0.21875000000000000        0.0000000000000000     
   1.0000000000000000       0.21875000000000000        0.0000000000000000     
  0.87500000000000000       0.25000000000000000        0.0000000000000000     
  0.90625000000000000       0.25000000000000000        0.0000000000000000     
  0.93750000000000000       0.25000000000000000        0.0000000000000000     
  0.96875000000000000       0.25000000000000000        0.0000000000000000     
   1.0000000000000000       0.25000000000000000        0.0000000000000000     
   1.0000000000000000       0.12500000000000000        0.0000000000000000     
   1.0312500000000000       0.12500000000000000        0.0000000000000000     
   1.0625000000000000       0.12500000000000000        0.0000000000000000     
   1.0937500000000000       0.12500000000000000        0.0000000000000000     
   1.1250000000000000       0.12500000000000000        0.0000000000000000     
   1.0000000000000000       0.15625000000000000        0.0000000000000000     
   1.0312500000000000       0.15625000000000000        0.0000000000000000     
   1.0625000000000000       0.15625000000000000        0.0000000000000000     
   1.0937500000000000       0.15625000000000000        0.0000000000000000     
   1.1250000000000000       0.15625000000000000        0.0000000000000000     
   1.0000000000000000       0.18750000000000000        0.0000000000000000     
   1.0312500000000000       0.18750000000000000        0.0000000000000000     
   1.0625000000000000       0.18750000000000000        0.0000000000000000     
   1.0937500000000000       0.18750000000000000        0.0000000000000000     
   1.1250000000000000       0.18750000000000000        0.0000000000000000     
   1.0000000000000000       0.21875000000000000        0.0000000000000000     
   1.0312500000000000       0.21875000000000000        0.0000000000000000     
   1.0625000000000000       0.21875000000000000        0.0000000000000000     
   1.0937500000000000       0.21875000000000000        0.0000000000000000     
   1.1250000000000000       0.21875000000000000        0.0000000000000000     
   1.0000000000000000       0.25000000000000000        0.0000000000000000     
   1.0312500000000000       0.25000000000000000        0.0000000000000000     
   1.0625000000000000       0.25000000000000000        0.0000000000000000     
   1.0937500000000000       0.25000000000000000        0.0000000000000000     
   1.1250000000000000       0.25000000000000000        0.0000000000000000     
   1.1250000000000000       0.12500000000000000        0.0000000000000000     
   1.1562500000000000       0.12500000000000000        0.0000000000000000     
   1.1875000000000000       0.12500000000000000        0.0000000000000000     
   1.2187500000000000       0.12500000000000000        0.0000000000000000     
   1.2500000000000000       0.12500000000000000        0.0000000000000000     
   1.1250000000000000       0.15625000000000000        0.0000000000000000     
   1.1562500000000000       0.15625000000000000        0.0000000000000000     
   1.1875000000000000       0.15625000000000000        0.0000000000000000     
   1.2187500000000000       0.15625000000000000        0.0000000000000000     
   1.2500000000000000       0.15625000000000000        0.0000000000000000     
   1.1250000000000000       0.18750000000000000        0.0000000000000000     
   1.1562500000000000       0.18750000000000000        0.0000000000000000     
   1.1875000000000000       0.18750000000000000        0.0000000000000000     
   1.2187500000000000       0.18750000000000000        0.0000000000000000     
   1.2500000000000000       0.18750000000000000        0.0000000000000000     
   1.1250000000000000       0.21875000000000000        0.0000000000000000     
   1.1562500000000000       0.21875000000000000        0.0000000000000000     
   1.1875000000000000       0.21875000000000000        0.0000000000000000     
   1.2187500000000000       0.21875000000000000        0.0000000000000000     
   1.2500000000000000       0.21875000000000000        0.0000000000000000     
   1.1250000000000000       0.25000000000000000        0.0000000000000000     
   1.1562500000000000       0.25000000000000000        0.0000000000000000     
   1.1875000000000000       0.25000000000000000        0.0000000000000000     
   1.2187500000000000       0.25000000000000000        0.0000000000000000     
   1.2500000000000000       0.25000000000000000        0.0000000000000000     
   1.2500000000000000       0.12500000000000000        0.0000000000000000     
   1.2812500000000000       0.12500000000000000        0.0000000000000000     
   1.3125000000000000       0.12500000000000000        0.0000000000000000     
   1.3437500000000000       0.12500000000000000        0.0000000000000000     
   1.3750000000000000       0.12500000000000000        0.0000000000000000     
   1.2500000000000000       0.15625000000000000        0.0000000000000000     
   1.2812500000000000       0.15625000000000000        0.0000000000000000     
   1.3125000000000000       0.15625000000000000        0.0000000000000000     
   1.3437500000000000       0.15625000000000000        0.0000000000000000     
   1.3750000000000000       0.15625000000000000        0.0000000000000000     
   1.2500000000000000       0.18750000000000000        0.0000000000000000     
   1.2812500000000000       0.18750000000000000        0.0000000000000000     
   1.3125000000000000       0.18750000000000000        0.0000000000000000     
   1.3437500000000000       0.18750000000000000        0.0000000000000000     
   1.3750000000000000       0.18750000000000000        0.0000000000000000     
   1.2500000000000000       0.21875000000000000        0.0000000000000000     
   1.2812500000000000       0.21875000000000000        0.0000000000000000     
   1.3125000000000000       0.21875000000000000        0.0000000000000000     
   1.3437500000000000       0.21875000000000000        0.0000000000000000     
   1.3750000000000000       0.21875000000000000        0.0000000000000000     
   1.2500000000000000       0.25000000000000000        0.0000000000000000     
   1.2812500000000000       0.25000000000000000        0.0000000000000000     
   1.3125000000000000       0.25000000000000000        0.0000000000000000     
   1.3437500000000000       0.25000000000000000        0.0000000000000000     
   1.3750000000000000       0.25000000000000000        0.0000000000000000     
   1.3750000000000000       0.12500000000000000        0.0000000000000000     
   1.4062500000000000       0.12500000000000000        0.0000000000000000     
   1.4375000000000000       0.12500000000000000        0.0000000000000000     
   1.4687500000000000       0.12500000000000000        0.0000000000000000     
   1.5000000000000000       0.12500000000000000        0.0000000000000000     
   1.3750000000000000       0.15625000000000000        0.0000000000000000     
   1.4062500000000000       0.15625000000000000        0.0000000000000000     
   1.4375000000000000       0.15625000000000000        0.0000000000000000     
   1.4687500000000000       0.15625000000000000        0.0000000000000000     
   1.5000000000000000       0.15625000000000000        0.0000000000000000     
   1.3750000000000000       0.18750000000000000        0.0000000000000000     
   1.4062500000000000       0.18750000000000000        0.0000000000000000     
   1.4375000000000000       0.18750000000000000        0.0000000000000000     
   1.4687500000000000       0.18750000000000000        0.0000000000000000     
   1.5000000000000000       0.18750000000000000        0.0000000000000000     
   1.3750000000000000       0.21875000000000000        0.0000000000000000     
   1.4062500000000000       0.21875000000000000        0.0000000000000000     
   1.4375000000000000       0.21875000000000000        0.0000000000000000     
   1.4687500000000000       0.21875000000000000        0.0000000000000000     
   1.5000000000000000       0.21875000000000000        0.0000000000000000     
   1.3750000000000000       0.25000000000000000        0.0000000000000000     
   1.4062500000000000       0.25000000000000000        0.0000000000000000     
   1.4375000000000000       0.25000000000000000        0.0000000000000000     
   1.4687500000000000       0.25000000000000000        0.0000000000000000     
   1.5000000000000000       0.25000000000000000        0.0000000000000000     
  0.50000000000000000       0.25000000000000000        0.0000000000000000     
  0.53125000000000000       0.25000000000000000        0.0000000000000000     
  0.56250000000000000       0.25000000000000000        0.0000000000000000     
  0.59375000000000000       0.25000000000000000        0.0000000000000000     
  0.62500000000000000       0.25000000000000000        0.0000000000000000     
  0.50000000000000000       0.28125000000000000        0.0000000000000000     
  0.53125000000000000       0.28125000000000000        0.0000000000000000     
  0.56250000000000000       0.28125000000000000        0.0000000000000000     
  0.59375000000000000       0.28125000000000000        0.0000000000000000     
  0.62500000000000000       0.28125000000000000        0.0000000000000000     
  0.50000000000000000       0.31250000000000000        0.0000000000000000     
  0.53125000000000000       0.31250000000000000        0.0000000000000000     
  0.56250000000000000       0.31250000000000000        0.0000000000000000     
  0.59375000000000000       0.31250000000000000        0.0000000000000000     
  0.62500000000000000       0.31250000000000000        0.0000000000000000     
  0.50000000000000000       0.34375000000000000        0.0000000000000000     
  0.53125000000000000       0.34375000000000000        0.0000000000000000     
  0.56250000000000000       0.34375000000000000        0.0000000000000000     
  0.59375000000000000       0.34375000000000000        0.0000000000000000     
  0.62500000000000000       0.34375000000000000        0.0000000000000000     
  0.50000000000000000       0.37500000000000000        0.0000000000000000     
  0.53125000000000000       0.37500000000000000        0.0000000000000000     
  0.56250000000000000       0.37500000000000000        0.0000000000000000     
  0.59375000000000000       0.37500000000000000        0.0000000000000000     
  0.62500000000000000       0.37500000000000000        0.0000000000000000     
  0.62500000000000000       0.25000000000000000        0.0000000000000000     
  0.65625000000000000       0.25000000000000000        0.0000000000000000     
  0.68750000000000000       0.25000000000000000        0.0000000000000000     
  0.71875000000000000       0.25000000000000000        0.0000000000000000     
  0.75000000000000000       0.25000000000000000        0.0000000000000000     
  0.62500000000000000       0.28125000000000000        0.0000000000000000     
  0.65625000000000000       0.28125000000000000        0.0000000000000000     
  0.68750000000000000       0.28125000000000000        0.0000000000000000     
  0.71875000000000000       0.28125000000000000        0.0000000000000000     
  0.75000000000000000       0.28125000000000000        0.0000000000000000     
  0.62500000000000000       0.31250000000000000        0.0000000000000000     
  0.65625000000000000       0.31250000000000000        0.0000000000000000     
  0.68750000000000000       0.31250000000000000        0.0000000000000000     
  0.71875000000000000       0.31250000000000000        0.0000000000000000     
  0.75000000000000000       0.31250000000000000        0.0000000000000000     
  0.62500000000000000       0.34375000000000000        0.0000000000000000     
  0.65625000000000000       0.34375000000000000        0.0000000000000000     
  0.68750000000000000       0.34375000000000000        0.0000000000000000     
  0.71875000000000000       0.34375000000000000        0.0000000000000000     
  0.75000000000000000       0.34375000000000000        0.0000000000000000     
  0.62500000000000000       0.37500000000000000        0.0000000000000000     
  0.65625000000000000       0.37500000000000000        0.0000000000000000     
  0.68750000000000000       0.37500000000000000        0.0000000000000000     
  0.71875000000000000       0.37500000000000000        0.0000000000000000     
  0.75000000000000000       0.37500000000000000        0.0000000000000000     
  0.75000000000000000       0.25000000000000000        0.0000000000000000     
  0.78125000000000000       0.25000000000000000        0.0000000000000000     
  0.81250000000000000       0.25000000000000000        0.0000000000000000     
  0.84375000000000000       0.25000000000000000        0.0000000000000000     
  0.87500000000000000       0.25000000000000000        0.0000000000000000     
  0.75000000000000000       0.28125000000000000        0.0000000000000000     
  0.78125000000000000       0.28125000000000000        0.0000000000000000     
  0.81250000000000000       0.28125000000000000        0.0000000000000000     
  0.84375000000000000       0.28125000000000000        0.0000000000000000     
  0.87500000000000000       0.28125000000000000        0.0000000000000000     
  0.75000000000000000       0.31250000000000000        0.0000000000000000     
  0.78125000000000000       0.31250000000000000        0.0000000000000000     
  0.81250000000000000       0.31250000000000000        0.0000000000000000     
  0.84375000000000000       0.31250000000000000        0.0000000000000000     
  0.87500000000000000       0.31250000000000000        0.0000000000000000     
  0.75000000000000000       0.34375000000000000        0.0000000000000000     
  0.78125000000000000       0.34375000000000000        0.0000000000000000     
  0.81250000000000000       0.34375000000000000        0.0000000000000000     
  0.84375000000000000       0.34375000000000000        0.0000000000000000     
  0.87500000000000000       0.34375000000000000        0.0000000000000000     
  0.75000000000000000       0.37500000000000000        0.0000000000000000     
  0.78125000000000000       0.37500000000000000        0.0000000000000000     
  0.81250000000000000       0.37500000000000000        0.0000000000000000     
  0.84375000000000000       0.37500000000000000        0.0000000000000000     
  0.87500000000000000       0.37500000000000000        0.0000000000000000     
  0.87500000000000000       0.25000000000000000        0.0000000000000000     
  0.90625000000000000       0.25000000000000000        0.0000000000000000     
  0.93750000000000000       0.25000000000000000        0.0000000000000000     
  0.96875000000000000       0.25000000000000000        0.0000000000000000     
   1.0000000000000000       0.25000000000000000        0.0000000000000000     
  0.87500000000000000       0.28125000000000000        0.0000000000000000     
  0.90625000000000000       0.28125000000000000        0.0000000000000000     
  0.93750000000000000       0.28125000000000000        0.0000000000000000     
  0.96875000000000000       0.28125000000000000        0.0000000000000000     
   1.0000000000000000       0.28125000000000000        0.0000000000000000     
  0.87500000000000000       0.31250000000000000        0.0000000000000000     
  0.90625000000000000       0.31250000000000000        0.0000000000000000     
  0.93750000000000000       0.31250000000000000        0.0000000000000000     
  0.96875000000000000       0.31250000000000000        0.0000000000000000     
   1.0000000000000000       0.31250000000000000        0.0000000000000000     
  0.87500000000000000       0.34375000000000000        0.0000000000000000     
  0.90625000000000000       0.34375000000000000        0.0000000000000000     
  0.93750000000000000       0.34375000000000000        0.0000000000000000     
  0.96875000000000000       0.34375000000000000        0.0000000000000000     
   1.0000000000000000       0.34375000000000000        0.0000000000000000     
  0.87500000000000000       0.37500000000000000        0.0000000000000000     
  0.90625000000000000       0.37500000000000000        0.0000000000000000     
  0.93750000000000000       0.37500000000000000        0.0000000000000000     
  0.96875000000000000       0.37500000000000000        0.0000000000000000     
   1.0000000000000000       0.37500000000000000        0.0000000000000000     
   1.0000000000000000       0.25000000000000000        0.0000000000000000     
   1.0312500000000000       0.25000000000000000        0.0000000000000000     
   1.0625000000000000       0.25000000000000000        0.0000000000000000     
   1.0937500000000000       0.25000000000000000        0.0000000000000000     
   1.1250000000000000       0.25000000000000000        0.0000000000000000     
   1.0000000000000000       0.28125000000000000        0.0000000000000000     
   1.0312500000000000       0.28125000000000000        0.0000000000000000     
   1.0625000000000000       0.28125000000000000        0.0000000000000000     
   1.0937500000000000       0.28125000000000000        0.0000000000000000     
   1.1250000000000000       0.28125000000000000        0.0000000000000000     
   1.0000000000000000       0.31250000000000000        0.0000000000000000     
   1.0312500000000000       0.31250000000000000        0.0000000000000000     
   1.0625000000000000       0.31250000000000000        0.0000000000000000     
   1.0937500000000000       0.31250000000000000        0.0000000000000000     
   1.1250000000000000       0.31250000000000000        0.0000000000000000     
   1.0000000000000000       0.34375000000000000        0.0000000000000000     
   1.0312500000000000       0.34375000000000000        0.0000000000000000     
   1.0625000000000000       0.34375000000000000        0.0000000000000000     
   1.0937500000000000       0.34375000000000000        0.0000000000000000     
   1.1250000000000000       0.34375000000000000        0.0000000000000000     
   1.0000000000000000       0.37500000000000000        0.0000000000000000     
   1.0312500000000000       0.37500000000000000        0.0000000000000000     
   1.0625000000000000       0.37500000000000000        0.0000000000000000     
   1.0937500000000000       0.37500000000000000        0.0000000000000000     
   1.1250000000000000       0.37500000000000000        0.0000000000000000     
   1.1250000000000000       0.25000000000000000        0.0000000000000000     
   1.1562500000000000       0.25000000000000000        0.0000000000000000     
   1.1875000000000000       0.25000000000000000        0.0000000000000000     
   1.2187500000000000       0.25000000000000000        0.0000000000000000     
   1.2500000000000000       0.25000000000000000        0.0000000000000000     
   1.1250000000000000       0.28125000000000000        0.0000000000000000     
   1.1562500000000000       0.28125000000000000        0.0000000000000000     
   1.1875000000000000       0.28125000000000000        0.0000000000000000     
   1.2187500000000000       0.28125000000000000        0.0000000000000000     
   1.2500000000000000       0.28125000000000000        0.0000000000000000     
   1.1250000000000000       0.31250000000000000        0.0000000000000000     
   1.1562500000000000       0.31250000000000000        0.0000000000000000     
   1.1875000000000000       0.31250000000000000        0.0000000000000000     
   1.2187500000000000       0.31250000000000000        0.0000000000000000     
   1.2500000000000000       0.31250000000000000        0.0000000000000000     
   1.1250000000000000       0.34375000000000000        0.0000000000000000     
   1.1562500000000000       0.34375000000000000        0.0000000000000000     
   1.1875000000000000       0.34375000000000000        0.0000000000000000     
   1.2187500000000000       0.34375000000000000        0.0000000000000000     
   1.2500000000000000       0.34375000000000000        0.0000000000000000     
   1.1250000000000000       0.37500000000000000        0.0000000000000000     
   1.1562500000000000       0.37500000000000000        0.0000000000000000     
   1.1875000000000000       0.37500000000000000        0.0000000000000000     
   1.2187500000000000       0.37500000000000000        0.0000000000000000     
   1.2500000000000000       0.37500000000000000        0.0000000000000000     
   1.2500000000000000       0.25000000000000000        0.0000000000000000     
   1.2812500000000000       0.25000000000000000        0.0000000000000000     
   1.3125000000000000       0.25000000000000000        0.0000000000000000     
   1.3437500000000000       0.25000000000000000        0.0000000000000000     
   1.3750000000000000       0.25000000000000000        0.0000000000000000     
   1.2500000000000000       0.28125000000000000        0.0000000000000000     
   1.2812500000000000       0.28125000000000000        0.0000000000000000     
   1.3125000000000000       0.28125000000000000        0.0000000000000000     
   1.3437500000000000       0.28125000000000000        0.0000000000000000     
   1.3750000000000000       0.28125000000000000        0.0000000000000000     
   1.2500000000000000       0.31250000000000000        0.0000000000000000     
   1.2812500000000000       0.31250000000000000        0.0000000000000000     
   1.3125000000000000       0.31250000000000000        0.0000000000000000     
   1.3437500000000000       0.31250000000000000        0.0000000000000000     
   1.3750000000000000       0.31250000000000000        0.0000000000000000     
   1.2500000000000000       0.34375000000000000        0.0000000000000000     
   1.2812500000000000       0.34375000000000000        0.0000000000000000     
   1.3125000000000000       0.34375000000000000        0.0000000000000000     
   1.3437500000000000       0.34375000000000000        0.0000000000000000     
   1.3750000000000000       0.34375000000000000        0.0000000000000000     
   1.2500000000000000       0.37500000000000000        0.0000000000000000     
   1.2812500000000000       0.37500000000000000        0.0000000000000000     
   1.3125000000000000       0.37500000000000000        0.0000000000000000     
   1.3437500000000000       0.37500000000000000        0.0000000000000000     
   1.3750000000000000       0.37500000000000000        0.0000000000000000     
   1.3750000000000000       0.25000000000000000        0.0000000000000000     
   1.4062500000000000       0.25000000000000000        0.0000000000000000     
   1.4375000000000000       0.25000000000000000        0.0000000000000000     
   1.4687500000000000       0.25000000000000000        0.0000000000000000     
   1.5000000000000000       0.25000000000000000        0.0000000000000000     
   1.3750000000000000       0.28125000000000000        0.0000000000000000     
   1.4062500000000000       0.28125000000000000        0.0000000000000000     
   1.4375000000000000       0.28125000000000000        0.0000000000000000     
   1.4687500000000000       0.28125000000000000        0.0000000000000000     
   1.5000000000000000       0.28125000000000000        0.0000000000000000     
   1.3750000000000000       0.31250000000000000        0.0000000000000000     
   1.4062500000000000       0.31250000000000000        0.0000000000000000     
   1.4375000000000000       0.31250000000000000        0.0000000000000000     
   1.4687500000000000       0.31250000000000000        0.0000000000000000     
   1.5000000000000000       0.31250000000000000        0.0000000000000000     
   1.3750000000000000       0.34375000000000000        0.0000000000000000     
   1.4062500000000000       0.34375000000000000        0.0000000000000000     
   1.4375000000000000       0.34375000000000000        0.0000000000000000     
   1.4687500000000000       0.34375000000000000        0.0000000000000000     
   1.5000000000000000       0.34375000000000000        0.0000000000000000     
   1.3750000000000000       0.37500000000000000        0.0000000000000000     
   1.4062500000000000       0.37500000000000000        0.0000000000000000     
   1.4375000000000000       0.37500000000000000        0.0000000000000000     
   1.4687500000000000       0.37500000000000000        0.0000000000000000     
   1.5000000000000000       0.37500000000000000        0.0000000000000000     
  0.50000000000000000       0.37500000000000000        0.0000000000000000     
  0.53125000000000000       0.37500000000000000        0.0000000000000000     
  0.56250000000000000       0.37500000000000000        0.0000000000000000     
  0.59375000000000000       0.37500000000000000        0.0000000000000000     
  0.62500000000000000       0.37500000000000000        0.0000000000000000     
  0.50000000000000000       0.40625000000000000        0.0000000000000000     
  0.53125000000000000       0.40625000000000000        0.0000000000000000     
  0.56250000000000000       0.40625000000000000        0.0000000000000000     
  0.59375000000000000       0.40625000000000000        0.0000000000000000     
  0.62500000000000000       0.40625000000000000        0.0000000000000000     
  0.50000000000000000       0.43750000000000000        0.0000000000000000     
  0.53125000000000000       0.43750000000000000        0.0000000000000000     
  0.56250000000000000       0.43750000000000000        0.0000000000000000     
  0.59375000000000000       0.43750000000000000        0.0000000000000000     
  0.62500000000000000       0.43750000000000000        0.0000000000000000     
  0.50000000000000000       0.46875000000000000        0.0000000000000000     
  0.53125000000000000       0.46875000000000000        0.0000000000000000     
  0.56250000000000000       0.46875000000000000        0.0000000000000000     
  0.59375000000000000       0.46875000000000000        0.0000000000000000     
  0.62500000000000000       0.46875000000000000        0.0000000000000000     
  0.50000000000000000       0.50000000000000000        0.0000000000000000     
  0.53125000000000000       0.50000000000000000        0.0000000000000000     
  0.56250000000000000       0.50000000000000000        0.0000000000000000     
  0.59375000000000000       0.50000000000000000        0.0000000000000000     
  0.62500000000000000       0.50000000000000000        0.0000000000000000     
  0.62500000000000000       0.37500000000000000        0.0000000000000000     
  0.65625000000000000       0.37500000000000000        0.0000000000000000     
  0.68750000000000000       0.37500000000000000        0.0000000000000000     
  0.71875000000000000       0.37500000000000000        0.0000000000000000     
  0.75000000000000000       0.37500000000000000        0.0000000000000000     
  0.62500000000000000       0.40625000000000000        0.0000000000000000     
  0.65625000000000000       0.40625000000000000        0.0000000000000000     
  0.68750000000000000       0.40625000000000000        0.0000000000000000     
  0.71875000000000000       0.40625000000000000        0.0000000000000000     
  0.75000000000000000       0.40625000000000000        0.0000000000000000     
  0.62500000000000000       0.43750000000000000        0.0000000000000000     
  0.65625000000000000       0.43750000000000000        0.0000000000000000     
  0.68750000000000000       0.43750000000000000        0.0000000000000000     
  0.71875000000000000       0.43750000000000000        0.0000000000000000     
  0.75000000000000000       0.43750000000000000        0.0000000000000000     
  0.62500000000000000       0.46875000000000000        0.0000000000000000     
  0.65625000000000000       0.46875000000000000        0.0000000000000000     
  0.68750000000000000       0.46875000000000000        0.0000000000000000     
  0.71875000000000000       0.46875000000000000        0.0000000000000000     
  0.75000000000000000       0.46875000000000000        0.0000000000000000     
  0.62500000000000000       0.50000000000000000        0.0000000000000000     
  0.65625000000000000       0.50000000000000000        0.0000000000000000     
  0.68750000000000000       0.50000000000000000        0.0000000000000000     
  0.71875000000000000       0.50000000000000000        0.0000000000000000     
  0.75000000000000000       0.50000000000000000        0.0000000000000000     
  0.75000000000000000       0.37500000000000000        0.0000000000000000     
  0.78125000000000000       0.37500000000000000        0.0000000000000000     
  0.81250000000000000       0.37500000000000000        0.0000000000000000     
  0.84375000000000000       0.37500000000000000        0.0000000000000000     
  0.87500000000000000       0.37500000000000000        0.0000000000000000     
  0.75000000000000000       0.40625000000000000        0.0000000000000000     
  0.78125000000000000       0.40625000000000000        0.0000000000000000     
  0.81250000000000000       0.40625000000000000        0.0000000000000000     
  0.84375000000000000       0.40625000000000000        0.0000000000000000     
  0.87500000000000000       0.40625000000000000        0.0000000000000000     
  0.75000000000000000       0.43750000000000000        0.0000000000000000     
  0.78125000000000000       0.43750000000000000        0.0000000000000000     
  0.81250000000000000       0.43750000000000000        0.0000000000000000     
  0.84375000000000000       0.43750000000000000        0.0000000000000000     
  0.87500000000000000       0.43750000000000000        0.0000000000000000     
  0.75000000000000000       0.46875000000000000        0.0000000000000000     
  0.78125000000000000       0.46875000000000000        0.0000000000000000     
  0.81250000000000000       0.46875000000000000        0.0000000000000000     
  0.84375000000000000       0.46875000000000000        0.0000000000000000     
  0.87500000000000000       0.46875000000000000        0.0000000000000000     
  0.75000000000000000       0.50000000000000000        0.0000000000000000     
  0.78125000000000000       0.50000000000000000        0.0000000000000000     
  0.81250000000000000       0.50000000000000000        0.0000000000000000     
  0.84375000000000000       0.50000000000000000        0.0000000000000000     
  0.87500000000000000       0.50000000000000000        0.0000000000000000     
  0.87500000000000000       0.37500000000000000        0.0000000000000000     
  0.90625000000000000       0.37500000000000000        0.0000000000000000     
  0.93750000000000000       0.37500000000000000        0.0000000000000000     
  0.96875000000000000       0.37500000000000000        0.0000000000000000     
   1.0000000000000000       0.37500000000000000        0.0000000000000000     
  0.87500000000000000       0.40625000000000000        0.0000000000000000     
  0.90625000000000000       0.40625000000000000        0.0000000000000000     
  0.93750000000000000       0.40625000000000000        0.0000000000000000     
  0.96875000000000000       0.40625000000000000        0.0000000000000000     
   1.0000000000000000       0.40625000000000000        0.0000000000000000     
  0.87500000000000000       0.43750000000000000        0.0000000000000000     
  0.90625000000000000       0.43750000000000000        0.0000000000000000     
  0.93750000000000000       0.43750000000000000        0.0000000000000000     
  0.96875000000000000       0.43750000000000000        0.0000000000000000     
   1.0000000000000000       0.43750000000000000        0.0000000000000000     
  0.87500000000000000       0.46875000000000000        0.0000000000000000     
  0.90625000000000000       0.46875000000000000        0.0000000000000000     
  0.93750000000000000       0.46875000000000000        0.0000000000000000     
  0.96875000000000000       0.46875000000000000        0.0000000000000000     
   1.0000000000000000       0.46875000000000000        0.0000000000000000     
  0.87500000000000000       0.50000000000000000        0.0000000000000000     
  0.90625000000000000       0.50000000000000000        0.0000000000000000     
  0.93750000000000000       0.50000000000000000        0.0000000000000000     
  0.96875000000000000       0.50000000000000000        0.0000000000000000     
   1.0000000000000000       0.50000000000000000        0.0000000000000000     
   1.0000000000000000       0.37500000000000000        0.0000000000000000     
   1.0312500000000000       0.37500000000000000        0.0000000000000000     
   1.0625000000000000       0.37500000000000000        0.0000000000000000     
   1.0937500000000000       0.37500000000000000        0.0000000000000000     
   1.1250000000000000       0.37500000000000000        0.0000000000000000     
   1.0000000000000000       0.40625000000000000        0.0000000000000000     
   1.0312500000000000       0.40625000000000000        0.0000000000000000     
   1.0625000000000000       0.40625000000000000        0.0000000000000000     
   1.0937500000000000       0.40625000000000000        0.0000000000000000     
   1.1250000000000000       0.40625000000000000        0.0000000000000000     
   1.0000000000000000       0.43750000000000000        0.0000000000000000     
   1.0312500000000000       0.43750000000000000        0.0000000000000000     
   1.0625000000000000       0.43750000000000000        0.0000000000000000     
   1.0937500000000000       0.43750000000000000        0.0000000000000000     
   1.1250000000000000       0.43750000000000000        0.0000000000000000     
   1.0000000000000000       0.46875000000000000        0.0000000000000000     
   1.0312500000000000       0.46875000000000000        0.0000000000000000     
   1.0625000000000000       0.46875000000000000        0.0000000000000000     
   1.0937500000000000       0.46875000000000000        0.0000000000000000     
   1.1250000000000000       0.46875000000000000        0.0000000000000000     
   1.0000000000000000       0.50000000000000000        0.0000000000000000     
   1.0312500000000000       0.50000000000000000        0.0000000000000000     
   1.0625000000000000       0.50000000000000000        0.0000000000000000     
   1.0937500000000000       0.50000000000000000        0.0000000000000000     
   1.1250000000000000       0.50000000000000000        0.0000000000000000     
   1.1250000000000000       0.37500000000000000        0.0000000000000000     
   1.1562500000000000       0.37500000000000000        0.0000000000000000     
   1.1875000000000000       0.37500000000000000        0.0000000000000000     
   1.2187500000000000       0.37500000000000000        0.0000000000000000     
   1.2500000000000000       0.37500000000000000        0.0000000000000000     
   1.1250000000000000       0.40625000000000000        0.0000000000000000     
   1.1562500000000000       0.40625000000000000        0.0000000000000000     
   1.1875000000000000       0.40625000000000000        0.0000000000000000     
   1.2187500000000000       0.40625000000000000        0.0000000000000000     
   1.2500000000000000       0.40625000000000000        0.0000000000000000     
   1.1250000000000000       0.43750000000000000        0.0000000000000000     
   1.1562500000000000       0.43750000000000000        0.0000000000000000     
   1.1875000000000000       0.43750000000000000        0.0000000000000000     
   1.2187500000000000       0.43750000000000000        0.0000000000000000     
   1.2500000000000000       0.43750000000000000        0.0000000000000000     
   1.1250000000000000       0.46875000000000000        0.0000000000000000     
   1.1562500000000000       0.46875000000000000        0.0000000000000000     
   1.1875000000000000       0.46875000000000000        0.0000000000000000     
   1.2187500000000000       0.46875000000000000        0.0000000000000000     
   1.2500000000000000       0.46875000000000000        0.0000000000000000     
   1.1250000000000000       0.50000000000000000        0.0000000000000000     
   1.1562500000000000       0.50000000000000000        0.0000000000000000     
   1.1875000000000000       0.50000000000000000        0.0000000000000000     
   1.2187500000000000       0.50000000000000000        0.0000000000000000     
   1.2500000000000000       0.50000000000000000        0.0000000000000000     
   1.2500000000000000       0.37500000000000000        0.0000000000000000     
   1.2812500000000000       0.37500000000000000        0.0000000000000000     
   1.3125000000000000       0.37500000000000000        0.0000000000000000     
   1.3437500000000000       0.37500000000000000        0.0000000000000000     
   1.3750000000000000       0.37500000000000000        0.0000000000000000     
   1.2500000000000000       0.40625000000000000        0.0000000000000000     
   1.2812500000000000       0.40625000000000000        0.0000000000000000     
   1.3125000000000000       0.40625000000000000        0.0000000000000000     
   1.3437500000000000       0.40625000000000000        0.0000000000000000     
   1.3750000000000000       0.40625000000000000        0.0000000000000000     
   1.2500000000000000       0.43750000000000000        0.0000000000000000     
   1.2812500000000000       0.43750000000000000        0.0000000000000000     
   1.3125000000000000       0.43750000000000000        0.0000000000000000     
   1.3437500000000000       0.43750000000000000        0.0000000000000000     
   1.3750000000000000       0.43750000000000000        0.0000000000000000     
   1.2500000000000000       0.46875000000000000        0.0000000000000000     
   1.2812500000000000       0.46875000000000000        0.0000000000000000     
   1.3125000000000000       0.46875000000000000        0.0000000000000000     
   1.3437500000000000       0.46875000000000000        0.0000000000000000     
   1.3750000000000000       0.46875000000000000        0.0000000000000000     
   1.2500000000000000       0.50000000000000000        0.0000000000000000     
   1.2812500000000000       0.50000000000000000        0.0000000000000000     
   1.3125000000000000       0.50000000000000000        0.0000000000000000     
   1.3437500000000000       0.50000000000000000        0.0000000000000000     
   1.3750000000000000       0.50000000000000000        0.0000000000000000     
   1.3750000000000000       0.37500000000000000        0.0000000000000000     
   1.4062500000000000       0.37500000000000000        0.0000000000000000     
   1.4375000000000000       0.37500000000000000        0.0000000000000000     
   1.4687500000000000       0.37500000000000000        0.0000000000000000     
   1.5000000000000000       0.37500000000000000        0.0000000000000000     
   1.3750000000000000       0.40625000000000000        0.0000000000000000     
   1.4062500000000000       0.40625000000000000        0.0000000000000000     
   1.4375000000000000       0.40625000000000000        0.0000000000000000     
   1.4687500000000000       0.40625000000000000        0.0000000000000000     
   1.5000000000000000       0.40625000000000000        0.0000000000000000     
   1.3750000000000000       0.43750000000000000        0.0000000000000000     
   1.4062500000000000       0.43750000000000000        0.0000000000000000     
   1.4375000000000000       0.43750000000000000        0.0000000000000000     
   1.4687500000000000       0.43750000000000000        0.0000000000000000     
   1.5000000000000000       0.43750000000000000        0.0000000000000000     
   1.3750000000000000       0.46875000000000000        0.0000000000000000     
   1.4062500000000000       0.46875000000000000        0.0000000000000000     
   1.4375000000000000       0.46875000000000000        0.0000000000000000     
   1.4687500000000000       0.46875000000000000        0.0000000000000000     
   1.5000000000000000       0.46875000000000000        0.0000000000000000     
   1.3750000000000000       0.50000000000000000        0.0000000000000000     
   1.4062500000000000       0.50000000000000000        0.0000000000000000     
   1.4375000000000000       0.50000000000000000        0.0000000000000000     
   1.4687500000000000       0.50000000000000000        0.0000000000000000     
   1.5000000000000000       0.50000000000000000        0.0000000000000000     
  0.50000000000000000       0.50000000000000000        0.0000000000000000     
  0.53125000000000000       0.50000000000000000        0.0000000000000000     
  0.56250000000000000       0.50000000000000000        0.0000000000000000     
  0.59375000000000000       0.50000000000000000        0.0000000000000000     
  0.62500000000000000       0.50000000000000000        0.0000000000000000     
  0.50000000000000000       0.53125000000000000        0.0000000000000000     
  0.53125000000000000       0.53125000000000000        0.0000000000000000     
  0.56250000000000000       0.53125000000000000        0.0000000000000000     
  0.59375000000000000       0.53125000000000000        0.0000000000000000     
  0.62500000000000000       0.53125000000000000        0.0000000000000000     
  0.50000000000000000       0.56250000000000000        0.0000000000000000     
  0.53125000000000000       0.56250000000000000        0.0000000000000000     
  0.56250000000000000       0.56250000000000000        0.0000000000000000     
  0.59375000000000000       0.56250000000000000        0.0000000000000000     
  0.62500000000000000       0.56250000000000000        0.0000000000000000     
  0.50000000000000000       0.59375000000000000        0.0000000000000000     
  0.53125000000000000       0.59375000000000000        0.0000000000000000     
  0.56250000000000000       0.59375000000000000        0.0000000000000000     
  0.59375000000000000       0.59375000000000000        0.0000000000000000     
  0.62500000000000000       0.59375000000000000        0.0000000000000000     
  0.50000000000000000       0.62500000000000000        0.0000000000000000     
  0.53125000000000000       0.62500000000000000        0.0000000000000000     
  0.56250000000000000       0.62500000000000000        0.0000000000000000     
  0.59375000000000000       0.62500000000000000        0.0000000000000000     
  0.62500000000000000       0.62500000000000000        0.0000000000000000     
  0.62500000000000000       0.50000000000000000        0.0000000000000000     
  0.65625000000000000       0.50000000000000000        0.0000000000000000     
  0.68750000000000000       0.50000000000000000        0.0000000000000000     
  0.71875000000000000       0.50000000000000000        0.0000000000000000     
  0.75000000000000000       0.50000000000000000        0.0000000000000000     
  0.62500000000000000       0.53125000000000000        0.0000000000000000     
  0.65625000000000000       0.53125000000000000        0.0000000000000000     
  0.68750000000000000       0.53125000000000000        0.0000000000000000     
  0.71875000000000000       0.53125000000000000        0.0000000000000000     
  0.75000000000000000       0.53125000000000000        0.0000000000000000     
  0.62500000000000000       0.56250000000000000        0.0000000000000000     
  0.65625000000000000       0.56250000000000000        0.0000000000000000     
  0.68750000000000000       0.56250000000000000        0.0000000000000000     
  0.71875000000000000       0.56250000000000000        0.0000000000000000     
  0.75000000000000000       0.56250000000000000        0.0000000000000000     
  0.62500000000000000       0.59375000000000000        0.0000000000000000     
  0.65625000000000000       0.59375000000000000        0.0000000000000000     
  0.68750000000000000       0.59375000000000000        0.0000000000000000     
  0.71875000000000000       0.59375000000000000        0.0000000000000000     
  0.75000000000000000       0.59375000000000000        0.0000000000000000     
  0.62500000000000000       0.62500000000000000        0.0000000000000000     
  0.65625000000000000       0.62500000000000000        0.0000000000000000     
  0.68750000000000000       0.62500000000000000        0.0000000000000000     
  0.71875000000000000       0.62500000000000000        0.0000000000000000     
  0.75000000000000000       0.62500000000000000        0.0000000000000000     
  0.75000000000000000       0.50000000000000000        0.0000000000000000     
  0.78125000000000000       0.50000000000000000        0.0000000000000000     
  0.81250000000000000       0.50000000000000000        0.0000000000000000     
  0.84375000000000000       0.50000000000000000        0.0000000000000000     
  0.87500000000000000       0.50000000000000000        0.0000000000000000     
  0.75000000000000000       0.53125000000000000        0.0000000000000000     
  0.78125000000000000       0.53125000000000000        0.0000000000000000     
  0.81250000000000000       0.53125000000000000        0.0000000000000000     
  0.84375000000000000       0.53125000000000000        0.0000000000000000     
  0.87500000000000000       0.53125000000000000        0.0000000000000000     
  0.75000000000000000       0.56250000000000000        0.0000000000000000     
  0.78125000000000000       0.56250000000000000        0.0000000000000000     
  0.81250000000000000       0.56250000000000000        0.0000000000000000     
  0.84375000000000000       0.56250000000000000        0.0000000000000000     
  0.87500000000000000       0.56250000000000000        0.0000000000000000     
  0.75000000000000000       0.59375000000000000        0.0000000000000000     
  0.78125000000000000       0.59375000000000000        0.0000000000000000     
  0.81250000000000000       0.59375000000000000        0.0000000000000000     
  0.84375000000000000       0.59375000000000000        0.0000000000000000     
  0.87500000000000000       0.59375000000000000        0.0000000000000000     
  0.75000000000000000       0.62500000000000000        0.0000000000000000     
  0.78125000000000000       0.62500000000000000        0.0000000000000000     
  0.81250000000000000       0.62500000000000000        0.0000000000000000     
  0.84375000000000000       0.62500000000000000        0.0000000000000000     
  0.87500000000000000       0.62500000000000000        0.0000000000000000     
  0.87500000000000000       0.50000000000000000        0.0000000000000000     
  0.90625000000000000       0.50000000000000000        0.0000000000000000     
  0.93750000000000000       0.50000000000000000        0.0000000000000000     
  0.96875000000000000       0.50000000000000000        0.0000000000000000     
   1.0000000000000000       0.50000000000000000        0.0000000000000000     
  0.87500000000000000       0.53125000000000000        0.0000000000000000     
  0.90625000000000000       0.53125000000000000        0.0000000000000000     
  0.93750000000000000       0.53125000000000000        0.0000000000000000     
  0.96875000000000000       0.53125000000000000        0.0000000000000000     
   1.0000000000000000       0.53125000000000000        0.0000000000000000     
  0.87500000000000000       0.56250000000000000        0.0000000000000000     
  0.90625000000000000       0.56250000000000000        0.0000000000000000     
  0.93750000000000000       0.56250000000000000        0.0000000000000000     
  0.96875000000000000       0.56250000000000000        0.0000000000000000     
   1.0000000000000000       0.56250000000000000        0.0000000000000000     
  0.87500000000000000       0.59375000000000000        0.0000000000000000     
  0.90625000000000000       0.59375000000000000        0.0000000000000000     
  0.93750000000000000       0.59375000000000000        0.0000000000000000     
  0.96875000000000000       0.59375000000000000        0.0000000000000000     
   1.0000000000000000       0.59375000000000000        0.0000000000000000     
  0.87500000000000000       0.62500000000000000        0.0000000000000000     
  0.90625000000000000       0.62500000000000000        0.0000000000000000     
  0.93750000000000000       0.62500000000000000        0.0000000000000000     
  0.96875000000000000       0.62500000000000000        0.0000000000000000     
   1.0000000000000000       0.62500000000000000        0.0000000000000000     
   1.0000000000000000       0.50000000000000000        0.0000000000000000     
   1.0312500000000000       0.50000000000000000        0.0000000000000000     
   1.0625000000000000       0.50000000000000000        0.0000000000000000     
   1.0937500000000000       0.50000000000000000        0.0000000000000000     
   1.1250000000000000       0.50000000000000000        0.0000000000000000     
   1.0000000000000000       0.53125000000000000        0.0000000000000000     
   1.0312500000000000       0.53125000000000000        0.0000000000000000     
   1.0625000000000000       0.53125000000000000        0.0000000000000000     
   1.0937500000000000       0.53125000000000000        0.0000000000000000     
   1.1250000000000000       0.53125000000000000        0.0000000000000000     
   1.0000000000000000       0.56250000000000000        0.0000000000000000     
   1.0312500000000000       0.56250000000000000        0.0000000000000000     
   1.0625000000000000       0.56250000000000000        0.0000000000000000     
   1.0937500000000000       0.56250000000000000        0.0000000000000000     
   1.1250000000000000       0.56250000000000000        0.0000000000000000     
   1.0000000000000000       0.59375000000000000        0.0000000000000000     
   1.0312500000000000       0.59375000000000000        0.0000000000000000     
   1.0625000000000000       0.59375000000000000        0.0000000000000000     
   1.0937500000000000       0.59375000000000000        0.0000000000000000     
   1.1250000000000000       0.59375000000000000        0.0000000000000000     
   1.0000000000000000       0.62500000000000000        0.0000000000000000     
   1.0312500000000000       0.62500000000000000        0.0000000000000000     
   1.0625000000000000       0.62500000000000000        0.0000000000000000     
   1.0937500000000000       0.62500000000000000        0.0000000000000000     
   1.1250000000000000       0.62500000000000000        0.0000000000000000     
   1.1250000000000000       0.50000000000000000        0.0000000000000000     
   1.1562500000000000       0.50000000000000000        0.0000000000000000     
   1.1875000000000000       0.50000000000000000        0.0000000000000000     
   1.2187500000000000       0.50000000000000000        0.0000000000000000     
   1.2500000000000000       0.50000000000000000        0.0000000000000000     
   1.1250000000000000       0.53125000000000000        0.0000000000000000     
   1.1562500000000000       0.53125000000000000        0.0000000000000000     
   1.1875000000000000       0.53125000000000000        0.0000000000000000     
   1.2187500000000000       0.53125000000000000        0.0000000000000000     
   1.2500000000000000       0.53125000000000000        0.0000000000000000     
   1.1250000000000000       0.56250000000000000        0.0000000000000000     
   1.1562500000000000       0.56250000000000000        0.0000000000000000     
   1.1875000000000000       0.56250000000000000        0.0000000000000000     
   1.2187500000000000       0.56250000000000000        0.0000000000000000     
   1.2500000000000000       0.56250000000000000        0.0000000000000000     
   1.1250000000000000       0.59375000000000000        0.0000000000000000     
   1.1562500000000000       0.59375000000000000        0.0000000000000000     
   1.1875000000000000       0.59375000000000000        0.0000000000000000     
   1.2187500000000000       0.59375000000000000        0.0000000000000000     
   1.2500000000000000       0.59375000000000000        0.0000000000000000     
   1.1250000000000000       0.62500000000000000        0.0000000000000000     
   1.1562500000000000       0.62500000000000000        0.0000000000000000     
   1.1875000000000000       0.62500000000000000        0.0000000000000000     
   1.2187500000000000       0.62500000000000000        0.0000000000000000     
   1.2500000000000000       0.62500000000000000        0.0000000000000000     
   1.2500000000000000       0.50000000000000000        0.0000000000000000     
   1.2812500000000000       0.50000000000000000        0.0000000000000000     
   1.3125000000000000       0.50000000000000000        0.0000000000000000     
   1.3437500000000000       0.50000000000000000        0.0000000000000000     
   1.3750000000000000       0.50000000000000000        0.0000000000000000     
   1.2500000000000000       0.53125000000000000        0.0000000000000000     
   1.2812500000000000       0.53125000000000000        0.0000000000000000     
   1.3125000000000000       0.53125000000000000        0.0000000000000000     
   1.3437500000000000       0.53125000000000000        0.0000000000000000     
   1.3750000000000000       0.53125000000000000        0.0000000000000000     
   1.2500000000000000       0.56250000000000000        0.0000000000000000     
   1.2812500000000000       0.56250000000000000        0.0000000000000000     
   1.3125000000000000       0.56250000000000000        0.0000000000000000     
   1.3437500000000000       0.56250000000000000        0.0000000000000000     
   1.3750000000000000       0.56250000000000000        0.0000000000000000     
   1.2500000000000000       0.59375000000000000        0.0000000000000000     
   1.2812500000000000       0.59375000000000000        0.0000000000000000     
   1.3125000000000000       0.59375000000000000        0.0000000000000000     
   1.3437500000000000       0.59375000000000000        0.0000000000000000     
   1.3750000000000000       0.59375000000000000        0.0000000000000000     
   1.2500000000000000       0.62500000000000000        0.0000000000000000     
   1.2812500000000000       0.62500000000000000        0.0000000000000000     
   1.3125000000000000       0.62500000000000000        0.0000000000000000     
   1.3437500000000000       0.62500000000000000        0.0000000000000000     
   1.3750000000000000       0.62500000000000000        0.0000000000000000     
   1.3750000000000000       0.50000000000000000        0.0000000000000000     
   1.4062500000000000       0.50000000000000000        0.0000000000000000     
   1.4375000000000000       0.50000000000000000        0.0000000000000000     
   1.4687500000000000       0.50000000000000000        0.0000000000000000     
   1.5000000000000000       0.50000000000000000        0.0000000000000000     
   1.3750000000000000       0.53125000000000000        0.0000000000000000     
   1.4062500000000000       0.53125000000000000        0.0000000000000000     
   1.4375000000000000       0.53125000000000000        0.0000000000000000     
   1.4687500000000000       0.53125000000000000        0.0000000000000000     
   1.5000000000000000       0.53125000000000000        0.0000000000000000     
   1.3750000000000000       0.56250000000000000        0.0000000000000000     
   1.4062500000000000       0.56250000000000000        0.0000000000000000     
   1.4375000000000000       0.56250000000000000        0.0000000000000000     
   1.4687500000000000       0.56250000000000000        0.0000000000000000     
   1.5000000000000000       0.56250000000000000        0.0000000000000000     
   1.3750000000000000       0.59375000000000000        0.0000000000000000     
   1.4062500000000000       0.59375000000000000        0.0000000000000000     
   1.4375000000000000       0.59375000000000000        0.0000000000000000     
   1.4687500000000000       0.59375000000000000        0.0000000000000000     
   1.5000000000000000       0.59375000000000000        0.0000000000000000     
   1.3750000000000000       0.62500000000000000        0.0000000000000000     
   1.4062500000000000       0.62500000000000000        0.0000000000000000     
   1.4375000000000000       0.62500000000000000        0.0000000000000000     
   1.4687500000000000       0.62500000000000000        0.0000000000000000     
   1.5000000000000000       0.62500000000000000        0.0000000000000000     
  0.50000000000000000       0.62500000000000000        0.0000000000000000     
  0.53125000000000000       0.62500000000000000        0.0000000000000000     
  0.56250000000000000       0.62500000000000000        0.0000000000000000     
  0.59375000000000000       0.62500000000000000        0.0000000000000000     
  0.62500000000000000       0.62500000000000000        0.0000000000000000     
  0.50000000000000000       0.65625000000000000        0.0000000000000000     
  0.53125000000000000       0.65625000000000000        0.0000000000000000     
  0.56250000000000000       0.65625000000000000        0.0000000000000000     
  0.59375000000000000       0.65625000000000000        0.0000000000000000     
  0.62500000000000000       0.65625000000000000        0.0000000000000000     
  0.50000000000000000       0.68750000000000000        0.0000000000000000     
  0.53125000000000000       0.68750000000000000        0.0000000000000000     
  0.56250000000000000       0.68750000000000000        0.0000000000000000     
  0.59375000000000000       0.68750000000000000        0.0000000000000000     
  0.62500000000000000       0.68750000000000000        0.0000000000000000     
  0.50000000000000000       0.71875000000000000        0.0000000000000000     
  0.53125000000000000       0.71875000000000000        0.0000000000000000     
  0.56250000000000000       0.71875000000000000        0.0000000000000000     
  0.59375000000000000       0.71875000000000000        0.0000000000000000     
  0.62500000000000000       0.71875000000000000        0.0000000000000000     
  0.50000000000000000       0.75000000000000000        0.0000000000000000     
  0.53125000000000000       0.75000000000000000        0.0000000000000000     
  0.56250000000000000       0.75000000000000000        0.0000000000000000     
  0.59375000000000000       0.75000000000000000        0.0000000000000000     
  0.62500000000000000       0.75000000000000000        0.0000000000000000     
  0.62500000000000000       0.62500000000000000        0.0000000000000000     
  0.65625000000000000       0.62500000000000000        0.0000000000000000     
  0.68750000000000000       0.62500000000000000        0.0000000000000000     
  0.71875000000000000       0.62500000000000000        0.0000000000000000     
  0.75000000000000000       0.62500000000000000        0.0000000000000000     
  0.62500000000000000       0.65625000000000000        0.0000000000000000     
  0.65625000000000000       0.65625000000000000        0.0000000000000000     
  0.68750000000000000       0.65625000000000000        0.0000000000000000     
  0.71875000000000000       0.65625000000000000        0.0000000000000000     
  0.75000000000000000       0.65625000000000000        0.0000000000000000     
  0.62500000000000000       0.68750000000000000        0.0000000000000000     
  0.65625000000000000       0.68750000000000000        0.0000000000000000     
  0.68750000000000000       0.68750000000000000        0.0000000000000000     
  0.71875000000000000       0.68750000000000000        0.0000000000000000     
  0.75000000000000000       0.68750000000000000        0.0000000000000000     
  0.62500000000000000       0.71875000000000000        0.0000000000000000     
  0.65625000000000000       0.71875000000000000        0.0000000000000000     
  0.68750000000000000       0.71875000000000000        0.0000000000000000     
  0.71875000000000000       0.71875000000000000        0.0000000000000000     
  0.75000000000000000       0.71875000000000000        0.0000000000000000     
  0.62500000000000000       0.75000000000000000        0.0000000000000000     
  0.65625000000000000       0.75000000000000000        0.0000000000000000     
  0.68750000000000000       0.75000000000000000        0.0000000000000000     
  0.71875000000000000       0.75000000000000000        0.0000000000000000     
  0.75000000000000000       0.75000000000000000        0.0000000000000000     
  0.75000000000000000       0.62500000000000000        0.0000000000000000     
  0.78125000000000000       0.62500000000000000        0.0000000000000000     
  0.81250000000000000       0.62500000000000000        0.0000000000000000     
  0.84375000000000000       0.62500000000000000        0.0000000000000000     
  0.87500000000000000       0.62500000000000000        0.0000000000000000     
  0.75000000000000000       0.65625000000000000        0.0000000000000000     
  0.78125000000000000       0.65625000000000000        0.0000000000000000     
  0.81250000000000000       0.65625000000000000        0.0000000000000000     
  0.84375000000000000       0.65625000000000000        0.0000000000000000     
  0.87500000000000000       0.65625000000000000        0.0000000000000000     
  0.75000000000000000       0.68750000000000000        0.0000000000000000     
  0.78125000000000000       0.68750000000000000        0.0000000000000000     
  0.81250000000000000       0.68750000000000000        0.0000000000000000     
  0.84375000000000000       0.68750000000000000        0.0000000000000000     
  0.87500000000000000       0.68750000000000000        0.0000000000000000     
  0.75000000000000000       0.71875000000000000        0.0000000000000000     
  0.78125000000000000       0.71875000000000000        0.0000000000000000     
  0.81250000000000000       0.71875000000000000        0.0000000000000000     
  0.84375000000000000       0.71875000000000000        0.0000000000000000     
  0.87500000000000000       0.71875000000000000        0.0000000000000000     
  0.75000000000000000       0.75000000000000000        0.0000000000000000     
  0.78125000000000000       0.75000000000000000        0.0000000000000000     
  0.81250000000000000       0.75000000000000000        0.0000000000000000     
  0.84375000000000000       0.75000000000000000        0.0000000000000000     
  0.87500000000000000       0.75000000000000000        0.0000000000000000     
  0.87500000000000000       0.62500000000000000        0.0000000000000000     
  0.90625000000000000       0.62500000000000000        0.0000000000000000     
  0.93750000000000000       0.62500000000000000        0.0000000000000000     
  0.96875000000000000       0.62500000000000000        0.0000000000000000     
   1.0000000000000000       0.62500000000000000        0.0000000000000000     
  0.87500000000000000       0.65625000000000000        0.0000000000000000     
  0.90625000000000000       0.65625000000000000        0.0000000000000000     
  0.93750000000000000       0.65625000000000000        0.0000000000000000     
  0.96875000000000000       0.65625000000000000        0.0000000000000000     
   1.0000000000000000       0.65625000000000000        0.0000000000000000     
  0.87500000000000000       0.68750000000000000        0.0000000000000000     
  0.90625000000000000       0.68750000000000000        0.0000000000000000     
  0.93750000000000000       0.68750000000000000        0.0000000000000000     
  0.96875000000000000       0.68750000000000000        0.0000000000000000     
   1.0000000000000000       0.68750000000000000        0.0000000000000000     
  0.87500000000000000       0.71875000000000000        0.0000000000000000     
  0.90625000000000000       0.71875000000000000        0.0000000000000000     
  0.93750000000000000       0.71875000000000000        0.0000000000000000     
  0.96875000000000000       0.71875000000000000        0.0000000000000000     
   1.0000000000000000       0.71875000000000000        0.0000000000000000     
  0.87500000000000000       0.75000000000000000        0.0000000000000000     
  0.90625000000000000       0.75000000000000000        0.0000000000000000     
  0.93750000000000000       0.75000000000000000        0.0000000000000000     
  0.96875000000000000       0.75000000000000000        0.0000000000000000     
   1.0000000000000000       0.75000000000000000        0.0000000000000000     
   1.0000000000000000       0.62500000000000000        0.0000000000000000     
   1.0312500000000000       0.62500000000000000        0.0000000000000000     
   1.0625000000000000       0.62500000000000000        0.0000000000000000     
   1.0937500000000000       0.62500000000000000        0.0000000000000000     
   1.1250000000000000       0.62500000000000000        0.0000000000000000     
   1.0000000000000000       0.65625000000000000        0.0000000000000000     
   1.0312500000000000       0.65625000000000000        0.0000000000000000     
   1.0625000000000000       0.65625000000000000        0.0000000000000000     
   1.0937500000000000       0.65625000000000000        0.0000000000000000     
   1.1250000000000000       0.65625000000000000        0.0000000000000000     
   1.0000000000000000       0.68750000000000000        0.0000000000000000     
   1.0312500000000000       0.68750000000000000        0.0000000000000000     
   1.0625000000000000       0.68750000000000000        0.0000000000000000     
   1.0937500000000000       0.68750000000000000        0.0000000000000000     
   1.1250000000000000       0.68750000000000000        0.0000000000000000     
   1.0000000000000000       0.71875000000000000        0.0000000000000000     
   1.0312500000000000       0.71875000000000000        0.0000000000000000     
   1.0625000000000000       0.71875000000000000        0.0000000000000000     
   1.0937500000000000       0.71875000000000000        0.0000000000000000     
   1.1250000000000000       0.71875000000000000        0.0000000000000000     
   1.0000000000000000       0.75000000000000000        0.0000000000000000     
   1.0312500000000000       0.75000000000000000        0.0000000000000000     
   1.0625000000000000       0.75000000000000000        0.0000000000000000     
   1.0937500000000000       0.75000000000000000        0.0000000000000000     
   1.1250000000000000       0.75000000000000000        0.0000000000000000     
   1.1250000000000000       0.62500000000000000        0.0000000000000000     
   1.1562500000000000       0.62500000000000000        0.0000000000000000     
   1.1875000000000000       0.62500000000000000        0.0000000000000000     
   1.2187500000000000       0.62500000000000000        0.0000000000000000     
   1.2500000000000000       0.62500000000000000        0.0000000000000000     
   1.1250000000000000       0.65625000000000000        0.0000000000000000     
   1.1562500000000000       0.65625000000000000        0.0000000000000000     
   1.1875000000000000       0.65625000000000000        0.0000000000000000     
   1.2187500000000000       0.65625000000000000        0.0000000000000000     
   1.2500000000000000       0.65625000000000000        0.0000000000000000     
   1.1250000000000000       0.68750000000000000        0.0000000000000000     
   1.1562500000000000       0.68750000000000000        0.0000000000000000     
   1.1875000000000000       0.68750000000000000        0.0000000000000000     
   1.2187500000000000       0.68750000000000000        0.0000000000000000     
   1.2500000000000000       0.68750000000000000        0.0000000000000000     
   1.1250000000000000       0.71875000000000000        0.0000000000000000     
   1.1562500000000000       0.71875000000000000        0.0000000000000000     
   1.1875000000000000       0.71875000000000000        0.0000000000000000     
   1.2187500000000000       0.71875000000000000        0.0000000000000000     
   1.2500000000000000       0.71875000000000000        0.0000000000000000     
   1.1250000000000000       0.75000000000000000        0.0000000000000000     
   1.1562500000000000       0.75000000000000000        0.0000000000000000     
   1.1875000000000000       0.75000000000000000        0.0000000000000000     
   1.2187500000000000       0.75000000000000000        0.0000000000000000     
   1.2500000000000000       0.75000000000000000        0.0000000000000000     
   1.2500000000000000       0.62500000000000000        0.0000000000000000     
   1.2812500000000000       0.62500000000000000        0.0000000000000000     
   1.3125000000000000       0.62500000000000000        0.0000000000000000     
   1.3437500000000000       0.62500000000000000        0.0000000000000000     
   1.3750000000000000       0.62500000000000000        0.0000000000000000     
   1.2500000000000000       0.65625000000000000        0.0000000000000000     
   1.2812500000000000       0.65625000000000000        0.0000000000000000     
   1.3125000000000000       0.65625000000000000        0.0000000000000000     
   1.3437500000000000       0.65625000000000000        0.0000000000000000     
   1.3750000000000000       0.65625000000000000        0.0000000000000000     
   1.2500000000000000       0.68750000000000000        0.0000000000000000     
   1.2812500000000000       0.68750000000000000        0.0000000000000000     
   1.3125000000000000       0.68750000000000000        0.0000000000000000     
   1.3437500000000000       0.68750000000000000        0.0000000000000000     
   1.3750000000000000       0.68750000000000000        0.0000000000000000     
   1.2500000000000000       0.71875000000000000        0.0000000000000000     
   1.2812500000000000       0.71875000000000000        0.0000000000000000     
   1.3125000000000000       0.71875000000000000        0.0000000000000000     
   1.3437500000000000       0.71875000000000000        0.0000000000000000     
   1.3750000000000000       0.71875000000000000        0.0000000000000000     
   1.2500000000000000       0.75000000000000000        0.0000000000000000     
   1.2812500000000000       0.75000000000000000        0.0000000000000000     
   1.3125000000000000       0.75000000000000000        0.0000000000000000     
   1.3437500000000000       0.75000000000000000        0.0000000000000000     
   1.3750000000000000       0.75000000000000000        0.0000000000000000     
   1.3750000000000000       0.62500000000000000        0.0000000000000000     
   1.4062500000000000       0.62500000000000000        0.0000000000000000     
   1.4375000000000000       0.62500000000000000        0.0000000000000000     
   1.4687500000000000       0.62500000000000000        0.0000000000000000     
   1.5000000000000000       0.62500000000000000        0.0000000000000000     
   1.3750000000000000       0.65625000000000000        0.0000000000000000     
   1.4062500000000000       0.65625000000000000        0.0000000000000000     
   1.4375000000000000       0.65625000000000000        0.0000000000000000     
   1.4687500000000000       0.65625000000000000        0.0000000000000000     
   1.5000000000000000       0.65625000000000000        0.0000000000000000     
   1.3750000000000000       0.68750000000000000        0.0000000000000000     
   1.4062500000000000       0.68750000000000000        0.0000000000000000     
   1.4375000000000000       0.68750000000000000        0.0000000000000000     
   1.4687500000000000       0.68750000000000000        0.0000000000000000     
   1.5000000000000000       0.68750000000000000        0.0000000000000000     
   1.3750000000000000       0.71875000000000000        0.0000000000000000     
   1.4062500000000000       0.71875000000000000        0.0000000000000000     
   1.4375000000000000       0.71875000000000000        0.0000000000000000     
   1.4687500000000000       0.71875000000000000        0.0000000000000000     
   1.5000000000000000       0.71875000000000000        0.0000000000000000     
   1.3750000000000000       0.75000000000000000        0.0000000000000000     
   1.4062500000000000       0.75000000000000000        0.0000000000000000     
   1.4375000000000000       0.75000000000000000        0.0000000000000000     
   1.4687500000000000       0.75000000000000000        0.0000000000000000     
   1.5000000000000000       0.75000000000000000        0.0000000000000000     
  0.50000000000000000       0.75000000000000000        0.0000000000000000     
  0.53125000000000000       0.75000000000000000        0.0000000000000000     
  0.56250000000000000       0.75000000000000000        0.0000000000000000     
  0.59375000000000000       0.75000000000000000        0.0000000000000000     
  0.62500000000000000       0.75000000000000000        0.0000000000000000     
  0.50000000000000000       0.78125000000000000        0.0000000000000000     
  0.53125000000000000       0.78125000000000000        0.0000000000000000     
  0.56250000000000000       0.78125000000000000        0.0000000000000000     
  0.59375000000000000       0.78125000000000000        0.0000000000000000     
  0.62500000000000000       0.78125000000000000        0.0000000000000000     
  0.50000000000000000       0.81250000000000000        0.0000000000000000     
  0.53125000000000000       0.81250000000000000        0.0000000000000000     
  0.56250000000000000       0.81250000000000000        0.0000000000000000     
  0.59375000000000000       0.81250000000000000        0.0000000000000000     
  0.62500000000000000       0.81250000000000000        0.0000000000000000     
  0.50000000000000000       0.84375000000000000        0.0000000000000000     
  0.53125000000000000       0.84375000000000000        0.0000000000000000     
  0.56250000000000000       0.84375000000000000        0.0000000000000000     
  0.59375000000000000       0.84375000000000000        0.0000000000000000     
  0.62500000000000000       0.84375000000000000        0.0000000000000000     
  0.50000000000000000       0.87500000000000000        0.0000000000000000     
  0.53125000000000000       0.87500000000000000        0.0000000000000000     
  0.56250000000000000       0.87500000000000000        0.0000000000000000     
  0.59375000000000000       0.87500000000000000        0.0000000000000000     
  0.62500000000000000       0.87500000000000000        0.0000000000000000     
  0.62500000000000000       0.75000000000000000        0.0000000000000000     
  0.65625000000000000       0.75000000000000000        0.0000000000000000     
  0.68750000000000000       0.75000000000000000        0.0000000000000000     
  0.71875000000000000       0.75000000000000000        0.0000000000000000     
  0.75000000000000000       0.75000000000000000        0.0000000000000000     
  0.62500000000000000       0.78125000000000000        0.0000000000000000     
  0.65625000000000000       0.78125000000000000        0.0000000000000000     
  0.68750000000000000       0.78125000000000000        0.0000000000000000     
  0.71875000000000000       0.78125000000000000        0.0000000000000000     
  0.75000000000000000       0.78125000000000000        0.0000000000000000     
  0.62500000000000000       0.81250000000000000        0.0000000000000000     
  0.65625000000000000       0.81250000000000000        0.0000000000000000     
  0.68750000000000000       0.81250000000000000        0.0000000000000000     
  0.71875000000000000       0.81250000000000000        0.0000000000000000     
  0.75000000000000000       0.81250000000000000        0.0000000000000000     
  0.62500000000000000       0.84375000000000000        0.0000000000000000     
  0.65625000000000000       0.84375000000000000        0.0000000000000000     
  0.68750000000000000       0.84375000000000000        0.0000000000000000     
  0.71875000000000000       0.84375000000000000        0.0000000000000000     
  0.75000000000000000       0.84375000000000000        0.0000000000000000     
  0.62500000000000000       0.87500000000000000        0.0000000000000000     
  0.65625000000000000       0.87500000000000000        0.0000000000000000     
  0.68750000000000000       0.87500000000000000        0.0000000000000000     
  0.71875000000000000       0.87500000000000000        0.0000000000000000     
  0.75000000000000000       0.87500000000000000        0.0000000000000000     
  0.75000000000000000       0.75000000000000000        0.0000000000000000     
  0.78125000000000000       0.75000000000000000        0.0000000000000000     
  0.81250000000000000       0.75000000000000000        0.0000000000000000     
  0.84375000000000000       0.75000000000000000        0.0000000000000000     
  0.87500000000000000       0.75000000000000000        0.0000000000000000     
  0.75000000000000000       0.78125000000000000        0.0000000000000000     
  0.78125000000000000       0.78125000000000000        0.0000000000000000     
  0.81250000000000000       0.78125000000000000        0.0000000000000000     
  0.84375000000000000       0.78125000000000000        0.0000000000000000     
  0.87500000000000000       0.78125000000000000        0.0000000000000000     
  0.75000000000000000       0.81250000000000000        0.0000000000000000     
  0.78125000000000000       0.81250000000000000        0.0000000000000000     
  0.81250000000000000       0.81250000000000000        0.0000000000000000     
  0.84375000000000000       0.81250000000000000        0.0000000000000000     
  0.87500000000000000       0.81250000000000000        0.0000000000000000     
  0.75000000000000000       0.84375000000000000        0.0000000000000000     
  0.78125000000000000       0.84375000000000000        0.0000000000000000     
  0.81250000000000000       0.84375000000000000        0.0000000000000000     
  0.84375000000000000       0.84375000000000000        0.0000000000000000     
  0.87500000000000000       0.84375000000000000        0.0000000000000000     
  0.75000000000000000       0.87500000000000000        0.0000000000000000     
  0.78125000000000000       0.87500000000000000        0.0000000000000000     
  0.81250000000000000       0.87500000000000000        0.0000000000000000     
  0.84375000000000000       0.87500000000000000        0.0000000000000000     
  0.87500000000000000       0.87500000000000000        0.0000000000000000     
  0.87500000000000000       0.75000000000000000        0.0000000000000000     
  0.90625000000000000       0.75000000000000000        0.0000000000000000     
  0.93750000000000000       0.75000000000000000        0.0000000000000000     
  0.96875000000000000       0.75000000000000000        0.0000000000000000     
   1.0000000000000000       0.75000000000000000        0.0000000000000000     
  0.87500000000000000       0.78125000000000000        0.0000000000000000     
  0.90625000000000000       0.78125000000000000        0.0000000000000000     
  0.93750000000000000       0.78125000000000000        0.0000000000000000     
  0.96875000000000000       0.78125000000000000        0.0000000000000000     
   1.0000000000000000       0.78125000000000000        0.0000000000000000     
  0.87500000000000000       0.81250000000000000        0.0000000000000000     
  0.90625000000000000       0.81250000000000000        0.0000000000000000     
  0.93750000000000000       0.81250000000000000        0.0000000000000000     
  0.96875000000000000       0.81250000000000000        0.0000000000000000     
   1.0000000000000000       0.81250000000000000        0.0000000000000000     
  0.87500000000000000       0.84375000000000000        0.0000000000000000     
  0.90625000000000000       0.84375000000000000        0.0000000000000000     
  0.93750000000000000       0.84375000000000000        0.0000000000000000     
  0.96875000000000000       0.84375000000000000        0.0000000000000000     
   1.0000000000000000       0.84375000000000000        0.0000000000000000     
  0.87500000000000000       0.87500000000000000        0.0000000000000000     
  0.90625000000000000       0.87500000000000000        0.0000000000000000     
  0.93750000000000000       0.87500000000000000        0.0000000000000000     
  0.96875000000000000       0.87500000000000000        0.0000000000000000     
   1.0000000000000000       0.87500000000000000        0.0000000000000000     
   1.0000000000000000       0.75000000000000000        0.0000000000000000     
   1.0312500000000000       0.75000000000000000        0.0000000000000000     
   1.0625000000000000       0.75000000000000000        0.0000000000000000     
   1.0937500000000000       0.75000000000000000        0.0000000000000000     
   1.1250000000000000       0.75000000000000000        0.0000000000000000     
   1.0000000000000000       0.78125000000000000        0.0000000000000000     
   1.0312500000000000       0.78125000000000000        0.0000000000000000     
   1.0625000000000000       0.78125000000000000        0.0000000000000000     
   1.0937500000000000       0.78125000000000000        0.0000000000000000     
   1.1250000000000000       0.78125000000000000        0.0000000000000000     
   1.0000000000000000       0.81250000000000000        0.0000000000000000     
   1.0312500000000000       0.81250000000000000        0.0000000000000000     
   1.0625000000000000       0.81250000000000000        0.0000000000000000     
   1.0937500000000000       0.81250000000000000        0.0000000000000000     
   1.1250000000000000       0.81250000000000000        0.0000000000000000     
   1.0000000000000000       0.84375000000000000        0.0000000000000000     
   1.0312500000000000       0.84375000000000000        0.0000000000000000     
   1.0625000000000000       0.84375000000000000        0.0000000000000000     
   1.0937500000000000       0.84375000000000000        0.0000000000000000     
   1.1250000000000000       0.84375000000000000        0.0000000000000000     
   1.0000000000000000       0.87500000000000000        0.0000000000000000     
   1.0312500000000000       0.87500000000000000        0.0000000000000000     
   1.0625000000000000       0.87500000000000000        0.0000000000000000     
   1.0937500000000000       0.87500000000000000        0.0000000000000000     
   1.1250000000000000       0.87500000000000000        0.0000000000000000     
   1.1250000000000000       0.75000000000000000        0.0000000000000000     
   1.1562500000000000       0.75000000000000000        0.0000000000000000     
   1.1875000000000000       0.75000000000000000        0.0000000000000000     
   1.2187500000000000       0.75000000000000000        0.0000000000000000     
   1.2500000000000000       0.75000000000000000        0.0000000000000000     
   1.1250000000000000       0.78125000000000000        0.0000000000000000     
   1.1562500000000000       0.78125000000000000        0.0000000000000000     
   1.1875000000000000       0.78125000000000000        0.0000000000000000     
   1.2187500000000000       0.78125000000000000        0.0000000000000000     
   1.2500000000000000       0.78125000000000000        0.0000000000000000     
   1.1250000000000000       0.81250000000000000        0.0000000000000000     
   1.1562500000000000       0.81250000000000000        0.0000000000000000     
   1.1875000000000000       0.81250000000000000        0.0000000000000000     
   1.2187500000000000       0.81250000000000000        0.0000000000000000     
   1.2500000000000000       0.81250000000000000        0.0000000000000000     
   1.1250000000000000       0.84375000000000000        0.0000000000000000     
   1.1562500000000000       0.84375000000000000        0.0000000000000000     
   1.1875000000000000       0.84375000000000000        0.0000000000000000     
   1.2187500000000000       0.84375000000000000        0.0000000000000000     
   1.2500000000000000       0.84375000000000000        0.0000000000000000     
   1.1250000000000000       0.87500000000000000        0.0000000000000000     
   1.1562500000000000       0.87500000000000000        0.0000000000000000     
   1.1875000000000000       0.87500000000000000        0.0000000000000000     
   1.2187500000000000       0.87500000000000000        0.0000000000000000     
   1.2500000000000000       0.87500000000000000        0.0000000000000000     
   1.2500000000000000       0.75000000000000000        0.0000000000000000     
   1.2812500000000000       0.75000000000000000        0.0000000000000000     
   1.3125000000000000       0.75000000000000000        0.0000000000000000     
   1.3437500000000000       0.75000000000000000        0.0000000000000000     
   1.3750000000000000       0.75000000000000000        0.0000000000000000     
   1.2500000000000000       0.78125000000000000        0.0000000000000000     
   1.2812500000000000       0.78125000000000000        0.0000000000000000     
   1.3125000000000000       0.78125000000000000        0.0000000000000000     
   1.3437500000000000       0.78125000000000000        0.0000000000000000     
   1.3750000000000000       0.78125000000000000        0.0000000000000000     
   1.2500000000000000       0.81250000000000000        0.0000000000000000     
   1.2812500000000000       0.81250000000000000        0.0000000000000000     
   1.3125000000000000       0.81250000000000000        0.0000000000000000     
   1.3437500000000000       0.81250000000000000        0.0000000000000000     
   1.3750000000000000       0.81250000000000000        0.0000000000000000     
   1.2500000000000000       0.84375000000000000        0.0000000000000000     
   1.2812500000000000       0.84375000000000000        0.0000000000000000     
   1.3125000000000000       0.84375000000000000        0.0000000000000000     
   1.3437500000000000       0.84375000000000000        0.0000000000000000     
   1.3750000000000000       0.84375000000000000        0.0000000000000000     
   1.2500000000000000       0.87500000000000000        0.0000000000000000     
   1.2812500000000000       0.87500000000000000        0.0000000000000000     
   1.3125000000000000       0.87500000000000000        0.0000000000000000     
   1.3437500000000000       0.87500000000000000        0.0000000000000000     
   1.3750000000000000       0.87500000000000000        0.0000000000000000     
   1.3750000000000000       0.75000000000000000        0.0000000000000000     
   1.4062500000000000       0.75000000000000000        0.0000000000000000     
   1.4375000000000000       0.75000000000000000        0.0000000000000000     
   1.4687500000000000       0.75000000000000000        0.0000000000000000     
   1.5000000000000000       0.75000000000000000        0.0000000000000000     
   1.3750000000000000       0.78125000000000000        0.0000000000000000     
   1.4062500000000000       0.78125000000000000        0.0000000000000000     
   1.4375000000000000       0.78125000000000000        0.0000000000000000     
   1.4687500000000000       0.78125000000000000        0.0000000000000000     
   1.5000000000000000       0.78125000000000000        0.0000000000000000     
   1.3750000000000000       0.81250000000000000        0.0000000000000000     
   1.4062500000000000       0.81250000000000000        0.0000000000000000     
   1.4375000000000000       0.81250000000000000        0.0000000000000000     
   1.4687500000000000       0.81250000000000000        0.0000000000000000     
   1.5000000000000000       0.81250000000000000        0.0000000000000000     
   1.3750000000000000       0.84375000000000000        0.0000000000000000     
   1.4062500000000000       0.84375000000000000        0.0000000000000000     
   1.4375000000000000       0.84375000000000000        0.0000000000000000     
   1.4687500000000000       0.84375000000000000        0.0000000000000000     
   1.5000000000000000       0.84375000000000000        0.0000000000000000     
   1.3750000000000000       0.87500000000000000        0.0000000000000000     
   1.4062500000000000       0.87500000000000000        0.0000000000000000     
   1.4375000000000000       0.87500000000000000        0.0000000000000000     
   1.4687500000000000       0.87500000000000000        0.0000000000000000     
   1.5000000000000000       0.87500000000000000        0.0000000000000000     
  0.50000000000000000       0.87500000000000000        0.0000000000000000     
  0.53125000000000000       0.87500000000000000        0.0000000000000000     
  0.56250000000000000       0.87500000000000000        0.0000000000000000     
  0.59375000000000000       0.87500000000000000        0.0000000000000000     
  0.62500000000000000       0.87500000000000000        0.0000000000000000     
  0.50000000000000000       0.90625000000000000        0.0000000000000000     
  0.53125000000000000       0.90625000000000000        0.0000000000000000     
  0.56250000000000000       0.90625000000000000        0.0000000000000000     
  0.59375000000000000       0.90625000000000000        0.0000000000000000     
  0.62500000000000000       0.90625000000000000        0.0000000000000000     
  0.50000000000000000       0.93750000000000000        0.0000000000000000     
  0.53125000000000000       0.93750000000000000        0.0000000000000000     
  0.56250000000000000       0.93750000000000000        0.0000000000000000     
  0.59375000000000000       0.93750000000000000        0.0000000000000000     
  0.62500000000000000       0.93750000000000000        0.0000000000000000     
  0.50000000000000000       0.96875000000000000        0.0000000000000000     
  0.53125000000000000       0.96875000000000000        0.0000000000000000     
  0.56250000000000000       0.96875000000000000        0.0000000000000000     
  0.59375000000000000       0.96875000000000000        0.0000000000000000     
  0.62500000000000000       0.96875000000000000        0.0000000000000000     
  0.50000000000000000        1.0000000000000000        0.0000000000000000     
  0.53125000000000000        1.0000000000000000        0.0000000000000000     
  0.56250000000000000        1.0000000000000000        0.0000000000000000     
  0.59375000000000000        1.0000000000000000        0.0000000000000000     
  0.62500000000000000        1.0000000000000000        0.0000000000000000     
  0.62500000000000000       0.87500000000000000        0.0000000000000000     
  0.65625000000000000       0.87500000000000000        0.0000000000000000     
  0.68750000000000000       0.87500000000000000        0.0000000000000000     
  0.71875000000000000       0.87500000000000000        0.0000000000000000     
  0.75000000000000000       0.87500000000000000        0.0000000000000000     
  0.62500000000000000       0.90625000000000000        0.0000000000000000     
  0.65625000000000000       0.90625000000000000        0.0000000000000000     
  0.68750000000000000       0.90625000000000000        0.0000000000000000     
  0.71875000000000000       0.90625000000000000        0.0000000000000000     
  0.75000000000000000       0.90625000000000000        0.0000000000000000     
  0.62500000000000000       0.93750000000000000        0.0000000000000000     
  0.65625000000000000       0.93750000000000000        0.0000000000000000     
  0.68750000000000000       0.93750000000000000        0.0000000000000000     
  0.71875000000000000       0.93750000000000000        0.0000000000000000     
  0.75000000000000000       0.93750000000000000        0.0000000000000000     
  0.62500000000000000       0.96875000000000000        0.0000000000000000     
  0.65625000000000000       0.96875000000000000        0.0000000000000000     
  0.68750000000000000       0.96875000000000000        0.0000000000000000     
  0.71875000000000000       0.96875000000000000        0.0000000000000000     
  0.75000000000000000       0.96875000000000000        0.0000000000000000     
  0.62500000000000000        1.0000000000000000        0.0000000000000000     
  0.65625000000000000        1.0000000000000000        0.0000000000000000     
  0.68750000000000000        1.0000000000000000        0.0000000000000000     
  0.71875000000000000        1.0000000000000000        0.0000000000000000     
  0.75000000000000000        1.0000000000000000        0.0000000000000000     
  0.75000000000000000       0.87500000000000000        0.0000000000000000     
  0.78125000000000000       0.87500000000000000        0.0000000000000000     
  0.81250000000000000       0.87500000000000000        0.0000000000000000     
  0.84375000000000000       0.87500000000000000        0.0000000000000000     
  0.87500000000000000       0.87500000000000000        0.0000000000000000     
  0.75000000000000000       0.90625000000000000        0.0000000000000000     
  0.78125000000000000       0.90625000000000000        0.0000000000000000     
  0.81250000000000000       0.90625000000000000        0.0000000000000000     
  0.84375000000000000       0.90625000000000000        0.0000000000000000     
  0.87500000000000000       0.90625000000000000        0.0000000000000000     
  0.75000000000000000       0.93750000000000000        0.0000000000000000     
  0.78125000000000000       0.93750000000000000        0.0000000000000000     
  0.81250000000000000       0.93750000000000000        0.0000000000000000     
  0.84375000000000000       0.93750000000000000        0.0000000000000000     
  0.87500000000000000       0.93750000000000000        0.0000000000000000     
  0.75000000000000000       0.96875000000000000        0.0000000000000000     
  0.78125000000000000       0.96875000000000000        0.0000000000000000     
  0.81250000000000000       0.96875000000000000        0.0000000000000000     
  0.84375000000000000       0.96875000000000000        0.0000000000000000     
  0.87500000000000000       0.96875000000000000        0.0000000000000000     
  0.75000000000000000        1.0000000000000000        0.0000000000000000     
  0.78125000000000000        1.0000000000000000        0.0000000000000000     
  0.81250000000000000        1.0000000000000000        0.0000000000000000     
  0.84375000000000000        1.0000000000000000        0.0000000000000000     
  0.87500000000000000        1.0000000000000000        0.0000000000000000     
  0.87500000000000000       0.87500000000000000        0.0000000000000000     
  0.90625000000000000       0.87500000000000000        0.0000000000000000     
  0.93750000000000000       0.87500000000000000        0.0000000000000000     
  0.96875000000000000       0.87500000000000000        0.0000000000000000     
   1.0000000000000000       0.87500000000000000        0.0000000000000000     
  0.87500000000000000       0.90625000000000000        0.0000000000000000     
  0.90625000000000000       0.90625000000000000        0.0000000000000000     
  0.93750000000000000       0.90625000000000000        0.0000000000000000     
  0.96875000000000000       0.90625000000000000        0.0000000000000000     
   1.0000000000000000       0.90625000000000000        0.0000000000000000     
  0.87500000000000000       0.93750000000000000        0.0000000000000000     
  0.90625000000000000       0.93750000000000000        0.0000000000000000     
  0.93750000000000000       0.93750000000000000        0.0000000000000000     
  0.96875000000000000       0.93750000000000000        0.0000000000000000     
   1.0000000000000000       0.93750000000000000        0.0000000000000000     
  0.87500000000000000       0.96875000000000000        0.0000000000000000     
  0.90625000000000000       0.96875000000000000        0.0000000000000000     
  0.93750000000000000       0.96875000000000000        0.0000000000000000     
  0.96875000000000000       0.96875000000000000        0.0000000000000000     
   1.0000000000000000       0.96875000000000000        0.0000000000000000     
  0.87500000000000000        1.0000000000000000        0.0000000000000000     
  0.90625000000000000        1.0000000000000000        0.0000000000000000     
  0.93750000000000000        1.0000000000000000        0.0000000000000000     
  0.96875000000000000        1.0000000000000000        0.0000000000000000     
   1.0000000000000000        1.0000000000000000        0.0000000000000000     
   1.0000000000000000       0.87500000000000000        0.0000000000000000     
   1.0312500000000000       0.87500000000000000        0.0000000000000000     
   1.0625000000000000       0.87500000000000000        0.0000000000000000     
   1.0937500000000000       0.87500000000000000        0.0000000000000000     
   1.1250000000000000       0.87500000000000000        0.0000000000000000     
   1.0000000000000000       0.90625000000000000        0.0000000000000000     
   1.0312500000000000       0.90625000000000000        0.0000000000000000     
   1.0625000000000000       0.90625000000000000        0.0000000000000000     
   1.0937500000000000       0.90625000000000000        0.0000000000000000     
   1.1250000000000000       0.90625000000000000        0.0000000000000000     
   1.0000000000000000       0.93750000000000000        0.0000000000000000     
   1.0312500000000000       0.93750000000000000        0.0000000000000000     
   1.0625000000000000       0.93750000000000000        0.0000000000000000     
   1.0937500000000000       0.93750000000000000        0.0000000000000000     
   1.1250000000000000       0.93750000000000000        0.0000000000000000     
   1.0000000000000000       0.96875000000000000        0.0000000000000000     
   1.0312500000000000       0.96875000000000000        0.0000000000000000     
   1.0625000000000000       0.96875000000000000        0.0000000000000000     
   1.0937500000000000       0.96875000000000000        0.0000000000000000     
   1.1250000000000000       0.96875000000000000        0.0000000000000000     
   1.0000000000000000        1.0000000000000000        0.0000000000000000     
   1.0312500000000000        1.0000000000000000        0.0000000000000000     
   1.0625000000000000        1.0000000000000000        0.0000000000000000     
   1.0937500000000000        1.0000000000000000        0.0000000000000000     
   1.1250000000000000        1.0000000000000000        0.0000000000000000     
   1.1250000000000000       0.87500000000000000        0.0000000000000000     
   1.1562500000000000       0.87500000000000000        0.0000000000000000     
   1.1875000000000000       0.87500000000000000        0.0000000000000000     
   1.2187500000000000       0.87500000000000000        0.0000000000000000     
   1.2500000000000000       0.87500000000000000        0.0000000000000000     
   1.1250000000000000       0.90625000000000000        0.0000000000000000     
   1.1562500000000000       0.90625000000000000        0.0000000000000000     
   1.1875000000000000       0.90625000000000000        0.0000000000000000     
   1.2187500000000000       0.90625000000000000        0.0000000000000000     
   1.2500000000000000       0.90625000000000000        0.0000000000000000     
   1.1250000000000000       0.93750000000000000        0.0000000000000000     
   1.1562500000000000       0.93750000000000000        0.0000000000000000     
   1.1875000000000000       0.93750000000000000        0.0000000000000000     
   1.2187500000000000       0.93750000000000000        0.0000000000000000     
   1.2500000000000000       0.93750000000000000        0.0000000000000000     
   1.1250000000000000       0.96875000000000000        0.0000000000000000     
   1.1562500000000000       0.96875000000000000        0.0000000000000000     
   1.1875000000000000       0.96875000000000000        0.0000000000000000     
   1.2187500000000000       0.96875000000000000        0.0000000000000000     
   1.2500000000000000       0.96875000000000000        0.0000000000000000     
   1.1250000000000000        1.0000000000000000        0.0000000000000000     
   1.1562500000000000        1.0000000000000000        0.0000000000000000     
   1.1875000000000000        1.0000000000000000        0.0000000000000000     
   1.2187500000000000        1.0000000000000000        0.0000000000000000     
   1.2500000000000000        1.0000000000000000        0.0000000000000000     
   1.2500000000000000       0.87500000000000000        0.0000000000000000     
   1.2812500000000000       0.87500000000000000        0.0000000000000000     
   1.3125000000000000       0.87500000000000000        0.0000000000000000     
   1.3437500000000000       0.87500000000000000        0.0000000000000000     
   1.3750000000000000       0.87500000000000000        0.0000000000000000     
   1.2500000000000000       0.90625000000000000        0.0000000000000000     
   1.2812500000000000       0.90625000000000000        0.0000000000000000     
   1.3125000000000000       0.90625000000000000        0.0000000000000000     
   1.3437500000000000       0.90625000000000000        0.0000000000000000     
   1.3750000000000000       0.90625000000000000        0.0000000000000000     
   1.2500000000000000       0.93750000000000000        0.0000000000000000     
   1.2812500000000000       0.93750000000000000        0.0000000000000000     
   1.3125000000000000       0.93750000000000000        0.0000000000000000     
   1.3437500000000000       0.93750000000000000        0.0000000000000000     
   1.3750000000000000       0.93750000000000000        0.0000000000000000     
   1.2500000000000000       0.96875000000000000        0.0000000000000000     
   1.2812500000000000       0.96875000000000000        0.0000000000000000     
   1.3125000000000000       0.96875000000000000        0.0000000000000000     
   1.3437500000000000       0.96875000000000000        0.0000000000000000     
   1.3750000000000000       0.96875000000000000        0.0000000000000000     
   1.2500000000000000        1.0000000000000000        0.0000000000000000     
   1.2812500000000000        1.0000000000000000        0.0000000000000000     
   1.3125000000000000        1.0000000000000000        0.0000000000000000     
   1.3437500000000000        1.0000000000000000        0.0000000000000000     
   1.3750000000000000        1.0000000000000000        0.0000000000000000     
   1.3750000000000000       0.87500000000000000        0.0000000000000000     
   1.4062500000000000       0.87500000000000000        0.0000000000000000     
   1.4375000000000000       0.87500000000000000        0.0000000000000000     
   1.4687500000000000       0.87500000000000000        0.0000000000000000     
   1.5000000000000000       0.87500000000000000        0.0000000000000000     
   1.3750000000000000       0.90625000000000000        0.0000000000000000     
   1.4062500000000000       0.90625000000000000        0.0000000000000000     
   1.4375000000000000       0.90625000000000000        0.0000000000000000     
   1.4687500000000000       0.90625000000000000        0.0000000000000000     
   1.5000000000000000       0.90625000000000000        0.0000000000000000     
   1.3750000000000000       0.93750000000000000        0.0000000000000000     
   1.4062500000000000       0.93750000000000000        0.0000000000000000     
   1.4375000000000000       0.93750000000000000        0.0000000000000000     
   1.4687500000000000       0.93750000000000000        0.0000000000000000     
   1.5000000000000000       0.93750000000000000        0.0000000000000000     
   1.3750000000000000       0.96875000000000000        0.0000000000000000     
   1.4062500000000000       0.96875000000000000        0.0000000000000000     
   1.4375000000000000       0.96875000000000000        0.0000000000000000     
   1.4687500000000000       0.96875000000000000        0.0000000000000000     
   1.5000000000000000       0.96875000000000000        0.0000000000000000     
   1.3750000000000000        1.0000000000000000        0.0000000000000000     
   1.4062500000000000        1.0000000000000000        0.0000000000000000     
   1.4375000000000000        1.0000000000000000        0.0000000000000000     
   1.4687500000000000        1.0000000000000000        0.0000000000000000     
   1.5000000000000000        1.0000000000000000        0.0000000000000000     
 </DataArray>
 </Points>
 <Cells>
 <DataArray  type="Int32"  Name="connectivity"  format="ascii">
           0           1           6           5
           1           2           7           6
           2           3           8           7
           3           4           9           8
           5           6          11          10
           6           7          12          11
           7           8          13          12
           8           9          14          13
          10          11          16          15
          11          12          17          16
          12          13          18          17
          13          14          19          18
          15          16          21          20
          16          17          22          21
          17          18          23          22
          18          19          24          23
          25          26          31          30
          26          27          32          31
          27          28          33          32
          28          29          34          33
          30          31          36          35
          31          32          37          36
          32          33          38          37
          33          34          39          38
          35          36          41          40
          36          37          42          41
          37          38          43          42
          38          39          44          43
          40          41          46          45
          41          42          47          46
          42          43          48          47
          43          44          49          48
          50          51          56          55
          51          52          57          56
          52          53          58          57
          53          54          59          58
          55          56          61          60
          56          57          62          61
          57          58          63          62
          58          59          64          63
          60          61          66          65
          61          62          67          66
          62          63          68          67
          63          64          69          68
          65          66          71          70
          66          67          72          71
          67          68          73          72
          68          69          74          73
          75          76          81          80
          76          77          82          81
          77          78          83          82
          78          79          84          83
          80          81          86          85
          81          82          87          86
          82          83          88          87
          83          84          89          88
          85          86          91          90
          86          87          92          91
          87          88          93          92
          88          89          94          93
          90          91          96          95
          91          92          97          96
          92          93          98          97
          93          94          99          98
         100         101         106         105
         101         102         107         106
         102         103         108         107
         103         104         109         108
         105         106         111         110
         106         107         112         111
         107         108         113         112
         108         109         114         113
         110         111         116         115
         111         112         117         116
         112         113         118         117
         113         114         119         118
         115         116         121         120
         116         117         122         121
         117         118         123         122
         118         119         124         123
         125         126         131         130
         126         127         132         131
         127         128         133         132
         128         129         134         133
         130         131         136         135
         131         132         137         136
         132         133         138         137
         133         134         139         138
         135         136         141         140
         136         137         142         141
         137         138         143         142
         138         139         144         143
         140         141         146         145
         141         142         147         146
         142         143         148         147
         143         144         149         148
         150         151         156         155
         151         152         157         156
         152         153         158         157
         153         154         159         158
         155         156         161         160
         156         157         162         161
         157         158         163         162
         158         159         164         163
         160         161         166         165
         161         162         167         166
         162         163         168         167
         163         164         169         168
         165         166         171         170
         166         167         172         171
         167         168         173         172
         168         169         174         173
         175         176         181         180
         176         177         182         181
         177         178         183         182
         178         179         184         183
         180         181         186         185
         181         182         187         186
         182         183         188         187
         183         184         189         188
         185         186         191         190
         186         187         192         191
         187         188         193         192
         188         189         194         193
         190         191         196         195
         191         192         197         196
         192         193         198         197
         193         194         199         198
         200         201         206         205
         201         202         207         206
         202         203         208         207
         203         204         209         208
         205         206         211         210
         206         207         212         211
         207         208         213         212
         208         209         214         213
         210         211         216         215
         211         212         217         216
         212         213         218         217
         213         214         219         218
         215         216         221         220
         216         217         222         221
         217         218         223         222
         218         219         224         223
         225         226         231         230
         226         227         232         231
         227         228         233         232
         228         229         234         233
         230         231         236         235
         231         232         237         236
         232         233         238         237
         233         234         239         238
         235         236         241         240
         236         237         242         241
         237         238         243         242
         238         239         244         243
         240         241         246         245
         241         242         247         246
         242         243         248         247
         243         244         249         248
         250         251         256         255
         251         252         257         256
         252         253         258         257
         253         254         259         258
         255         256         261         260
         256         257         262         261
         257         258         263         262
         258         259         264         263
         260         261         266         265
         261         262         267         266
         262         263         268         267
         263         264         269         268
         265         266         271         270
         266         267         272         271
         267         268         273         272
         268         269         274         273
         275         276         281         280
         276         277         282         281
         277         278         283         282
         278         279         284         283
         280         281         286         285
         281         282         287         286
         282         283         288         287
         283         284         289         288
         285         286         291         290
         286         287         292         291
         287         288         293         292
         288         289         294         293
         290         291         296         295
         291         292         297         296
         292         293         298         297
         293         294         299         298
         300         301         306         305
         301         302         307         306
         302         303         308         307
         303         304         309         308
         305         306         311         310
         306         307         312         311
         307         308         313         312
         308         309         314         313
         310         311         316         315
         311         312         317         316
         312         313         318         317
         313         314         319         318
         315         316         321         320
         316         317         322         321
         317         318         323         322
         318         319         324         323
         325         326         331         330
         326         327         332         331
         327         328         333         332
         328         329         334         333
         330         331         336         335
         331         332         337         336
         332         333         338         337
         333         334         339         338
         335         336         341         340
         336         337         342         341
         337         338         343         342
         338         339         344         343
         340         341         346         345
         341         342         347         346
         342         343         348         347
         343         344         349         348
         350         351         356         355
         351         352         357         356
         352         353         358         357
         353         354         359         358
         355         356         361         360
         356         357         362         361
         357         358         363         362
         358         359         364         363
         360         361         366         365
         361         362         367         366
         362         363         368         367
         363         364         369         368
         365         366         371         370
         366         367         372         371
         367         368         373         372
         368         369         374         373
         375         376         381         380
         376         377         382         381
         377         378         383         382
         378         379         384         383
         380         381         386         385
         381         382         387         386
         382         383         388         387
         383         384         389         388
         385         386         391         390
         386         387         392         391
         387         388         393         392
         388         389         394         393
         390         391         396         395
         391         392         397         396
         392         393         398         397
         393         394         399         398
         400         401         406         405
         401         402         407         406
         402         403         408         407
         403         404         409         408
         405         406         411         410
         406         407         412         411
         407         408         413         412
         408         409         414         413
         410         411         416         415
         411         412         417         416
         412         413         418         417
         413         414         419         418
         415         416         421         420
         416         417         422         421
         417         418         423         422
         418         419         424         423
         425         426         431         430
         426         427         432         431
         427         428         433         432
         428         429         434         433
         430         431         436         435
         431         432         437         436
         432         433         438         437
         433         434         439         438
         435         436         441         440
         436         437         442         441
         437         438         443         442
         438         439         444         443
         440         441         446         445
         441         442         447         446
         442         443         448         447
         443         444         449         448
         450         451         456         455
         451         452         457         456
         452         453         458         457
         453         454         459         458
         455         456         461         460
         456         457         462         461
         457         458         463         462
         458         459         464         463
         460         461         466         465
         461         462         467         466
         462         463         468         467
         463         464         469         468
         465         466         471         470
         466         467         472         471
         467         468         473         472
         468         469         474         473
         475         476         481         480
         476         477         482         481
         477         478         483         482
         478         479         484         483
         480         481         486         485
         481         482         487         486
         482         483         488         487
         483         484         489         488
         485         486         491         490
         486         487         492         491
         487         488         493         492
         488         489         494         493
         490         491         496         495
         491         492         497         496
         492         493         498         497
         493         494         499         498
         500         501         506         505
         501         502         507         506
         502         503         508         507
         503         504         509         508
         505         506         511         510
         506         507         512         511
         507         508         513         512
         508         509         514         513
         510         511         516         515
         511         512         517         516
         512         513         518         517
         513         514         519         518
         515         516         521         520
         516         517         522         521
         517         518         523         522
         518         519         524         523
         525         526         531         530
         526         527         532         531
         527         528         533         532
         528         529         534         533
         530         531         536         535
         531         532         537         536
         532         533         538         537
         533         534         539         538
         535         536         541         540
         536         537         542         541
         537         538         543         542
         538         539         544         543
         540         541         546         545
         541         542         547         546
         542         543         548         547
         543         544         549         548
         550         551         556         555
         551         552         557         556
         552         553         558         557
         553         554         559         558
         555         556         561         560
         556         557         562         561
         557         558         563         562
         558         559         564         563
         560         561         566         565
         561         562         567         566
         562         563         568         567
         563         564         569         568
         565         566         571         570
         566         567         572         571
         567         568         573         572
         568         569         574         573
         575         576         581         580
         576         577         582         581
         577         578         583         582
         578         579         584         583
         580         581         586         585
         581         582         587         586
         582         583         588         587
         583         584         589         588
         585         586         591         590
         586         587         592         591
         587         588         593         592
         588         589         594         593
         590         591         596         595
         591         592         597         596
         592         593         598         597
         593         594         599         598
         600         601         606         605
         601         602         607         606
         602         603         608         607
         603         604         609         608
         605         606         611         610
         606         607         612         611
         607         608         613         612
         608         609         614         613
         610         611         616         615
         611         612         617         616
         612         613         618         617
         613         614         619         618
         615         616         621         620
         616         617         622         621
         617         618         623         622
         618         619         624         623
         625         626         631         630
         626         627         632         631
         627         628         633         632
         628         629         634         633
         630         631         636         635
         631         632         637         636
         632         633         638         637
         633         634         639         638
         635         636         641         640
         636         637         642         641
         637         638         643         642
         638         639         644         643
         640         641         646         645
         641         642         647         646
         642         643         648         647
         643         644         649         648
         650         651         656         655
         651         652         657         656
         652         653         658         657
         653         654         659         658
         655         656         661         660
         656         657         662         661
         657         658         663         662
         658         659         664         663
         660         661         666         665
         661         662         667         666
         662         663         668         667
         663         664         669         668
         665         666         671         670
         666         667         672         671
         667         668         673         672
         668         669         674         673
         675         676         681         680
         676         677         682         681
         677         678         683         682
         678         679         684         683
         680         681         686         685
         681         682         687         686
         682         683         688         687
         683         684         689         688
         685         686         691         690
         686         687         692         691
         687         688         693         692
         688         689         694         693
         690         691         696         695
         691         692         697         696
         692         693         698         697
         693         694         699         698
         700         701         706         705
         701         702         707         706
         702         703         708         707
         703         704         709         708
         705         706         711         710
         706         707         712         711
         707         708         713         712
         708         709         714         713
         710         711         716         715
         711         712         717         716
         712         713         718         717
         713         714         719         718
         715         716         721         720
         716         717         722         721
         717         718         723         722
         718         719         724         723
         725         726         731         730
         726         727         732         731
         727         728         733         732
         728         729         734         733
         730         731         736         735
         731         732         737         736
         732         733         738         737
         733         734         739         738
         735         736         741         740
         736         737         742         741
         737         738         743         742
         738         739         744         743
         740         741         746         745
         741         742         747         746
         742         743         748         747
         743         744         749         748
         750         751         756         755
         751         752         757         756
         752         753         758         757
         753         754         759         758
         755         756         761         760
         756         757         762         761
         757         758         763         762
         758         759         764         763
         760         761         766         765
         761         762         767         766
         762         763         768         767
         763         764         769         768
         765         766         771         770
         766         767         772         771
         767         768         773         772
         768         769         774         773
         775         776         781         780
         776         777         782         781
         777         778         783         782
         778         779         784         783
         780         781         786         785
         781         782         787         786
         782         783         788         787
         783         784         789         788
         785         786         791         790
         786         787         792         791
         787         788         793         792
         788         789         794         793
         790         791         796         795
         791         792         797         796
         792         793         798         797
         793         794         799         798
         800         801         806         805
         801         802         807         806
         802         803         808         807
         803         804         809         808
         805         806         811         810
         806         807         812         811
         807         808         813         812
         808         809         814         813
         810         811         816         815
         811         812         817         816
         812         813         818         817
         813         814         819         818
         815         816         821         820
         816         817         822         821
         817         818         823         822
         818         819         824         823
         825         826         831         830
         826         827         832         831
         827         828         833         832
         828         829         834         833
         830         831         836         835
         831         832         837         836
         832         833         838         837
         833         834         839         838
         835         836         841         840
         836         837         842         841
         837         838         843         842
         838         839         844         843
         840         841         846         845
         841         842         847         846
         842         843         848         847
         843         844         849         848
         850         851         856         855
         851         852         857         856
         852         853         858         857
         853         854         859         858
         855         856         861         860
         856         857         862         861
         857         858         863         862
         858         859         864         863
         860         861         866         865
         861         862         867         866
         862         863         868         867
         863         864         869         868
         865         866         871         870
         866         867         872         871
         867         868         873         872
         868         869         874         873
         875         876         881         880
         876         877         882         881
         877         878         883         882
         878         879         884         883
         880         881         886         885
         881         882         887         886
         882         883         888         887
         883         884         889         888
         885         886         891         890
         886         887         892         891
         887         888         893         892
         888         889         894         893
         890         891         896         895
         891         892         897         896
         892         893         898         897
         893         894         899         898
         900         901         906         905
         901         902         907         906
         902         903         908         907
         903         904         909         908
         905         906         911         910
         906         907         912         911
         907         908         913         912
         908         909         914         913
         910         911         916         915
         911         912         917         916
         912         913         918         917
         913         914         919         918
         915         916         921         920
         916         917         922         921
         917         918         923         922
         918         919         924         923
         925         926         931         930
         926         927         932         931
         927         928         933         932
         928         929         934         933
         930         931         936         935
         931         932         937         936
         932         933         938         937
         933         934         939         938
         935         936         941         940
         936         937         942         941
         937         938         943         942
         938         939         944         943
         940         941         946         945
         941         942         947         946
         942         943         948         947
         943         944         949         948
         950         951         956         955
         951         952         957         956
         952         953         958         957
         953         954         959         958
         955         956         961         960
         956         957         962         961
         957         958         963         962
         958         959         964         963
         960         961         966         965
         961         962         967         966
         962         963         968         967
         963         964         969         968
         965         966         971         970
         966         967         972         971
         967         968         973         972
         968         969         974         973
         975         976         981         980
         976         977         982         981
         977         978         983         982
         978         979         984         983
         980         981         986         985
         981         982         987         986
         982         983         988         987
         983         984         989         988
         985         986         991         990
         986         987         992         991
         987         988         993         992
         988         989         994         993
         990         991         996         995
         991         992         997         996
         992         993         998         997
         993         994         999         998
        1000        1001        1006        1005
        1001        1002        1007        1006
        1002        1003        1008        1007
        1003        1004        1009        1008
        1005        1006        1011        1010
        1006        1007        1012        1011
        1007        1008        1013        1012
        1008        1009        1014        1013
        1010        1011        1016        1015
        1011        1012        1017        1016
        1012        1013        1018        1017
        1013        1014        1019        1018
        1015        1016        1021        1020
        1016        1017        1022        1021
        1017        1018        1023        1022
        1018        1019        1024        1023
        1025        1026        1031        1030
        1026        1027        1032        1031
        1027        1028        1033        1032
        1028        1029        1034        1033
        1030        1031        1036        1035
        1031        1032        1037        1036
        1032        1033        1038        1037
        1033        1034        1039        1038
        1035        1036        1041        1040
        1036        1037        1042        1041
        1037        1038        1043        1042
        1038        1039        1044        1043
        1040        1041        1046        1045
        1041        1042        1047        1046
        1042        1043        1048        1047
        1043        1044        1049        1048
        1050        1051        1056        1055
        1051        1052        1057        1056
        1052        1053        1058        1057
        1053        1054        1059        1058
        1055        1056        1061        1060
        1056        1057        1062        1061
        1057        1058        1063        1062
        1058        1059        1064        1063
        1060        1061        1066        1065
        1061        1062        1067        1066
        1062        1063        1068        1067
        1063        1064        1069        1068
        1065        1066        1071        1070
        1066        1067        1072        1071
        1067        1068        1073        1072
        1068        1069        1074        1073
        1075        1076        1081        1080
        1076        1077        1082        1081
        1077        1078        1083        1082
        1078        1079        1084        1083
        1080        1081        1086        1085
        1081        1082        1087        1086
        1082        1083        1088        1087
        1083        1084        1089        1088
        1085        1086        1091        1090
        1086        1087        1092        1091
        1087        1088        1093        1092
        1088        1089        1094        1093
        1090        1091        1096        1095
        1091        1092        1097        1096
        1092        1093        1098        1097
        1093        1094        1099        1098
        1100        1101        1106        1105
        1101        1102        1107        1106
        1102        1103        1108        1107
        1103        1104        1109        1108
        1105        1106        1111        1110
        1106        1107        1112        1111
        1107        1108        1113        1112
        1108        1109        1114        1113
        1110        1111        1116        1115
        1111        1112        1117        1116
        1112        1113        1118        1117
        1113        1114        1119        1118
        1115        1116        1121        1120
        1116        1117        1122        1121
        1117        1118        1123        1122
        1118        1119        1124        1123
        1125        1126        1131        1130
        1126        1127        1132        1131
        1127        1128        1133        1132
        1128        1129        1134        1133
        1130        1131        1136        1135
        1131        1132        1137        1136
        1132        1133        1138        1137
        1133        1134        1139        1138
        1135        1136        1141        1140
        1136        1137        1142        1141
        1137        1138        1143        1142
        1138        1139        1144        1143
        1140        1141        1146        1145
        1141        1142        1147        1146
        1142        1143        1148        1147
        1143        1144        1149        1148
        1150        1151        1156        1155
        1151        1152        1157        1156
        1152        1153        1158        1157
        1153        1154        1159        1158
        1155        1156        1161        1160
        1156        1157        1162        1161
        1157        1158        1163        1162
        1158        1159        1164        1163
        1160        1161        1166        1165
        1161        1162        1167        1166
        1162        1163        1168        1167
        1163        1164        1169        1168
        1165        1166        1171        1170
        1166        1167        1172        1171
        1167        1168        1173        1172
        1168        1169        1174        1173
        1175        1176        1181        1180
        1176        1177        1182        1181
        1177        1178        1183        1182
        1178        1179        1184        1183
        1180        1181        1186        1185
        1181        1182        1187        1186
        1182        1183        1188        1187
        1183        1184        1189        1188
        1185        1186        1191        1190
        1186        1187        1192        1191
        1187        1188        1193        1192
        1188        1189        1194        1193
        1190        1191        1196        1195
        1191        1192        1197        1196
        1192        1193        1198        1197
        1193        1194        1199        1198
        1200        1201        1206        1205
        1201        1202        1207        1206
        1202        1203        1208        1207
        1203        1204        1209        1208
        1205        1206        1211        1210
        1206        1207        1212        1211
        1207        1208        1213        1212
        1208        1209        1214        1213
        1210        1211        1216        1215
        1211        1212        1217        1216
        1212        1213        1218        1217
        1213        1214        1219        1218
        1215        1216        1221        1220
        1216        1217        1222        1221
        1217        1218        1223        1222
        1218        1219        1224        1223
        1225        1226        1231        1230
        1226        1227        1232        1231
        1227        1228        1233        1232
        1228        1229        1234        1233
        1230        1231        1236        1235
        1231        1232        1237        1236
        1232        1233        1238        1237
        1233        1234        1239        1238
        1235        1236        1241        1240
        1236        1237        1242        1241
        1237        1238        1243        1242
        1238        1239        1244        1243
        1240        1241        1246        1245
        1241        1242        1247        1246
        1242        1243        1248        1247
        1243        1244        1249        1248
        1250        1251        1256        1255
        1251        1252        1257        1256
        1252        1253        1258        1257
        1253        1254        1259        1258
        1255        1256        1261        1260
        1256        1257        1262        1261
        1257        1258        1263        1262
        1258        1259        1264        1263
        1260        1261        1266        1265
        1261        1262        1267        1266
        1262        1263        1268        1267
        1263        1264        1269        1268
        1265        1266        1271        1270
        1266        1267        1272        1271
        1267        1268        1273        1272
        1268        1269        1274        1273
        1275        1276        1281        1280
        1276        1277        1282        1281
        1277        1278        1283        1282
        1278        1279        1284        1283
        1280        1281        1286        1285
        1281        1282        1287        1286
        1282        1283        1288        1287
        1283        1284        1289        1288
        1285        1286        1291        1290
        1286        1287        1292        1291
        1287        1288        1293        1292
        1288        1289        1294        1293
        1290        1291        1296        1295
        1291        1292        1297        1296
        1292        1293        1298        1297
        1293        1294        1299        1298
        1300        1301        1306        1305
        1301        1302        1307        1306
        1302        1303        1308        1307
        1303        1304        1309        1308
        1305        1306        1311        1310
        1306        1307        1312        1311
        1307        1308        1313        1312
        1308        1309        1314        1313
        1310        1311        1316        1315
        1311        1312        1317        1316
        1312        1313        1318        1317
        1313        1314        1319        1318
        1315        1316        1321        1320
        1316        1317        1322        1321
        1317        1318        1323        1322
        1318        1319        1324        1323
        1325        1326        1331        1330
        1326        1327        1332        1331
        1327        1328        1333        1332
        1328        1329        1334        1333
        1330        1331        1336        1335
        1331        1332        1337        1336
        1332        1333        1338        1337
        1333        1334        1339        1338
        1335        1336        1341        1340
        1336        1337        1342        1341
        1337        1338        1343        1342
        1338        1339        1344        1343
        1340        1341        1346        1345
        1341        1342        1347        1346
        1342        1343        1348        1347
        1343        1344        1349        1348
        1350        1351        1356        1355
        1351        1352        1357        1356
        1352        1353        1358        1357
        1353        1354        1359        1358
        1355        1356        1361        1360
        1356        1357        1362        1361
        1357        1358        1363        1362
        1358        1359        1364        1363
        1360        1361        1366        1365
        1361        1362        1367        1366
        1362        1363        1368        1367
        1363        1364        1369        1368
        1365        1366        1371        1370
        1366        1367        1372        1371
        1367        1368        1373        1372
        1368        1369        1374        1373
        1375        1376        1381        1380
        1376        1377        1382        1381
        1377        1378        1383        1382
        1378        1379        1384        1383
        1380        1381        1386        1385
        1381        1382        1387        1386
        1382        1383        1388        1387
        1383        1384        1389        1388
        1385        1386        1391        1390
        1386        1387        1392        1391
        1387        1388        1393        1392
        1388        1389        1394        1393
        1390        1391        1396        1395
        1391        1392        1397        1396
        1392        1393        1398        1397
        1393        1394        1399        1398
        1400        1401        1406        1405
        1401        1402        1407        1406
        1402        1403        1408        1407
        1403        1404        1409        1408
        1405        1406        1411        1410
        1406        1407        1412        1411
        1407        1408        1413        1412
        1408        1409        1414        1413
        1410        1411        1416        1415
        1411        1412        1417        1416
        1412        1413        1418        1417
        1413        1414        1419        1418
        1415        1416        1421        1420
        1416        1417        1422        1421
        1417        1418        1423        1422
        1418        1419        1424        1423
        1425        1426        1431        1430
        1426        1427        1432        1431
        1427        1428        1433        1432
        1428        1429        1434        1433
        1430        1431        1436        1435
        1431        1432        1437        1436
        1432        1433        1438        1437
        1433        1434        1439        1438
        1435        1436        1441        1440
        1436        1437        1442        1441
        1437        1438        1443        1442
        1438        1439        1444        1443
        1440        1441        1446        1445
        1441        1442        1447        1446
        1442        1443        1448        1447
        1443        1444        1449        1448
        1450        1451        1456        1455
        1451        1452        1457        1456
        1452        1453        1458        1457
        1453        1454        1459        1458
        1455        1456        1461        1460
        1456        1457        1462        1461
        1457        1458        1463        1462
        1458        1459        1464        1463
        1460        1461        1466        1465
        1461        1462        1467        1466
        1462        1463        1468        1467
        1463        1464        1469        1468
        1465        1466        1471        1470
        1466        1467        1472        1471
        1467        1468        1473        1472
        1468        1469        1474        1473
        1475        1476        1481        1480
        1476        1477        1482        1481
        1477        1478        1483        1482
        1478        1479        1484        1483
        1480        1481        1486        1485
        1481        1482        1487        1486
        1482        1483        1488        1487
        1483        1484        1489        1488
        1485        1486        1491        1490
        1486        1487        1492        1491
        1487        1488        1493        1492
        1488        1489        1494        1493
        1490        1491        1496        1495
        1491        1492        1497        1496
        1492        1493        1498        1497
        1493        1494        1499        1498
        1500        1501        1506        1505
        1501        1502        1507        1506
        1502        1503        1508        1507
        1503        1504        1509        1508
        1505        1506        1511        1510
        1506        1507        1512        1511
        1507        1508        1513        1512
        1508        1509        1514        1513
        1510        1511        1516        1515
        1511        1512        1517        1516
        1512        1513        1518        1517
        1513        1514        1519        1518
        1515        1516        1521        1520
        1516        1517        1522        1521
        1517        1518        1523        1522
        1518        1519        1524        1523
        1525        1526        1531        1530
        1526        1527        1532        1531
        1527        1528        1533        1532
        1528        1529        1534        1533
        1530        1531        1536        1535
        1531        1532        1537        1536
        1532        1533        1538        1537
        1533        1534        1539        1538
        1535        1536        1541        1540
        1536        1537        1542        1541
        1537        1538        1543        1542
        1538        1539        1544        1543
        1540        1541        1546        1545
        1541        1542        1547        1546
        1542        1543        1548        1547
        1543        1544        1549        1548
        1550        1551        1556        1555
        1551        1552        1557        1556
        1552        1553        1558        1557
        1553        1554        1559        1558
        1555        1556        1561        1560
        1556        1557        1562        1561
        1557        1558        1563        1562
        1558        1559        1564        1563
        1560        1561        1566        1565
        1561        1562        1567        1566
        1562        1563        1568        1567
        1563        1564        1569        1568
        1565        1566        1571        1570
        1566        1567        1572        1571
        1567        1568        1573        1572
        1568        1569        1574        1573
        1575        1576        1581        1580
        1576        1577        1582        1581
        1577        1578        1583        1582
        1578        1579        1584        1583
        1580        1581        1586        1585
        1581        1582        1587        1586
        1582        1583        1588        1587
        1583        1584        1589        1588
        1585        1586        1591        1590
        1586        1587        1592        1591
        1587        1588        1593        1592
        1588        1589        1594        1593
        1590        1591        1596        1595
        1591        1592        1597        1596
        1592        1593        1598        1597
        1593        1594        1599        1598
 </DataArray>
 <DataArray  type="Int32"  Name="offsets"  format="ascii"> 
           4
           8
          12
          16
          20
          24
          28
          32
          36
          40
          44
          48
          52
          56
          60
          64
          68
          72
          76
          80
          84
          88
          92
          96
         100
         104
         108
         112
         116
         120
         124
         128
         132
         136
         140
         144
         148
         152
         156
         160
         164
         168
         172
         176
         180
         184
         188
         192
         196
         200
         204
         208
         212
         216
         220
         224
         228
         232
         236
         240
         244
         248
         252
         256
         260
         264
         268
         272
         276
         280
         284
         288
         292
         296
         300
         304
         308
         312
         316
         320
         324
         328
         332
         336
         340
         344
         348
         352
         356
         360
         364
         368
         372
         376
         380
         384
         388
         392
         396
         400
         404
         408
         412
         416
         420
         424
         428
         432
         436
         440
         444
         448
         452
         456
         460
         464
         468
         472
         476
         480
         484
         488
         492
         496
         500
         504
         508
         512
         516
         520
         524
         528
         532
         536
         540
         544
         548
         552
         556
         560
         564
         568
         572
         576
         580
         584
         588
         592
         596
         600
         604
         608
         612
         616
         620
         624
         628
         632
         636
         640
         644
         648
         652
         656
         660
         664
         668
         672
         676
         680
         684
         688
         692
         696
         700
         704
         708
         712
         716
         720
         724
         728
         732
         736
         740
         744
         748
         752
         756
         760
         764
         768
         772
         776
         780
         784
         788
         792
         796
         800
         804
         808
         812
         816
         820
         824
         828
         832
         836
         840
         844
         848
         852
         856
         860
         864
         868
         872
         876
         880
         884
         888
         892
         896
         900
         904
         908
         912
         916
         920
         924
         928
         932
         936
         940
         944
         948
         952
         956
         960
         964
         968
         972
         976
         980
         984
         988
         992
         996
        1000
        1004
        1008
        1012
        1016
        1020
        1024
        1028
        1032
        1036
        1040
        1044
        1048
        1052
        1056
        1060
        1064
        1068
        1072
        1076
        1080
        1084
        1088
        1092
        1096
        1100
        1104
        1108
        1112
        1116
        1120
        1124
        1128
        1132
        1136
        1140
        1144
        1148
        1152
        1156
        1160
        1164
        1168
        1172
        1176
        1180
        1184
        1188
        1192
        1196
        1200
        1204
        1208
        1212
        1216
        1220
        1224
        1228
        1232
        1236
        1240
        1244
        1248
        1252
        1256
        1260
        1264
        1268
        1272
        1276
        1280
        1284
        1288
        1292
        1296
        1300
        1304
        1308
        1312
        1316
        1320
        1324
        1328
        1332
        1336
        1340
        1344
        1348
        1352
        1356
        1360
        1364
        1368
        1372
        1376
        1380
        1384
        1388
        1392
        1396
        1400
        1404
        1408
        1412
        1416
        1420
        1424
        1428
        1432
        1436
        1440
        1444
        1448
        1452
        1456
        1460
        1464
        1468
        1472
        1476
        1480
        1484
        1488
        1492
        1496
        1500
        1504
        1508
        1512
        1516
        1520
        1524
        1528
        1532
        1536
        1540
        1544
        1548
        1552
        1556
        1560
        1564
        1568
        1572
        1576
        1580
        1584
        1588
        1592
        1596
        1600
        1604
        1608
        1612
        1616
        1620
        1624
        1628
        1632
        1636
        1640
        1644
        1648
        1652
        1656
        1660
        1664
        1668
        1672
        1676
        1680
        1684
        1688
        1692
        1696
        1700
        1704
        1708
        1712
        1716
        1720
        1724
        1728
        1732
        1736
        1740
        1744
        1748
        1752
        1756
        1760
        1764
        1768
        1772
        1776
        1780
        1784
        1788
        1792
        1796
        1800
        1804
        1808
        1812
        1816
        1820
        1824
        1828
        1832
        1836
        1840
        1844
        1848
        1852
        1856
        1860
        1864
        1868
        1872
        1876
        1880
        1884
        1888
        1892
        1896
        1900
        1904
        1908
        1912
        1916
        1920
        1924
        1928
        1932
        1936
        1940
        1944
        1948
        1952
        1956
        1960
        1964
        1968
        1972
        1976
        1980
        1984
        1988
        1992
        1996
        2000
        2004
        2008
        2012
        2016
        2020
        2024
        2028
        2032
        2036
        2040
        2044
        2048
        2052
        2056
        2060
        2064
        2068
        2072
        2076
        2080
        2084
        2088
        2092
        2096
        2100
        2104
        2108
        2112
        2116
        2120
        2124
        2128
        2132
        2136
        2140
        2144
        2148
        2152
        2156
        2160
        2164
        2168
        2172
        2176
        2180
        2184
        2188
        2192
        2196
        2200
        2204
        2208
        2212
        2216
        2220
        2224
        2228
        2232
        2236
        2240
        2244
        2248
        2252
        2256
        2260
        2264
        2268
        2272
        2276
        2280
        2284
        2288
        2292
        2296
        2300
        2304
        2308
        2312
        2316
        2320
        2324
        2328
        2332
        2336
        2340
        2344
        2348
        2352
        2356
        2360
        2364
        2368
        2372
        2376
        2380
        2384
        2388
        2392
        2396
        2400
        2404
        2408
        2412
        2416
        2420
        2424
        2428
        2432
        2436
        2440
        2444
        2448
        2452
        2456
        2460
        2464
        2468
        2472
        2476
        2480
        2484
        2488
        2492
        2496
        2500
        2504
        2508
        2512
        2516
        2520
        2524
        2528
        2532
        2536
        2540
        2544
        2548
        2552
        2556
        2560
        2564
        2568
        2572
        2576
        2580
        2584
        2588
        2592
        2596
        2600
        2604
        2608
        2612
        2616
        2620
        2624
        2628
        2632
        2636
        2640
        2644
        2648
        2652
        2656
        2660
        2664
        2668
        2672
        2676
        2680
        2684
        2688
        2692
        2696
        2700
        2704
        2708
        2712
        2716
        2720
        2724
        2728
        2732
        2736
        2740
        2744
        2748
        2752
        2756
        2760
        2764
        2768
        2772
        2776
        2780
        2784
        2788
        2792
        2796
        2800
        2804
        2808
        2812
        2816
        2820
        2824
        2828
        2832
        2836
        2840
        2844
        2848
        2852
        2856
        2860
        2864
        2868
        2872
        2876
        2880
        2884
        2888
        2892
        2896
        2900
        2904
        2908
        2912
        2916
        2920
        2924
        2928
        2932
        2936
        2940
        2944
        2948
        2952
        2956
        2960
        2964
        2968
        2972
        2976
        2980
        2984
        2988
        2992
        2996
        3000
        3004
        3008
        3012
        3016
        3020
        3024
        3028
        3032
        3036
        3040
        3044
        3048
        3052
        3056
        3060
        3064
        3068
        3072
        3076
        3080
        3084
        3088
        3092
        3096
        3100
        3104
        3108
        3112
        3116
        3120
        3124
        3128
        3132
        3136
        3140
        3144
        3148
        3152
        3156
        3160
        3164
        3168
        3172
        3176
        3180
        3184
        3188
        3192
        3196
        3200
        3204
        3208
        3212
        3216
        3220
        3224
        3228
        3232
        3236
        3240
        3244
        3248
        3252
        3256
        3260
        3264
        3268
        3272
        3276
        3280
        3284
        3288
        3292
        3296
        3300
        3304
        3308
        3312
        3316
        3320
        3324
        3328
        3332
        3336
        3340
        3344
        3348
        3352
        3356
        3360
        3364
        3368
        3372
        3376
        3380
        3384
        3388
        3392
        3396
        3400
        3404
        3408
        3412
        3416
        3420
        3424
        3428
        3432
        3436
        3440
        3444
        3448
        3452
        3456
        3460
        3464
        3468
        3472
        3476
        3480
        3484
        3488
        3492
        3496
        3500
        3504
        3508
        3512
        3516
        3520
        3524
        3528
        3532
        3536
        3540
        3544
        3548
        3552
        3556
        3560
        3564
        3568
        3572
        3576
        3580
        3584
        3588
        3592
        3596
        3600
        3604
        3608
        3612
        3616
        3620
        3624
        3628
        3632
        3636
        3640
        3644
        3648
        3652
        3656
        3660
        3664
        3668
        3672
        3676
        3680
        3684
        3688
        3692
        3696
        3700
        3704
        3708
        3712
        3716
        3720
        3724
        3728
        3732
        3736
        3740
        3744
        3748
        3752
        3756
        3760
        3764
        3768
        3772
        3776
        3780
        3784
        3788
        3792
        3796
        3800
        3804
        3808
        3812
        3816
        3820
        3824
        3828
        3832
        3836
        3840
        3844
        3848
        3852
        3856
        3860
        3864
        3868
        3872
        3876
        3880
        3884
        3888
        3892
        3896
        3900
        3904
        3908
        3912
        3916
        3920
        3924
        3928
        3932
        3936
        3940
        3944
        3948
        3952
        3956
        3960
        3964
        3968
        3972
        3976
        3980
        3984
        3988
        3992
        3996
        4000
        4004
        4008
        4012
        4016
        4020
        4024
        4028
        4032
        4036
        4040
        4044
        4048
        4052
        4056
        4060
        4064
        4068
        4072
        4076
        4080
        4084
        4088
        4092
        4096
 </DataArray>
 <DataArray  type="UInt8"  Name="types"  format="ascii">
 9
 9
 9
 9
 9
 9
 9
 9
 9
 9
 9
 9
 9
 9
 9
 9
 9
 9
 9
 9
 9
 9
 9
 9
 9
 9
 9
 9
 9
 9
 9
 9
 9
 9
 9
 9
 9
 9
 9
 9
 9
 9
 9
 9
 9
 9
 9
 9
 9
 9
 9
 9
 9
 9
 9
 9
 9
 9
 9
 9
 9
 9
 9
 9
 9
 9
 9
 9
 9
 9
 9
 9
 9
 9
 9
 9
 9
 9
 9
 9
 9
 9
 9
 9
 9
 9
 9
 9
 9
 9
 9
 9
 9
 9
 9
 9
 9
 9
 9
 9
 9
 9
 9
 9
 9
 9
 9
 9
 9
 9
 9
 9
 9
 9
 9
 9
 9
 9
 9
 9
 9
 9
 9
 9
 9
 9
 9
 9
 9
 9
 9
 9
 9
 9
 9
 9
 9
 9
 9
 9
 9
 9
 9
 9
 9
 9
 9
 9
 9
 9
 9
 9
 9
 9
 9
 9
 9
 9
 9
 9
 9
 9
 9
 9
 9
 9
 9
 9
 9
 9
 9
 9
 9
 9
 9
 9
 9
 9
 9
 9
 9
 9
 9
 9
 9
 9
 9
 9
 9
 9
 9
 9
 9
 9
 9
 9
 9
 9
 9
 9
 9
 9
 9
 9
 9
 9
 9
 9
 9
 9
 9
 9
 9
 9
 9
 9
 9
 9
 9
 9
 9
 9
 9
 9
 9
 9
 9
 9
 9
 9
 9
 9
 9
 9
 9
 9
 9
 9
 9
 9
 9
 9
 9
 9
 9
 9
 9
 9
 9
 9
 9
 9
 9
 9
 9
 9
 9
 9
 9
 9
 9
 9
 9
 9
 9
 9
 9
 9
 9
 9
 9
 9
 9
 9
 9
 9
 9
 9
 9
 9
 9
 9
 9
 9
 9
 9
 9
 9
 9
 9
 9
 9
 9
 9
 9
 9
 9
 9
 9
 9
 9
 9
 9
 9
 9
 9
 9
 9
 9
 9
 9
 9
 9
 9
 9
 9
 9
 9
 9
 9
 9
 9
 9
 9
 9
 9
 9
 9
 9
 9
 9
 9
 9
 9
 9
 9
 9
 9
 9
 9
 9
 9
 9
 9
 9
 9
 9
 9
 9
 9
 9
 9
 9
 9
 9
 9
 9
 9
 9
 9
 9
 9
 9
 9
 9
 9
 9
 9
 9
 9
 9
 9
 9
 9
 9
 9
 9
 9
 9
 9
 9
 9
 9
 9
 9
 9
 9
 9
 9
 9
 9
 9
 9
 9
 9
 9
 9
 9
 9
 9
 9
 9
 9
 9
 9
 9
 9
 9
 9
 9
 9
 9
 9
 9
 9
 9
 9
 9
 9
 9
 9
 9
 9
 9
 9
 9
 9
 9
 9
 9
 9
 9
 9
 9
 9
 9
 9
 9
 9
 9
 9
 9
 9
 9
 9
 9
 9
 9
 9
 9
 9
 9
 9
 9
 9
 9
 9
 9
 9
 9
 9
 9
 9
 9
 9
 9
 9
 9
 9
 9
 9
 9
 9
 9
 9
 9
 9
 9
 9
 9
 9
 9
 9
 9
 9
 9
 9
 9
 9
 9
 9
 9
 9
 9
 9
 9
 9
 9
 9
 9
 9
 9
 9
 9
 9
 9
 9
 9
 9
 9
 9
 9
 9
 9
 9
 9
 9
 9
 9
 9
 9
 9
 9
 9
 9
 9
 9
 9
 9
 9
 9
 9
 9
 9
 9
 9
 9
 9
 9
 9
 9
 9
 9
 9
 9
 9
 9
 9
 9
 9
 9
 9
 9
 9
 9
 9
 9
 9
 9
 9
 9
 9
 9
 9
 9
 9
 9
 9
 9
 9
 9
 9
 9
 9
 9
 9
 9
 9
 9
 9
 9
 9
 9
 9
 9
 9
 9
 9
 9
 9
 9
 9
 9
 9
 9
 9
 9
 9
 9
 9
 9
 9
 9
 9
 9
 9
 9
 9
 9
 9
 9
 9
 9
 9
 9
 9
 9
 9
 9
 9
 9
 9
 9
 9
 9
 9
 9
 9
 9
 9
 9
 9
 9
 9
 9
 9
 9
 9
 9
 9
 9
 9
 9
 9
 9
 9
 9
 9
 9
 9
 9
 9
 9
 9
 9
 9
 9
 9
 9
 9
 9
 9
 9
 9
 9
 9
 9
 9
 9
 9
 9
 9
 9
 9
 9
 9
 9
 9
 9
 9
 9
 9
 9
 9
 9
 9
 9
 9
 9
 9
 9
 9
 9
 9
 9
 9
 9
 9
 9
 9
 9
 9
 9
 9
 9
 9
 9
 9
 9
 9
 9
 9
 9
 9
 9
 9
 9
 9
 9
 9
 9
 9
 9
 9
 9
 9
 9
 9
 9
 9
 9
 9
 9
 9
 9
 9
 9
 9
 9
 9
 9
 9
 9
 9
 9
 9
 9
 9
 9
 9
 9
 9
 9
 9
 9
 9
 9
 9
 9
 9
 9
 9
 9
 9
 9
 9
 9
 9
 9
 9
 9
 9
 9
 9
 9
 9
 9
 9
 9
 9
 9
 9
 9
 9
 9
 9
 9
 9
 9
 9
 9
 9
 9
 9
 9
 9
 9
 9
 9
 9
 9
 9
 9
 9
 9
 9
 9
 9
 9
 9
 9
 9
 9
 9
 9
 9
 9
 9
 9
 9
 9
 9
 9
 9
 9
 9
 9
 9
 9
 9
 9
 9
 9
 9
 9
 9
 9
 9
 9
 9
 9
 9
 9
 9
 9
 9
 9
 9
 9
 9
 9
 9
 9
 9
 9
 9
 9
 9
 9
 9
 9
 9
 9
 9
 9
 9
 9
 9
 9
 9
 9
 9
 9
 9
 9
 9
 9
 9
 9
 9
 9
 9
 9
 9
 9
 9
 9
 9
 9
 9
 9
 9
 9
 9
 9
 9
 9
 9
 9
 9
 9
 9
 9
 9
 9
 9
 9
 9
 9
 9
 9
 9
 9
 9
 9
 9
 9
 9
 9
 9
 9
 9
 9
 9
 9
 9
 9
 9
 9
 9
 9
 9
 9
 9
 9
 9
 9
 9
 9
 9
 9
 9
 9
 9
 9
 9
 9
 9
 9
 9
 9
 9
 9
 9
 9
 9
 9
 9
 9
 9
 9
 9
 9
 9
 9
 9
 9
 9
 9
 9
 9
 9
 9
 9
 9
 9
 9
 9
 9
 9
 9
 9
 9
 9
 9
 9
 9
 9
 9
 9
 9
 9
 9
 9
 9
 9
 9
 9
 9
 9
 9
 9
 9
 9
 9
 9
 9
 9
 9
 9
 9
 9
 9
 9
 9
 9
 9
 9
 9
 9
 9
 9
 9
 9
 </DataArray>
 </Cells> 
 <PointData>
 <DataArray  type="Float64" Name="disp" NumberOfComponents="3" format="ascii">
   5.6870052028569679E-002   6.5648976643820037E-002   0.0000000000000000     
   6.2646656919115751E-002   6.9654259143640734E-002   0.0000000000000000     
   6.7675368961989460E-002   7.4239697598924473E-002   0.0000000000000000     
   7.1956188157190834E-002   7.9405292009671294E-002   0.0000000000000000     
   7.5489114504719831E-002   8.5151042375881197E-002   0.0000000000000000     
   5.6025919032297061E-002   6.3721689579344876E-002   0.0000000000000000     
   6.0292867024933666E-002   6.8175936576340218E-002   0.0000000000000000     
   6.4122867508876885E-002   7.3093132657610374E-002   0.0000000000000000     
   6.7515920484126732E-002   7.8473277823155357E-002   0.0000000000000000     
   7.0472025950683193E-002   8.4316372072975140E-002   0.0000000000000000     
   5.4035793564771832E-002   6.2035238956319072E-002   0.0000000000000000     
   5.7233497903248595E-002   6.6886460450409094E-002   0.0000000000000000     
   6.0200181156257207E-002   7.2095099502402407E-002   0.0000000000000000     
   6.2935843323797688E-002   7.7661156112299012E-002   0.0000000000000000     
   6.5440484405870011E-002   8.3584630280098896E-002   0.0000000000000000     
   5.0899675625993984E-002   6.0589624774742633E-002   0.0000000000000000     
   5.3468549554060538E-002   6.5785830765847333E-002   0.0000000000000000     
   5.5907309904130439E-002   7.1245598133300558E-002   0.0000000000000000     
   5.8215956676203703E-002   7.6968926877102245E-002   0.0000000000000000     
   6.0394489870280316E-002   8.2955816997252449E-002   0.0000000000000000     
   4.6617565215963525E-002   5.9384847034615558E-002   0.0000000000000000     
   4.8998021977369487E-002   6.4874047522654965E-002   0.0000000000000000     
   5.1244253752496575E-002   7.0544628550304814E-002   0.0000000000000000     
   5.3356260541344770E-002   7.6396590117565097E-002   0.0000000000000000     
   5.5334042343914092E-002   8.2429932224435787E-002   0.0000000000000000     
   7.5489114504719831E-002   8.5151042375881197E-002   0.0000000000000000     
   7.8560909623096795E-002   9.1275381646694659E-002   0.0000000000000000     
   8.1458335130842052E-002   9.7576742771252195E-002   0.0000000000000000     
   8.4181391027955590E-002  0.10405512574955381        0.0000000000000000     
   8.6730077314437409E-002  0.11071053058159949        0.0000000000000000     
   7.0472025950683193E-002   8.4316372072975140E-002   0.0000000000000000     
   7.3150628612941873E-002   9.0478455546029304E-002   0.0000000000000000     
   7.5711173175298407E-002   9.6815568381277375E-002   0.0000000000000000     
   7.8153659637752768E-002  0.10332771057871937        0.0000000000000000     
   8.0478088000304981E-002  0.11001488213835525        0.0000000000000000     
   6.5440484405870011E-002   8.3584630280098896E-002   0.0000000000000000     
   6.7790664002827863E-002   8.9773821289495861E-002   0.0000000000000000     
   7.0062941715024918E-002   9.6137028424183632E-002   0.0000000000000000     
   7.2257317542461189E-002  0.10267425168416223        0.0000000000000000     
   7.4373791485136648E-002  0.10938549106943166        0.0000000000000000     
   6.0394489870280316E-002   8.2955816997252449E-002   0.0000000000000000     
   6.2481015792754786E-002   8.9161478877094302E-002   0.0000000000000000     
   6.4513640750021625E-002   9.5541122899970951E-002   0.0000000000000000     
   6.6492364742080812E-002  0.10209474906588242        0.0000000000000000     
   6.8417187768932367E-002  0.10882235737482875        0.0000000000000000     
   5.5334042343914092E-002   8.2429932224435787E-002   0.0000000000000000     
   5.7221683982722635E-002   8.8641428308824655E-002   0.0000000000000000     
   5.9063270280288488E-002   9.5027851808639374E-002   0.0000000000000000     
   6.0858801236611672E-002  0.10158920272387997        0.0000000000000000     
   6.2608276851692179E-002  0.10832548105454645        0.0000000000000000     
   8.6730077314437409E-002  0.11071053058159949        0.0000000000000000     
   8.9130661631459995E-002  0.11751331005365373        0.0000000000000000     
   9.1409411620195863E-002  0.12443381695198102        0.0000000000000000     
   9.3566327280645040E-002  0.13147205127658135        0.0000000000000000     
   9.5601408612807470E-002  0.13862801302745470        0.0000000000000000     
   8.0478088000304981E-002  0.11001488213835525        0.0000000000000000     
   8.2690611007116180E-002  0.11684799303480206        0.0000000000000000     
   8.4797381402347494E-002  0.12379795324267676        0.0000000000000000     
   8.6798399185998937E-002  0.13086476276197934        0.0000000000000000     
   8.8693664358070495E-002  0.13804842159270986        0.0000000000000000     
   7.4373791485136648E-002  0.10938549106943166        0.0000000000000000     
   7.6405344831039321E-002  0.11624229485541074        0.0000000000000000     
   7.8344958868157247E-002  0.12321621131751827        0.0000000000000000     
   8.0192633596490426E-002  0.13030724045575420        0.0000000000000000     
   8.1948369016038830E-002  0.13751538227011864        0.0000000000000000     
   6.8417187768932367E-002  0.10882235737482875        0.0000000000000000     
   7.0274863103229432E-002  0.11569621551547978        0.0000000000000000     
   7.2052144017625150E-002  0.12268859117650552        0.0000000000000000     
   7.3749030512119493E-002  0.12979948435790598        0.0000000000000000     
   7.5365522586712488E-002  0.13702889505968111        0.0000000000000000     
   6.2608276851692179E-002  0.10832548105454645        0.0000000000000000     
   6.4299165823686513E-002  0.11520975501500917        0.0000000000000000     
   6.5918936850751175E-002  0.12221509281963855        0.0000000000000000     
   6.7467589932886179E-002  0.12934149446843457        0.0000000000000000     
   6.8945125070091498E-002  0.13658895996139725        0.0000000000000000     
   9.5601408612807470E-002  0.13862801302745470        0.0000000000000000     
   9.7534856762578517E-002  0.14589109417963353        0.0000000000000000     
   9.9386872875853530E-002  0.15325068670815015        0.0000000000000000     
  0.10115745695263244       0.16070679061300461        0.0000000000000000     
  0.10284660899291531       0.16825940589419694        0.0000000000000000     
   8.8693664358070495E-002  0.13804842159270986        0.0000000000000000     
   9.0495378397536089E-002  0.14533862633592157        0.0000000000000000     
   9.2215742783369636E-002  0.15272507359266793        0.0000000000000000     
   9.3854757515571124E-002  0.16020776336294884        0.0000000000000000     
   9.5412422594140595E-002  0.16778669564676435        0.0000000000000000     
   8.1948369016038830E-002  0.13751538227011864        0.0000000000000000     
   8.3618362771422233E-002  0.14483033281451177        0.0000000000000000     
   8.5208812507260395E-002  0.15224178814283393        0.0000000000000000     
   8.6719718223553302E-002  0.15974974825508503        0.0000000000000000     
   8.8151079920300954E-002  0.16735421315126514        0.0000000000000000     
   7.5365522586712488E-002  0.13702889505968111        0.0000000000000000     
   7.6903809884236979E-002  0.14436621361540411        0.0000000000000000     
   7.8366082047525792E-002  0.15180083035864816        0.0000000000000000     
   7.9752339076578971E-002  0.15933274528941327        0.0000000000000000     
   8.1062580971396445E-002  0.16696195840769937        0.0000000000000000     
   6.8945125070091498E-002  0.13658895996139725        0.0000000000000000     
   7.0351719735980325E-002  0.14394626873859859        0.0000000000000000     
   7.1687551404165870E-002  0.15140220024011067        0.0000000000000000     
   7.2952620074648103E-002  0.15895675446593344        0.0000000000000000     
   7.4146925747427039E-002  0.16660993141606692        0.0000000000000000     
  0.10284660899291531       0.16825940589419694        0.0000000000000000     
  0.10444760558725544       0.17590960171741676        0.0000000000000000     
  0.10595372332620610       0.18365844724835373        0.0000000000000000     
  0.10736496220976735       0.19150594248700789        0.0000000000000000     
  0.10868132223793914       0.19945208743337922        0.0000000000000000     
   9.5412422594140595E-002  0.16778669564676435        0.0000000000000000     
   9.6886212913119746E-002  0.17546334562403598        0.0000000000000000     
   9.8273603366550347E-002  0.18323918847468512        0.0000000000000000     
   9.9574593954432369E-002  0.19111422419871182        0.0000000000000000     
  0.10078918467676583       0.19908845279611606        0.0000000000000000     
   8.8151079920300954E-002  0.16735421315126514        0.0000000000000000     
   8.9502929159743325E-002  0.17505653502927673        0.0000000000000000     
   9.0775297504120278E-002  0.18285806608702221        0.0000000000000000     
   9.1968184953431828E-002  0.19075880632450162        0.0000000000000000     
   9.3081591507678002E-002  0.19875875574171481        0.0000000000000000     
   8.1062580971396445E-002  0.16696195840769937        0.0000000000000000     
   8.2297754327126160E-002  0.17468916993313910        0.0000000000000000     
   8.3458805738915925E-002  0.18251508008536502        0.0000000000000000     
   8.4545735206765754E-002  0.19043968886437720        0.0000000000000000     
   8.5558542730675674E-002  0.19846299627017552        0.0000000000000000     
   7.4146925747427039E-002  0.16660993141606692        0.0000000000000000     
   7.5270688415268253E-002  0.17436125033562300        0.0000000000000000     
   7.6324128070937275E-002  0.18221023046971355        0.0000000000000000     
   7.7307244714434148E-002  0.19015687181833865        0.0000000000000000     
   7.8220038345758844E-002  0.19820117438149820        0.0000000000000000     
  0.10868132223793914       0.19945208743337922        0.0000000000000000     
  0.10991029908231535       0.20748840209375147        0.0000000000000000     
  0.11105938841448988       0.21560640647440835        0.0000000000000000     
  0.11212859023446267       0.22380610057534989        0.0000000000000000     
  0.11311790454223378       0.23208748439657603        0.0000000000000000     
  0.10078918467676583       0.19908845279611606        0.0000000000000000     
  0.10192239619439590       0.20715103278925576        0.0000000000000000     
  0.10297924916816778       0.21529112270048875        0.0000000000000000     
  0.10395974359808141       0.22350872252981513        0.0000000000000000     
  0.10486387948413686       0.23180383227723481        0.0000000000000000     
   9.3081591507678002E-002  0.19875875574171481        0.0000000000000000     
   9.4118209380016526E-002  0.20684591577589562        0.0000000000000000     
   9.5080730783605044E-002  0.21500828786427748        0.0000000000000000     
   9.5969155718443624E-002  0.22324587200686050        0.0000000000000000     
   9.6783484184532240E-002  0.23155866820364462        0.0000000000000000     
   8.5558542730675674E-002  0.19846299627017552        0.0000000000000000     
   8.6497738639177146E-002  0.20657305105367102        0.0000000000000000     
   8.7363833260801715E-002  0.21475790196577452        0.0000000000000000     
   8.8156826595549284E-002  0.22301754900648596        0.0000000000000000     
   8.8876718643419922E-002  0.23135199217580546        0.0000000000000000     
   7.8220038345758844E-002  0.19820117438149820        0.0000000000000000     
   7.9060983971877857E-002  0.20633243862258205        0.0000000000000000     
   7.9828556599757725E-002  0.21453996500497982        0.0000000000000000     
   8.0522756229398404E-002  0.22282375352869160        0.0000000000000000     
   8.1143582860799923E-002  0.23118380419371737        0.0000000000000000     
  0.11311790454223378       0.23208748439657603        0.0000000000000000     
  0.11405728884921776       0.24046716751667166        0.0000000000000000     
  0.11497670066682929       0.24896175951422159        0.0000000000000000     
  0.11587613999506834       0.25757126038922584        0.0000000000000000     
  0.11675560683393491       0.26629567014168448        0.0000000000000000     
  0.10486387948413686       0.23180383227723481        0.0000000000000000     
  0.10569781047310464       0.24019989556329568        0.0000000000000000     
  0.10646769021175534       0.24872035600854564        0.0000000000000000     
  0.10717351870008897       0.25736521361298464        0.0000000000000000     
  0.10781529593810549       0.26613446837661270        0.0000000000000000     
   9.6783484184532240E-002  0.23155866820364462        0.0000000000000000     
   9.7515176304329321E-002  0.23997296246959149        0.0000000000000000     
   9.8155692200293312E-002  0.24851504081966272        0.0000000000000000     
   9.8705031872424187E-002  0.25718490325385834        0.0000000000000000     
   9.9163195320721931E-002  0.26598254977217828        0.0000000000000000     
   8.8876718643419922E-002  0.23135199217580546        0.0000000000000000     
   8.9509386342891822E-002  0.23978636823555910        0.0000000000000000     
   9.0040706632443179E-002  0.24834581394757291        0.0000000000000000     
   9.0470679512073993E-002  0.25703032931184694        0.0000000000000000     
   9.0799304981784207E-002  0.26583991432838117        0.0000000000000000     
   8.1143582860799923E-002  0.23118380419371737        0.0000000000000000     
   8.1680440588792147E-002  0.23964011286119846        0.0000000000000000     
   8.2122733508204968E-002  0.24821267539227615        0.0000000000000000     
   8.2470461619038357E-002  0.25690149178695049        0.0000000000000000     
   8.2723624921292344E-002  0.26570656204522142        0.0000000000000000     
  0.11675560683393491       0.26629567014168448        0.0000000000000000     
  0.11755566199317832       0.27529917693540140        0.0000000000000000     
  0.11821686628254795       0.28474596893418075        0.0000000000000000     
  0.11873921970204374       0.29463604613802252        0.0000000000000000     
  0.11912272225166573       0.30496940854692667        0.0000000000000000     
  0.10781529593810549       0.26613446837661270        0.0000000000000000     
  0.10837429102423154       0.27515989412842756        0.0000000000000000     
  0.10883177305689373       0.28457326469742700        0.0000000000000000     
  0.10918774203609204       0.29437458008361095        0.0000000000000000     
  0.10944219796182647       0.30456384028697947        0.0000000000000000     
   9.9163195320721931E-002  0.26598254977217828        0.0000000000000000     
   9.9541422487860826E-002  0.27500592817283936        0.0000000000000000     
   9.9850953316515112E-002  0.28435298625405836        0.0000000000000000     
  0.10009178780668478       0.29402372401583532        0.0000000000000000     
  0.10026392595836980       0.30401814145817019        0.0000000000000000     
   9.0799304981784207E-002  0.26583991432838117        0.0000000000000000     
   9.1057056384066165E-002  0.27483727906863675        0.0000000000000000     
   9.1274407061412072E-002  0.28408513360407489        0.0000000000000000     
   9.1451357013821941E-002  0.29358347793469558        0.0000000000000000     
   9.1587906241295744E-002  0.30333231206049871        0.0000000000000000     
   8.2723624921292344E-002  0.26570656204522142        0.0000000000000000     
   8.2921192712847536E-002  0.27465394681581984        0.0000000000000000     
   8.3102134291584598E-002  0.28376970674747659        0.0000000000000000     
   8.3266449657503516E-002  0.29305384184019173        0.0000000000000000     
   8.3414138810604305E-002  0.30250635209396515        0.0000000000000000     
   4.6617565215963525E-002   5.9384847034615558E-002   0.0000000000000000     
   4.8998021977369487E-002   6.4874047522654965E-002   0.0000000000000000     
   5.1244253752496575E-002   7.0544628550304814E-002   0.0000000000000000     
   5.3356260541344770E-002   7.6396590117565097E-002   0.0000000000000000     
   5.5334042343914092E-002   8.2429932224435787E-002   0.0000000000000000     
   4.1902660230507177E-002   5.8397181966363190E-002   0.0000000000000000     
   4.4271800242722023E-002   6.4111904653455190E-002   0.0000000000000000     
   4.6462894735969380E-002   6.9944751777423583E-002   0.0000000000000000     
   4.8475943710249235E-002   7.5895723338268356E-002   0.0000000000000000     
   5.0310947165561615E-002   8.1964819335989564E-002   0.0000000000000000     
   3.7468158565451659E-002   5.7602905800410872E-002   0.0000000000000000     
   3.9739769419664700E-002   6.3460196090871210E-002   0.0000000000000000     
   4.1815114889162626E-002   6.9398528838665235E-002   0.0000000000000000     
   4.3694194973945437E-002   7.5417904043792949E-002   0.0000000000000000     
   4.5377009674013147E-002   8.1518321706254365E-002   0.0000000000000000     
   3.3314060220796964E-002   5.7002018536758604E-002   0.0000000000000000     
   3.5401929508197517E-002   6.2918921834903038E-002   0.0000000000000000     
   3.7300914212076319E-002   6.8905959734029770E-002   0.0000000000000000     
   3.9011014332433376E-002   7.4963132234138835E-002   0.0000000000000000     
   4.0532229869268681E-002   8.1090439335230233E-002   0.0000000000000000     
   2.9440365196543094E-002   5.6594520175406407E-002   0.0000000000000000     
   3.1258280508320475E-002   6.2488081885550648E-002   0.0000000000000000     
   3.2920292704710460E-002   6.8467044463517188E-002   0.0000000000000000     
   3.4426401785713046E-002   7.4531407909306027E-002   0.0000000000000000     
   3.5776607751328238E-002   8.0681172222917139E-002   0.0000000000000000     
   5.5334042343914092E-002   8.2429932224435787E-002   0.0000000000000000     
   5.7221683982722635E-002   8.8641428308824655E-002   0.0000000000000000     
   5.9063270280288488E-002   9.5027851808639374E-002   0.0000000000000000     
   6.0858801236611672E-002  0.10158920272387997        0.0000000000000000     
   6.2608276851692179E-002  0.10832548105454645        0.0000000000000000     
   5.0310947165561615E-002   8.1964819335989564E-002   0.0000000000000000     
   5.2033954437722560E-002   8.8180655508105721E-002   0.0000000000000000     
   5.3711014862548132E-002   9.4571847592135480E-002   0.0000000000000000     
   5.5342128440038357E-002  0.10113839558807879        0.0000000000000000     
   5.6927295170193216E-002  0.10788029949593568        0.0000000000000000     
   4.5377009674013147E-002   8.1518321706254365E-002   0.0000000000000000     
   4.6939113022745713E-002   8.7746146398356359E-002   0.0000000000000000     
   4.8456059053523161E-002   9.4147742692405875E-002   0.0000000000000000     
   4.9927847766345464E-002  0.10072311058840284        0.0000000000000000     
   5.1354479161212649E-002  0.10747225008634731        0.0000000000000000     
   4.0532229869268681E-002   8.1090439335230233E-002   0.0000000000000000     
   4.1937159737792114E-002   8.7337900979576583E-002   0.0000000000000000     
   4.3298402853213562E-002   9.3755537109450546E-002   0.0000000000000000     
   4.4615959215533012E-002  0.10034334772485214        0.0000000000000000     
   4.5889828824750456E-002  0.10710133282578134        0.0000000000000000     
   3.5776607751328238E-002   8.0681172222917139E-002   0.0000000000000000     
   3.7028094582861756E-002   8.6955919251766378E-002   0.0000000000000000     
   3.8238046261619335E-002   9.3395230843269561E-002   0.0000000000000000     
   3.9406462787600967E-002   9.9999106997426673E-002   0.0000000000000000     
   4.0533344160806659E-002  0.10676754771423774        0.0000000000000000     
   6.2608276851692179E-002  0.10832548105454645        0.0000000000000000     
   6.4299165823686513E-002  0.11520975501500917        0.0000000000000000     
   6.5918936850751175E-002  0.12221509281963855        0.0000000000000000     
   6.7467589932886179E-002  0.12934149446843457        0.0000000000000000     
   6.8945125070091498E-002  0.13658895996139725        0.0000000000000000     
   5.6927295170193216E-002  0.10788029949593568        0.0000000000000000     
   5.8457826535159269E-002  0.11477184659164577        0.0000000000000000     
   5.9925034017083059E-002  0.12178732415114868        0.0000000000000000     
   6.1328917615964602E-002  0.12892673217444442        0.0000000000000000     
   6.2669477331803877E-002  0.13619007066153296        0.0000000000000000     
   5.1354479161212649E-002  0.10747225008634731        0.0000000000000000     
   5.2730418780396415E-002  0.11437142348303640        0.0000000000000000     
   5.4050132166168517E-002  0.12139689307526723        0.0000000000000000     
   5.5313619318528948E-002  0.12854865886303982        0.0000000000000000     
   5.6520880237477714E-002  0.13582672084635411        0.0000000000000000     
   4.5889828824750456E-002  0.10710133282578134        0.0000000000000000     
   4.7116942559397967E-002  0.11400848568918104        0.0000000000000000     
   4.8294231298007549E-002  0.12104379959199417        0.0000000000000000     
   4.9421695040579236E-002  0.12820727453422076        0.0000000000000000     
   5.0499333787113000E-002  0.13549891051586074        0.0000000000000000     
   4.0533344160806659E-002  0.10676754771423774        0.0000000000000000     
   4.1617397872163897E-002  0.11368303321007971        0.0000000000000000     
   4.2657331412600155E-002  0.12072804370132957        0.0000000000000000     
   4.3653144782115440E-002  0.12790257918798725        0.0000000000000000     
   4.4604837980709744E-002  0.13520663967005281        0.0000000000000000     
   6.8945125070091498E-002  0.13658895996139725        0.0000000000000000     
   7.0351719735980325E-002  0.14394626873859859        0.0000000000000000     
   7.1687551404165870E-002  0.15140220024011067        0.0000000000000000     
   7.2952620074648103E-002  0.15895675446593344        0.0000000000000000     
   7.4146925747427039E-002  0.16660993141606692        0.0000000000000000     
   6.2669477331803877E-002  0.13619007066153296        0.0000000000000000     
   6.3945989675645326E-002  0.14356551202796367        0.0000000000000000     
   6.5157731158533322E-002  0.15104122868928593        0.0000000000000000     
   6.6304701780467892E-002  0.15861722064549963        0.0000000000000000     
   6.7386901541449037E-002  0.16629348789660486        0.0000000000000000     
   5.6520880237477714E-002  0.13582672084635411        0.0000000000000000     
   5.7670517052224979E-002  0.14321895732736778        0.0000000000000000     
   5.8761131891980907E-002  0.15071324660823837        0.0000000000000000     
   5.9792724756745491E-002  0.15830958868896583        0.0000000000000000     
   6.0765295646518745E-002  0.16600798356955024        0.0000000000000000     
   5.0499333787113000E-002  0.13549891051586074        0.0000000000000000     
   5.1525301865719311E-002  0.14290660463681090        0.0000000000000000     
   5.2497753604508611E-002  0.15041825399696801        0.0000000000000000     
   5.3416689003480886E-002  0.15803385859633207        0.0000000000000000     
   5.4282108062636163E-002  0.16575341843490299        0.0000000000000000     
   4.4604837980709744E-002  0.13520663967005281        0.0000000000000000     
   4.5510344116128323E-002  0.14262845395629309        0.0000000000000000     
   4.6367596296116448E-002  0.15015625085547488        0.0000000000000000     
   4.7176594520674096E-002  0.15779003036759823        0.0000000000000000     
   4.7937338789801276E-002  0.16552979249266320        0.0000000000000000     
   7.4146925747427039E-002  0.16660993141606692        0.0000000000000000     
   7.5270688415268253E-002  0.17436125033562300        0.0000000000000000     
   7.6324128070937275E-002  0.18221023046971355        0.0000000000000000     
   7.7307244714434148E-002  0.19015687181833865        0.0000000000000000     
   7.8220038345758844E-002  0.19820117438149820        0.0000000000000000     
   6.7386901541449037E-002  0.16629348789660486        0.0000000000000000     
   6.8403191993785570E-002  0.17406814874385670        0.0000000000000000     
   6.9352434689786330E-002  0.18193932148851022        0.0000000000000000     
   7.0234629629451276E-002  0.18990700613056538        0.0000000000000000     
   7.1049776812780449E-002  0.19797120267002222        0.0000000000000000     
   6.0765295646518745E-002  0.16600798356955024        0.0000000000000000     
   6.1676725632294101E-002  0.17380523766496841        0.0000000000000000     
   6.2524895785065010E-002  0.18169815739019726        0.0000000000000000     
   6.3309806104831459E-002  0.18968674274523675        0.0000000000000000     
   6.4031456591593455E-002  0.19777099373008697        0.0000000000000000     
   5.4282108062636163E-002  0.16575341843490299        0.0000000000000000     
   5.5091289330793845E-002  0.17357251709895818        0.0000000000000000     
   5.5841511356773350E-002  0.18148673817477479        0.0000000000000000     
   5.6532774140574692E-002  0.18949608166235291        0.0000000000000000     
   5.7165077682197862E-002  0.19760054756169246        0.0000000000000000     
   4.7937338789801276E-002  0.16552979249266320        0.0000000000000000     
   4.8646883089284769E-002  0.17336998704582593        0.0000000000000000     
   4.9302281404911330E-002  0.18130506384224276        0.0000000000000000     
   4.9903533736680959E-002  0.18933502288191367        0.0000000000000000     
   5.0450640084593670E-002  0.19745986416483863        0.0000000000000000     
   7.8220038345758844E-002  0.19820117438149820        0.0000000000000000     
   7.9060983971877857E-002  0.20633243862258205        0.0000000000000000     
   7.9828556599757725E-002  0.21453996500497982        0.0000000000000000     
   8.0522756229398404E-002  0.22282375352869160        0.0000000000000000     
   8.1143582860799923E-002  0.23118380419371737        0.0000000000000000     
   7.1049776812780449E-002  0.19797120267002222        0.0000000000000000     
   7.1794820470444845E-002  0.20612257523779348        0.0000000000000000     
   7.2466704833115542E-002  0.21435178796479179        0.0000000000000000     
   7.3065429900792511E-002  0.22265884085101723        0.0000000000000000     
   7.3590995673475754E-002  0.23104373389646973        0.0000000000000000     
   6.4031456591593455E-002  0.19777099373008697        0.0000000000000000     
   6.4686123227204378E-002  0.20594195765447015        0.0000000000000000     
   6.5270081993517609E-002  0.21419068182810869        0.0000000000000000     
   6.5783332890533133E-002  0.22251716625100262        0.0000000000000000     
   6.6225875918250979E-002  0.23092141092315191        0.0000000000000000     
   5.7165077682197862E-002  0.19760054756169246        0.0000000000000000     
   5.7734892242156409E-002  0.20579058587261212        0.0000000000000000     
   5.8238688080963871E-002  0.21405664659493062        0.0000000000000000     
   5.8676465198620256E-002  0.22239872972864783        0.0000000000000000     
   5.9048223595125578E-002  0.23081683527376390        0.0000000000000000     
   5.0450640084593670E-002  0.19745986416483863        0.0000000000000000     
   5.0941127515300964E-002  0.20566845989221938        0.0000000000000000     
   5.1372523095454384E-002  0.21394968226525746        0.0000000000000000     
   5.1744826825053908E-002  0.22230353128395289        0.0000000000000000     
   5.2058038704099557E-002  0.23073000694830573        0.0000000000000000     
   8.1143582860799923E-002  0.23118380419371737        0.0000000000000000     
   8.1680440588792147E-002  0.23964011286119846        0.0000000000000000     
   8.2122733508204968E-002  0.24821267539227615        0.0000000000000000     
   8.2470461619038357E-002  0.25690149178695049        0.0000000000000000     
   8.2723624921292344E-002  0.26570656204522142        0.0000000000000000     
   7.3590995673475754E-002  0.23104373389646973        0.0000000000000000     
   7.4040025700135431E-002  0.23951931372844662        0.0000000000000000     
   7.4409143529741678E-002  0.24809842697424525        0.0000000000000000     
   7.4698349162294467E-002  0.25678107363386565        0.0000000000000000     
   7.4907642597793825E-002  0.26556725370730766        0.0000000000000000     
   6.6225875918250979E-002  0.23092141092315191        0.0000000000000000     
   6.6599828335026798E-002  0.23940908821924062        0.0000000000000000     
   6.6907307399216270E-002  0.24798587051395302        0.0000000000000000     
   6.7148313110819424E-002  0.25665175780728899        0.0000000000000000     
   6.7322845469836218E-002  0.26540675009924858        0.0000000000000000     
   5.9048223595125578E-002  0.23081683527376390        0.0000000000000000     
   5.9359848493466268E-002  0.23930943633358048        0.0000000000000000     
   5.9617225116628821E-002  0.24787500601139939        0.0000000000000000     
   5.9820353464613223E-002  0.25651354430722068        0.0000000000000000     
   5.9969233537419488E-002  0.26522505122104417        0.0000000000000000     
   5.2058038704099557E-002  0.23073000694830573        0.0000000000000000     
   5.2320086175453834E-002  0.23922035807146616        0.0000000000000000     
   5.2538896681979280E-002  0.24776583346658437        0.0000000000000000     
   5.2714470223675883E-002  0.25636643313366053        0.0000000000000000     
   5.2846806800543655E-002  0.26502215707269444        0.0000000000000000     
   8.2723624921292344E-002  0.26570656204522142        0.0000000000000000     
   8.2921192712847536E-002  0.27465394681581984        0.0000000000000000     
   8.3102134291584598E-002  0.28376970674747659        0.0000000000000000     
   8.3266449657503516E-002  0.29305384184019173        0.0000000000000000     
   8.3414138810604305E-002  0.30250635209396515        0.0000000000000000     
   7.4907642597793825E-002  0.26556725370730766        0.0000000000000000     
   7.5077798819261923E-002  0.27445028564658441        0.0000000000000000     
   7.5249592809720919E-002  0.28342348790370886        0.0000000000000000     
   7.5423024569170799E-002  0.29248686047868094        0.0000000000000000     
   7.5598094097611576E-002  0.30164040337150078        0.0000000000000000     
   6.7322845469836218E-002  0.26540675009924858        0.0000000000000000     
   6.7470842048366259E-002  0.27422064979312638        0.0000000000000000     
   6.7632240418509210E-002  0.28306325929221715        0.0000000000000000     
   6.7807040580265029E-002  0.29193457859652067        0.0000000000000000     
   6.7995242533633732E-002  0.30083460770603709        0.0000000000000000     
   5.9969233537419488E-002  0.26522505122104417        0.0000000000000000     
   6.0100322400160576E-002  0.27396503925544585        0.0000000000000000     
   6.0250077117949483E-002  0.28268902091300141        0.0000000000000000     
   6.0418497690786215E-002  0.29139699619371073        0.0000000000000000     
   6.0605584118670751E-002  0.30008896509757399        0.0000000000000000     
   5.2846806800543655E-002  0.26502215707269444        0.0000000000000000     
   5.2966239874644848E-002  0.27368345403354266        0.0000000000000000     
   5.3103102908041752E-002  0.28230077276606164        0.0000000000000000     
   5.3257395900734347E-002  0.29087411327025120        0.0000000000000000     
   5.3429118852722647E-002  0.29940347554611157        0.0000000000000000     
   2.9440365196543094E-002   5.6594520175406407E-002   0.0000000000000000     
   3.1258280508320475E-002   6.2488081885550648E-002   0.0000000000000000     
   3.2920292704710460E-002   6.8467044463517188E-002   0.0000000000000000     
   3.4426401785713046E-002   7.4531407909306027E-002   0.0000000000000000     
   3.5776607751328238E-002   8.0681172222917139E-002   0.0000000000000000     
   2.5705190124854095E-002   5.6278775142861476E-002   0.0000000000000000     
   2.7227735439130610E-002   6.2122261283004077E-002   0.0000000000000000     
   2.8634672548446597E-002   6.8074232201292745E-002   0.0000000000000000     
   2.9926001452802064E-002   7.4134687897727453E-002   0.0000000000000000     
   3.1101722152197003E-002   8.0303628372308214E-002   0.0000000000000000     
   2.1966651637894009E-002   5.5953147865631034E-002   0.0000000000000000     
   2.3229207319724939E-002   6.1776045067453322E-002   0.0000000000000000     
   2.4405475924666284E-002   6.7719972121521671E-002   0.0000000000000000     
   2.5495457452718043E-002   7.3784929027836066E-002   0.0000000000000000     
   2.6499151903880205E-002   7.9970915786396549E-002   0.0000000000000000     
   1.8224749735662838E-002   5.5617638343715095E-002   0.0000000000000000     
   1.9262696150103474E-002   6.1449433238898357E-002   0.0000000000000000     
   2.0232702833369524E-002   6.7404264224203939E-002   0.0000000000000000     
   2.1134769785460972E-002   7.3482131299631895E-002   0.0000000000000000     
   2.1968897006377837E-002   7.9683034465182184E-002   0.0000000000000000     
   1.4479484418160576E-002   5.5272246577113653E-002   0.0000000000000000     
   1.5328201930266214E-002   6.1142425797339195E-002   0.0000000000000000     
   1.6116353274556312E-002   6.7127108509339603E-002   0.0000000000000000     
   1.6843938451030872E-002   7.3226294713114884E-002   0.0000000000000000     
   1.7510957459689894E-002   7.9439984408665051E-002   0.0000000000000000     
   3.5776607751328238E-002   8.0681172222917139E-002   0.0000000000000000     
   3.7028094582861756E-002   8.6955919251766378E-002   0.0000000000000000     
   3.8238046261619335E-002   9.3395230843269561E-002   0.0000000000000000     
   3.9406462787600967E-002   9.9999106997426673E-002   0.0000000000000000     
   4.0533344160806659E-002  0.10676754771423774        0.0000000000000000     
   3.1101722152197003E-002   8.0303628372308214E-002   0.0000000000000000     
   3.2200416694850499E-002   8.6606263866234004E-002   0.0000000000000000     
   3.3260667128981590E-002   9.3067804620703826E-002   0.0000000000000000     
   3.4282473454590297E-002   9.9688250635717679E-002   0.0000000000000000     
   3.5265835671676619E-002  0.10646760191127555        0.0000000000000000     
   2.6499151903880205E-002   7.9970915786396549E-002   0.0000000000000000     
   2.7442625210654208E-002   8.6294997474287746E-002   0.0000000000000000     
   2.8351943305541451E-002   9.2774239168594369E-002   0.0000000000000000     
   2.9227106188541949E-002   9.9408640869316348E-002   0.0000000000000000     
   3.0068113859655694E-002  0.10619820257645375        0.0000000000000000     
   2.1968897006377837E-002   7.9683034465182184E-002   0.0000000000000000     
   2.2754720130272885E-002   8.6022120075927633E-002   0.0000000000000000     
   2.3511874791298914E-002   9.2514534486941136E-002   0.0000000000000000     
   2.4240360989455915E-002   9.9160277698222707E-002   0.0000000000000000     
   2.4940178724743890E-002  0.10595934970977232        0.0000000000000000     
   1.7510957459689894E-002   7.9439984408665051E-002   0.0000000000000000     
   1.8136701453706543E-002   8.5787631671153636E-002   0.0000000000000000     
   1.8740461586253976E-002   9.2288690575744209E-002   0.0000000000000000     
   1.9322237857332197E-002   9.8943161122436743E-002   0.0000000000000000     
   1.9882030266941207E-002  0.10575104331123127        0.0000000000000000     
   4.0533344160806659E-002  0.10676754771423774        0.0000000000000000     
   4.1617397872163897E-002  0.11368303321007971        0.0000000000000000     
   4.2657331412600155E-002  0.12072804370132957        0.0000000000000000     
   4.3653144782115440E-002  0.12790257918798725        0.0000000000000000     
   4.4604837980709744E-002  0.13520663967005281        0.0000000000000000     
   3.5265835671676619E-002  0.10646760191127555        0.0000000000000000     
   3.6210585233199928E-002  0.11339163261651897        0.0000000000000000     
   3.7116553592119621E-002  0.12044611692058940        0.0000000000000000     
   3.7983740748435697E-002  0.12763105482348688        0.0000000000000000     
   3.8812146702148144E-002  0.13494644632521141        0.0000000000000000     
   3.0068113859655694E-002  0.10619820257645375        0.0000000000000000     
   3.0875305157011767E-002  0.11313085047928530        0.0000000000000000     
   3.1649018918739252E-002  0.12019451076708981        0.0000000000000000     
   3.2389255144838140E-002  0.12738918343986727        0.0000000000000000     
   3.3096013835308441E-002  0.13471486849761774        0.0000000000000000     
   2.4940178724743890E-002  0.10595934970977232        0.0000000000000000     
   2.5611557643599406E-002  0.11290068679837875        0.0000000000000000     
   2.6254727392459033E-002  0.11997322524083077        0.0000000000000000     
   2.6869687971322772E-002  0.12717696503712844        0.0000000000000000     
   2.7456439380190621E-002  0.13451190618727171        0.0000000000000000     
   1.9882030266941207E-002  0.10575104331123127        0.0000000000000000     
   2.0419342692962850E-002  0.11270114157379929        0.0000000000000000     
   2.0933679013278979E-002  0.11978226034181232        0.0000000000000000     
   2.1425039227889596E-002  0.12699439961527031        0.0000000000000000     
   2.1893423336794691E-002  0.13433755939417336        0.0000000000000000     
   4.4604837980709744E-002  0.13520663967005281        0.0000000000000000     
   4.5510344116128323E-002  0.14262845395629309        0.0000000000000000     
   4.6367596296116448E-002  0.15015625085547488        0.0000000000000000     
   4.7176594520674096E-002  0.15779003036759823        0.0000000000000000     
   4.7937338789801276E-002  0.16552979249266320        0.0000000000000000     
   3.8812146702148144E-002  0.13494644632521141        0.0000000000000000     
   3.9599669680562145E-002  0.14238114089701540        0.0000000000000000     
   4.0344207910982872E-002  0.14992398801015117        0.0000000000000000     
   4.1045761393410332E-002  0.15757498766461875        0.0000000000000000     
   4.1704330127844497E-002  0.16533413986041812        0.0000000000000000     
   3.3096013835308441E-002  0.13471486849761774        0.0000000000000000     
   3.3767304436130921E-002  0.14216130107017899        0.0000000000000000     
   3.4401136393286388E-002  0.14971821628738899        0.0000000000000000     
   3.4997509706774801E-002  0.15738561414924776        0.0000000000000000     
   3.5556424376596202E-002  0.16516349465575514        0.0000000000000000     
   2.7456439380190621E-002  0.13451190618727171        0.0000000000000000     
   2.8013248382834657E-002  0.14196893447578393        0.0000000000000000     
   2.8538381743026964E-002  0.14953893568718843        0.0000000000000000     
   2.9031839460767539E-002  0.15722190982148521        0.0000000000000000     
   2.9493621536056388E-002  0.16501785687867429        0.0000000000000000     
   2.1893423336794691E-002  0.13433755939417336        0.0000000000000000     
   2.2337501520673344E-002  0.14180404111383016        0.0000000000000000     
   2.2755943960204628E-002  0.14938614620954943        0.0000000000000000     
   2.3148750655388531E-002  0.15708387468133123        0.0000000000000000     
   2.3515921606225065E-002  0.16489722652917554        0.0000000000000000     
   4.7937338789801276E-002  0.16552979249266320        0.0000000000000000     
   4.8646883089284769E-002  0.17336998704582593        0.0000000000000000     
   4.9302281404911330E-002  0.18130506384224276        0.0000000000000000     
   4.9903533736680959E-002  0.18933502288191367        0.0000000000000000     
   5.0450640084593670E-002  0.19745986416483863        0.0000000000000000     
   4.1704330127844497E-002  0.16533413986041812        0.0000000000000000     
   4.2316988249255567E-002  0.17319462090460275        0.0000000000000000     
   4.2880809892613704E-002  0.18114960710422592        0.0000000000000000     
   4.3395795057918914E-002  0.18919909845928773        0.0000000000000000     
   4.3861943745171203E-002  0.19734309496978819        0.0000000000000000     
   3.5556424376596202E-002  0.16516349465575514        0.0000000000000000     
   3.6075086152194895E-002  0.17304339207431957        0.0000000000000000     
   3.6550700783015221E-002  0.18101684067234908        0.0000000000000000     
   3.6983268269057179E-002  0.18908384044984367        0.0000000000000000     
   3.7372788610320784E-002  0.19724439140680353        0.0000000000000000     
   2.9493621536056388E-002  0.16501785687867429        0.0000000000000000     
   2.9921176798102748E-002  0.17291630055497637        0.0000000000000000     
   3.0311954076115873E-002  0.18090676454661209        0.0000000000000000     
   3.0665953370095759E-002  0.18898924885358159        0.0000000000000000     
   3.0983174680042403E-002  0.19716375347588472        0.0000000000000000     
   2.3515921606225065E-002  0.16489722652917554        0.0000000000000000     
   2.3855260186979144E-002  0.17281334634657319        0.0000000000000000     
   2.4164569771915667E-002  0.18081937872701512        0.0000000000000000     
   2.4443850361034643E-002  0.18891532367050132        0.0000000000000000     
   2.4693101954336077E-002  0.19710118117703174        0.0000000000000000     
   5.0450640084593670E-002  0.19745986416483863        0.0000000000000000     
   5.0941127515300964E-002  0.20566845989221938        0.0000000000000000     
   5.1372523095454384E-002  0.21394968226525746        0.0000000000000000     
   5.1744826825053908E-002  0.22230353128395289        0.0000000000000000     
   5.2058038704099557E-002  0.23073000694830573        0.0000000000000000     
   4.3861943745171203E-002  0.19734309496978819        0.0000000000000000     
   4.4278127904817881E-002  0.20556857389063693        0.0000000000000000     
   4.4643219487306290E-002  0.21386251247674376        0.0000000000000000     
   4.4957218492636411E-002  0.22222491072810863        0.0000000000000000     
   4.5220124920808256E-002  0.23065576864473161        0.0000000000000000     
   3.7372788610320784E-002  0.19724439140680353        0.0000000000000000     
   3.7719192268886988E-002  0.20548392204520982        0.0000000000000000     
   3.8022409706836749E-002  0.21378786086704393        0.0000000000000000     
   3.8282440924170109E-002  0.22215620787230589        0.0000000000000000     
   3.8499285920887014E-002  0.23058896306099569        0.0000000000000000     
   3.0983174680042403E-002  0.19716375347588472        0.0000000000000000     
   3.1264320607508271E-002  0.20541450435593805        0.0000000000000000     
   3.1510093754045801E-002  0.21372572743615803        0.0000000000000000     
   3.1720494119654982E-002  0.22209742271654476        0.0000000000000000     
   3.1895521704335836E-002  0.23052959019709812        0.0000000000000000     
   2.4693101954336077E-002  0.19710118117703174        0.0000000000000000     
   2.4913512920681738E-002  0.20536032082282160        0.0000000000000000     
   2.5106271628933398E-002  0.21367611218408605        0.0000000000000000     
   2.5271378079091057E-002  0.22204855526082506        0.0000000000000000     
   2.5408832271154716E-002  0.23047765005303872        0.0000000000000000     
   5.2058038704099557E-002  0.23073000694830573        0.0000000000000000     
   5.2320086175453834E-002  0.23922035807146616        0.0000000000000000     
   5.2538896681979280E-002  0.24776583346658437        0.0000000000000000     
   5.2714470223675883E-002  0.25636643313366053        0.0000000000000000     
   5.2846806800543655E-002  0.26502215707269444        0.0000000000000000     
   4.5220124920808256E-002  0.23065576864473161        0.0000000000000000     
   4.5440635071366385E-002  0.23913978903045655        0.0000000000000000     
   4.5627445243855369E-002  0.24766167468912756        0.0000000000000000     
   4.5780555438275208E-002  0.25622142562074457        0.0000000000000000     
   4.5899965654625896E-002  0.26481904182530752        0.0000000000000000     
   3.8499285920887014E-002  0.23058896306099569        0.0000000000000000     
   3.8681588871580824E-002  0.23906566480811076        0.0000000000000000     
   3.8837993950844821E-002  0.24756585148864843        0.0000000000000000     
   3.8968501158679017E-002  0.25608952310260868        0.0000000000000000     
   3.9073110495083413E-002  0.26463667964999160        0.0000000000000000     
   3.1895521704335836E-002  0.23052959019709812        0.0000000000000000     
   3.2042947576097124E-002  0.23899798540442863        0.0000000000000000     
   3.2170542802947621E-002  0.24747836386514696        0.0000000000000000     
   3.2278307384887309E-002  0.25597072557925299        0.0000000000000000     
   3.2366241321916199E-002  0.26447507054674668        0.0000000000000000     
   2.5408832271154716E-002  0.23047765005303872        0.0000000000000000     
   2.5524711184915311E-002  0.23893675081941029        0.0000000000000000     
   2.5625091800163764E-002  0.24739921181862318        0.0000000000000000     
   2.5709974116900083E-002  0.25586503305067726        0.0000000000000000     
   2.5779358135124261E-002  0.26433421451557276        0.0000000000000000     
   5.2846806800543655E-002  0.26502215707269444        0.0000000000000000     
   5.2966239874644848E-002  0.27368345403354266        0.0000000000000000     
   5.3103102908041752E-002  0.28230077276606164        0.0000000000000000     
   5.3257395900734347E-002  0.29087411327025120        0.0000000000000000     
   5.3429118852722647E-002  0.29940347554611157        0.0000000000000000     
   4.5899965654625896E-002  0.26481904182530752        0.0000000000000000     
   4.6009266645762104E-002  0.27340428241787484        0.0000000000000000     
   4.6132049164538502E-002  0.28192690651350466        0.0000000000000000     
   4.6268313210955078E-002  0.29038691411219703        0.0000000000000000     
   4.6418058785011859E-002  0.29878430521395211        0.0000000000000000     
   3.9073110495083413E-002  0.26463667964999160        0.0000000000000000     
   3.9170074887455372E-002  0.27315591269890016        0.0000000000000000     
   3.9277647263192259E-002  0.28159581381743737        0.0000000000000000     
   3.9395827622294079E-002  0.28995638300560328        0.0000000000000000     
   3.9524615964760819E-002  0.29823762026339778        0.0000000000000000     
   3.2366241321916199E-002  0.26447507054674668        0.0000000000000000     
   3.2448664599724661E-002  0.27293834487661872        0.0000000000000000     
   3.2539897204003035E-002  0.28130749467785976        0.0000000000000000     
   3.2639939134751328E-002  0.28958251995046974        0.0000000000000000     
   3.2748790391969547E-002  0.29776342069444867        0.0000000000000000     
   2.5779358135124261E-002  0.26433421451557276        0.0000000000000000     
   2.5845035782569959E-002  0.27275157895103053        0.0000000000000000     
   2.5918798986970817E-002  0.28106194909477183        0.0000000000000000     
   2.6000647748326840E-002  0.28926532494679652        0.0000000000000000     
   2.6090582066638029E-002  0.29736170650710469        0.0000000000000000     
   1.4479484418160576E-002   5.5272246577113653E-002   0.0000000000000000     
   1.5328201930266214E-002   6.1142425797339195E-002   0.0000000000000000     
   1.6116353274556312E-002   6.7127108509339603E-002   0.0000000000000000     
   1.6843938451030872E-002   7.3226294713114884E-002   0.0000000000000000     
   1.7510957459689894E-002   7.9439984408665051E-002   0.0000000000000000     
   1.0764306373170399E-002   5.4965705299283518E-002   0.0000000000000000     
   1.1431325000914573E-002   6.0882371205281942E-002   0.0000000000000000     
   1.2042977850467412E-002   6.6901463838653308E-002   0.0000000000000000     
   1.2599264921828914E-002   7.3022983199397637E-002   0.0000000000000000     
   1.3100186214999081E-002   7.9246929287514867E-002   0.0000000000000000     
   7.1126662884754797E-003   5.4746747243681518E-002   0.0000000000000000     
   7.5776657027499771E-003   6.0696617925232739E-002   0.0000000000000000     
   7.9991271633435765E-003   6.6740289073869793E-002   0.0000000000000000     
   8.3770506702562850E-003   7.2877760689592661E-002   0.0000000000000000     
   8.7114362234880956E-003   7.9109032772401319E-002   0.0000000000000000     
   3.5245641640758180E-003   5.4615372410307637E-002   0.0000000000000000     
   3.7672240357724241E-003   6.0585165957191586E-002   0.0000000000000000     
   3.9848012131848132E-003   6.6643584214989032E-002   0.0000000000000000     
   4.1772956963129831E-003   7.2790627183699982E-002   0.0000000000000000     
   4.3447074851569369E-003   7.9026294863324395E-002   0.0000000000000000     
  -2.8586508160621804E-014   5.4571580799161884E-002   0.0000000000000000     
  -1.8084058556189220E-014   6.0548015301158456E-002   0.0000000000000000     
  -8.8840610215634719E-015   6.6611349262011024E-002   0.0000000000000000     
  -9.8816896505760088E-016   7.2761582681719561E-002   0.0000000000000000     
   5.6040241891430753E-015   7.8998715560284108E-002   0.0000000000000000     
   1.7510957459689894E-002   7.9439984408665051E-002   0.0000000000000000     
   1.8136701453706543E-002   8.5787631671153636E-002   0.0000000000000000     
   1.8740461586253976E-002   9.2288690575744209E-002   0.0000000000000000     
   1.9322237857332197E-002   9.8943161122436743E-002   0.0000000000000000     
   1.9882030266941207E-002  0.10575104331123127        0.0000000000000000     
   1.3100186214999081E-002   7.9246929287514867E-002   0.0000000000000000     
   1.3565851006856436E-002   8.5599249501667821E-002   0.0000000000000000     
   1.4016368574279497E-002   9.2105891240519253E-002   0.0000000000000000     
   1.4451738917268267E-002   9.8766854504069135E-002   0.0000000000000000     
   1.4871962035822747E-002  0.10558213929231752        0.0000000000000000     
   8.7114362234880956E-003   7.9109032772401319E-002   0.0000000000000000     
   9.0194506156238384E-003   8.5464690809172295E-002   0.0000000000000000     
   9.3182606392483384E-003   9.1975320286782042E-002   0.0000000000000000     
   9.6078662943615972E-003   9.8640921205230589E-002   0.0000000000000000     
   9.8882675809636132E-003  0.10546149356451791        0.0000000000000000     
   4.3447074851569369E-003   7.9026294863324395E-002   0.0000000000000000     
   4.4975002800087486E-003   8.5383955593667044E-002   0.0000000000000000     
   4.6461377811604955E-003   9.1896977714532604E-002   0.0000000000000000     
   4.7906199886121846E-003   9.8565361225921078E-002   0.0000000000000000     
   4.9309469023638072E-003  0.10538910612783248        0.0000000000000000     
   5.6040241891430753E-015   7.8998715560284108E-002   0.0000000000000000     
   1.1167065536166199E-014   8.5357043855152068E-002   0.0000000000000000     
   1.5975827431791156E-014   9.1870863523770913E-002   0.0000000000000000     
   2.0030824872049879E-014   9.8540174566140615E-002   0.0000000000000000     
   2.3329862347543084E-014  0.10536497698226119        0.0000000000000000     
   1.9882030266941207E-002  0.10575104331123127        0.0000000000000000     
   2.0419342692962850E-002  0.11270114157379929        0.0000000000000000     
   2.0933679013278979E-002  0.11978226034181232        0.0000000000000000     
   2.1425039227889596E-002  0.12699439961527031        0.0000000000000000     
   2.1893423336794691E-002  0.13433755939417336        0.0000000000000000     
   1.4871962035822747E-002  0.10558213929231752        0.0000000000000000     
   1.5275797272717807E-002  0.11253993507693381        0.0000000000000000     
   1.5662003970728325E-002  0.11962843132958752        0.0000000000000000     
   1.6030582129854299E-002  0.12684762805027860        0.0000000000000000     
   1.6381531750095733E-002  0.13419752523900710        0.0000000000000000     
   9.8882675809636132E-003  0.10546149356451791        0.0000000000000000     
   1.0158058350479985E-002  0.11242478757916917        0.0000000000000000     
   1.0415832454336313E-002  0.11951855346370947        0.0000000000000000     
   1.0661589892532594E-002  0.12674279121813889        0.0000000000000000     
   1.0895330665068826E-002  0.13409750084245733        0.0000000000000000     
   4.9309469023638072E-003  0.10538910612783248        0.0000000000000000     
   5.0661259262493874E-003  0.11235569908050534        0.0000000000000000     
   5.1951644641029422E-003  0.11945262674417821        0.0000000000000000     
   5.3180625159244708E-003  0.12667988911885111        0.0000000000000000     
   5.4348200817139749E-003  0.13403748620452408        0.0000000000000000     
   2.3329862347543084E-014  0.10536497698226119        0.0000000000000000     
   2.6011311160534234E-014  0.11233266958094233        0.0000000000000000     
   2.8212566831331554E-014  0.11943065117099373        0.0000000000000000     
   2.9934578036835968E-014  0.12665892175241539        0.0000000000000000     
   3.1176883991124171E-014  0.13401748132520730        0.0000000000000000     
   2.1893423336794691E-002  0.13433755939417336        0.0000000000000000     
   2.2337501520673344E-002  0.14180404111383016        0.0000000000000000     
   2.2755943960204628E-002  0.14938614620954943        0.0000000000000000     
   2.3148750655388531E-002  0.15708387468133123        0.0000000000000000     
   2.3515921606225065E-002  0.16489722652917554        0.0000000000000000     
   1.6381531750095733E-002  0.13419752523900710        0.0000000000000000     
   1.6713963475687883E-002  0.14167177896131272        0.0000000000000000     
   1.7026987950866015E-002  0.14926404528273521        0.0000000000000000     
   1.7320605175630124E-002  0.15697432420327453        0.0000000000000000     
   1.7594815149980219E-002  0.16480261572293073        0.0000000000000000     
   1.0895330665068826E-002  0.13409750084245733        0.0000000000000000     
   1.1116533873919173E-002  0.14157730599522675        0.0000000000000000     
   1.1324678621057786E-002  0.14917683033500898        0.0000000000000000     
   1.1519764906484670E-002  0.15689607386180399        0.0000000000000000     
   1.1701792730199822E-002  0.16473503657561181        0.0000000000000000     
   5.4348200817139749E-003  0.13403748620452408        0.0000000000000000     
   5.5452127153672124E-003  0.14152062221557221        0.0000000000000000     
   5.6490159707799446E-003  0.14912450136637065        0.0000000000000000     
   5.7462298479521671E-003  0.15684912365691955        0.0000000000000000     
   5.8368543468838843E-003  0.16469448908721876        0.0000000000000000     
   3.1176883991124171E-014  0.13401748132520730        0.0000000000000000     
   3.2003479727427120E-014  0.14150172762234908        0.0000000000000000     
   3.2484865492010684E-014  0.14910705837682039        0.0000000000000000     
   3.2615728694229684E-014  0.15683347358862124        0.0000000000000000     
   3.2401598765163797E-014  0.16468097325775158        0.0000000000000000     
   2.3515921606225065E-002  0.16489722652917554        0.0000000000000000     
   2.3855260186979144E-002  0.17281334634657319        0.0000000000000000     
   2.4164569771915667E-002  0.18081937872701512        0.0000000000000000     
   2.4443850361034643E-002  0.18891532367050132        0.0000000000000000     
   2.4693101954336077E-002  0.19710118117703174        0.0000000000000000     
   1.7594815149980219E-002  0.16480261572293073        0.0000000000000000     
   1.7847866245565433E-002  0.17273382148775629        0.0000000000000000     
   1.8078006834034911E-002  0.18075284314380369        0.0000000000000000     
   1.8285236915388667E-002  0.18885968069107295        0.0000000000000000     
   1.8469556489626681E-002  0.19705433412956405        0.0000000000000000     
   1.1701792730199822E-002  0.16473503657561181        0.0000000000000000     
   1.1869524900602993E-002  0.17267701801717181        0.0000000000000000     
   1.2021724226093929E-002  0.18070531772722337        0.0000000000000000     
   1.2158390706672630E-002  0.18881993570576644        0.0000000000000000     
   1.2279524342339100E-002  0.19702087195280107        0.0000000000000000     
   5.8368543468838843E-003  0.16469448908721876        0.0000000000000000     
   5.9202361520918224E-003  0.17264293593481983        0.0000000000000000     
   5.9957219480927075E-003  0.18067680247727416        0.0000000000000000     
   6.0633117348865466E-003  0.18879608871458178        0.0000000000000000     
   6.1230055124733328E-003  0.19700079464674275        0.0000000000000000     
   3.2401598765163797E-014  0.16468097325775158        0.0000000000000000     
   3.1922598245359701E-014  0.17263157524070022        0.0000000000000000     
   3.1257223372105347E-014  0.18066729739395604        0.0000000000000000     
   3.0410597000665729E-014  0.18878813971751907        0.0000000000000000     
   2.9380577831750188E-014  0.19699410221138919        0.0000000000000000     
   2.4693101954336077E-002  0.19710118117703174        0.0000000000000000     
   2.4913512920681738E-002  0.20536032082282160        0.0000000000000000     
   2.5106271628933398E-002  0.21367611218408605        0.0000000000000000     
   2.5271378079091057E-002  0.22204855526082506        0.0000000000000000     
   2.5408832271154716E-002  0.23047765005303872        0.0000000000000000     
   1.8469556489626681E-002  0.19705433412956405        0.0000000000000000     
   1.8632336588478071E-002  0.20531957517466262        0.0000000000000000     
   1.8774948243671923E-002  0.21363817554175410        0.0000000000000000     
   1.8897391455208253E-002  0.22201013523083865        0.0000000000000000     
   1.8999666223087047E-002  0.23043545424191608        0.0000000000000000     
   1.2279524342339100E-002  0.19702087195280107        0.0000000000000000     
   1.2386358990967935E-002  0.20529047114026308        0.0000000000000000     
   1.2480128510433734E-002  0.21361107794008830        0.0000000000000000     
   1.2560832900736493E-002  0.22198269235227686        0.0000000000000000     
   1.2628472161876216E-002  0.23040531437682860        0.0000000000000000     
   6.1230055124733328E-003  0.19700079464674275        0.0000000000000000     
   6.1755801281513341E-003  0.20527300871962309        0.0000000000000000     
   6.2218124292188186E-003  0.21359481937908878        0.0000000000000000     
   6.2617024156757812E-003  0.22196622662513985        0.0000000000000000     
   6.2952500875222261E-003  0.23038723045777623        0.0000000000000000     
   2.9380577831750188E-014  0.19699410221138919        0.0000000000000000     
   2.8269921126256037E-014  0.20526718791274257        0.0000000000000000     
   2.7183767389860058E-014  0.21358939985875533        0.0000000000000000     
   2.6118376125067178E-014  0.22196073804942751        0.0000000000000000     
   2.5078897292196700E-014  0.23038120248475907        0.0000000000000000     
   2.5408832271154716E-002  0.23047765005303872        0.0000000000000000     
   2.5524711184915311E-002  0.23893675081941029        0.0000000000000000     
   2.5625091800163764E-002  0.24739921181862318        0.0000000000000000     
   2.5709974116900083E-002  0.25586503305067726        0.0000000000000000     
   2.5779358135124261E-002  0.26433421451557276        0.0000000000000000     
   1.8999666223087047E-002  0.23043545424191608        0.0000000000000000     
   1.9085891281586449E-002  0.23888599016568474        0.0000000000000000     
   1.9160185364984598E-002  0.24733360059284276        0.0000000000000000     
   1.9222548473281489E-002  0.25577828552339005        0.0000000000000000     
   1.9272980606477128E-002  0.26422004495732676        0.0000000000000000     
   1.2628472161876216E-002  0.23040531437682860        0.0000000000000000     
   1.2685499449661627E-002  0.23884973255588096        0.0000000000000000     
   1.2734367919901448E-002  0.24728673543157126        0.0000000000000000     
   1.2775077572595682E-002  0.25571632300389951        0.0000000000000000     
   1.2807628407744324E-002  0.26413849527286576        0.0000000000000000     
   6.2952500875222261E-003  0.23038723045777623        0.0000000000000000     
   6.3235356891408433E-003  0.23882797798999891        0.0000000000000000     
   6.3476394649143210E-003  0.24725861633480875        0.0000000000000000     
   6.3675614148426601E-003  0.25567914549220566        0.0000000000000000     
   6.3833015389258597E-003  0.26408956546218981        0.0000000000000000     
   2.5078897292196700E-014  0.23038120248475907        0.0000000000000000     
   2.4098778528269804E-014  0.23882072646803873        0.0000000000000000     
   2.3211142209655922E-014  0.24724924330255524        0.0000000000000000     
   2.2422737494878775E-014  0.25566675298830865        0.0000000000000000     
   2.1728278898347497E-014  0.26407325552529876        0.0000000000000000     
   2.5779358135124261E-002  0.26433421451557276        0.0000000000000000     
   2.5845035782569959E-002  0.27275157895103053        0.0000000000000000     
   2.5918798986970817E-002  0.28106194909477183        0.0000000000000000     
   2.6000647748326840E-002  0.28926532494679652        0.0000000000000000     
   2.6090582066638029E-002  0.29736170650710469        0.0000000000000000     
   1.9272980606477128E-002  0.26422004495732676        0.0000000000000000     
   1.9321167484760631E-002  0.27260163459594433        0.0000000000000000     
   1.9376794828321123E-002  0.28086581014053430        0.0000000000000000     
   1.9439862637158609E-002  0.28901257159109667        0.0000000000000000     
   1.9510370911273084E-002  0.29704191894763149        0.0000000000000000     
   1.2807628407744324E-002  0.26413849527286576        0.0000000000000000     
   1.2839038755066036E-002  0.27249453148516900        0.0000000000000000     
   1.2876326944279474E-002  0.28072571088750814        0.0000000000000000     
   1.2919492975384637E-002  0.28883203347988329        0.0000000000000000     
   1.2968536848381529E-002  0.29681349926229444        0.0000000000000000     
   6.3833015389258597E-003  0.26408956546218981        0.0000000000000000     
   6.3986495934861744E-003  0.27243026961870448        0.0000000000000000     
   6.4173953348458639E-003  0.28064165133569335        0.0000000000000000     
   6.4395387630049256E-003  0.28872371061315638        0.0000000000000000     
   6.4650798779633586E-003  0.29667644745109356        0.0000000000000000     
   2.1728278898347497E-014  0.26407325552529876        0.0000000000000000     
   2.1048700976633583E-014  0.27240884899655088        0.0000000000000000     
   2.0294855206104412E-014  0.28061363148508994        0.0000000000000000     
   1.9472569173437093E-014  0.28868760299091589        0.0000000000000000     
   1.8577153704235627E-014  0.29663076351402884        0.0000000000000000     
  -2.8586508160621804E-014   5.4571580799161884E-002   0.0000000000000000     
  -1.8084058556189220E-014   6.0548015301158456E-002   0.0000000000000000     
  -8.8840610215634719E-015   6.6611349262011024E-002   0.0000000000000000     
  -9.8816896505760088E-016   7.2761582681719561E-002   0.0000000000000000     
   5.6040241891430753E-015   7.8998715560284108E-002   0.0000000000000000     
  -3.5245641641336806E-003   5.4615372410244244E-002   0.0000000000000000     
  -3.7672240358093559E-003   6.0585165957133501E-002   0.0000000000000000     
  -3.9848012132034033E-003   6.6643584214935991E-002   0.0000000000000000     
  -4.1772956963158246E-003   7.2790627183651743E-002   0.0000000000000000     
  -4.3447074851466162E-003   7.9026294863280708E-002   0.0000000000000000     
  -7.1126662885354136E-003   5.4746747243554696E-002   0.0000000000000000     
  -7.5776657027892026E-003   6.0696617925116825E-002   0.0000000000000000     
  -7.9991271633646360E-003   6.6740289073764170E-002   0.0000000000000000     
  -8.3770506702617181E-003   7.2877760689496709E-002   0.0000000000000000     
  -8.7114362234804420E-003   7.9109032772314500E-002   0.0000000000000000     
  -1.0764306373233782E-002   5.4965705299093268E-002   0.0000000000000000     
  -1.1431325000957622E-002   6.0882371205108442E-002   0.0000000000000000     
  -1.2042977850492582E-002   6.6901463838495531E-002   0.0000000000000000     
  -1.2599264921838667E-002   7.3022983199254543E-002   0.0000000000000000     
  -1.3100186214995875E-002   7.9246929287385470E-002   0.0000000000000000     
  -1.4479484418228791E-002   5.5272246576859918E-002   0.0000000000000000     
  -1.5328201930314617E-002   6.1142425797108338E-002   0.0000000000000000     
  -1.6116353274587245E-002   6.7127108509130090E-002   0.0000000000000000     
  -1.6843938451046672E-002   7.3226294712925175E-002   0.0000000000000000     
  -1.7510957459692909E-002   7.9439984408493619E-002   0.0000000000000000     
   5.6040241891430753E-015   7.8998715560284108E-002   0.0000000000000000     
   1.1167065536166199E-014   8.5357043855152068E-002   0.0000000000000000     
   1.5975827431791156E-014   9.1870863523770913E-002   0.0000000000000000     
   2.0030824872049879E-014   9.8540174566140615E-002   0.0000000000000000     
   2.3329862347543084E-014  0.10536497698226119        0.0000000000000000     
  -4.3447074851466162E-003   7.9026294863280708E-002   0.0000000000000000     
  -4.4975002799873178E-003   8.5383955593627631E-002   0.0000000000000000     
  -4.6461377811294648E-003   9.1896977714497188E-002   0.0000000000000000     
  -4.7906199885730544E-003   9.8565361225889409E-002   0.0000000000000000     
  -4.9309469023180912E-003  0.10538910612780426        0.0000000000000000     
  -8.7114362234804420E-003   7.9109032772314500E-002   0.0000000000000000     
  -9.0194506156051207E-003   8.5464690809093996E-002   0.0000000000000000     
  -9.3182606392200606E-003   9.1975320286711737E-002   0.0000000000000000     
  -9.6078662943252634E-003   9.8640921205167681E-002   0.0000000000000000     
  -9.8882675809207256E-003  0.10546149356446191        0.0000000000000000     
  -1.3100186214995875E-002   7.9246929287385470E-002   0.0000000000000000     
  -1.3565851006842244E-002   8.5599249501551150E-002   0.0000000000000000     
  -1.4016368574255818E-002   9.2105891240414489E-002   0.0000000000000000     
  -1.4451738917236594E-002   9.8766854503975487E-002   0.0000000000000000     
  -1.4871962035784572E-002  0.10558213929223409        0.0000000000000000     
  -1.7510957459692909E-002   7.9439984408493619E-002   0.0000000000000000     
  -1.8136701453698681E-002   8.5787631670999134E-002   0.0000000000000000     
  -1.8740461586236726E-002   9.2288690575605514E-002   0.0000000000000000     
  -1.9322237857307044E-002   9.8943161122312731E-002   0.0000000000000000     
  -1.9882030266909632E-002  0.10575104331112083        0.0000000000000000     
   2.3329862347543084E-014  0.10536497698226119        0.0000000000000000     
   2.6011311160534234E-014  0.11233266958094233        0.0000000000000000     
   2.8212566831331554E-014  0.11943065117099373        0.0000000000000000     
   2.9934578036835968E-014  0.12665892175241539        0.0000000000000000     
   3.1176883991124171E-014  0.13401748132520730        0.0000000000000000     
  -4.9309469023180912E-003  0.10538910612780426        0.0000000000000000     
  -5.0661259261983154E-003  0.11235569908048035        0.0000000000000000     
  -5.1951644640474710E-003  0.11945262674415617        0.0000000000000000     
  -5.3180625158655570E-003  0.12667988911883177        0.0000000000000000     
  -5.4348200816525753E-003  0.13403748620450714        0.0000000000000000     
  -9.8882675809207256E-003  0.10546149356446191        0.0000000000000000     
  -1.0158058350431766E-002  0.11242478757911951        0.0000000000000000     
  -1.0415832454283708E-002  0.11951855346366569        0.0000000000000000     
  -1.0661589892476545E-002  0.12674279121810045        0.0000000000000000     
  -1.0895330665010281E-002  0.13409750084242378        0.0000000000000000     
  -1.4871962035784572E-002  0.10558213929223409        0.0000000000000000     
  -1.5275797272674346E-002  0.11253993507685989        0.0000000000000000     
  -1.5662003970680499E-002  0.11962843132952231        0.0000000000000000     
  -1.6030582129803031E-002  0.12684762805022137        0.0000000000000000     
  -1.6381531750041950E-002  0.13419752523895717        0.0000000000000000     
  -1.9882030266909632E-002  0.10575104331112083        0.0000000000000000     
  -2.0419342692926050E-002  0.11270114157370138        0.0000000000000000     
  -2.0933679013237848E-002  0.11978226034172597        0.0000000000000000     
  -2.1425039227845021E-002  0.12699439961519463        0.0000000000000000     
  -2.1893423336747566E-002  0.13433755939410730        0.0000000000000000     
   3.1176883991124171E-014  0.13401748132520730        0.0000000000000000     
   3.2003479727427120E-014  0.14150172762234908        0.0000000000000000     
   3.2484865492010684E-014  0.14910705837682039        0.0000000000000000     
   3.2615728694229684E-014  0.15683347358862124        0.0000000000000000     
   3.2401598765163797E-014  0.16468097325775158        0.0000000000000000     
  -5.4348200816525753E-003  0.13403748620450714        0.0000000000000000     
  -5.5452127153041483E-003  0.14152062221555753        0.0000000000000000     
  -5.6490159707159107E-003  0.14912450136635821        0.0000000000000000     
  -5.7462298478878531E-003  0.15684912365690912        0.0000000000000000     
  -5.8368543468199840E-003  0.16469448908721035        0.0000000000000000     
  -1.0895330665010281E-002  0.13409750084242378        0.0000000000000000     
  -1.1116533873858943E-002  0.14157730599519769        0.0000000000000000     
  -1.1324678620996554E-002  0.14917683033498422        0.0000000000000000     
  -1.1519764906423115E-002  0.15689607386178336        0.0000000000000000     
  -1.1701792730138631E-002  0.16473503657559513        0.0000000000000000     
  -1.6381531750041950E-002  0.13419752523895717        0.0000000000000000     
  -1.6713963475632376E-002  0.14167177896126951        0.0000000000000000     
  -1.7026987950809449E-002  0.14926404528269843        0.0000000000000000     
  -1.7320605175573170E-002  0.15697432420324395        0.0000000000000000     
  -1.7594815149923539E-002  0.16480261572290594        0.0000000000000000     
  -2.1893423336747566E-002  0.13433755939410730        0.0000000000000000     
  -2.2337501520624446E-002  0.14180404111377307        0.0000000000000000     
  -2.2755943960154599E-002  0.14938614620950089        0.0000000000000000     
  -2.3148750655338016E-002  0.15708387468129084        0.0000000000000000     
  -2.3515921606174710E-002  0.16489722652914285        0.0000000000000000     
   3.2401598765163797E-014  0.16468097325775158        0.0000000000000000     
   3.1922598245359701E-014  0.17263157524070022        0.0000000000000000     
   3.1257223372105347E-014  0.18066729739395604        0.0000000000000000     
   3.0410597000665729E-014  0.18878813971751907        0.0000000000000000     
   2.9380577831750188E-014  0.19699410221138919        0.0000000000000000     
  -5.8368543468199840E-003  0.16469448908721035        0.0000000000000000     
  -5.9202361520288632E-003  0.17264293593481317        0.0000000000000000     
  -5.9957219480310572E-003  0.18067680247726917        0.0000000000000000     
  -6.0633117348265677E-003  0.18879608871457818        0.0000000000000000     
  -6.1230055124153939E-003  0.19700079464674028        0.0000000000000000     
  -1.1701792730138631E-002  0.16473503657559513        0.0000000000000000     
  -1.1869524900542685E-002  0.17267701801715876        0.0000000000000000     
  -1.2021724226034869E-002  0.18070531772721343        0.0000000000000000     
  -1.2158390706615181E-002  0.18881993570575925        0.0000000000000000     
  -1.2279524342283625E-002  0.19702087195279613        0.0000000000000000     
  -1.7594815149923539E-002  0.16480261572290594        0.0000000000000000     
  -1.7847866245509544E-002  0.17273382148773692        0.0000000000000000     
  -1.8078006833980174E-002  0.18075284314378898        0.0000000000000000     
  -1.8285236915335432E-002  0.18885968069106226        0.0000000000000000     
  -1.8469556489575312E-002  0.19705433412955675        0.0000000000000000     
  -2.3515921606174710E-002  0.16489722652914285        0.0000000000000000     
  -2.3855260186929440E-002  0.17281334634654760        0.0000000000000000     
  -2.4164569771866977E-002  0.18081937872699572        0.0000000000000000     
  -2.4443850360987313E-002  0.18891532367048725        0.0000000000000000     
  -2.4693101954290461E-002  0.19710118117702213        0.0000000000000000     
   2.9380577831750188E-014  0.19699410221138919        0.0000000000000000     
   2.8269921126256037E-014  0.20526718791274257        0.0000000000000000     
   2.7183767389860058E-014  0.21358939985875533        0.0000000000000000     
   2.6118376125067178E-014  0.22196073804942751        0.0000000000000000     
   2.5078897292196700E-014  0.23038120248475907        0.0000000000000000     
  -6.1230055124153939E-003  0.19700079464674028        0.0000000000000000     
  -6.1755801280955940E-003  0.20527300871962156        0.0000000000000000     
  -6.2218124291652244E-003  0.21359481937908811        0.0000000000000000     
  -6.2617024156242929E-003  0.22196622662513996        0.0000000000000000     
  -6.2952500874727934E-003  0.23038723045777701        0.0000000000000000     
  -1.2279524342283625E-002  0.19702087195279613        0.0000000000000000     
  -1.2386358990914588E-002  0.20529047114026014        0.0000000000000000     
  -1.2480128510382466E-002  0.21361107794008707        0.0000000000000000     
  -1.2560832900687255E-002  0.22198269235227708        0.0000000000000000     
  -1.2628472161828955E-002  0.23040531437683009        0.0000000000000000     
  -1.8469556489575312E-002  0.19705433412955675        0.0000000000000000     
  -1.8632336588428715E-002  0.20531957517465821        0.0000000000000000     
  -1.8774948243624533E-002  0.21363817554175224        0.0000000000000000     
  -1.8897391455162758E-002  0.22201013523083896        0.0000000000000000     
  -1.8999666223043405E-002  0.23043545424191827        0.0000000000000000     
  -2.4693101954290461E-002  0.19710118117702213        0.0000000000000000     
  -2.4913512920637974E-002  0.20536032082281577        0.0000000000000000     
  -2.5106271628891428E-002  0.21367611218408356        0.0000000000000000     
  -2.5271378079050819E-002  0.22204855526082548        0.0000000000000000     
  -2.5408832271116143E-002  0.23047765005304158        0.0000000000000000     
   2.5078897292196700E-014  0.23038120248475907        0.0000000000000000     
   2.4098778528269804E-014  0.23882072646803873        0.0000000000000000     
   2.3211142209655922E-014  0.24724924330255524        0.0000000000000000     
   2.2422737494878775E-014  0.25566675298830865        0.0000000000000000     
   2.1728278898347497E-014  0.26407325552529876        0.0000000000000000     
  -6.2952500874727934E-003  0.23038723045777701        0.0000000000000000     
  -6.3235356890933483E-003  0.23882797799000030        0.0000000000000000     
  -6.3476394648685781E-003  0.24725861633481067        0.0000000000000000     
  -6.3675614147984810E-003  0.25567914549220822        0.0000000000000000     
  -6.3833015388830606E-003  0.26408956546219275        0.0000000000000000     
  -1.2628472161828955E-002  0.23040531437683009        0.0000000000000000     
  -1.2685499449616233E-002  0.23884973255588360        0.0000000000000000     
  -1.2734367919857751E-002  0.24728673543157501        0.0000000000000000     
  -1.2775077572553509E-002  0.25571632300390440        0.0000000000000000     
  -1.2807628407703504E-002  0.26413849527287170        0.0000000000000000     
  -1.8999666223043405E-002  0.23043545424191827        0.0000000000000000     
  -1.9085891281544556E-002  0.23888599016568859        0.0000000000000000     
  -1.9160185364944304E-002  0.24733360059284826        0.0000000000000000     
  -1.9222548473242656E-002  0.25577828552339721        0.0000000000000000     
  -1.9272980606439602E-002  0.26422004495733548        0.0000000000000000     
  -2.5408832271116143E-002  0.23047765005304158        0.0000000000000000     
  -2.5524711184878313E-002  0.23893675081941532        0.0000000000000000     
  -2.5625091800128244E-002  0.24739921181863037        0.0000000000000000     
  -2.5709974116865920E-002  0.25586503305068670        0.0000000000000000     
  -2.5779358135091354E-002  0.26433421451558425        0.0000000000000000     
   2.1728278898347497E-014  0.26407325552529876        0.0000000000000000     
   2.1048700976633583E-014  0.27240884899655088        0.0000000000000000     
   2.0294855206104412E-014  0.28061363148508994        0.0000000000000000     
   1.9472569173437093E-014  0.28868760299091589        0.0000000000000000     
   1.8577153704235627E-014  0.29663076351402884        0.0000000000000000     
  -6.3833015388830606E-003  0.26408956546219275        0.0000000000000000     
  -6.3986495934447319E-003  0.27243026961870803        0.0000000000000000     
  -6.4173953348059167E-003  0.28064165133569774        0.0000000000000000     
  -6.4395387629666134E-003  0.28872371061316177        0.0000000000000000     
  -6.4650798779268218E-003  0.29667644745110022        0.0000000000000000     
  -1.2807628407703504E-002  0.26413849527287170        0.0000000000000000     
  -1.2839038755026552E-002  0.27249453148517605        0.0000000000000000     
  -1.2876326944241455E-002  0.28072571088751680        0.0000000000000000     
  -1.2919492975348217E-002  0.28883203347989395        0.0000000000000000     
  -1.2968536848346838E-002  0.29681349926230738        0.0000000000000000     
  -1.9272980606439602E-002  0.26422004495733548        0.0000000000000000     
  -1.9321167484724403E-002  0.27260163459595493        0.0000000000000000     
  -1.9376794828286317E-002  0.28086581014054718        0.0000000000000000     
  -1.9439862637125344E-002  0.28901257159111232        0.0000000000000000     
  -1.9510370911241477E-002  0.29704191894765053        0.0000000000000000     
  -2.5779358135091354E-002  0.26433421451558425        0.0000000000000000     
  -2.5845035782538300E-002  0.27275157895104452        0.0000000000000000     
  -2.5918798986940505E-002  0.28106194909478882        0.0000000000000000     
  -2.6000647748297984E-002  0.28926532494681712        0.0000000000000000     
  -2.6090582066610725E-002  0.29736170650712951        0.0000000000000000     
  -1.4479484418228791E-002   5.5272246576859918E-002   0.0000000000000000     
  -1.5328201930314617E-002   6.1142425797108338E-002   0.0000000000000000     
  -1.6116353274587245E-002   6.7127108509130090E-002   0.0000000000000000     
  -1.6843938451046672E-002   7.3226294712925175E-002   0.0000000000000000     
  -1.7510957459692909E-002   7.9439984408493619E-002   0.0000000000000000     
  -1.8224749735737754E-002   5.5617638343398446E-002   0.0000000000000000     
  -1.9262696150159010E-002   6.1449433238610782E-002   0.0000000000000000     
  -2.0232702833407945E-002   6.7404264223943383E-002   0.0000000000000000     
  -2.1134769785484550E-002   7.3482131299396306E-002   0.0000000000000000     
  -2.1968897006388828E-002   7.9683034464969507E-002   0.0000000000000000     
  -2.1966651637977990E-002   5.5953147865252628E-002   0.0000000000000000     
  -2.3229207319789631E-002   6.1776045067110007E-002   0.0000000000000000     
  -2.4405475924714003E-002   6.7719972121210947E-002   0.0000000000000000     
  -2.5495457452751100E-002   7.3784929027555526E-002   0.0000000000000000     
  -2.6499151903900911E-002   7.9970915786143695E-002   0.0000000000000000     
  -2.5705190124949491E-002   5.6278775142422445E-002   0.0000000000000000     
  -2.7227735439206483E-002   6.2122261282605992E-002   0.0000000000000000     
  -2.8634672548505418E-002   6.8074232200932810E-002   0.0000000000000000     
  -2.9926001452846320E-002   7.4134687897402865E-002   0.0000000000000000     
  -3.1101722152229172E-002   8.0303628372016170E-002   0.0000000000000000     
  -2.9440365196652270E-002   5.6594520174907917E-002   0.0000000000000000     
  -3.1258280508409557E-002   6.2488081885098780E-002   0.0000000000000000     
  -3.2920292704782216E-002   6.8467044463108903E-002   0.0000000000000000     
  -3.4426401785770215E-002   7.4531407908938294E-002   0.0000000000000000     
  -3.5776607751373583E-002   8.0681172222586958E-002   0.0000000000000000     
  -1.7510957459692909E-002   7.9439984408493619E-002   0.0000000000000000     
  -1.8136701453698681E-002   8.5787631670999134E-002   0.0000000000000000     
  -1.8740461586236726E-002   9.2288690575605514E-002   0.0000000000000000     
  -1.9322237857307044E-002   9.8943161122312731E-002   0.0000000000000000     
  -1.9882030266909632E-002  0.10575104331112083        0.0000000000000000     
  -2.1968897006388828E-002   7.9683034464969507E-002   0.0000000000000000     
  -2.2754720130273166E-002   8.6022120075736119E-002   0.0000000000000000     
  -2.3511874791289949E-002   9.2514534486769384E-002   0.0000000000000000     
  -2.4240360989439172E-002   9.9160277698069205E-002   0.0000000000000000     
  -2.4940178724720843E-002  0.10595934970963566        0.0000000000000000     
  -2.6499151903900911E-002   7.9970915786143695E-002   0.0000000000000000     
  -2.7442625210664442E-002   8.6294997474060428E-002   0.0000000000000000     
  -2.8351943305542651E-002   9.2774239168390754E-002   0.0000000000000000     
  -2.9227106188535551E-002   9.9408640869134646E-002   0.0000000000000000     
  -3.0068113859643138E-002  0.10619820257629210        0.0000000000000000     
  -3.1101722152229172E-002   8.0303628372016170E-002   0.0000000000000000     
  -3.2200416694872495E-002   8.6606263865971991E-002   0.0000000000000000     
  -3.3260667128994822E-002   9.3067804620469596E-002   0.0000000000000000     
  -3.4282473454596167E-002   9.9688250635508985E-002   0.0000000000000000     
  -3.5265835671676515E-002  0.10646760191109018        0.0000000000000000     
  -3.5776607751373583E-002   8.0681172222586958E-002   0.0000000000000000     
  -3.7028094582897332E-002   8.6955919251470837E-002   0.0000000000000000     
  -3.8238046261646480E-002   9.3395230843005966E-002   0.0000000000000000     
  -3.9406462787621027E-002   9.9999106997192291E-002   0.0000000000000000     
  -4.0533344160820974E-002  0.10676754771402984        0.0000000000000000     
  -1.9882030266909632E-002  0.10575104331112083        0.0000000000000000     
  -2.0419342692926050E-002  0.11270114157370138        0.0000000000000000     
  -2.0933679013237848E-002  0.11978226034172597        0.0000000000000000     
  -2.1425039227845021E-002  0.12699439961519463        0.0000000000000000     
  -2.1893423336747566E-002  0.13433755939410730        0.0000000000000000     
  -2.4940178724720843E-002  0.10595934970963566        0.0000000000000000     
  -2.5611557643571207E-002  0.11290068679825763        0.0000000000000000     
  -2.6254727392426538E-002  0.11997322524072400        0.0000000000000000     
  -2.6869687971286822E-002  0.12717696503703485        0.0000000000000000     
  -2.7456439380152065E-002  0.13451190618719011        0.0000000000000000     
  -3.0068113859643138E-002  0.10619820257629210        0.0000000000000000     
  -3.0875305156994159E-002  0.11313085047914212        0.0000000000000000     
  -3.1649018918717367E-002  0.12019451076696369        0.0000000000000000     
  -3.2389255144812758E-002  0.12738918343975678        0.0000000000000000     
  -3.3096013835280338E-002  0.13471486849752143        0.0000000000000000     
  -3.5265835671676515E-002  0.10646760191109018        0.0000000000000000     
  -3.6210585233194897E-002  0.11339163261635492        0.0000000000000000     
  -3.7116553592110337E-002  0.12044611692044500        0.0000000000000000     
  -3.7983740748422846E-002  0.12763105482336046        0.0000000000000000     
  -3.8812146702132407E-002  0.13494644632510125        0.0000000000000000     
  -4.0533344160820974E-002  0.10676754771402984        0.0000000000000000     
  -4.1617397872173417E-002  0.11368303320989595        0.0000000000000000     
  -4.2657331412605450E-002  0.12072804370116794        0.0000000000000000     
  -4.3653144782117057E-002  0.12790257918784584        0.0000000000000000     
  -4.4604837980708245E-002  0.13520663966992963        0.0000000000000000     
  -2.1893423336747566E-002  0.13433755939410730        0.0000000000000000     
  -2.2337501520624446E-002  0.14180404111377307        0.0000000000000000     
  -2.2755943960154599E-002  0.14938614620950089        0.0000000000000000     
  -2.3148750655338016E-002  0.15708387468129084        0.0000000000000000     
  -2.3515921606174710E-002  0.16489722652914285        0.0000000000000000     
  -2.7456439380152065E-002  0.13451190618719011        0.0000000000000000     
  -2.8013248382794224E-002  0.14196893447571346        0.0000000000000000     
  -2.8538381742985279E-002  0.14953893568712856        0.0000000000000000     
  -2.9031839460725226E-002  0.15722190982143538        0.0000000000000000     
  -2.9493621536014064E-002  0.16501785687863402        0.0000000000000000     
  -3.3096013835280338E-002  0.13471486849752143        0.0000000000000000     
  -3.3767304436100792E-002  0.14216130107009586        0.0000000000000000     
  -3.4401136393254809E-002  0.14971821628731838        0.0000000000000000     
  -3.4997509706742383E-002  0.15738561414918900        0.0000000000000000     
  -3.5556424376563527E-002  0.16516349465570768        0.0000000000000000     
  -3.8812146702132407E-002  0.13494644632510125        0.0000000000000000     
  -3.9599669680544132E-002  0.14238114089692028        0.0000000000000000     
  -4.0344207910963159E-002  0.14992398801007040        0.0000000000000000     
  -4.1045761393389481E-002  0.15757498766455161        0.0000000000000000     
  -4.1704330127823083E-002  0.16533413986036388        0.0000000000000000     
  -4.4604837980708245E-002  0.13520663966992963        0.0000000000000000     
  -4.5510344116124271E-002  0.14262845395618673        0.0000000000000000     
  -4.6367596296110355E-002  0.15015625085538459        0.0000000000000000     
  -4.7176594520666512E-002  0.15779003036752320        0.0000000000000000     
  -4.7937338789792741E-002  0.16552979249260258        0.0000000000000000     
  -2.3515921606174710E-002  0.16489722652914285        0.0000000000000000     
  -2.3855260186929440E-002  0.17281334634654760        0.0000000000000000     
  -2.4164569771866977E-002  0.18081937872699572        0.0000000000000000     
  -2.4443850360987313E-002  0.18891532367048725        0.0000000000000000     
  -2.4693101954290461E-002  0.19710118117702213        0.0000000000000000     
  -2.9493621536014064E-002  0.16501785687863402        0.0000000000000000     
  -2.9921176798060896E-002  0.17291630055494481        0.0000000000000000     
  -3.0311954076074826E-002  0.18090676454658819        0.0000000000000000     
  -3.0665953370055864E-002  0.18898924885356422        0.0000000000000000     
  -3.0983174680004007E-002  0.19716375347587284        0.0000000000000000     
  -3.5556424376563527E-002  0.16516349465570768        0.0000000000000000     
  -3.6075086152162421E-002  0.17304339207428232        0.0000000000000000     
  -3.6550700782983274E-002  0.18101684067232088        0.0000000000000000     
  -3.6983268269026114E-002  0.18908384044982326        0.0000000000000000     
  -3.7372788610290905E-002  0.19724439140678954        0.0000000000000000     
  -4.1704330127823083E-002  0.16533413986036388        0.0000000000000000     
  -4.2316988249234029E-002  0.17319462090456025        0.0000000000000000     
  -4.2880809892592353E-002  0.18114960710419376        0.0000000000000000     
  -4.3395795057898055E-002  0.18919909845926441        0.0000000000000000     
  -4.3861943745151157E-002  0.19734309496977223        0.0000000000000000     
  -4.7937338789792741E-002  0.16552979249260258        0.0000000000000000     
  -4.8646883089275686E-002  0.17336998704577847        0.0000000000000000     
  -4.9302281404902004E-002  0.18130506384220688        0.0000000000000000     
  -4.9903533736671696E-002  0.18933502288188769        0.0000000000000000     
  -5.0450640084584747E-002  0.19745986416482092        0.0000000000000000     
  -2.4693101954290461E-002  0.19710118117702213        0.0000000000000000     
  -2.4913512920637974E-002  0.20536032082281577        0.0000000000000000     
  -2.5106271628891428E-002  0.21367611218408356        0.0000000000000000     
  -2.5271378079050819E-002  0.22204855526082548        0.0000000000000000     
  -2.5408832271116143E-002  0.23047765005304158        0.0000000000000000     
  -3.0983174680004007E-002  0.19716375347587284        0.0000000000000000     
  -3.1264320607471509E-002  0.20541450435593084        0.0000000000000000     
  -3.1510093754010600E-002  0.21372572743615495        0.0000000000000000     
  -3.1720494119621301E-002  0.22209742271654517        0.0000000000000000     
  -3.1895521704303591E-002  0.23052959019710151        0.0000000000000000     
  -3.7372788610290905E-002  0.19724439140678954        0.0000000000000000     
  -3.7719192268858441E-002  0.20548392204520133        0.0000000000000000     
  -3.8022409706809500E-002  0.21378786086704027        0.0000000000000000     
  -3.8282440924144082E-002  0.22215620787230642        0.0000000000000000     
  -3.8499285920862179E-002  0.23058896306099966        0.0000000000000000     
  -4.3861943745151157E-002  0.19734309496977223        0.0000000000000000     
  -4.4278127904798785E-002  0.20556857389062727        0.0000000000000000     
  -4.4643219487288131E-002  0.21386251247673957        0.0000000000000000     
  -4.4957218492619161E-002  0.22222491072810918        0.0000000000000000     
  -4.5220124920791895E-002  0.23065576864473605        0.0000000000000000     
  -5.0450640084584747E-002  0.19745986416482092        0.0000000000000000     
  -5.0941127515292547E-002  0.20566845989220864        0.0000000000000000     
  -5.1372523095446480E-002  0.21394968226525279        0.0000000000000000     
  -5.1744826825046553E-002  0.22230353128395353        0.0000000000000000     
  -5.2058038704092757E-002  0.23073000694831064        0.0000000000000000     
  -2.5408832271116143E-002  0.23047765005304158        0.0000000000000000     
  -2.5524711184878313E-002  0.23893675081941532        0.0000000000000000     
  -2.5625091800128244E-002  0.24739921181863037        0.0000000000000000     
  -2.5709974116865920E-002  0.25586503305068670        0.0000000000000000     
  -2.5779358135091354E-002  0.26433421451558425        0.0000000000000000     
  -3.1895521704303591E-002  0.23052959019710151        0.0000000000000000     
  -3.2042947576066259E-002  0.23899798540443476        0.0000000000000000     
  -3.2170542802918048E-002  0.24747836386515576        0.0000000000000000     
  -3.2278307384858970E-002  0.25597072557926454        0.0000000000000000     
  -3.2366241321889026E-002  0.26447507054676095        0.0000000000000000     
  -3.8499285920862179E-002  0.23058896306099966        0.0000000000000000     
  -3.8681588871557128E-002  0.23906566480811789        0.0000000000000000     
  -3.8837993950822221E-002  0.24756585148865873        0.0000000000000000     
  -3.8968501158657479E-002  0.25608952310262217        0.0000000000000000     
  -3.9073110495062888E-002  0.26463667965000837        0.0000000000000000     
  -4.5220124920791895E-002  0.23065576864473605        0.0000000000000000     
  -4.5440635071350904E-002  0.23913978903046459        0.0000000000000000     
  -4.5627445243840749E-002  0.24766167468913919        0.0000000000000000     
  -4.5780555438261428E-002  0.25622142562075978        0.0000000000000000     
  -4.5899965654612948E-002  0.26481904182532651        0.0000000000000000     
  -5.2058038704092757E-002  0.23073000694831064        0.0000000000000000     
  -5.2320086175447617E-002  0.23922035807147501        0.0000000000000000     
  -5.2538896681973632E-002  0.24776583346659725        0.0000000000000000     
  -5.2714470223670838E-002  0.25636643313367741        0.0000000000000000     
  -5.2846806800539187E-002  0.26502215707271543        0.0000000000000000     
  -2.5779358135091354E-002  0.26433421451558425        0.0000000000000000     
  -2.5845035782538300E-002  0.27275157895104452        0.0000000000000000     
  -2.5918798986940505E-002  0.28106194909478882        0.0000000000000000     
  -2.6000647748297984E-002  0.28926532494681712        0.0000000000000000     
  -2.6090582066610725E-002  0.29736170650712951        0.0000000000000000     
  -3.2366241321889026E-002  0.26447507054676095        0.0000000000000000     
  -3.2448664599698647E-002  0.27293834487663604        0.0000000000000000     
  -3.2539897203978277E-002  0.28130749467788074        0.0000000000000000     
  -3.2639939134727923E-002  0.28958251995049494        0.0000000000000000     
  -3.2748790391947571E-002  0.29776342069447881        0.0000000000000000     
  -3.9073110495062888E-002  0.26463667965000837        0.0000000000000000     
  -3.9170074887435895E-002  0.27315591269892048        0.0000000000000000     
  -3.9277647263173905E-002  0.28159581381746190        0.0000000000000000     
  -3.9395827622276926E-002  0.28995638300563276        0.0000000000000000     
  -3.9524615964744964E-002  0.29823762026343287        0.0000000000000000     
  -4.5899965654612948E-002  0.26481904182532651        0.0000000000000000     
  -4.6009266645750023E-002  0.27340428241789777        0.0000000000000000     
  -4.6132049164527386E-002  0.28192690651353253        0.0000000000000000     
  -4.6268313210945003E-002  0.29038691411223033        0.0000000000000000     
  -4.6418058785002929E-002  0.29878430521399163        0.0000000000000000     
  -5.2846806800539187E-002  0.26502215707271543        0.0000000000000000     
  -5.2966239874641038E-002  0.27368345403356809        0.0000000000000000     
  -5.3103102908038699E-002  0.28230077276609228        0.0000000000000000     
  -5.3257395900732168E-002  0.29087411327028795        0.0000000000000000     
  -5.3429118852721433E-002  0.29940347554615510        0.0000000000000000     
  -2.9440365196652270E-002   5.6594520174907917E-002   0.0000000000000000     
  -3.1258280508409557E-002   6.2488081885098780E-002   0.0000000000000000     
  -3.2920292704782216E-002   6.8467044463108903E-002   0.0000000000000000     
  -3.4426401785770215E-002   7.4531407908938294E-002   0.0000000000000000     
  -3.5776607751373583E-002   8.0681172222586958E-002   0.0000000000000000     
  -3.3314060220921475E-002   5.7002018536199961E-002   0.0000000000000000     
  -3.5401929508301691E-002   6.2918921834397873E-002   0.0000000000000000     
  -3.7300914212163139E-002   6.8905959733574509E-002   0.0000000000000000     
  -3.9011014332505825E-002   7.4963132233729898E-002   0.0000000000000000     
  -4.0532229869329757E-002   8.1090439334864012E-002   0.0000000000000000     
  -3.7468158565592262E-002   5.7602905799789522E-002   0.0000000000000000     
  -3.9739769419785707E-002   6.3460196090312795E-002   0.0000000000000000     
  -4.1815114889267022E-002   6.9398528838164858E-002   0.0000000000000000     
  -4.3694194974036211E-002   7.5417904043345696E-002   0.0000000000000000     
  -4.5377009674093284E-002   8.1518321705855323E-002   0.0000000000000000     
  -4.1902660230664628E-002   5.8397181965676601E-002   0.0000000000000000     
  -4.4271800242861592E-002   6.4111904652843568E-002   0.0000000000000000     
  -4.6462894736093857E-002   6.9944751776879921E-002   0.0000000000000000     
  -4.8475943710361367E-002   7.5895723337785714E-002   0.0000000000000000     
  -5.0310947165664165E-002   8.1964819335560907E-002   0.0000000000000000     
  -4.6617565216138579E-002   5.9384847033861203E-002   0.0000000000000000     
  -4.8998021977529380E-002   6.4874047521990177E-002   0.0000000000000000     
  -5.1244253752643618E-002   7.0544628549719754E-002   0.0000000000000000     
  -5.3356260541481293E-002   7.6396590117049940E-002   0.0000000000000000     
  -5.5334042344042406E-002   8.2429932223980734E-002   0.0000000000000000     
  -3.5776607751373583E-002   8.0681172222586958E-002   0.0000000000000000     
  -3.7028094582897332E-002   8.6955919251470837E-002   0.0000000000000000     
  -3.8238046261646480E-002   9.3395230843005966E-002   0.0000000000000000     
  -3.9406462787621027E-002   9.9999106997192291E-002   0.0000000000000000     
  -4.0533344160820974E-002  0.10676754771402984        0.0000000000000000     
  -4.0532229869329757E-002   8.1090439334864012E-002   0.0000000000000000     
  -4.1937159737843913E-002   8.7337900979249677E-002   0.0000000000000000     
  -4.3298402853257277E-002   9.3755537109159667E-002   0.0000000000000000     
  -4.4615959215569871E-002  0.10034334772459397        0.0000000000000000     
  -4.5889828824781681E-002  0.10710133282555262        0.0000000000000000     
  -4.5377009674093284E-002   8.1518321705855323E-002   0.0000000000000000     
  -4.6939113022817204E-002   8.7746146398001143E-002   0.0000000000000000     
  -4.8456059053586915E-002   9.4147742692090544E-002   0.0000000000000000     
  -4.9927847766402446E-002  0.10072311058812349        0.0000000000000000     
  -5.1354479161263782E-002  0.10747225008610001        0.0000000000000000     
  -5.0310947165664165E-002   8.1964819335560907E-002   0.0000000000000000     
  -5.2033954437817186E-002   8.8180655507725275E-002   0.0000000000000000     
  -5.3711014862635388E-002   9.4571847591798569E-002   0.0000000000000000     
  -5.5342128440118744E-002  0.10113839558778079        0.0000000000000000     
  -5.6927295170267275E-002  0.10788029949567197        0.0000000000000000     
  -5.5334042344042406E-002   8.2429932223980734E-002   0.0000000000000000     
  -5.7221683982843892E-002   8.8641428308422046E-002   0.0000000000000000     
  -5.9063270280402688E-002   9.5027851808283784E-002   0.0000000000000000     
  -6.0858801236718781E-002  0.10158920272356595        0.0000000000000000     
  -6.2608276851792183E-002  0.10832548105426852        0.0000000000000000     
  -4.0533344160820974E-002  0.10676754771402984        0.0000000000000000     
  -4.1617397872173417E-002  0.11368303320989595        0.0000000000000000     
  -4.2657331412605450E-002  0.12072804370116794        0.0000000000000000     
  -4.3653144782117057E-002  0.12790257918784584        0.0000000000000000     
  -4.4604837980708245E-002  0.13520663966992963        0.0000000000000000     
  -4.5889828824781681E-002  0.10710133282555262        0.0000000000000000     
  -4.7116942559424377E-002  0.11400848568897903        0.0000000000000000     
  -4.8294231298029594E-002  0.12104379959181666        0.0000000000000000     
  -4.9421695040597347E-002  0.12820727453406547        0.0000000000000000     
  -5.0499333787127634E-002  0.13549891051572549        0.0000000000000000     
  -5.1354479161263782E-002  0.10747225008610001        0.0000000000000000     
  -5.2730418780442379E-002  0.11437142348281797        0.0000000000000000     
  -5.4050132166209651E-002  0.12139689307507529        0.0000000000000000     
  -5.5313619318565647E-002  0.12854865886287190        0.0000000000000000     
  -5.6520880237510326E-002  0.13582672084620787        0.0000000000000000     
  -5.6927295170267275E-002  0.10788029949567197        0.0000000000000000     
  -5.8457826535227443E-002  0.11477184659141272        0.0000000000000000     
  -5.9925034017145662E-002  0.12178732415094379        0.0000000000000000     
  -6.1328917616021952E-002  0.12892673217426512        0.0000000000000000     
  -6.2669477331856321E-002  0.13619007066137670        0.0000000000000000     
  -6.2608276851792183E-002  0.10832548105426852        0.0000000000000000     
  -6.4299165823779550E-002  0.11520975501476334        0.0000000000000000     
  -6.5918936850837592E-002  0.12221509281942219        0.0000000000000000     
  -6.7467589932966282E-002  0.12934149446824508        0.0000000000000000     
  -6.8945125070165619E-002  0.13658895996123199        0.0000000000000000     
  -4.4604837980708245E-002  0.13520663966992963        0.0000000000000000     
  -4.5510344116124271E-002  0.14262845395618673        0.0000000000000000     
  -4.6367596296110355E-002  0.15015625085538459        0.0000000000000000     
  -4.7176594520666512E-002  0.15779003036752320        0.0000000000000000     
  -4.7937338789792741E-002  0.16552979249260258        0.0000000000000000     
  -5.0499333787127634E-002  0.13549891051572549        0.0000000000000000     
  -5.1525301865730948E-002  0.14290660463669416        0.0000000000000000     
  -5.2497753604517756E-002  0.15041825399686887        0.0000000000000000     
  -5.3416689003488067E-002  0.15803385859624963        0.0000000000000000     
  -5.4282108062641887E-002  0.16575341843483646        0.0000000000000000     
  -5.6520880237510326E-002  0.13582672084620787        0.0000000000000000     
  -5.7670517052253942E-002  0.14321895732724149        0.0000000000000000     
  -5.8761131892006740E-002  0.15071324660813110        0.0000000000000000     
  -5.9792724756768723E-002  0.15830958868887668        0.0000000000000000     
  -6.0765295646539881E-002  0.16600798356947827        0.0000000000000000     
  -6.2669477331856321E-002  0.13619007066137670        0.0000000000000000     
  -6.3945989675693260E-002  0.14356551202782866        0.0000000000000000     
  -6.5157731158577314E-002  0.15104122868917125        0.0000000000000000     
  -6.6304701780508471E-002  0.15861722064540432        0.0000000000000000     
  -6.7386901541486730E-002  0.16629348789652801        0.0000000000000000     
  -6.8945125070165619E-002  0.13658895996123199        0.0000000000000000     
  -7.0351719736048909E-002  0.14394626873845581        0.0000000000000000     
  -7.1687551404229485E-002  0.15140220023998935        0.0000000000000000     
  -7.2952620074707319E-002  0.15895675446583263        0.0000000000000000     
  -7.4146925747482439E-002  0.16660993141598560        0.0000000000000000     
  -4.7937338789792741E-002  0.16552979249260258        0.0000000000000000     
  -4.8646883089275686E-002  0.17336998704577847        0.0000000000000000     
  -4.9302281404902004E-002  0.18130506384220688        0.0000000000000000     
  -4.9903533736671696E-002  0.18933502288188769        0.0000000000000000     
  -5.0450640084584747E-002  0.19745986416482092        0.0000000000000000     
  -5.4282108062641887E-002  0.16575341843483646        0.0000000000000000     
  -5.5091289330798508E-002  0.17357251709890614        0.0000000000000000     
  -5.5841511356777243E-002  0.18148673817473546        0.0000000000000000     
  -5.6532774140578099E-002  0.18949608166232440        0.0000000000000000     
  -5.7165077682201061E-002  0.19760054756167297        0.0000000000000000     
  -6.0765295646539881E-002  0.16600798356947827        0.0000000000000000     
  -6.1676725632313537E-002  0.17380523766491218        0.0000000000000000     
  -6.2524895785083023E-002  0.18169815739015477        0.0000000000000000     
  -6.3309806104848335E-002  0.18968674274520600        0.0000000000000000     
  -6.4031456591609456E-002  0.19777099373006587        0.0000000000000000     
  -6.7386901541486730E-002  0.16629348789652801        0.0000000000000000     
  -6.8403191993820792E-002  0.17406814874379667        0.0000000000000000     
  -6.9352434689819331E-002  0.18193932148846481        0.0000000000000000     
  -7.0234629629482404E-002  0.18990700613053249        0.0000000000000000     
  -7.1049776812809926E-002  0.19797120266999965        0.0000000000000000     
  -7.4146925747482439E-002  0.16660993141598560        0.0000000000000000     
  -7.5270688415320239E-002  0.17436125033555952        0.0000000000000000     
  -7.6324128070986180E-002  0.18221023046966561        0.0000000000000000     
  -7.7307244714480264E-002  0.19015687181830379        0.0000000000000000     
  -7.8220038345802476E-002  0.19820117438147425        0.0000000000000000     
  -5.0450640084584747E-002  0.19745986416482092        0.0000000000000000     
  -5.0941127515292547E-002  0.20566845989220864        0.0000000000000000     
  -5.1372523095446480E-002  0.21394968226525279        0.0000000000000000     
  -5.1744826825046553E-002  0.22230353128395353        0.0000000000000000     
  -5.2058038704092757E-002  0.23073000694831064        0.0000000000000000     
  -5.7165077682201061E-002  0.19760054756167297        0.0000000000000000     
  -5.7734892242159573E-002  0.20579058587260032        0.0000000000000000     
  -5.8238688080967070E-002  0.21405664659492549        0.0000000000000000     
  -5.8676465198623559E-002  0.22239872972864841        0.0000000000000000     
  -5.9048223595129033E-002  0.23081683527376920        0.0000000000000000     
  -6.4031456591609456E-002  0.19777099373006587        0.0000000000000000     
  -6.4686123227219700E-002  0.20594195765445727        0.0000000000000000     
  -6.5270081993532361E-002  0.21419068182810305        0.0000000000000000     
  -6.5783332890547469E-002  0.22251716625100307        0.0000000000000000     
  -6.6225875918264995E-002  0.23092141092315743        0.0000000000000000     
  -7.1049776812809926E-002  0.19797120266999965        0.0000000000000000     
  -7.1794820470472934E-002  0.20612257523777958        0.0000000000000000     
  -7.2466704833142409E-002  0.21435178796478549        0.0000000000000000     
  -7.3065429900818310E-002  0.22265884085101745        0.0000000000000000     
  -7.3590995673500664E-002  0.23104373389647537        0.0000000000000000     
  -7.8220038345802476E-002  0.19820117438147425        0.0000000000000000     
  -7.9060983971919283E-002  0.20633243862256714        0.0000000000000000     
  -7.9828556599797137E-002  0.21453996500497288        0.0000000000000000     
  -8.0522756229436040E-002  0.22282375352869149        0.0000000000000000     
  -8.1143582860836005E-002  0.23118380419372297        0.0000000000000000     
  -5.2058038704092757E-002  0.23073000694831064        0.0000000000000000     
  -5.2320086175447617E-002  0.23922035807147501        0.0000000000000000     
  -5.2538896681973632E-002  0.24776583346659725        0.0000000000000000     
  -5.2714470223670838E-002  0.25636643313367741        0.0000000000000000     
  -5.2846806800539187E-002  0.26502215707271543        0.0000000000000000     
  -5.9048223595129033E-002  0.23081683527376920        0.0000000000000000     
  -5.9359848493469952E-002  0.23930943633359011        0.0000000000000000     
  -5.9617225116632755E-002  0.24787500601141335        0.0000000000000000     
  -5.9820353464617448E-002  0.25651354430723894        0.0000000000000000     
  -5.9969233537424033E-002  0.26522505122106688        0.0000000000000000     
  -6.6225875918264995E-002  0.23092141092315743        0.0000000000000000     
  -6.6599828335040606E-002  0.23940908821925083        0.0000000000000000     
  -6.6907307399229954E-002  0.24798587051396781        0.0000000000000000     
  -6.7148313110833038E-002  0.25665175780730842        0.0000000000000000     
  -6.7322845469849874E-002  0.26540675009927267        0.0000000000000000     
  -7.3590995673500664E-002  0.23104373389647537        0.0000000000000000     
  -7.4040025700159606E-002  0.23951931372845717        0.0000000000000000     
  -7.4409143529765256E-002  0.24809842697426068        0.0000000000000000     
  -7.4698349162317643E-002  0.25678107363388591        0.0000000000000000     
  -7.4907642597816737E-002  0.26556725370733292        0.0000000000000000     
  -8.1143582860836005E-002  0.23118380419372297        0.0000000000000000     
  -8.1680440588826911E-002  0.23964011286120918        0.0000000000000000     
  -8.2122733508238635E-002  0.24821267539229197        0.0000000000000000     
  -8.2470461619071206E-002  0.25690149178697141        0.0000000000000000     
  -8.2723624921324596E-002  0.26570656204524740        0.0000000000000000     
  -5.2846806800539187E-002  0.26502215707271543        0.0000000000000000     
  -5.2966239874641038E-002  0.27368345403356809        0.0000000000000000     
  -5.3103102908038699E-002  0.28230077276609228        0.0000000000000000     
  -5.3257395900732168E-002  0.29087411327028795        0.0000000000000000     
  -5.3429118852721433E-002  0.29940347554615510        0.0000000000000000     
  -5.9969233537424033E-002  0.26522505122106688        0.0000000000000000     
  -6.0100322400165544E-002  0.27396503925547339        0.0000000000000000     
  -6.0250077117954985E-002  0.28268902091303449        0.0000000000000000     
  -6.0418497690792369E-002  0.29139699619375037        0.0000000000000000     
  -6.0605584118677704E-002  0.30008896509762095        0.0000000000000000     
  -6.7322845469849874E-002  0.26540675009927267        0.0000000000000000     
  -6.7470842048380095E-002  0.27422064979315564        0.0000000000000000     
  -6.7632240418523351E-002  0.28306325929225223        0.0000000000000000     
  -6.7807040580279615E-002  0.29193457859656263        0.0000000000000000     
  -6.7995242533648900E-002  0.30083460770608667        0.0000000000000000     
  -7.4907642597816737E-002  0.26556725370733292        0.0000000000000000     
  -7.5077798819284725E-002  0.27445028564661494        0.0000000000000000     
  -7.5249592809743762E-002  0.28342348790374555        0.0000000000000000     
  -7.5423024569193892E-002  0.29248686047872469        0.0000000000000000     
  -7.5598094097635057E-002  0.30164040337155223        0.0000000000000000     
  -8.2723624921324596E-002  0.26570656204524740        0.0000000000000000     
  -8.2921192712879427E-002  0.27465394681585126        0.0000000000000000     
  -8.3102134291616309E-002  0.28376970674751428        0.0000000000000000     
  -8.3266449657535199E-002  0.29305384184023647        0.0000000000000000     
  -8.3414138810636154E-002  0.30250635209401777        0.0000000000000000     
  -4.6617565216138579E-002   5.9384847033861203E-002   0.0000000000000000     
  -4.8998021977529380E-002   6.4874047521990177E-002   0.0000000000000000     
  -5.1244253752643618E-002   7.0544628549719754E-002   0.0000000000000000     
  -5.3356260541481293E-002   7.6396590117049940E-002   0.0000000000000000     
  -5.5334042344042406E-002   8.2429932223980734E-002   0.0000000000000000     
  -5.0899675626200000E-002   6.0589624773921186E-002   0.0000000000000000     
  -5.3468549554252551E-002   6.5785830765131767E-002   0.0000000000000000     
  -5.5907309904310337E-002   7.1245598132677515E-002   0.0000000000000000     
  -5.8215956676373373E-002   7.6968926876558472E-002   0.0000000000000000     
  -6.0394489870441652E-002   8.2955816996774609E-002   0.0000000000000000     
  -5.4035793565034781E-002   6.2035238955434439E-002   0.0000000000000000     
  -5.7233497903494635E-002   6.6886460449647453E-002   0.0000000000000000     
  -6.0200181156488036E-002   7.2095099501746446E-002   0.0000000000000000     
  -6.2935843324015014E-002   7.7661156111731425E-002   0.0000000000000000     
  -6.5440484406075555E-002   8.3584630279602334E-002   0.0000000000000000     
  -5.6025919032642924E-002   6.3721689578400950E-002   0.0000000000000000     
  -6.0292867025255617E-002   6.8175936575537277E-002   0.0000000000000000     
  -6.4122867509176715E-002   7.3093132656926546E-002   0.0000000000000000     
  -6.7515920484406203E-002   7.8473277822568771E-002   0.0000000000000000     
  -7.0472025950944109E-002   8.4316372072463938E-002   0.0000000000000000     
  -5.6870052029024426E-002   6.5648976642820711E-002   0.0000000000000000     
  -6.2646656919535512E-002   6.9654259142801198E-002   0.0000000000000000     
  -6.7675368962376359E-002   7.4239697598217802E-002   0.0000000000000000     
  -7.1956188157546966E-002   7.9405292009070538E-002   0.0000000000000000     
  -7.5489114505047333E-002   8.5151042375359365E-002   0.0000000000000000     
  -5.5334042344042406E-002   8.2429932223980734E-002   0.0000000000000000     
  -5.7221683982843892E-002   8.8641428308422046E-002   0.0000000000000000     
  -5.9063270280402688E-002   9.5027851808283784E-002   0.0000000000000000     
  -6.0858801236718781E-002  0.10158920272356595        0.0000000000000000     
  -6.2608276851792183E-002  0.10832548105426852        0.0000000000000000     
  -6.0394489870441652E-002   8.2955816996774609E-002   0.0000000000000000     
  -6.2481015792908552E-002   8.9161478876672653E-002   0.0000000000000000     
  -6.4513640750167467E-002   9.5541122899599318E-002   0.0000000000000000     
  -6.6492364742218410E-002  0.10209474906555462        0.0000000000000000     
  -6.8417187769061374E-002  0.10882235737453853        0.0000000000000000     
  -6.5440484406075555E-002   8.3584630279602334E-002   0.0000000000000000     
  -6.7790664003022430E-002   8.9773821289058309E-002   0.0000000000000000     
  -7.0062941715208410E-002   9.6137028423798426E-002   0.0000000000000000     
  -7.2257317542633523E-002  0.10267425168382260        0.0000000000000000     
  -7.4373791485297755E-002  0.10938549106913094        0.0000000000000000     
  -7.0472025950944109E-002   8.4316372072463938E-002   0.0000000000000000     
  -7.3150628613185512E-002   9.0478455545579012E-002   0.0000000000000000     
  -7.5711173175525504E-002   9.6815568380881012E-002   0.0000000000000000     
  -7.8153659637964099E-002  0.10332771057836991        0.0000000000000000     
  -8.0478088000501297E-002  0.11001488213804569        0.0000000000000000     
  -7.5489114505047333E-002   8.5151042375359365E-002   0.0000000000000000     
  -7.8560909623397818E-002   9.1275381646234749E-002   0.0000000000000000     
  -8.1458335131118761E-002   9.7576742770847130E-002   0.0000000000000000     
  -8.4181391028210178E-002  0.10405512574919647        0.0000000000000000     
  -8.6730077314672055E-002  0.11071053058128279        0.0000000000000000     
  -6.2608276851792183E-002  0.10832548105426852        0.0000000000000000     
  -6.4299165823779550E-002  0.11520975501476334        0.0000000000000000     
  -6.5918936850837592E-002  0.12221509281942219        0.0000000000000000     
  -6.7467589932966282E-002  0.12934149446824508        0.0000000000000000     
  -6.8945125070165619E-002  0.13658895996123199        0.0000000000000000     
  -6.8417187769061374E-002  0.10882235737453853        0.0000000000000000     
  -7.0274863103349863E-002  0.11569621551522281        0.0000000000000000     
  -7.2052144017737449E-002  0.12268859117627914        0.0000000000000000     
  -7.3749030512224090E-002  0.12979948435770750        0.0000000000000000     
  -7.5365522586809813E-002  0.13702889505950788        0.0000000000000000     
  -7.4373791485297755E-002  0.10938549106913094        0.0000000000000000     
  -7.6405344831189492E-002  0.11624229485514422        0.0000000000000000     
  -7.8344958868297232E-002  0.12321621131728322        0.0000000000000000     
  -8.0192633596620905E-002  0.13030724045554795        0.0000000000000000     
  -8.1948369016160552E-002  0.13751538226993845        0.0000000000000000     
  -8.0478088000501297E-002  0.11001488213804569        0.0000000000000000     
  -8.2690611007298465E-002  0.11684799303452748        0.0000000000000000     
  -8.4797381402516928E-002  0.12379795324243442        0.0000000000000000     
  -8.6798399186156699E-002  0.13086476276176651        0.0000000000000000     
  -8.8693664358217780E-002  0.13804842159252370        0.0000000000000000     
  -8.6730077314672055E-002  0.11071053058128279        0.0000000000000000     
  -8.9130661631676739E-002  0.11751331005337269        0.0000000000000000     
  -9.1409411620396536E-002  0.12443381695173281        0.0000000000000000     
  -9.3566327280831474E-002  0.13147205127636308        0.0000000000000000     
  -9.5601408612981525E-002  0.13862801302726360        0.0000000000000000     
  -6.8945125070165619E-002  0.13658895996123199        0.0000000000000000     
  -7.0351719736048909E-002  0.14394626873845581        0.0000000000000000     
  -7.1687551404229485E-002  0.15140220023998935        0.0000000000000000     
  -7.2952620074707319E-002  0.15895675446583263        0.0000000000000000     
  -7.4146925747482439E-002  0.16660993141598560        0.0000000000000000     
  -7.5365522586809813E-002  0.13702889505950788        0.0000000000000000     
  -7.6903809884327545E-002  0.14436621361525437        0.0000000000000000     
  -7.8366082047610225E-002  0.15180083035852082        0.0000000000000000     
  -7.9752339076657824E-002  0.15933274528930744        0.0000000000000000     
  -8.1062580971470372E-002  0.16696195840761399        0.0000000000000000     
  -8.1948369016160552E-002  0.13751538226993845        0.0000000000000000     
  -8.3618362771535837E-002  0.14483033281435584        0.0000000000000000     
  -8.5208812507366491E-002  0.15224178814270126        0.0000000000000000     
  -8.6719718223652556E-002  0.15974974825497462        0.0000000000000000     
  -8.8151079920393963E-002  0.16735421315117602        0.0000000000000000     
  -8.8693664358217780E-002  0.13804842159252370        0.0000000000000000     
  -9.0495378397673798E-002  0.14533862633576025        0.0000000000000000     
  -9.2215742783498353E-002  0.15272507359253046        0.0000000000000000     
  -9.3854757515691473E-002  0.16020776336283429        0.0000000000000000     
  -9.5412422594253157E-002  0.16778669564667167        0.0000000000000000     
  -9.5601408612981525E-002  0.13862801302726360        0.0000000000000000     
  -9.7534856762741401E-002  0.14589109417946763        0.0000000000000000     
  -9.9386872876005769E-002  0.15325068670800854        0.0000000000000000     
 -0.10115745695277464       0.16070679061288634        0.0000000000000000     
 -0.10284660899304801       0.16825940589410102        0.0000000000000000     
  -7.4146925747482439E-002  0.16660993141598560        0.0000000000000000     
  -7.5270688415320239E-002  0.17436125033555952        0.0000000000000000     
  -7.6324128070986180E-002  0.18221023046966561        0.0000000000000000     
  -7.7307244714480264E-002  0.19015687181830379        0.0000000000000000     
  -7.8220038345802476E-002  0.19820117438147425        0.0000000000000000     
  -8.1062580971470372E-002  0.16696195840761399        0.0000000000000000     
  -8.2297754327195605E-002  0.17468916993307246        0.0000000000000000     
  -8.3458805738981179E-002  0.18251508008531464        0.0000000000000000     
  -8.4545735206827177E-002  0.19043968886434051        0.0000000000000000     
  -8.5558542730733558E-002  0.19846299627015013        0.0000000000000000     
  -8.8151079920393963E-002  0.16735421315117602        0.0000000000000000     
  -8.9502929159830505E-002  0.17505653502920707        0.0000000000000000     
  -9.0775297504201949E-002  0.18285806608696936        0.0000000000000000     
  -9.1968184953508308E-002  0.19075880632446293        0.0000000000000000     
  -9.3081591507749598E-002  0.19875875574168778        0.0000000000000000     
  -9.5412422594253157E-002  0.16778669564667167        0.0000000000000000     
  -9.6886212913224953E-002  0.17546334562396337        0.0000000000000000     
  -9.8273603366648477E-002  0.18323918847462980        0.0000000000000000     
  -9.9574593954523699E-002  0.19111422419867111        0.0000000000000000     
 -0.10078918467685059       0.19908845279608720        0.0000000000000000     
 -0.10284660899304801       0.16825940589410102        0.0000000000000000     
 -0.10444760558737901       0.17590960171734132        0.0000000000000000     
 -0.10595372332632075       0.18365844724829597        0.0000000000000000     
 -0.10736496220987327       0.19150594248696501        0.0000000000000000     
 -0.10868132223803656       0.19945208743334841        0.0000000000000000     
  -7.8220038345802476E-002  0.19820117438147425        0.0000000000000000     
  -7.9060983971919283E-002  0.20633243862256714        0.0000000000000000     
  -7.9828556599797137E-002  0.21453996500497288        0.0000000000000000     
  -8.0522756229436040E-002  0.22282375352869149        0.0000000000000000     
  -8.1143582860836005E-002  0.23118380419372297        0.0000000000000000     
  -8.5558542730733558E-002  0.19846299627015013        0.0000000000000000     
  -8.6497738639231811E-002  0.20657305105365498        0.0000000000000000     
  -8.7363833260853438E-002  0.21475790196576672        0.0000000000000000     
  -8.8156826595598439E-002  0.22301754900648532        0.0000000000000000     
  -8.8876718643466815E-002  0.23135199217581079        0.0000000000000000     
  -9.3081591507749598E-002  0.19875875574168778        0.0000000000000000     
  -9.4118209380083598E-002  0.20684591577587821        0.0000000000000000     
  -9.5080730783668119E-002  0.21500828786426859        0.0000000000000000     
  -9.5969155718503216E-002  0.22324587200685900        0.0000000000000000     
  -9.6783484184588861E-002  0.23155866820364931        0.0000000000000000     
 -0.10078918467685059       0.19908845279608720        0.0000000000000000     
 -0.10192239619447462       0.20715103278923686        0.0000000000000000     
 -0.10297924916824124       0.21529112270047857        0.0000000000000000     
 -0.10395974359815040       0.22350872252981252        0.0000000000000000     
 -0.10486387948420212       0.23180383227723864        0.0000000000000000     
 -0.10868132223803656       0.19945208743334841        0.0000000000000000     
 -0.10991029908240493       0.20748840209373076        0.0000000000000000     
 -0.11105938841457272       0.21560640647439655        0.0000000000000000     
 -0.11212859023453994       0.22380610057534589        0.0000000000000000     
 -0.11311790454230659       0.23208748439657867        0.0000000000000000     
  -8.1143582860836005E-002  0.23118380419372297        0.0000000000000000     
  -8.1680440588826911E-002  0.23964011286120918        0.0000000000000000     
  -8.2122733508238635E-002  0.24821267539229197        0.0000000000000000     
  -8.2470461619071206E-002  0.25690149178697141        0.0000000000000000     
  -8.2723624921324596E-002  0.26570656204524740        0.0000000000000000     
  -8.8876718643466815E-002  0.23135199217581079        0.0000000000000000     
  -8.9509386342936786E-002  0.23978636823556976        0.0000000000000000     
  -9.0040706632486561E-002  0.24834581394758889        0.0000000000000000     
  -9.0470679512116126E-002  0.25703032931186814        0.0000000000000000     
  -9.0799304981825507E-002  0.26583991432840764        0.0000000000000000     
  -9.6783484184588861E-002  0.23155866820364931        0.0000000000000000     
  -9.7515176304383430E-002  0.23997296246960181        0.0000000000000000     
  -9.8155692200345410E-002  0.24851504081967857        0.0000000000000000     
  -9.8705031872474758E-002  0.25718490325387966        0.0000000000000000     
  -9.9163195320771516E-002  0.26598254977220509        0.0000000000000000     
 -0.10486387948420212       0.23180383227723864        0.0000000000000000     
 -0.10569781047316690       0.24019989556330534        0.0000000000000000     
 -0.10646769021181524       0.24872035600856104        0.0000000000000000     
 -0.10717351870014714       0.25736521361300579        0.0000000000000000     
 -0.10781529593816261       0.26613446837663951        0.0000000000000000     
 -0.11311790454230659       0.23208748439657867        0.0000000000000000     
 -0.11405728884928712       0.24046716751668035        0.0000000000000000     
 -0.11497670066689601       0.24896175951423630        0.0000000000000000     
 -0.11587613999513321       0.25757126038924655        0.0000000000000000     
 -0.11675560683399880       0.26629567014171107        0.0000000000000000     
  -8.2723624921324596E-002  0.26570656204524740        0.0000000000000000     
  -8.2921192712879427E-002  0.27465394681585126        0.0000000000000000     
  -8.3102134291616309E-002  0.28376970674751428        0.0000000000000000     
  -8.3266449657535199E-002  0.29305384184023647        0.0000000000000000     
  -8.3414138810636154E-002  0.30250635209401777        0.0000000000000000     
  -9.0799304981825507E-002  0.26583991432840764        0.0000000000000000     
  -9.1057056384106869E-002  0.27483727906866884        0.0000000000000000     
  -9.1274407061452414E-002  0.28408513360411330        0.0000000000000000     
  -9.1451357013862075E-002  0.29358347793474110        0.0000000000000000     
  -9.1587906241335948E-002  0.30333231206055211        0.0000000000000000     
  -9.9163195320771516E-002  0.26598254977220509        0.0000000000000000     
  -9.9541422487909759E-002  0.27500592817287189        0.0000000000000000     
  -9.9850953316563601E-002  0.28435298625409727        0.0000000000000000     
 -0.10009178780673311       0.29402372401588139        0.0000000000000000     
 -0.10026392595841822       0.30401814145822420        0.0000000000000000     
 -0.10781529593816261       0.26613446837663951        0.0000000000000000     
 -0.10837429102428806       0.27515989412846037        0.0000000000000000     
 -0.10883177305694992       0.28457326469746630        0.0000000000000000     
 -0.10918774203614821       0.29437458008365752        0.0000000000000000     
 -0.10944219796188293       0.30456384028703398        0.0000000000000000     
 -0.11675560683399880       0.26629567014171107        0.0000000000000000     
 -0.11755566199324180       0.27529917693543421        0.0000000000000000     
 -0.11821686628261137       0.28474596893422027        0.0000000000000000     
 -0.11873921970210748       0.29463604613806937        0.0000000000000000     
 -0.11912272225173012       0.30496940854698146        0.0000000000000000     
 </DataArray>
 <DataArray  type="Float64" Name="stress" NumberOfComponents="3" format="ascii">
   11680857449.822861       -427336912.63684082        2543311577.6808677     
   10403519430.992880        101383916.36630344        1694296760.9513602     
   9048298272.4797764        370494279.75900602        1113679332.6692407     
   7615193974.2835255        379994177.54124117        801459292.83451271     
   6104206536.4041452        129883609.71304107        757636641.44716716     
   8320058571.6567640       -973170608.50389719        2071859610.8005066     
   7665873092.1603642       -357324817.85424566        1461520269.1932368     
   6941194581.3483381        23544201.743318558        1042025885.9382964     
   6146023039.2206869        169436450.28880596        813376461.03567851     
   5280358465.7774200        80351927.782222986        775571994.48538089     
   5999272426.5927086       -1207000484.4403369        1557704131.9287400     
   5746661114.7296906       -570503243.65425897        1194662058.5391531     
   5430946879.9185677       -144349079.36186409        944912513.40681887     
   5052129722.1593351        71462008.436827421        808455496.53174484     
   4610209641.4519854        76930019.741801977        785291007.91392136     
   4718499014.6307125       -1128826540.4461627        1000845141.0655856     
   4645883498.7008924       -538151361.03369427        893722128.98910165     
   4517555168.1904755       -133185563.55654287        822339215.07480836     
   4333514023.0994587        86070851.985272646        786696399.32270324     
   4093760063.4278479        119617885.59176850        786793681.73279035     
   4477738335.7707720       -738648776.52136898        401282638.21103001     
   4363540244.0739536       -260269169.99257493        558700480.54308224     
   4201019446.1640530        57034749.159273624        674305990.94225526     
   3990175942.0410705        213262980.93417382        748099169.40855813     
   3731009731.7049961        208415525.33211398        780080015.94198239     
   6104206536.4041452        129883609.71304107        757636641.44716716     
   5763562984.5979166        110370611.73526931        574088113.85361791     
   5421348333.3727283        85620615.694316864        438088503.32368755     
   5077562582.7285929        55633621.590200424        349637809.85739595     
   4732205732.6655025        20409629.422891617        308736033.45472193     
   5280358465.7774200        80351927.782222986        775571994.48538089     
   5051793354.6784134        74040063.492678404        638381792.50460327     
   4822276980.0689192        64557320.834846973        536810443.15307420     
   4591809341.9489555        51903699.808781147        470857946.43082470     
   4360390440.3185091        36079200.414430141        440524302.33782893     
   4610209641.4519854        76930019.741801977        785291007.91392136     
   4459637072.6762981        73593519.625285864        695182273.43912899     
   4308733076.2986126        69152260.835428953        628762327.15923786     
   4157497652.3189206        63606243.372236252        586031169.07424605     
   4005930800.7372375        56955467.235712051        566988799.18415165     
   4093760063.4278479        119617885.59176850        786793681.73279035     
   3987094138.5915842        109030980.13311577        744489556.65721428     
   3880716622.0618057        99405435.696053505        713944155.34217131     
   3774627513.8384991        90741252.280571938        695157477.78767025     
   3668826813.9216738        83038429.886699438        688129523.99369740     
   3731009731.7049961        208415525.33211398        780080015.94198239     
   3634164552.4242764        180352445.01617420        786303642.15884423     
   3538227617.3585014        155316845.41672623        792355927.70187616     
   3443198926.5076852        133308726.53380227        798236872.57108366     
   3349078479.8718219        114328088.36738682        803946476.76646459     
   4732205732.6655025        20409629.422891617        308736033.45472193     
   4496448466.9285555        14291778.001400471        254178710.18840018     
   4259774123.9828525        5117002.5507209301        212334684.39607948     
   4022182703.8284054       -7114696.9291136265        183203956.07774383     
   3783674206.4652047       -22403320.438107967        166786525.23340032     
   4360390440.3185091        36079200.414430141        440524302.33782893     
   4154361855.8976126        26133966.456005096        390555435.28645742     
   3948138713.1891894        15540204.872503757        351624729.28196770     
   3741721012.1932502        4297915.6639344692        323732184.32436192     
   3535108752.9097877       -7592901.1697063446        306877800.41362709     
   4005930800.7372375        56955467.235712051        566988799.18415165     
   3824844793.5549083        41747019.517082691        522451327.08917141     
   3644286747.0062938        28298440.577498198        487276879.61395812     
   3464256661.0913997        16609730.416967869        461465456.75850409     
   3284754535.8102117        6680889.0354807377        445017058.52281195     
   3668826813.9216738        83038429.886699438        688129523.99369740     
   3507897279.9004521        61130937.184640646        649866385.59654856     
   3348218225.4341788        43391709.665742755        619291135.39204490     
   3189789650.5228496        29820747.329994678        596403773.38018560     
   3032611555.1664739        20418050.177416086        581204299.56098068     
   3349078479.8718219        114328088.36738682        803946476.76646459     
   3203519314.9342332        84285719.458663225        772800610.80857718     
   3059933148.4728332        60820012.137211204        747667496.61622453     
   2918319980.4876094        43930966.403021097        728547134.18941057     
   2778679810.9785614        33618582.256092072        715439523.52811718     
   3783674206.4652047       -22403320.438107967        166786525.23340032     
   3629782428.2671537       -14210880.856833696        140770785.85179591     
   3475552373.8761511       -7146028.5853745937        114179605.67212072     
   3320984043.2921991       -1208763.6237545013        87012984.694405481     
   3166077436.5152984        3600914.0280257463        59270922.918604091     
   3535108752.9097877       -7592901.1697063446        306877800.41362709     
   3379885730.9144106       -4365191.2425494194        280673726.32680559     
   3224660622.5303001       -1144435.9445031881        255166766.19106171     
   3069433427.7574587        2069364.7244405746        230356920.00639215     
   2914204146.5958772        5276210.7642498016        206244187.77278352     
   3284754535.8102117        6680889.0354807377        445017058.52281195     
   3131836140.7293072        6034630.5220266581        419016871.16905123     
   2979251849.0638952        6502050.0602172613        394986352.51548511     
   2827001660.8139653        8083147.6500236988        372925502.56212598     
   2675085575.9795256        10777923.291448236        352834321.30896592     
   3032611555.1664739        20418050.177416086        581204299.56098068     
   2885633657.7118497        16988584.436916471        555800220.37852097     
   2739326053.4769306        15793429.428762197        533638364.64538902     
   2593688742.4617186        16832585.152967215        514718732.36159992     
   2448721724.6662154        20106051.609532237        499041323.52713722     
   2778679810.9785614        33618582.256092072        715439523.52811718     
   2641278281.8620224        28496670.502075434        691023773.95521569     
   2504883235.7694120        26729702.161150694        671122802.58078182     
   2369494672.7007236        28317677.233298779        655736609.40481353     
   2235112592.6559610        33260595.718539953        644865194.42730892     
   3166077436.5152984        3600914.0280257463        59270922.918604091     
   2982885655.5701375        186318.70325708389        36238923.738893472     
   2800204422.8666582       -1526449.1492608786        20044339.589131434     
   2618033738.4048858       -1537389.5294238329        10687170.469320534     
   2436373602.1847820        153497.56266713142        8167416.3794684606     
   2914204146.5958772        5276210.7642498016        206244187.77278352     
   2748406961.9000373        5578067.9555951357        187501440.15087917     
   2582786840.8754292        6470137.3843791485        174444093.26400474     
   2417343783.5220399        7952419.0505607128        167072147.11215892     
   2252077789.8398657        10024912.954124570        165385601.69534308     
   2675085575.9795256        10777923.291448236        352834321.30896592     
   2523391518.1189389        13808792.174680233        337991759.91265363     
   2371541039.3591113        16318258.060439229        327682584.95645964     
   2219534139.7000585        18306320.948777914        321906796.44036919     
   2067370819.1417580        19772980.839631319        320664394.36439586     
   2448721724.6662154        20106051.609532237        499041323.52713722     
   2307839324.2268276        24878491.360445023        487709883.02422869     
   2166467018.3177371        28017912.879029036        479759814.66649967     
   2024604806.9389436        29524316.165261745        475191118.45396930     
   1882252690.0904551        29397701.219189525        474003794.38662034     
   2235112592.6559610        33260595.718539953        644865194.42730892     
   2101750380.2237012        38787165.512905240        636655809.48558295     
   1967564777.7512875        41569101.840087771        630675782.39412451     
   1832555785.2387037        41606404.700025916        626925113.15293550     
   1696723402.6859555        38899074.092775404        625403801.76201785     
   2436373602.1847820        153497.56266713142        8167416.3794684606     
   2284978187.0902390        6782192.0051267147       -1921036.9291721408     
   2130341492.5535738        2606621.6405116320       -8935706.8819116373     
   1972463518.5747676       -12373213.531245232       -12876593.478752593     
   1811344265.1538579       -38157313.510001063       -13743696.719697569     
   2252077789.8398657        10024912.954124570        165385601.69534308     
   2107061376.0476573        15331547.672654152        151598843.84265283     
   1959994887.7147307        13804600.588796258        139950317.41829103     
   1810878324.8410807        5444071.7025194168        130440022.42227434     
   1659711687.4267180       -9750038.9861233234        123067958.85458611     
   2067370819.1417580        19772980.839631319        320664394.36439586     
   1926060401.1445639        22955654.182044864        304569071.01928771     
   1783891113.5080509        23275428.726719856        289676427.17495078     
   1640862956.2322247        20732304.473694146        275986462.83139402     
   1496975929.3170900        15326281.422968149        263499177.98860329     
   1882252690.0904551        29397701.219189525        474003794.38662034     
   1741975262.3809507        29654511.533257842        456989644.60073030     
   1602030169.9335358        31019106.054311216        440242622.38804942     
   1462417412.7482190        33491484.782343566        423762727.74859297     
   1323136990.8249884        37071647.717350781        407549960.68233889     
   1696723402.6859555        38899074.092775404        625403801.76201785     
   1554805959.7568252        35428119.726343870        608860564.58698225     
   1414412056.9911838        37035632.571541429        591648903.05760574     
   1275541694.3890557        43721612.628453135        573768817.17387700     
   1138194871.9504178        55486059.896992683        555220306.93581247     
   1811344265.1538579       -38157313.510001063       -13743696.719697569     
   1778986860.3095107       -18191397.673953056       -7948003.1698980341     
   1754566203.8579924        28230346.138158679       -40962639.214370266     
   1738082295.7992568        101107917.92623425       -112787604.85310273     
   1729535136.1333268        200441317.69031841       -223422900.08608904     
   1659711687.4267180       -9750038.9861233234        123067958.85458611     
   1535524445.0051293       -13779511.695405066        138244130.37135920     
   1415411993.2659211       -4226348.7967631221        127129692.24110095     
   1299374332.2091098        18909449.709874094        89724644.463844687     
   1187411461.8346794        55627883.824448526        26028987.039585270     
   1496975929.3170900        15326281.422968149        263499177.98860329     
   1316729477.7389958       -1967391.3054359555        283550210.14349782     
   1136695859.1328626       -18551620.793969274        289830352.59864122     
   956875073.49870920       -34426407.042575896        282339605.35404587     
   777267120.83651221       -49591750.051310658        261077968.40970770     
   1323136990.8249884        37071647.717350781        407549960.68233889     
   1122601958.5111229        17244963.496024668        427970236.14655185     
   918417801.45882058       -14745469.853449643        447139341.85827917     
   710584519.66805446       -58899652.331121892        465057277.81751889     
   499102113.13884872       -115217583.93692875        481724044.02428180     
   1138194871.9504178        55486059.896992683        555220306.93581247     
   953141887.32152963        43857552.708979219        571504208.38051414     
   760577820.24378502        7192104.0247551799        599056660.01999283     
   560502670.71717107       -54510286.155694038        637877661.85425448     
   352916438.74168152       -141249617.83238459        687967213.88328934     
   1729535136.1333268        200441317.69031841       -223422900.08608904     
   1458033978.7390299        184083026.90172130       -96349136.482451677     
   1154328716.0941756        60377718.611264706        59966498.229084671     
   818419348.19875526       -170674607.18104959        245524004.04850593     
   450305875.05284321       -509073950.47505879        460323380.97584414     
   1187411461.8346794        55627883.824448526        26028987.039585270     
   979519110.35036373        12336921.045540035        156759439.56804213     
   733773581.88001919       -157131298.35349765        313393103.68637770     
   450174876.42363918       -452776774.37262595        495929979.39453691     
   128722993.98122984       -874599507.01185191        704370066.69257224     
   777267120.83651221       -49591750.051310658        261077968.40970770     
   623444548.06779909       -122677092.97881079        388874526.17158210     
   426119726.57755709       -340769931.64474022        539235636.00527847     
   185292656.36579856       -703870266.04903996        712161297.91078293     
  -99036662.567479372       -1211978096.1917737        907651511.88810360     
   499102113.13884872       -115217583.93692875        481724044.02428180     
   389810291.89132726       -220959015.17133367        599996123.32815766     
   231367150.18679398       -490538181.26247883        737494095.18582809     
   23772688.025244415       -923955082.21031117        894217959.59726775     
  -232973094.59331167       -1521209718.0148458        1070167716.5624663     
   352916438.74168152       -141249617.83238459        687967213.88328934     
   278616341.82096350       -282508845.53202426        790124231.03778517     
   149515852.70772633       -606436047.20670545        908168481.22799909     
  -34385028.598000765       -1113031222.8563588        1042099964.4539720     
  -273086302.09623069       -1802294372.4810441        1191918680.7156577     
   4477738335.7707720       -738648776.52136898        401282638.21103001     
   4363540244.0739536       -260269169.99257493        558700480.54308224     
   4201019446.1640530        57034749.159273624        674305990.94225526     
   3990175942.0410705        213262980.93417382        748099169.40855813     
   3731009731.7049961        208415525.33211398        780080015.94198239     
   4622498292.5388422       -323914097.07484531        798245275.12457478     
   4363336168.0109749       -48296524.109127522        845286370.46976042     
   4072418694.3669543        121469885.13608623        869420241.77695036     
   3749745871.6067791        185385130.66078329        870646889.04614508     
   3395317699.7304482        143449212.46496642        848966312.27734983     
   4558352243.6147642        28148780.664035082        1124284842.0467992     
   4208240680.2412205        117208698.26229382        1080277773.6848698     
   3842941124.8484583        155641975.79648066        1032268589.1798251     
   3462453577.4364700        143448613.26659214        980257288.53167212     
   3066778038.0052638        80628610.672627926        924243871.74040675     
   4285300188.9985251        317539856.69526660        1379401338.9777029     
   3898253780.7646871        236246497.12168205        1263674690.1884043     
   3512586737.6085615        159551021.14045453        1162851033.1508811     
   3128299059.5301476        87453428.751596451        1076930367.8651307     
   2745390746.5294342        19953719.955094218        1005912694.3311520     
   3803342128.6901321        544259131.01885176        1563594765.9172812     
   3433375469.5813804        308816872.46902871        1395477119.9803784     
   3081355532.6472707        133197021.16801059        1261167573.6901257     
   2747282317.8878012        17399577.115790367        1160666127.0465295     
   2431155825.3029709       -38575459.687629461        1093972780.0495880     
   3731009731.7049961        208415525.33211398        780080015.94198239     
   3634164552.4242764        180352445.01617420        786303642.15884423     
   3538227617.3585014        155316845.41672623        792355927.70187616     
   3443198926.5076852        133308726.53380227        798236872.57108366     
   3349078479.8718219        114328088.36738682        803946476.76646459     
   3395317699.7304482        143449212.46496642        848966312.27734983     
   3303542636.1452789        131592156.79404724        858261155.50855649     
   3211401776.6460690        118515781.40965593        867887576.56900966     
   3118895121.2328186        104220086.31180167        877845575.45871150     
   3026022669.9055319        88705071.500486135        888135152.17765868     
   3066778038.0052638        80628610.672627926        924243871.74040675     
   2981510000.1244273        85408652.649362087        935123551.83547199     
   2894602126.2005577        84722574.482655406        946837728.26285577     
   2806054416.2336574        78570376.172516108        959386401.02255702     
   2715866870.2237329        66952057.718942761        972769570.11458230     
   2745390746.5294342        19953719.955094218        1005912694.3311520     
   2668066644.3617144        41801932.582116127        1016890831.1395830     
   2587828666.0219707        53937224.635728717        1029206382.7834038     
   2504676811.5102077        56359596.115943909        1042859349.2626212     
   2418611080.8264236        49069047.022749662        1057849730.5772316     
   2431155825.3029709       -38575459.687629461        1093972780.0495880     
   2363212568.8571486        771996.59232270718        1103562993.4208941     
   2291081396.1103120        26159731.868891478        1114993540.1306677     
   2214762307.0624614        37587746.142078996        1128264420.1789086     
   2134255301.7135952        35056039.411887288        1143375633.5656130     
   3349078479.8718219        114328088.36738682        803946476.76646459     
   3203519314.9342332        84285719.458663225        772800610.80857718     
   3059933148.4728332        60820012.137211204        747667496.61622453     
   2918319980.4876094        43930966.403021097        728547134.18941057     
   2778679810.9785614        33618582.256092072        715439523.52811718     
   3026022669.9055319        88705071.500486135        888135152.17765868     
   2897131661.3253698        64341227.703735948        863364041.32538259     
   2769896605.7078857        45497227.115891576        844091408.57205677     
   2644317503.0530653        32173069.736932755        830317253.91768515     
   2520394353.3609090        24368755.566861987        822041577.36227071     
   2715866870.2237329        66952057.718942761        972769570.11458230     
   2602174664.6679106        47825933.034229994        954003327.93548489     
   2489821366.5612502        33162833.180052400        940221290.18876231     
   2378806975.9037485        22962758.156402349        931423456.87441409     
   2269131492.6954060        17225707.963280082        927609827.99243999     
   2418611080.8264236        49069047.022749662        1057849730.5772316     
   2318648324.9618530        34739835.450144410        1044718470.6388862     
   2219707431.0329366        23816830.329709530        1036057141.4663422     
   2121788399.0396671        16300031.661441207        1031865743.0595826     
   2024891228.9820545        12189439.445348620        1032144275.4186257     
   2134255301.7135952        35056039.411887288        1143375633.5656130     
   2046552642.2071977        25082934.951481223        1135509469.4355946     
   1959554799.1229382        17459218.564866304        1131598962.4047902     
   1873261772.4608216        12184890.252061844        1131644112.4731998     
   1787673562.2208402        9259950.0130417347        1135644919.6408236     
   2778679810.9785614        33618582.256092072        715439523.52811718     
   2641278281.8620224        28496670.502075434        691023773.95521569     
   2504883235.7694120        26729702.161150694        671122802.58078182     
   2369494672.7007236        28317677.233298779        655736609.40481353     
   2235112592.6559610        33260595.718539953        644865194.42730892     
   2520394353.3609090        24368755.566861987        822041577.36227071     
   2394788996.9514117        20217744.303821445        801214280.86064684     
   2270269202.9125843        19685274.276348114        784722131.20651841     
   2146834971.2444196        22771345.484414816        772565128.39988291     
   2024486301.9469256        29475957.928056598        764743272.44074535     
   2269131492.6954060        17225707.963280082        927609827.99243999     
   2154809076.5616059        13891627.461825728        910463243.79995942     
   2041651302.1452081        14439686.018380761        897472175.10400224     
   1929658169.4462242        18869883.632973194        888636621.90456712     
   1818829678.4646478        27182220.305604100        883956584.20166063     
   2024891228.9820545        12189439.445348620        1032144275.4186257     
   1921338520.6925993        9518319.9760549068        1018770662.7731516     
   1819029533.4672949        10992937.387265801        1009372934.2732335     
   1717964267.3061392        16613291.678969741        1003951089.9188651     
   1618142722.2091370        26379382.851176560        1002505129.7100480     
   1787673562.2208402        9259950.0130417347        1135644919.6408236     
   1694377329.3443894        7097821.8465228081        1126136537.7802262     
   1602403896.8788300        9345028.3829710484        1120424408.7142060     
   1511753264.8241577        16001569.622378945        1118508532.4427719     
   1422425433.1803827        27067445.564782679        1120388908.9659131     
   2235112592.6559610        33260595.718539953        644865194.42730892     
   2101750380.2237012        38787165.512905240        636655809.48558295     
   1967564777.7512875        41569101.840087771        630675782.39412451     
   1832555785.2387037        41606404.700025916        626925113.15293550     
   1696723402.6859555        38899074.092775404        625403801.76201785     
   2024486301.9469256        29475957.928056598        764743272.44074535     
   1897560629.9508471        35496025.156855345        757613837.14382410     
   1770003388.2839296        39410860.149526119        753092344.92421424     
   1641814576.9461753        41220462.906069398        751178795.78191280     
   1512994195.9375777        40924833.426476598        751873189.71692669     
   1818829678.4646478        27182220.305604100        883956584.20166063     
   1699422218.9820154        34020286.592012227        878130888.98041523     
   1579575010.1978698        39392521.873374522        875291722.06352913     
   1459288052.1122031        43298926.149666548        875439083.45099711     
   1338561344.7250237        45739499.420918167        878572973.14281189     
   1618142722.2091370        26379382.851176560        1002505129.7100480     
   1507335147.3172114        34359949.818370759        998206964.99536490     
   1396279643.4930940        41514087.011597693        997273913.81207788     
   1284976210.7367811        47841794.430832028        999705976.16018152     
   1173424849.0482783        53343072.076108992        1005503152.0396845     
   1422425433.1803827        27067445.564782679        1120388908.9659131     
   1321299414.9564371        36515014.835961521        1117842065.1886613     
   1220117288.1696095        45775555.564211607        1119038920.1698518     
   1118879052.8199198        54849067.749576449        1123979473.9094768     
   1017584708.9073560        63735551.392040133        1132663726.4075389     
   1696723402.6859555        38899074.092775404        625403801.76201785     
   1554805959.7568252        35428119.726343870        608860564.58698225     
   1414412056.9911838        37035632.571541429        591648903.05760574     
   1275541694.3890557        43721612.628453135        573768817.17387700     
   1138194871.9504178        55486059.896992683        555220306.93581247     
   1512994195.9375777        40924833.426476598        751873189.71692669     
   1371200418.3576660        36498396.119907439        740575218.49701679     
   1229880767.2471075        33652380.377859592        730261294.88626409     
   1089035242.6059117        32386786.200348616        720931418.88467574     
   948663844.43407047        32701613.587354243        712585590.49224079     
   1338561344.7250237        45739499.420918167        878572973.14281189     
   1201612580.9614902        41773983.714372754        871295951.90152824     
   1064088529.9731736        35890843.925212324        866655450.23290622     
   925989191.76007271        28090080.053435147        864651468.13695836     
   787314566.32219207        18371692.099056512        865284005.61367488     
   1173424849.0482783        53343072.076108992        1005503152.0396845     
   1046042447.5682962        51254882.509729266        1001022764.8005265     
   917035345.16937768        43751023.213590413        1000831369.0975419     
   786403541.85154545        30831494.187725484        1004928964.9307317     
   654147037.61478543        12496295.432100296        1013315552.3000945     
   1017584708.9073560        63735551.392040133        1132663726.4075389     
   904490018.17807853        64941092.505978644        1129755657.1940076     
   788721212.83573985        57232918.243052691        1132789051.4801610     
   670278292.88032198        40611028.603192717        1141763909.2659967     
   549161258.31185198        15075423.586492658        1156680230.5515065     
   1138194871.9504178        55486059.896992683        555220306.93581247     
   953141887.32152963        43857552.708979219        571504208.38051414     
   760577820.24378502        7192104.0247551799        599056660.01999283     
   560502670.71717107       -54510286.155694038        637877661.85425448     
   352916438.74168152       -141249617.83238459        687967213.88328934     
   948663844.43407047        32701613.587354243        712585590.49224079     
   789985544.10046077        15212006.950644284        728891381.17299688     
   622715075.51165903       -30918160.536717176        755569401.75886822     
   446852438.66766959       -105688888.87469724        792619652.24988639     
   262397633.56847537       -209100178.06336266        840042132.64603841     
   787314566.32219207        18371692.099056512        865284005.61367488     
   652450035.17059350       -5747288.5203350782        880350418.75641870     
   507912249.95747197       -62110449.344806165        904892741.51464844     
   353701210.68283135       -150717790.37433434        938910973.88836610     
   189816917.34667060       -271569311.60894024        982405115.87758517     
   654147037.61478543        12496295.432100296        1013315552.3000945     
   540535360.53192806       -19020333.703964770        1025881321.1307840     
   416169343.58122832       -86384762.399499655        1047026679.2873105     
   281048986.76267195       -189596990.65456465        1076751626.7696953     
   135174290.07626534       -328657018.46910799        1115056163.5779183     
   549161258.31185198        15075423.586492658        1156680230.5515065     
   454241520.18447137       -24607128.600208580        1165484088.2960844     
   347486356.38291728       -103741099.70082672        1181971215.0768738     
   228895766.90719563       -222326489.71534011        1206141610.8938658     
   98469751.757281750       -380363298.64381599        1237995275.7470589     
   352916438.74168152       -141249617.83238459        687967213.88328934     
   278616341.82096350       -282508845.53202426        790124231.03778517     
   149515852.70772633       -606436047.20670545        908168481.22799909     
  -34385028.598000765       -1113031222.8563588        1042099964.4539720     
  -273086302.09623069       -1802294372.4810441        1191918680.7156577     
   262397633.56847537       -209100178.06336266        840042132.64603841     
   223607319.68603775       -348882945.87987113        888326227.17042899     
   140615222.85470608       -636004990.19270396        947697584.86935627     
   13421343.074479997       -1070466311.0018449        1018156205.7428112     
  -157974319.65464795       -1652266908.3073390        1099702089.7907977     
   189816917.34667060       -271569311.60894024        982405115.87758517     
   172822186.89908907       -413989879.42330492        989181331.88941646     
   122224282.74621218       -668421026.25532627        1002244841.2145768     
   38023204.888042688       -1034862752.1050134        1021595643.8530599     
  -79781046.675439119       -1513315056.9723332        1047233739.8048682     
   135174290.07626534       -328657018.46910799        1115056163.5779183     
   126260943.46008903       -477829646.16237736        1092689545.1947398     
   94343032.382226735       -703684155.39459860        1071810250.2636719     
   39420556.842657745       -1006220546.1658427        1052418278.7847161     
  -38506483.158596933       -1385438818.4760506        1034513630.7579006     
   98469751.757281750       -380363298.64381599        1237995275.7470589     
   83923589.369065911       -540402246.09702349        1198850867.0863941     
   56971471.762761801       -741794377.61051965        1156393812.0166314     
   17613398.938347220       -984539693.18438411        1110624110.5377951     
  -34150629.104127705       -1268638192.8184664        1061541762.6498621     
   3803342128.6901321        544259131.01885176        1563594765.9172812     
   3433375469.5813804        308816872.46902871        1395477119.9803784     
   3081355532.6472707        133197021.16801059        1261167573.6901257     
   2747282317.8878012        17399577.115790367        1160666127.0465295     
   2431155825.3029709       -38575459.687629461        1093972780.0495880     
   3131379840.6128550        323696534.79950154        1515608840.6732681     
   2865095080.2601852        175973178.70461321        1390664813.4778109     
   2610086306.1866856        65836443.540293932        1291425169.7277038     
   2366353518.3923631       -6713670.6934370995        1217889909.4229376     
   2133896716.8772120       -41677163.996596098        1170059032.5635200     
   2545642972.2804804        129001564.50362360        1493288921.4303668     
   2359886635.8230004        62051068.405398607        1403735987.7649837     
   2178735549.7492332        10451406.919526458        1331783721.3436370     
   2002189714.0591683       -25797419.953994751        1277432122.1663268     
   1830249128.7528076       -46695412.215161204        1240681190.2330532     
   2046131523.6929994       -39825779.868785381        1496635008.1885822     
   1917750136.2698348       -32949458.428610563        1434690642.8418941     
   1787303263.3349090       -32958088.694307327        1382243228.5379319     
   1654790904.8882186       -39851670.665877342        1339292765.2766955     
   1520213060.9297686       -53630204.343315959        1305839253.0581844     
   1632845494.8504229       -182785498.31772637        1525647100.9479115     
   1538685581.6006837       -109028401.79741222        1483528778.7085388     
   1435789446.9437127       -64392043.301202774        1442803691.3105812     
   1324157090.8795133       -48876422.829087496        1403471838.7540424     
   1203788513.4080882       -62481540.381059647        1365533221.0389187     
   2431155825.3029709       -38575459.687629461        1093972780.0495880     
   2363212568.8571486        771996.59232270718        1103562993.4208941     
   2291081396.1103120        26159731.868891478        1114993540.1306677     
   2214762307.0624614        37587746.142078996        1128264420.1789086     
   2134255301.7135952        35056039.411887288        1143375633.5656130     
   2133896716.8772120       -41677163.996596098        1170059032.5635200     
   2068397478.9003954       -13965662.709353805        1173676385.0540543     
   1999921853.8942389        3824548.4800856113        1180018638.7959833     
   1928469841.8587344        11693469.571702123        1189085793.7893043     
   1854041442.7938912        9641100.5655121803        1200877850.0340176     
   1830249128.7528076       -46695412.215161204        1240681190.2330532     
   1769721246.1390755       -29861664.852396250        1239739132.6597669     
   1707428505.7676725       -18910776.681871891        1242406544.2507994     
   1643370907.6385965       -13842747.703587890        1248683425.0061500     
   1577548451.7518439       -14657577.917554080        1258569774.9258225     
   1520213060.9297686       -53630204.343315959        1305839253.0581844     
   1467183870.5731924       -46916009.836806238        1301751236.2380247     
   1413601351.7306128       -42046243.616978884        1302157256.4951131     
   1359465504.4020345       -39020905.683806896        1307057313.8294413     
   1304776328.5874515       -37839996.037321389        1316451408.2410219     
   1203788513.4080882       -62481540.381059647        1365533221.0389187     
   1160785352.2027407       -65128697.662591934        1359712695.7888372     
   1118440391.7830615       -65581852.325225890        1359270775.5289252     
   1076753632.1490538       -63841004.368957877        1364207460.2591844     
   1035725073.3007092       -59906153.793810368        1374522749.9796107     
   2134255301.7135952        35056039.411887288        1143375633.5656130     
   2046552642.2071977        25082934.951481223        1135509469.4355946     
   1959554799.1229382        17459218.564866304        1131598962.4047902     
   1873261772.4608216        12184890.252061844        1131644112.4731998     
   1787673562.2208402        9259950.0130417347        1135644919.6408236     
   1854041442.7938912        9641100.5655121803        1200877850.0340176     
   1777648985.8862548        3199274.2032318115        1194986693.2289493     
   1701727263.2585616       -1673437.8925727606        1193025124.8395202     
   1626276274.9108098       -4977035.7219069004        1194993144.8657439     
   1551296020.8430004       -6711519.2847719789        1200890753.3076191     
   1577548451.7518439       -14657577.917554080        1258569774.9258225     
   1512391715.4899273       -17590470.767623961        1254380529.6131301     
   1447471631.3657560       -19734523.158542991        1254094804.0325172     
   1382788199.3793278       -21089735.090319872        1257712598.1839983     
   1318341419.5306447       -21656106.562938809        1265233912.0675583     
   1304776328.5874515       -37839996.037321389        1316451408.2410219     
   1250780831.0182099       -37286299.961101174        1313690978.5881424     
   1196787903.4445157       -36724037.233052492        1314807999.9837890     
   1142797545.8663692       -36153207.853174090        1319802472.4279535     
   1088809758.2837772       -35573811.821453273        1328674395.9206383     
   1035725073.3007092       -59906153.793810368        1374522749.9796107     
   992816332.47110534       -55888213.377192914        1372918040.1539919     
   949676079.49485242       -52641980.116069734        1375164712.6933241     
   906304314.37194419       -50167454.010465205        1381262767.5976143     
   862701037.10239053       -48464635.060340166        1391212204.8668587     
   1787673562.2208402        9259950.0130417347        1135644919.6408236     
   1694377329.3443894        7097821.8465228081        1126136537.7802262     
   1602403896.8788300        9345028.3829710484        1120424408.7142060     
   1511753264.8241577        16001569.622378945        1118508532.4427719     
   1422425433.1803827        27067445.564782679        1120388908.9659131     
   1551296020.8430004       -6711519.2847719789        1200890753.3076191     
   1468394208.0005376       -7948508.2693386674        1194277663.3633223     
   1386916581.0170450       -4438211.0573412180        1191650534.6855185     
   1306863139.8925276        3819372.3512406349        1193009367.2742181     
   1228233884.6269808        16824241.956388235        1198354161.1294177     
   1318341419.5306447       -21656106.562938809        1265233912.0675583     
   1246376050.9276514       -21805349.103910685        1261634397.0623195     
   1175936253.6317134       -16869353.954700351        1262210551.7954965     
   1107022027.6428223       -6848121.1153332591        1266962376.2670915     
   1039633372.9609878        8258349.4142231345        1275889870.4771073     
   1088809758.2837772       -35573811.821453273        1328674395.9206383     
   1028322858.1257346       -34472700.657188416        1328206738.8772180     
   969462914.72282493       -27948400.309145093        1332104460.0441375     
   912229928.07504725       -16000910.777328312        1340367559.4213896     
   856623898.18240261        1369767.9382705092        1352996037.0089736     
   862701037.10239053       -48464635.060340166        1391212204.8668587     
   814234629.59478092       -45950562.929183960        1393994688.8080201     
   767496564.29038787       -37675350.120638520        1401332259.4314363     
   722486841.18919945       -23638996.634744436        1413224916.7371066     
   679205460.29123306       -3841502.4714442194        1429672660.7250309     
   1422425433.1803827        27067445.564782679        1120388908.9659131     
   1321299414.9564371        36515014.835961521        1117842065.1886613     
   1220117288.1696095        45775555.564211607        1119038920.1698518     
   1118879052.8199198        54849067.749576449        1123979473.9094768     
   1017584708.9073560        63735551.392040133        1132663726.4075389     
   1228233884.6269808        16824241.956388235        1198354161.1294177     
   1137759585.0380182        27796702.865252256        1197662882.4804623     
   1046864025.7004735        37364964.612182200        1201069636.7220573     
   955547206.61433887        45529027.197136074        1208574423.8541999     
   863809127.77961397        52288890.620133728        1220177243.8768883     
   1039633372.9609878        8258349.4142231345        1275889870.4771073     
   960823175.24161220        21059416.931175351        1276628147.2397797     
   881226566.58793449        31239114.667118400        1281818791.0251138     
   800843546.99995637        38797442.622058392        1291461801.8330960     
   719674116.47767377        43734400.795987815        1305557179.6637421     
   856623898.18240261        1369767.9382705092        1352996037.0089736     
   790490185.56720984        16303157.033681899        1354737859.4666126     
   723204910.83200431        27398005.729053915        1361286383.0790138     
   654768073.97677362        34654314.024335623        1372641607.8461719     
   585179675.00152588        38072081.919569671        1388803533.7681046     
   679205460.29123306       -3841502.4714442194        1429672660.7250309     
   626760616.01481628        13527923.172801137        1431992019.1609595     
   572799058.43267143        25841637.797951996        1439472412.8837569     
   517320787.54478800        33099641.403976247        1452113841.8934276     
   460325803.35117227        35301933.990889788        1469916306.1899683     
   1017584708.9073560        63735551.392040133        1132663726.4075389     
   904490018.17807853        64941092.505978644        1129755657.1940076     
   788721212.83573985        57232918.243052691        1132789051.4801610     
   670278292.88032198        40611028.603192717        1141763909.2659967     
   549161258.31185198        15075423.586492658        1156680230.5515065     
   863809127.77961397        52288890.620133728        1220177243.8768883     
   765799793.96804523        52583605.061221033        1217531911.5845854     
   665189452.32998776        44208293.414009839        1220759427.2692025     
   561978102.86544573        27162955.678515494        1229859790.9307218     
   456165745.57440960        1447591.8547126949        1244833002.5691495     
   719674116.47767377        43734400.795987815        1305557179.6637421     
   636554095.23302615        43059475.258967698        1303259875.5436840     
   550906172.94847310        33958212.922266483        1306766803.8777614     
   462730349.62400317        16430613.785842121        1316077964.6659741     
   372026625.25962740       -9523322.1502658874        1331193357.9083164     
   585179675.00152588        38072081.919569671        1388803533.7681046     
   516752921.97302014        36368703.099234909        1386939549.0712974     
   445871374.69117647        26482676.767767757        1390811181.3058481     
   372535033.15600687        8414002.9252157509        1400418430.4717529     
   296743897.36750376       -17837318.428445250        1415761296.5690281     
   460325803.35117227        35301933.990889788        1469916306.1899683     
   406396274.18801904        32511288.581976950        1468570932.1674216     
   350085057.55811119        21781684.950551763        1472892559.5534527     
   291392153.46145064        3113123.0966147482        1482881188.3480704     
   230317561.89803740       -23494396.979834080        1498536818.5512736     
   549161258.31185198        15075423.586492658        1156680230.5515065     
   454241520.18447137       -24607128.600208580        1165484088.2960844     
   347486356.38291728       -103741099.70082672        1181971215.0768738     
   228895766.90719563       -222326489.71534011        1206141610.8938658     
   98469751.757281750       -380363298.64381599        1237995275.7470589     
   456165745.57440960        1447591.8547126949        1244833002.5691495     
   380742692.61415267       -34282725.036929026        1243350919.5777061     
   295306310.53506088       -103390805.65802309        1248270963.3797591     
   199856599.33712679       -205876650.00858748        1259593133.9753053     
   94393559.020362556       -341740258.08859110        1277317431.3643332     
   372026625.25962740       -9523322.1502658874        1331193357.9083164     
   312439851.05873579       -42399525.669177309        1321551113.4954197     
   244661844.29434699       -102579837.73307671        1317029853.6333029     
   168692604.96645355       -190064258.34199625        1317629578.3219595     
   84532133.075061575       -304852787.49590415        1323350287.5613883     
   296743897.36750376       -17837318.428445250        1415761296.5690281     
   249332995.51821283       -48957530.496974900        1400084670.0492325     
   195552957.66078013       -101308195.92598620        1388247885.8375056     
   135403783.79516643       -174889314.71559250        1380250943.9338305     
   68885473.921398461       -269700886.86572081        1376093844.3382189     
   230317561.89803740       -23494396.979834080        1498536818.5512736     
   191422125.99260420       -53956739.520268217        1478951589.2391431     
   147979650.63435474       -99575880.236756593        1461925059.9923604     
   99990135.823268771       -160351819.12936938        1447457230.8109219     
   47453581.559367076       -236284556.19803464        1435548101.6948390     
   98469751.757281750       -380363298.64381599        1237995275.7470589     
   83923589.369065911       -540402246.09702349        1198850867.0863941     
   56971471.762761801       -741794377.61051965        1156393812.0166314     
   17613398.938347220       -984539693.18438411        1110624110.5377951     
  -34150629.104127705       -1268638192.8184664        1061541762.6498621     
   94393559.020362556       -341740258.08859110        1277317431.3643332     
   77877214.438530862       -483076516.92523134        1222781428.0643666     
   50172005.913725436       -661708988.90512311        1165726541.3437974     
   11277933.445942044       -877637674.02826321        1106152771.2026360     
  -38805002.964831293       -1130862572.2947147        1044060117.6408848     
   84532133.075061575       -304852787.49590415        1323350287.5613883     
   68313500.552469254       -426805989.44008052        1254842629.4430721     
   42123095.362006545       -581998433.61049855        1184609850.8926518     
   5960917.5036695004       -770430120.00715590        1112651951.9101417     
  -40173033.022535503       -992101048.63004959        1038968932.4955200     
   68885473.921398461       -269700886.86572081        1376093844.3382189     
   55232447.710881487       -371590663.64158922        1295034471.2225187     
   32824740.107594550       -502662711.72670501        1213043740.6632171     
   1662351.1115546525       -662917031.12099457        1130121652.6602974     
  -38254719.277250975       -852353621.82449472        1046268207.2137886     
   47453581.559367076       -236284556.19803464        1435548101.6948390     
   38634055.913764983       -317430539.52976322        1343356953.4027104     
   22276940.150497884       -423701823.25370020        1251028210.6554701     
  -1617765.7304063141       -555098407.36976624        1158561873.4531233     
  -33050061.728974253       -711620291.87804210        1065957941.7956699     
   1632845494.8504229       -182785498.31772637        1525647100.9479115     
   1538685581.6006837       -109028401.79741222        1483528778.7085388     
   1435789446.9437127       -64392043.301202774        1442803691.3105812     
   1324157090.8795133       -48876422.829087496        1403471838.7540424     
   1203788513.4080882       -62481540.381059647        1365533221.0389187     
   1299431982.7516923       -114649765.26934505        1611355183.3620253     
   1207837308.8334899       -65624364.572139084        1545312853.6074674     
   1109690468.8598495       -38439517.393061578        1485557864.4564712     
   1004991462.8307682       -33095223.732117057        1432090215.9090357     
   893740290.74625075       -49591483.589294314        1384909907.9651580     
   916153229.57762408       -61473604.543561697        1685981053.6327629     
   841106954.31137323       -32984951.873337686        1598562780.9401107     
   761692568.34147227       -19056668.215276092        1522325954.6131585     
   677910071.66792309       -19688753.569378495        1457270574.6519151     
   589759464.29072738       -34881207.935634673        1403396641.0563753     
   483009235.32821941       -23257016.140382618        1749524711.7601240     
   438494518.03432971       -11110163.701019406        1643278560.7064619     
   391795745.38858438       -6243495.7678431720        1553107961.7806475     
   342912917.39097703       -8657012.3408693075        1479012914.9826851     
   291846034.04151589       -18350713.420079798        1420993420.3125689     
   3.4765230987039708E-003  -5.9801705711945888E-002   1801986157.7441065     
   2.3630365063965382E-003  -5.5171389435026731E-002   1679460192.9065259     
   1.1815640041470850E-003  -5.0766305079133517E-002   1577903885.9589379     
  -6.7894408044383639E-005  -4.6588534312437431E-002   1497317236.9013414     
  -1.3835086922251959E-003  -4.2631283119039139E-002   1437700245.7337427     
   1203788513.4080882       -62481540.381059647        1365533221.0389187     
   1160785352.2027407       -65128697.662591934        1359712695.7888372     
   1118440391.7830615       -65581852.325225890        1359270775.5289252     
   1076753632.1490538       -63841004.368957877        1364207460.2591844     
   1035725073.3007092       -59906153.793810368        1374522749.9796107     
   893740290.74625075       -49591483.589294314        1384909907.9651580     
   864316589.73469782       -50728250.581671536        1381554873.2018485     
   835386539.31237566       -50219515.609943509        1382918420.4537904     
   806950139.47927999       -48065278.674128711        1389000549.7209816     
   779007390.23541474       -44265539.774209112        1399801261.0034225     
   589759464.29072738       -34881207.935634673        1403396641.0563753     
   572029443.54462361       -35073318.617364705        1402315121.5506620     
   554628523.19131231       -34168427.989788145        1405292161.0852776     
   537556703.23079193       -32166536.052907199        1412327759.6602249     
   520813983.66306317       -29067642.806721717        1423421917.2755005     
   291846034.04151589       -18350713.420079798        1420993420.3125689     
   283923913.63251889       -18163901.769666672        1421993440.8352730     
   276166343.41987681       -17428589.464737505        1426391997.4233863     
   268573323.40358502       -16144776.505307972        1434189090.0769114     
   261144853.58364993       -14312462.891354442        1445384718.7958453     
  -1.3835086922251959E-003  -4.2631283119039139E-002   1437700245.7337427     
  -1.6160607650618566E-003  -3.8577680427432308E-002   1440589831.0556848     
  -1.9322455723359416E-003  -3.4801465738502770E-002   1446217929.4681182     
  -2.3352656804646373E-003  -3.1315048997117116E-002   1454584540.9710424     
  -2.8219185230307555E-003  -2.8108101926579948E-002   1465689665.5644560     
   1035725073.3007092       -59906153.793810368        1374522749.9796107     
   992816332.47110534       -55888213.377192914        1372918040.1539919     
   949676079.49485242       -52641980.116069734        1375164712.6933241     
   906304314.37194419       -50167454.010465205        1381262767.5976143     
   862701037.10239053       -48464635.060340166        1391212204.8668587     
   779007390.23541474       -44265539.774209112        1399801261.0034225     
   745989348.41305113       -41503030.321016103        1397541302.6906309     
   712797672.48067868       -39319301.234516352        1399327906.8561702     
   679432362.43829751       -37714352.514713436        1405161073.5000367     
   645893418.28590620       -36688184.161612034        1415040802.6222262     
   520813983.66306317       -29067642.806721717        1423421917.2755005     
   498244298.31471318       -27393267.076925308        1420574234.8516250     
   475558856.89299655       -26104744.925021857        1421968295.0194440     
   452757659.39791381       -25202076.351002634        1427604097.7789648     
   429840705.82946587       -24685261.354869008        1437481643.1301837     
   261144853.58364993       -14312462.891354442        1445384718.7958453     
   249581182.17609379       -13558923.644916818        1442016836.6369612     
   237959632.73180726       -12998311.187576383        1443085877.1831505     
   226280205.25080207       -12630625.519300282        1448591840.4344079     
   214542899.73306781       -12455866.640120834        1458534726.3907390     
  -2.8219185230307555E-003  -2.8108101926579948E-002   1465689665.5644560     
  -2.8119448161886551E-003  -2.5000926237675376E-002   1461869108.0466504     
  -2.8882573988153627E-003  -2.2182759292447615E-002   1462680653.3472869     
  -3.0415459528266228E-003  -1.9620831973806502E-002   1468124301.4663658     
  -3.2818070605389448E-003  -1.7348119278111866E-002   1478200052.4038856     
   862701037.10239053       -48464635.060340166        1391212204.8668587     
   814234629.59478092       -45950562.929183960        1393994688.8080201     
   767496564.29038787       -37675350.120638520        1401332259.4314363     
   722486841.18919945       -23638996.634744436        1413224916.7371066     
   679205460.29123306       -3841502.4714442194        1429672660.7250309     
   645893418.28590620       -36688184.161612034        1415040802.6222262     
   609162899.54032195       -34916843.997160882        1419896269.6519120     
   573728637.44714069       -28824648.324706763        1429395656.4239917     
   539590632.00635982       -18411597.144243270        1443538962.9384623     
   506748883.21798658       -3677690.4557663202        1462326189.1953270     
   429840705.82946587       -24685261.354869008        1437481643.1301837     
   405099884.58915240       -23580510.534164339        1443905993.4391196     
   381223234.45043504       -19595189.374808758        1455063096.5505836     
   358210755.41331363       -12729297.876800686        1470952952.4645774     
   336062447.47777981       -2982836.0401631743        1491575561.1810961     
   214542899.73306781       -12455866.640120834        1458534726.3907390     
   202045584.74128067       -11941562.540165171        1466023860.1696422     
   189980355.30027500       -9986973.2709389627        1478334579.8112152     
   178347211.41005242       -6592098.8324342892        1495466885.3154497     
   167146153.07061070       -1756939.2246620655        1517420776.6823521     
  -3.2818070605389448E-003  -1.7348119278111866E-002   1478200052.4038856     
  -3.2999244362704652E-003  -1.5185288923738391E-002   1486249869.8434832     
  -3.3486491967605388E-003  -1.3122401517055588E-002   1499210106.2058828     
  -3.4141416799920326E-003  -1.1114712630120462E-002   1517080761.4910810     
  -3.5148623938125942E-003  -9.2279206254341807E-003   1539861835.6990864     
   679205460.29123306       -3841502.4714442194        1429672660.7250309     
   626760616.01481628        13527923.172801137        1431992019.1609595     
   572799058.43267143        25841637.797951996        1439472412.8837569     
   517320787.54478800        33099641.403976247        1452113841.8934276     
   460325803.35117227        35301933.990889788        1469916306.1899683     
   506748883.21798658       -3677690.4557663202        1462326189.1953270     
   466595008.59880257        9103306.3543100357        1463812480.4295900     
   425303599.00029802        18092519.899983317        1470651196.6135082     
   382874654.42247695        23289950.181268647        1482842337.7470813     
   339308174.86533594        24695597.198151499        1500385903.8303065     
   336062447.47777981       -2982836.0401631743        1491575561.1810961     
   308746370.12377316        5373780.2181059569        1492671159.9278545     
   280671936.11686426        11202540.966703191        1499310573.2870474     
   251839145.45705363        14503446.205627419        1511493801.2586770     
   222247998.14433637        15276495.934864260        1529220843.8427444     
   167146153.07061070       -1756939.2246620655        1517420776.6823521     
   153214700.58973518        2339344.7642101124        1518568057.6557515     
   138904069.78236747        5171700.9981074706        1525450542.9043682     
   124214260.64851178        6740129.4770439379        1538068232.4282076     
   109145273.18816914        7044630.2010267153        1556421126.2272637     
  -3.5148623938125942E-003  -9.2279206254341807E-003   1539861835.6990864     
  -3.3217018879073434E-003  -7.4113792026563570E-003   1541503173.6132815     
  -3.1966187938417454E-003  -5.8217624860107094E-003   1549071105.4654753     
  -3.1414660250428869E-003  -4.4662876876731131E-003   1562565631.2556713     
  -3.1594690234023649E-003  -3.3525837783587985E-003   1581986750.9838700     
   460325803.35117227        35301933.990889788        1469916306.1899683     
   406396274.18801904        32511288.581976950        1468570932.1674216     
   350085057.55811119        21781684.950551763        1472892559.5534527     
   291392153.46145064        3113123.0966147482        1482881188.3480704     
   230317561.89803740       -23494396.979834080        1498536818.5512736     
   339308174.86533594        24695597.198151499        1500385903.8303065     
   300065247.58964360        22963879.020700142        1497853839.6835344     
   259036054.71388197        15277942.176356852        1500707792.3728065     
   216220596.23804498        1637786.6650947928        1508947761.8981187     
   171618872.16212675       -17956587.513106093        1522573748.2594879     
   222247998.14433637        15276495.934864260        1529220843.8427444     
   196888859.69172108        14362861.069582529        1526196748.4161987     
   170338877.50570482        9479747.0929642320        1528277685.2531669     
   142598051.58630300        627154.00506060570        1535463654.3536415     
   113666381.93349795       -12194918.194186904        1547754655.7176373     
   109145273.18816914        7044630.2010267153        1556421126.2272637     
   96867110.494239330        6708234.7285788134        1553599658.3654122     
   83993525.933587864        4387099.7003963329        1555602238.1945298     
   70524519.506228715        81225.116520084441        1562428865.7146318     
   56460091.212149762       -6209389.0230901875        1574079540.9257078     
  -3.1594690234023649E-003  -3.3525837783587985E-003   1581986750.9838700     
  -2.7931869271736972E-003  -2.2801357871401876E-003   1580062569.5311692     
  -2.4707342399116873E-003  -1.3523980470296550E-003   1582681451.1969113     
  -2.1701047552353729E-003  -4.9740431553810585E-004   1589843395.9810901     
  -1.9170562573287079E-003   1.9759834794049662E-004   1601548403.8837090     
   230317561.89803740       -23494396.979834080        1498536818.5512736     
   191422125.99260420       -53956739.520268217        1478951589.2391431     
   147979650.63435474       -99575880.236756593        1461925059.9923604     
   99990135.823268771       -160351819.12936938        1447457230.8109219     
   47453581.559367076       -236284556.19803464        1435548101.6948390     
   171618872.16212675       -17956587.513106093        1522573748.2594879     
   141799028.92878255       -40997824.309553467        1498683550.4023266     
   108568906.10580660       -75406659.738106459        1477503314.7481956     
   71928503.693223029       -121183093.79868630        1459033041.2970979     
   31877821.691012360       -178327126.49135375        1443272730.0490363     
   113666381.93349795       -12194918.194186904        1547754655.7176373     
   93354308.908480316       -27685395.985807855        1520885709.1558414     
   70768716.157044232       -50754272.865492314        1496877986.9347637     
   45909603.679195583       -81401548.833217293        1475731489.0544121     
   18776971.474923939       -119627223.88901965        1457446215.5147738     
   56460091.212149762       -6209389.0230901875        1574079540.9257078     
   46087965.931711130       -14019454.548996501        1545558065.4996881     
   34579080.788061135       -25618719.618941873        1520049076.5520782     
   21933435.781195380       -41007184.232936993        1497552574.0828731     
   8151030.9111183435       -60184848.390974067        1478068558.0920782     
  -1.9170562573287079E-003   1.9759834794049662E-004   1601548403.8837090     
  -1.5264346563294119E-003   8.8765990894686619E-004   1572700619.4338677     
  -1.1564009822977524E-003   1.5049317103854351E-003   1547016583.6001194     
  -7.7838376769753153E-004   2.1512439265855771E-003   1524496296.3824685     
  -4.2209825378537204E-004   2.7244232511017905E-003   1505139757.7809079     
   47453581.559367076       -236284556.19803464        1435548101.6948390     
   38634055.913764983       -317430539.52976322        1343356953.4027104     
   22276940.150497884       -423701823.25370020        1251028210.6554701     
  -1617765.7304063141       -555098407.36976624        1158561873.4531233     
  -33050061.728974253       -711620291.87804210        1065957941.7956699     
   31877821.691012360       -178327126.49135375        1443272730.0490363     
   28167014.068262666       -238315463.00658974        1343914395.9521091     
   18803013.857293576       -317147774.81588906        1243740905.5240655     
   3785821.0581108928       -414824061.91923922        1142752258.7649117     
  -16884564.329299808       -531344324.31667036        1040948455.6746378     
   18776971.474923939       -119627223.88901965        1457446215.5147738     
   18238990.800738491       -159038680.91001952        1353119159.3973932     
   13932215.067765608       -211012788.12697679        1247299385.0728824     
   5856644.2759996206       -275549545.53991109        1139986892.5412569     
  -5987721.5745492280       -352648953.14878893        1031181681.8025031     
   8151030.9111183435       -60184848.390974067        1478068558.0920782     
   8849986.1111902297       -79600193.240051478        1370971243.7385569     
   7664543.7819136605       -105296863.18695417        1261703649.3019111     
   4594703.9232689366       -137274858.23175690        1150265774.7821634     
  -359533.46472343802       -175534178.37437838        1036657620.1792601     
  -4.2209825378537204E-004   2.7244232511017905E-003   1505139757.7809079     
  -3.8549749473179530E-004   3.3016172213766932E-003   1397470648.9756029     
  -2.6654502780767151E-004   4.1533168845534199E-003   1286953698.2111685     
  -8.6263413994398493E-005   5.2091000926654495E-003   1173588905.4876108     
   1.8062474592940017E-004   6.5556534559837367E-003   1057376270.8049208     
   3.4765230987039708E-003  -5.9801705711945888E-002   1801986157.7441065     
   2.3630365063965382E-003  -5.5171389435026731E-002   1679460192.9065259     
   1.1815640041470850E-003  -5.0766305079133517E-002   1577903885.9589379     
  -6.7894408044383639E-005  -4.6588534312437431E-002   1497317236.9013414     
  -1.3835086922251959E-003  -4.2631283119039139E-002   1437700245.7337427     
  -483009235.32145846        23257016.020668298        1749524711.7631159     
  -438494518.02958584        11110163.591159910        1643278560.7091582     
  -391795745.38604814        6243495.6672034711        1553107961.7830696     
  -342912917.39083987        8657012.2488147616        1479012914.9848573     
  -291846034.04396433        18350713.335983604        1420993420.3145182     
  -916153229.57140553        61473604.423636377        1685981053.6389902     
  -841106954.30689180        32984951.763876617        1598562780.9456720     
  -761692568.33897567        19056668.115461409        1522325954.6181111     
  -677910071.66765320        19688753.478399158        1457270574.6563029     
  -589759464.29292703        34881207.852682263        1403396641.0602484     
  -1299431982.7463663        114649765.14909863        1611355183.3717155     
  -1207837308.8295505        65624364.462992847        1545312853.6160710     
  -1109690468.8576000        38439517.294013262        1485557864.4640603     
  -1004991462.8305056        33095223.642173469        1432090215.9156797     
  -893740290.74827075        49591483.507467449        1384909907.9709387     
  -1632845494.8463371        182785498.19705951        1525647100.9613008     
  -1538685581.5975668        109028401.68849528        1483528778.7203538     
  -1435789446.9419208        64392043.202851057        1442803691.3209140     
  -1324157090.8793962        48876422.740136683        1403471838.7629929     
  -1203788513.4099979        62481540.300334275        1365533221.0465844     
  -1.3835086922251959E-003  -4.2631283119039139E-002   1437700245.7337427     
  -1.6160607650618566E-003  -3.8577680427432308E-002   1440589831.0556848     
  -1.9322455723359416E-003  -3.4801465738502770E-002   1446217929.4681182     
  -2.3352656804646373E-003  -3.1315048997117116E-002   1454584540.9710424     
  -2.8219185230307555E-003  -2.8108101926579948E-002   1465689665.5644560     
  -291846034.04396433        18350713.335983604        1420993420.3145182     
  -283923913.63545054        18163901.693609387        1421993440.8369963     
  -276166343.42346162        17428589.396152943        1426391997.4248893     
  -268573323.40800291        16144776.443596795        1434189090.0781953     
  -261144853.58906677        14312462.835964069        1445384718.7969143     
  -589759464.29292703        34881207.852682263        1403396641.0602484     
  -572029443.54731774        35073318.542388290        1402315121.5540826     
  -554628523.19467437        34168427.922205240        1405292161.0882540     
  -537556703.23500288        32166535.992115468        1412327759.6627588     
  -520813983.66829973        29067642.752134830        1423421917.2775991     
  -893740290.74827075        49591483.507467449        1384909907.9709387     
  -864316589.73721778        50728250.507751584        1381554873.2069459     
  -835386539.31556940        50219515.543354750        1382918420.4582105     
  -806950139.48333704        48065278.614237309        1389000549.7247317     
  -779007390.24051607        44265539.720414698        1399801261.0065069     
  -1203788513.4099979        62481540.300334275        1365533221.0465844     
  -1160785352.2051499        65128697.589711905        1359712695.7955813     
  -1118440391.7861495        65581852.259593725        1359270775.5347576     
  -1076753632.1530097        63841004.309944689        1364207460.2641113     
  -1035725073.3057197        59906153.740791738        1374522749.9836485     
  -2.8219185230307555E-003  -2.8108101926579948E-002   1465689665.5644560     
  -2.8119448161886551E-003  -2.5000926237675376E-002   1461869108.0466504     
  -2.8882573988153627E-003  -2.2182759292447615E-002   1462680653.3472869     
  -3.0415459528266228E-003  -1.9620831973806502E-002   1468124301.4663658     
  -3.2818070605389448E-003  -1.7348119278111866E-002   1478200052.4038856     
  -261144853.58906677        14312462.835964069        1445384718.7969143     
  -249581182.18151361        13558923.595634416        1442016836.6378312     
  -237959632.73739234        12998311.143864289        1443085877.1838212     
  -226280205.25670627        12630625.480645150        1448591840.4348886     
  -214542899.73945102        12455866.605987474        1458534726.3910344     
  -520813983.66829973        29067642.752134830        1423421917.2775991     
  -498244298.31995684        27393267.028355658        1420574234.8533254     
  -475558856.89840096        26104744.881953269        1421968295.0207646     
  -452757659.40362710        25202076.312944263        1427604097.7799156     
  -429840705.83564013        24685261.321312100        1437481643.1307743     
  -779007390.24051607        44265539.720414698        1399801261.0065069     
  -745989348.41814530        41503030.273149103        1397541302.6931400     
  -712797672.48591352        39319301.192087770        1399327906.8581138     
  -679432362.44381046        37714352.477262944        1405161073.5014346     
  -645893418.29184949        36688184.128633142        1415040802.6231031     
  -1035725073.3057197        59906153.740791738        1374522749.9836485     
  -992816332.47607803        55888213.330019236        1372918040.1572714     
  -949676079.49992466        52641980.074283540        1375164712.6958728     
  -906304314.37725580        50167453.973600745        1381262767.5994551     
  -862701037.10807526        48464635.027955949        1391212204.8680205     
  -3.2818070605389448E-003  -1.7348119278111866E-002   1478200052.4038856     
  -3.2999244362704652E-003  -1.5185288923738391E-002   1486249869.8434832     
  -3.3486491967605388E-003  -1.3122401517055588E-002   1499210106.2058828     
  -3.4141416799920326E-003  -1.1114712630120462E-002   1517080761.4910810     
  -3.5148623938125942E-003  -9.2279206254341807E-003   1539861835.6990864     
  -214542899.73945102        12455866.605987474        1458534726.3910344     
  -202045584.74769968        11941562.510340109        1466023860.1698842     
  -189980355.30678961        9986973.2452233732        1478334579.8114030     
  -178347211.41671944        6592098.8106395453        1495466885.3155913     
  -167146153.07749620        1756939.2065659091        1517420776.6824470     
  -429840705.83564013        24685261.321312100        1437481643.1307743     
  -405099884.59535009        23580510.504903644        1443905993.4395895     
  -381223234.45672059        19595189.349622563        1455063096.5509436     
  -358210755.41974652        12729297.855490685        1470952952.4648323     
  -336062447.48443627        2982836.0224821121        1491575561.1812608     
  -645893418.29184949        36688184.128633142        1415040802.6231031     
  -609162899.54625440        34916843.968491018        1419896269.6525998     
  -573728637.45314050        28824648.300078183        1429395656.4245024     
  -539590632.01249993        18411597.123420596        1443538962.9388132     
  -506748883.22433484        3677690.4385124743        1462326189.1955249     
  -862701037.10807526        48464635.027955949        1391212204.8680205     
  -814234629.60041857        45950562.901083708        1393994688.8089156     
  -767496564.29605448        37675350.096573919        1401332259.4320838     
  -722486841.19497991        23638996.614431232        1413224916.7375231     
  -679205460.29719734        3841502.4546469450        1429672660.7252383     
  -3.5148623938125942E-003  -9.2279206254341807E-003   1539861835.6990864     
  -3.3217018879073434E-003  -7.4113792026563570E-003   1541503173.6132815     
  -3.1966187938417454E-003  -5.8217624860107094E-003   1549071105.4654753     
  -3.1414660250428869E-003  -4.4662876876731131E-003   1562565631.2556713     
  -3.1594690234023649E-003  -3.3525837783587985E-003   1581986750.9838700     
  -167146153.07749620        1756939.2065659091        1517420776.6824470     
  -153214700.59624138       -2339344.7787011191        1518568057.6557107     
  -138904069.78864732       -5171701.0095029846        1525450542.9041920     
  -124214260.65470450       -6740129.4858101904        1538068232.4278953     
  -109145273.19440940       -7044630.2076083608        1556421126.2268155     
  -336062447.48443627        2982836.0224821121        1491575561.1812608     
  -308746370.13007772       -5373780.2322958112        1492671159.9277439     
  -280671936.12295055       -11202540.977846622        1499310573.2866695     
  -251839145.46305966       -14503446.214181744        1511493801.2580333     
  -222247998.15040433       -15276495.941304296        1529220843.8418367     
  -506748883.22433484        3677690.4385124743        1462326189.1955249     
  -466595008.60481519       -9103306.3681492209        1463812480.4293859     
  -425303599.00610638       -18092519.910849363        1470651196.6129084     
  -382874654.42821127       -23289950.189593881        1482842337.7460873     
  -339308174.87113976       -24695597.204417393        1500385903.8289282     
  -679205460.29719734        3841502.4546469450        1429672660.7252383     
  -626760616.02045524       -13527923.186266690        1431992019.1606328     
  -572799058.43810797       -25841637.808492512        1439472412.8829088     
  -517320787.55016053       -33099641.412051961        1452113841.8920555     
  -460325803.35661256       -35301933.996945024        1469916306.1880879     
  -3.1594690234023649E-003  -3.3525837783587985E-003   1581986750.9838700     
  -2.7931869271736972E-003  -2.2801357871401876E-003   1580062569.5311692     
  -2.4707342399116873E-003  -1.3523980470296550E-003   1582681451.1969113     
  -2.1701047552353729E-003  -4.9740431553810585E-004   1589843395.9810901     
  -1.9170562573287079E-003   1.9759834794049662E-004   1601548403.8837090     
  -109145273.19440940       -7044630.2076083608        1556421126.2268155     
  -96867110.499768853       -6708234.7330970503        1553599658.3649163     
  -83993525.938474268       -4387099.7030729465        1555602238.1939881     
  -70524519.510538891       -81225.117579571903        1562428865.7140460     
  -56460091.215960085        6209389.0233926065        1574079540.9250739     
  -222247998.15040433       -15276495.941304296        1529220843.8418367     
  -196888859.69708002       -14362861.073979639        1526196748.4151926     
  -170338877.51043484       -9479747.0955881029        1528277685.2520611     
  -142598051.59046635       -627154.00611624122        1535463654.3524501     
  -113666381.93717052        12194918.194444053        1547754655.7163448     
  -339308174.87113976       -24695597.204417393        1500385903.8289282     
  -300065247.59474635       -22963879.024989605        1497853839.6819973     
  -259036054.71834740       -15277942.178878441        1500707792.3711226     
  -216220596.24195263       -1637786.6661137789        1508947761.8962982     
  -171618872.16555408        17956587.513330244        1522573748.2575250     
  -460325803.35661256       -35301933.996945024        1469916306.1880879     
  -406396274.19275635       -32511288.586092681        1468570932.1653388     
  -350085057.56222075       -21781684.952975348        1472892559.5511737     
  -291392153.46500206       -3113123.0975814909        1482881188.3456051     
  -230317561.90110096        23494396.980087399        1498536818.5486193     
  -1.9170562573287079E-003   1.9759834794049662E-004   1601548403.8837090     
  -1.5264346563294119E-003   8.8765990894686619E-004   1572700619.4338677     
  -1.1564009822977524E-003   1.5049317103854351E-003   1547016583.6001194     
  -7.7838376769753153E-004   2.1512439265855771E-003   1524496296.3824685     
  -4.2209825378537204E-004   2.7244232511017905E-003   1505139757.7809079     
  -56460091.215960085        6209389.0233926065        1574079540.9250739     
  -46087965.934766144        14019454.550623793        1545558065.4990702     
  -34579080.790372662        25618719.621851366        1520049076.5514705     
  -21933435.782766931        41007184.237119094        1497552574.0822637     
  -8151030.9119678698        60184848.396368019        1478068558.0914636     
  -113666381.93717052        12194918.194444053        1547754655.7163448     
  -93354308.911445245        27685395.987328108        1520885709.1545999     
  -70768716.159304589        50754272.868263111        1496877986.9335582     
  -45909603.680746540        81401548.837256327        1475731489.0532255     
  -18776971.475770965        119627223.89430778        1457446215.5135915     
  -171618872.16555408        17956587.513330244        1522573748.2575250     
  -141799028.93155640        40997824.311026126        1498683550.4004512     
  -108568906.10794474        75406659.740765721        1477503314.7463818     
  -71928503.694699436        121183093.80261821        1459033041.2953267     
  -31877821.691815197        178327126.49660185        1443272730.0472813     
  -230317561.90110096        23494396.980087399        1498536818.5486193     
  -191422125.99512050        53956739.521644950        1478951589.2366271     
  -147979650.63629135        99575880.239364728        1461925059.9899509     
  -99990135.824632093        160351819.13318494        1447457230.8085911     
  -47453581.560118943        236284556.20318475        1435548101.6925409     
  -4.2209825378537204E-004   2.7244232511017905E-003   1505139757.7809079     
  -3.8549749473179530E-004   3.3016172213766932E-003   1397470648.9756029     
  -2.6654502780767151E-004   4.1533168845534199E-003   1286953698.2111685     
  -8.6263413994398493E-005   5.2091000926654495E-003   1173588905.4876108     
   1.8062474592940017E-004   6.5556534559837367E-003   1057376270.8049208     
  -8151030.9119678698        60184848.396368019        1478068558.0914636     
  -8849986.1119635142        79600193.246595755        1370971243.7381158     
  -7664543.7824745551        105296863.19510341        1261703649.3016458     
  -4594703.9235090613        137274858.24186441        1150265774.7820554     
   359533.46493466944        175534178.38689181        1036657620.1793504     
  -18776971.475770965        119627223.89430778        1457446215.5135915     
  -18238990.801475555        159038680.91651967        1353119159.3964951     
  -13932215.068305671        211012788.13498157        1247299385.0722969     
  -5856644.2762539387        275549545.54971689        1139986892.5409815     
   5987721.5746815801        352648953.16072577        1031181681.8025390     
  -31877821.691815197        178327126.49660185        1443272730.0472813     
  -28167014.068930849        238315463.01305562        1343914395.9507489     
  -18803013.857765883        317147774.82377678        1243740905.5231185     
  -3785821.0583185256        414824061.92876989        1142752258.7643957     
   16884564.329414576        531344324.32805562        1040948455.6745379     
  -47453581.560118943        236284556.20318475        1435548101.6925409     
  -38634055.914326087        317430539.53620297        1343356953.4008811     
  -22276940.150860250        423701823.26146352        1251028210.6541212     
   1617765.7302981019        555098407.37902606        1158561873.4522619     
   33050061.729140759        711620291.88888335        1065957941.7953010     
  -1632845494.8463371        182785498.19705951        1525647100.9613008     
  -1538685581.5975668        109028401.68849528        1483528778.7203538     
  -1435789446.9419208        64392043.202851057        1442803691.3209140     
  -1324157090.8793962        48876422.740136683        1403471838.7629929     
  -1203788513.4099979        62481540.300334275        1365533221.0465844     
  -2046131523.6891716        39825779.750250340        1496635008.2049863     
  -1917750136.2669308        32949458.321507812        1434690642.8565884     
  -1787303263.3332164        32958088.597663045        1382243228.5509272     
  -1654790904.8880377        39851670.578711867        1339292765.2880027     
  -1520213060.9313893        53630204.264654756        1305839253.0678148     
  -2545642972.2760768       -129001564.61978698        1493288921.4496248     
  -2359886635.8197298       -62051068.510511756        1403735987.7824719     
  -2178735549.7473164       -10451407.014372110        1331783721.3592777     
  -2002189714.0588436        25797419.868639231        1277432122.1800442     
  -1830249128.7543132        46695412.138513803        1240681190.2447667     
  -3131379840.6070571       -323696534.91304326        1515608840.6952224     
  -2865095080.2559614       -175973178.80756032        1390664813.4980032     
  -2610086306.1842155       -65836443.633244157        1291425169.7459638     
  -2366353518.3918157        6713670.6099176407        1217889909.4391062     
  -2133896716.8787658        41677163.921916842        1170059032.5774310     
  -3803342128.6821055       -544259131.12952006        1563594765.9417717     
  -3433375469.5756330       -308816872.56964087        1395477120.0031805     
  -3081355532.6439180       -133197021.25895965        1261167573.7109873     
  -2747282317.8869562       -17399577.197458267        1160666127.0652006     
  -2431155825.3047523        38575459.614856243        1093972780.0658162     
  -1203788513.4099979        62481540.300334275        1365533221.0465844     
  -1160785352.2051499        65128697.589711905        1359712695.7955813     
  -1118440391.7861495        65581852.259593725        1359270775.5347576     
  -1076753632.1530097        63841004.309944689        1364207460.2641113     
  -1035725073.3057197        59906153.740791738        1374522749.9836485     
  -1520213060.9313893        53630204.264654756        1305839253.0678148     
  -1467183870.5751886        46916009.766291261        1301751236.2464435     
  -1413601351.7332072        42046243.553866029        1302157256.5023346     
  -1359465504.4054408        39020905.627382755        1307057313.8354867     
  -1304776328.5918911        37839995.986851275        1316451408.2459047     
  -1830249128.7543132        46695412.138513803        1240681190.2447667     
  -1769721246.1408124        29861664.784181833        1239739132.6699340     
  -1707428505.7698905        18910776.621253848        1242406544.2594466     
  -1643370907.6415529        13842747.649716616        1248683425.0133035     
  -1577548451.7557919        14657577.869587123        1258569774.9315078     
  -2133896716.8787658        41677163.921916842        1170059032.5774310     
  -2068397478.9020114        13965662.643408179        1173676385.0660498     
  -1999921853.8962002       -3824548.5382407904        1180018638.8060944     
  -1928469841.8613331       -11693469.623043299        1189085793.7975674     
  -1854041442.7974122       -9641100.6109921932        1200877850.0404739     
  -2431155825.3047523        38575459.614856243        1093972780.0658162     
  -2363212568.8587937       -771996.65604400635        1103562993.4347894     
  -2291081396.1121421       -26159731.924638033        1114993540.1422784     
  -2214762307.0647969       -37587746.190916538        1128264420.1882768     
  -2134255301.7167594       -35056039.454889655        1143375633.5727868     
  -1035725073.3057197        59906153.740791738        1374522749.9836485     
  -992816332.47607803        55888213.330019236        1372918040.1572714     
  -949676079.49992466        52641980.074283540        1375164712.6958728     
  -906304314.37725580        50167453.973600745        1381262767.5994551     
  -862701037.10807526        48464635.027955949        1391212204.8680205     
  -1304776328.5918911        37839995.986851275        1316451408.2459047     
  -1250780831.0225625        37286299.916345596        1313690978.5920916     
  -1196787903.4489284        36724037.193522096        1314807999.9868429     
  -1142797545.8709884        36153207.818387866        1319802472.4301586     
  -1088809758.2887454        35573811.790928543        1328674395.9220343     
  -1577548451.7557919        14657577.869587123        1258569774.9315078     
  -1512391715.4936762        17590470.725289702        1254380529.6176848     
  -1447471631.3694661        19734523.121306777        1254094804.0360084     
  -1382788199.3831606        21089735.057642996        1257712598.1864767     
  -1318341419.5347626        21656106.534287035        1265233912.0690939     
  -1854041442.7974122       -9641100.6109921932        1200877850.0404739     
  -1777648985.8894181       -3199274.2431596518        1194986693.2340577     
  -1701727263.2615342        1673437.8576375246        1193025124.8433745     
  -1626276274.9137721        4977035.6913662553        1194993144.8684185     
  -1551296020.8461201        6711519.2580516934        1200890753.3091984     
  -2134255301.7167594       -35056039.454889655        1143375633.5727868     
  -2046552642.2097907       -25082934.988998055        1135509469.4412055     
  -1959554799.1251414       -17459218.597507477        1131598962.4089363     
  -1873261772.4628177       -12184890.280434966        1131644112.4759839     
  -1787673562.2228236       -9259950.0377941132        1135644919.6423416     
  -862701037.10807526        48464635.027955949        1391212204.8680205     
  -814234629.60041857        45950562.901083708        1393994688.8089156     
  -767496564.29605448        37675350.096573919        1401332259.4320838     
  -722486841.19497991        23638996.614431232        1413224916.7375231     
  -679205460.29719734        3841502.4546469450        1429672660.7252383     
  -1088809758.2887454        35573811.790928543        1328674395.9220343     
  -1028322858.1306871        34472700.630686045        1328206738.8783159     
  -969462914.72782850        27948400.286433995        1332104460.0449505     
  -912229928.08017492        16000910.758175254        1340367559.4219410     
  -856623898.18771565       -1369767.9540730119        1352996037.0092852     
  -1318341419.5347626        21656106.534287035        1265233912.0690939     
  -1246376050.9317758        21805349.079037189        1261634397.0635304     
  -1175936253.6359017        16869353.933410227        1262210551.7964001     
  -1107022027.6471448        6848121.0973933339        1266962376.2677066     
  -1039633372.9654980       -8258349.4289888740        1275889870.4774530     
  -1551296020.8461201        6711519.2580516934        1200890753.3091984     
  -1468394208.0036879        7948508.2461473346        1194277663.3645551     
  -1386916581.0202780        4438211.0374892950        1191650534.6864307     
  -1306863139.8958943       -3819372.3679191470        1193009367.2748249     
  -1228233884.6305366       -16824241.970079839        1198354161.1297431     
  -1787673562.2228236       -9259950.0377941132        1135644919.6423416     
  -1694377329.3464205       -7097821.8679955006        1126136537.7813945     
  -1602403896.8809524       -9345028.4013144374        1120424408.7150457     
  -1511753264.8264294       -16001569.637782216        1118508532.4432988     
  -1422425433.1828332       -27067445.577341676        1120388908.9661591     
  -679205460.29719734        3841502.4546469450        1429672660.7252383     
  -626760616.02045524       -13527923.186266690        1431992019.1606328     
  -572799058.43810797       -25841637.808492512        1439472412.8829088     
  -517320787.55016053       -33099641.412051961        1452113841.8920555     
  -460325803.35661256       -35301933.996945024        1469916306.1880879     
  -856623898.18771565       -1369767.9540730119        1352996037.0092852     
  -790490185.57223046       -16303157.046323329        1354737859.4662924     
  -723204910.83684576       -27398005.738905460        1361286383.0780714     
  -654768073.98157573       -34654314.031870365        1372641607.8446248     
  -585179675.00641286       -38072081.925189108        1388803533.7659459     
  -1039633372.9654980       -8258349.4289888740        1275889870.4774530     
  -960823175.24585223       -21059416.942927241        1276628147.2394097     
  -881226566.59202456       -31239114.676257372        1281818791.0240314     
  -800843547.00401831       -38797442.628996998        1291461801.8313196     
  -719674116.48183286       -43734400.801132470        1305557179.6612730     
  -1228233884.6305366       -16824241.970079839        1198354161.1297431     
  -1137759585.0413191       -27796702.876088083        1197662882.4799864     
  -1046864025.7036368       -37364964.620539308        1201069636.7207851     
  -955547206.61748850       -45529027.203438491        1208574423.8521459     
  -863809127.78286529       -52288890.624759525        1220177243.8740640     
  -1422425433.1828332       -27067445.577341676        1120388908.9661591     
  -1321299414.9586382       -36515014.845807791        1117842065.1880195     
  -1220117288.1716866       -45775555.571749330        1119038920.1683352     
  -1118879052.8219790       -54849067.755170405        1123979473.9070992     
  -1017584708.9095125       -63735551.396064371        1132663726.4043183     
  -460325803.35661256       -35301933.996945024        1469916306.1880879     
  -406396274.19275635       -32511288.586092681        1468570932.1653388     
  -350085057.56222075       -21781684.952975348        1472892559.5511737     
  -291392153.46500206       -3113123.0975814909        1482881188.3456051     
  -230317561.90110096        23494396.980087399        1498536818.5486193     
  -585179675.00641286       -38072081.925189108        1388803533.7659459     
  -516752921.97723234       -36368703.103019878        1386939549.0689111     
  -445871374.69479823       -26482676.769990876        1390811181.3032324     
  -372535033.15908670       -8414002.9260425121        1400418430.4689074     
  -296743897.37012154        17837318.428747371        1415761296.5659304     
  -719674116.48183286       -43734400.801132470        1305557179.6612730     
  -636554095.23657370       -43059475.262408376        1303259875.5409667     
  -550906172.95147240       -33958212.924202949        1306766803.8747795     
  -462730349.62652254       -16430613.786509037        1316077964.6627123     
  -372026625.26173496        9523322.1506494880        1331193357.9047635     
  -863809127.78286529       -52288890.624759525        1220177243.8740640     
  -765799793.97077131       -52583605.064246267        1217531911.5814996     
  -665189452.33225679       -44208293.415657640        1220759427.2658167     
  -561978102.86732495       -27162955.679012120        1229859790.9270179     
  -456165745.57595134       -1447591.8542326391        1244833002.5650959     
  -1017584708.9095125       -63735551.396064371        1132663726.4043183     
  -904490018.17983532       -64941092.508554012        1129755657.1905129     
  -788721212.83715534       -57232918.244364917        1132789051.4763448     
  -670278292.88145971       -40611028.603462845        1141763909.2618256     
  -549161258.31276882       -15075423.585901767        1156680230.5469513     
  -230317561.90110096        23494396.980087399        1498536818.5486193     
  -191422125.99512050        53956739.521644950        1478951589.2366271     
  -147979650.63629135        99575880.239364728        1461925059.9899509     
  -99990135.824632093        160351819.13318494        1447457230.8085911     
  -47453581.560118943        236284556.20318475        1435548101.6925409     
  -296743897.37012154        17837318.428747371        1415761296.5659304     
  -249332995.52038795        48957530.498293296        1400084670.0463159     
  -195552957.66248009        101308195.92842719        1388247885.8347392     
  -135403783.79639691        174889314.71914190        1380250943.9311888     
  -68885473.922141105        269700886.87042570        1376093844.3356779     
  -372026625.26173496        9523322.1506494880        1331193357.9047635     
  -312439851.06048405        42399525.670504704        1321551113.4920731     
  -244661844.29572317        102579837.73539248        1317029853.6301422     
  -168692604.96746075        190064258.34528890        1317629578.3189614     
  -84532133.075684085        304852787.50022709        1323350287.5585406     
  -456165745.57595134       -1447591.8542326391        1244833002.5650959     
  -380742692.61540782        34282725.038271964        1243350919.5738971     
  -295306310.53603286        103390805.66022824        1248270963.3761716     
  -199856599.33781427        205876650.01165909        1259593133.9719188     
  -94393559.020754546        341740258.09255522        1277317431.3611445     
  -549161258.31276882       -15075423.585901767        1156680230.5469513     
  -454241520.18516916        24607128.601571292        1165484088.2917931     
  -347486356.38340211        103741099.70294945        1181971215.0728233     
  -228895766.90745854        222326489.71823967        1206141610.8900483     
  -98469751.757345438        380363298.64743394        1237995275.7434616     
  -47453581.560118943        236284556.20318475        1435548101.6925409     
  -38634055.914326087        317430539.53620297        1343356953.4008811     
  -22276940.150860250        423701823.26146352        1251028210.6541212     
   1617765.7302981019        555098407.37902606        1158561873.4522619     
   33050061.729140759        711620291.88888335        1065957941.7953010     
  -68885473.922141105        269700886.87042570        1376093844.3356779     
  -55232447.711447537        371590663.64746296        1295034471.2205033     
  -32824740.107959569        502662711.73380184        1213043740.6617391     
  -1662351.1116717160        662917031.12947488        1130121652.6593659     
   38254719.277397841        852353621.83443081        1046268207.2133992     
  -84532133.075684085        304852787.50022709        1323350287.5585406     
  -68313500.552950740        426805989.44541168        1254842629.4408290     
  -42123095.362308025        581998433.61695790        1184609850.8910141     
  -5960917.5037567317        770430120.01486564        1112651951.9091072     
   40173033.022692204        992101048.63910294        1038968932.4950948     
  -94393559.020754546        341740258.09255522        1277317431.3611445     
  -77877214.438840032        483076516.93004972        1222781428.0618429     
  -50172005.913908482        661708988.91094220        1165726541.3419540     
  -11277933.445960701        877637674.03521264        1106152771.2014627     
   38805002.965004563        1130862572.3028803        1044060117.6403588     
  -98469751.757345438        380363298.64743394        1237995275.7434616     
  -83923589.369115293        540402246.10137188        1198850867.0835528     
  -56971471.762754858        741794377.61574435        1156393812.0145354     
  -17613398.938257575        984539693.19055629        1110624110.5364232     
   34150629.104345143        1268638192.8257525        1061541762.6491959     
  -3803342128.6821055       -544259131.12952006        1563594765.9417717     
  -3433375469.5756330       -308816872.56964087        1395477120.0031805     
  -3081355532.6439180       -133197021.25895965        1261167573.7109873     
  -2747282317.8869562       -17399577.197458267        1160666127.0652006     
  -2431155825.3047523        38575459.614856243        1093972780.0658162     
  -4285300188.9913440       -317539856.81105554        1379401339.0069270     
  -3898253780.7586422       -236246497.22213936        1263674690.2147956     
  -3512586737.6042428       -159551021.22756112        1162851033.1743553     
  -3128299059.5281515       -87453428.827336192        1076930367.8856003     
  -2745390746.5303636       -19953720.021465182        1005912694.3485317     
  -4558352243.6107388       -28148780.785642624        1124284842.0829325     
  -4208240680.2367139       -117208698.36314344        1080277773.7164643     
  -3842941124.8445368       -155641975.88015389        1032268589.2069681     
  -3462453577.4342136       -143448613.33667421        980257288.55443978     
  -3066778038.0057449       -80628610.732710838        924243871.75888205     
  -4622498292.5403061        323914096.94671917        798245275.16979468     
  -4363336168.0098495        48296524.007330418        845286370.50818348     
  -4072418694.3648000       -121469885.21673989        869420241.80882120     
  -3749745871.6051550       -185385130.72548294        870646889.07171261     
  -3395317699.7309027       -143449212.51888978        848966312.29685855     
  -4477738335.7800226        738648776.38603973        401282638.26751685     
  -4363540244.0780516        260269169.88928080        558700480.58994985     
  -4201019446.1650295       -57034749.237313509        674305990.97991931     
  -3990175942.0409603       -213262980.99374032        748099169.43742764     
  -3731009731.7058396       -208415525.38000560        780080015.96247244     
  -2431155825.3047523        38575459.614856243        1093972780.0658162     
  -2363212568.8587937       -771996.65604400635        1103562993.4347894     
  -2291081396.1121421       -26159731.924638033        1114993540.1422784     
  -2214762307.0647969       -37587746.190916538        1128264420.1882768     
  -2134255301.7167594       -35056039.454889655        1143375633.5727868     
  -2745390746.5303636       -19953720.021465182        1005912694.3485317     
  -2668066644.3623028       -41801932.639605284        1016890831.1541317     
  -2587828666.0226049       -53937224.685604215        1029206382.7952726     
  -2504676811.5112600       -56359596.159444809        1042859349.2719563     
  -2418611080.8282666       -49069047.061132193        1057849730.5841825     
  -3066778038.0057449       -80628610.732710838        924243871.75888205     
  -2981510000.1240788       -85408652.700649738        935123551.85055220     
  -2894602126.1998205       -84722574.526600003        946837728.27479184     
  -2806054416.2329559       -78570376.210536122        959386401.03160465     
  -2715866870.2234912       -66952057.752481699        972769570.12098897     
  -3395317699.7309027       -143449212.51888978        848966312.29685855     
  -3303542636.1441197       -131592156.83917880        858261155.52404892     
  -3211401776.6437812       -118515781.44761765        867887576.58083713     
  -3118895121.2298861       -104220086.34420133        877845575.46722794     
  -3026022669.9024391       -88705071.528957367        888135152.18321896     
  -3731009731.7058396       -208415525.38000560        780080015.96247244     
  -3634164552.4224157       -180352445.05516958        786303642.17462325     
  -3538227617.3544898       -155316845.44866109        792355927.71340287     
  -3443198926.5020523       -133308726.56043923        798236872.57881558     
  -3349078479.8651080       -114328088.39053941        803946476.77086103     
  -2134255301.7167594       -35056039.454889655        1143375633.5727868     
  -2046552642.2097907       -25082934.988998055        1135509469.4412055     
  -1959554799.1251414       -17459218.597507477        1131598962.4089363     
  -1873261772.4628177       -12184890.280434966        1131644112.4759839     
  -1787673562.2228236       -9259950.0377941132        1135644919.6423416     
  -2418611080.8282666       -49069047.061132193        1057849730.5841825     
  -2318648324.9631295       -34739835.483795762        1044718470.6443383     
  -2219707431.0337863       -23816830.359097958        1036057141.4703614     
  -2121788399.0402377       -16300031.687049389        1031865743.0622478     
  -2024891228.9824812       -12189439.467647314        1032144275.4200028     
  -2715866870.2234912       -66952057.752481699        972769570.12098897     
  -2602174664.6671877       -47825933.063810945        954003327.94050562     
  -2489821366.5601406       -33162833.206000447        940221290.19243932     
  -2378806975.9023571       -22962758.179067016        931423456.87679195     
  -2269131492.6938362       -17225707.983009696        927609827.99356019     
  -3026022669.9024391       -88705071.528957367        888135152.18321896     
  -2897131661.3219543       -64341227.729036093        863364041.32971215     
  -2769896605.7042031       -45497227.138219118        844091408.57517588     
  -2644317503.0491772       -32173069.756494880        830317253.91960776     
  -2520394353.3568835       -24368755.583879709        822041577.36301172     
  -3349078479.8651080       -114328088.39053941        803946476.77086103     
  -3203519314.9274435       -84285719.479484558        772800610.81195271     
  -3059933148.4659719       -60820012.155740619        747667496.61856687     
  -2918319980.4807014       -43930966.419334888        728547134.19070601     
  -2778679810.9716315       -33618582.270263553        715439523.52836442     
  -1787673562.2228236       -9259950.0377941132        1135644919.6423416     
  -1694377329.3464205       -7097821.8679955006        1126136537.7813945     
  -1602403896.8809524       -9345028.4013144374        1120424408.7150457     
  -1511753264.8264294       -16001569.637782216        1118508532.4432988     
  -1422425433.1828332       -27067445.577341676        1120388908.9661591     
  -2024891228.9824812       -12189439.467647314        1032144275.4200028     
  -1921338520.6931338       -9518319.9953998327        1018770662.7742844     
  -1819029533.4679704       -10992937.403767824        1009372934.2741237     
  -1717964267.3069987       -16613291.692771673        1003951089.9195274     
  -1618142722.2102091       -26379382.862384498        1002505129.7104831     
  -2269131492.6938362       -17225707.983009696        927609827.99356019     
  -2154809076.5602360       -13891627.478917480        910463243.80094802     
  -2041651302.1440687       -14439686.032942057        897472175.10485160     
  -1929658169.4453416       -18869883.645093083        888636621.90527046     
  -1818829678.4640462       -27182220.315355659        883956584.20221078     
  -2520394353.3568835       -24368755.583879709        822041577.36301172     
  -2394788996.9477243       -20217744.318559289        801214280.86138284     
  -2270269202.9092488       -19685274.288835764        784722131.20722568     
  -2146834971.2414558       -22771345.494745970        772565128.40054440     
  -2024486301.9443545       -29475957.936269760        764743272.44133687     
  -2778679810.9716315       -33618582.270263553        715439523.52836442     
  -2641278281.8556046       -28496670.514312148        691023773.95559108     
  -2504883235.7635088       -26729702.171462655        671122802.58124745     
  -2369494672.6953497       -28317677.241735101        655736609.40533710     
  -2235112592.6511307       -33260595.725131035        644865194.42785966     
  -1422425433.1828332       -27067445.577341676        1120388908.9661591     
  -1321299414.9586382       -36515014.845807791        1117842065.1880195     
  -1220117288.1716866       -45775555.571749330        1119038920.1683352     
  -1118879052.8219790       -54849067.755170405        1123979473.9070992     
  -1017584708.9095125       -63735551.396064371        1132663726.4043183     
  -1618142722.2102091       -26379382.862384498        1002505129.7104831     
  -1507335147.3180692       -34359949.827078044        998206964.99488163     
  -1396279643.4938536       -41514087.018171847        997273913.81067967     
  -1284976210.7375600       -47841794.435672343        999705976.15787375     
  -1173424849.0491776       -53343072.079556227        1005503152.0364795     
  -1818829678.4640462       -27182220.315355659        883956584.20221078     
  -1699422218.9812589       -34020286.599480689        878130888.98001647     
  -1579575010.1970696       -39392521.878922224        875291722.06217468     
  -1459288052.1114755       -43298926.153687894        875439083.44868112     
  -1338561344.7244704       -45739499.423746407        878572973.13954341     
  -2024486301.9443545       -29475957.936269760        764743272.44133687     
  -1897560629.9482067       -35496025.163015127        757613837.14343750     
  -1770003388.2813237       -39410860.153970838        753092344.92283380     
  -1641814576.9437175       -41220462.909184873        751178795.77952659     
  -1512994195.9353795       -40924833.428626537        751873189.71352959     
  -2235112592.6511307       -33260595.725131035        644865194.42785966     
  -2101750380.2189057       -38787165.517664909        636655809.48512685     
  -1967564777.7466249       -41569101.843341947        630675782.39264357     
  -1832555785.2343001       -41606404.702202797        626925113.15040934     
  -1696723402.6819065       -38899074.094171941        625403801.75842333     
  -1017584708.9095125       -63735551.396064371        1132663726.4043183     
  -904490018.17983532       -64941092.508554012        1129755657.1905129     
  -788721212.83715534       -57232918.244364917        1132789051.4763448     
  -670278292.88145971       -40611028.603462845        1141763909.2618256     
  -549161258.31276882       -15075423.585901767        1156680230.5469513     
  -1173424849.0491776       -53343072.079556227        1005503152.0364795     
  -1046042447.5689512       -51254882.511940777        1001022764.7970425     
  -917035345.16985416       -43751023.214758337        1000831369.0937461     
  -786403541.85187519       -30831494.187959909        1004928964.9265885     
  -654147037.61502135       -12496295.431584865        1013315552.2955670     
  -1338561344.7244704       -45739499.423746407        878572973.13954341     
  -1201612580.9608541       -41773983.716171980        871295951.89800227     
  -1064088529.9724973       -35890843.926115990        866655450.22908914     
  -925989191.75939357       -28090080.053574681        864651468.13280678     
  -787314566.32154417       -18371692.098552376        865284005.60915542     
  -1512994195.9353795       -40924833.428626537        751873189.71352959     
  -1371200418.3555453       -36498396.121238828        740575218.49338734     
  -1229880767.2450917       -33652380.378465176        730261294.88236880     
  -1089035242.6040328       -32386786.200328946        720931418.88047767     
  -948663844.43234944       -32701613.586799622        712585590.48770595     
  -1696723402.6819065       -38899074.094171941        625403801.75842333     
  -1554805959.7530146       -35428119.727135718        608860564.58320320     
  -1414412056.9876368       -37035632.571811318        591648903.05359745     
  -1275541694.3857770       -43721612.628215849        573768817.16960609     
  -1138194871.9474332       -55486059.896337152        555220306.93123162     
  -549161258.31276882       -15075423.585901767        1156680230.5469513     
  -454241520.18516916        24607128.601571292        1165484088.2917931     
  -347486356.38340211        103741099.70294945        1181971215.0728233     
  -228895766.90745854        222326489.71823967        1206141610.8900483     
  -98469751.757345438        380363298.64743394        1237995275.7434616     
  -654147037.61502135       -12496295.431584865        1013315552.2955670     
  -540535360.53202736        19020333.705143213        1025881321.1265675     
  -416169343.58119148        86384762.401371717        1047026679.2833823     
  -281048986.76251590        189596990.65704179        1076751626.7660234     
  -135174290.07600391        328657018.47218740        1115056163.5744863     
  -787314566.32154417       -18371692.098552376        865284005.60915542     
  -652450035.16993868        5747288.5214174986        880350418.75225985     
  -507912249.95681822        62110449.346414536        904892741.51081240     
  -353701210.68218184        150717790.37648097        938910973.88480806     
  -189816917.34604746        271569311.61154187        982405115.87425387     
  -948663844.43234944       -32701613.586799622        712585590.48770595     
  -789985544.09890652       -15212006.949637622        728891381.16886973     
  -622715075.51028335        30918160.538119942        755569401.75510025     
  -446852438.66646945        105688888.87651050        792619652.24640679     
  -262397633.56748199        209100178.06549084        840042132.64279175     
  -1138194871.9474332       -55486059.896337152        555220306.93123162     
  -953141887.31892848       -43857552.708002359        571504208.37638927     
  -760577820.24158216       -7192104.0235297680        599056660.01625097     
  -560502670.71535766        54510286.157195240        637877661.85081363     
  -352916438.74031854        141249617.83398587        687967213.88008416     
  -98469751.757345438        380363298.64743394        1237995275.7434616     
  -83923589.369115293        540402246.10137188        1198850867.0835528     
  -56971471.762754858        741794377.61574435        1156393812.0145354     
  -17613398.938257575        984539693.19055629        1110624110.5364232     
   34150629.104345143        1268638192.8257525        1061541762.6491959     
  -135174290.07600391        328657018.47218740        1115056163.5744863     
  -126260943.45989662        477829646.16604555        1092689545.1920907     
  -94343032.382076025        703684155.39894783        1071810250.2618129     
  -39420556.842540205        1006220546.1708950        1052418278.7836272     
   38506483.158694565        1385438818.4818618        1034513630.7575514     
  -189816917.34604746        271569311.61154187        982405115.87425387     
  -172822186.89861462        413989879.42634487        989181331.88690686     
  -122224282.74589166        668421026.25880396        1002244841.2128701     
  -38023204.887865841        1034862752.1089376        1021595643.8521451     
   79781046.675456822        1513315056.9767084        1047233739.8047298     
  -262397633.56748199        209100178.06549084        840042132.64279175     
  -223607319.68528414        348882945.88225549        888326227.16799796     
  -140615222.85420203        636004990.19531131        947697584.86772323     
  -13421343.074237764        1070466311.0046382        1018156205.7419682     
   157974319.65461659        1652266908.3102608        1099702089.7907248     
  -352916438.74031854        141249617.83398587        687967213.88008416     
  -278616341.81989622        282508845.53378326        790124231.03536153     
  -149515852.70700988        606436047.20846081        908168481.22636831     
   34385028.598363221        1113031222.8580749        1042099964.4531002     
   273086302.09618241        1802294372.4825482        1191918680.7155552     
  -4477738335.7800226        738648776.38603973        401282638.26751685     
  -4363540244.0780516        260269169.88928080        558700480.58994985     
  -4201019446.1650295       -57034749.237313509        674305990.97991931     
  -3990175942.0409603       -213262980.99374032        748099169.43742764     
  -3731009731.7058396       -208415525.38000560        780080015.96247244     
  -4718499014.6404171        1128826540.3181820        1000845141.1162146     
  -4645883498.7039909        538151360.93979549        893722129.03055179     
  -4517555168.1893463        133185563.48882365        822339215.10730493     
  -4333514023.0964680       -86070852.034723759        786696399.34647310     
  -4093760063.4253716       -119617885.63086677        786793681.74805641     
  -5999272426.5939798        1207000484.3223698        1557704131.9743330     
  -5746661114.7234507        570503243.57225299        1194662058.5756130     
  -5430946879.9075260        144349079.30680847        944912513.43418217     
  -5052129722.1462021       -71462008.473975182        808455496.55005288     
  -4610209641.4394770       -76930019.770098686        785291007.92321110     
  -8320058571.6407223        973170608.39860439        2071859610.8418679     
  -7665873092.1364450        357324817.78664732        1461520269.2251251     
  -6941194581.3195848       -23544201.783383369        1042025885.9605539     
  -6146023039.1901512       -169436450.31149316        813376461.04815888     
  -5280358465.7481356       -80351927.797680616        775571994.48793638     
  -11680857449.780649        427336912.54688644        2543311577.7188268     
  -10403519430.942959       -101383916.41700745        1694296760.9790983     
  -9048298272.4255123       -370494279.78172302        1113679332.6864231     
  -7615193974.2283144       -379994177.54726267        801459292.84080410     
  -6104206536.3513765       -129883609.71367049        757636641.44222629     
  -3731009731.7058396       -208415525.38000560        780080015.96247244     
  -3634164552.4224157       -180352445.05516958        786303642.17462325     
  -3538227617.3544898       -155316845.44866109        792355927.71340287     
  -3443198926.5020523       -133308726.56043923        798236872.57881558     
  -3349078479.8651080       -114328088.39053941        803946476.77086103     
  -4093760063.4253716       -119617885.63086677        786793681.74805641     
  -3987094138.5863104       -109030980.16507006        744489556.66936147     
  -3880716622.0541215       -99405435.722185850        713944155.35122597     
  -3774627513.8288155       -90741252.302237272        695157477.79365444     
  -3668826813.9103789       -83038429.905193329        688129523.99664342     
  -4610209641.4394770       -76930019.770098686        785291007.92321110     
  -4459637072.6621075       -73593519.648530483        695182273.44705033     
  -4308733076.2829981       -69152260.854483843        628762327.16538918     
  -4157497652.3021531       -63606243.387994051        586031169.07821786     
  -4005930800.7195649       -56955467.249021769        566988799.18553841     
  -5280358465.7481356       -80351927.797680616        775571994.48793638     
  -5051793354.6498051       -74040063.505542040        638381792.50769961     
  -4822276980.0411263       -64557320.845569134        536810443.15589017     
  -4591809341.9220800       -51903699.817717314        470857946.43250185     
  -4360390440.2926893       -36079200.422035456        440524302.33753550     
  -6104206536.3513765       -129883609.71367049        757636641.44222629     
  -5763562984.5494232       -110370611.73617578        574088113.85130441     
  -5421348333.3284931       -85620615.695411205        438088503.32272583     
  -5077562582.6886005       -55633621.591439247        349637809.85651439     
  -4732205732.6297312       -20409629.424223661        308736033.45264924     
  -3349078479.8651080       -114328088.39053941        803946476.77086103     
  -3203519314.9274435       -84285719.479484558        772800610.81195271     
  -3059933148.4659719       -60820012.155740619        747667496.61856687     
  -2918319980.4807014       -43930966.419334888        728547134.19070601     
  -2778679810.9716315       -33618582.270263553        715439523.52836442     
  -3668826813.9103789       -83038429.905193329        688129523.99664342     
  -3507897279.8893971       -61130937.201194048        649866385.59900486     
  -3348218225.4233909       -43391709.680442810        619291135.39386344     
  -3189789650.5123620       -29820747.342950821        596403773.38122201     
  -3032611555.1563058       -20418050.188697457        581204299.56108797     
  -4005930800.7195649       -56955467.249021769        566988799.18553841     
  -3824844793.5381927       -41747019.528978109        522451327.09058696     
  -3644286746.9905648       -28298440.588074446        487276879.61511922     
  -3464256661.0766978       -16609730.426375628        461465456.75913459     
  -3284754535.7965689       -6680889.0438063145        445017058.52262843     
  -4360390440.2926893       -36079200.422035456        440524302.33753550     
  -4154361855.8738322       -26133966.462800741        390555435.28671008     
  -3948138713.1675029       -15540204.878650427        351624729.28234202     
  -3741721012.1736870       -4297915.6695566177        323732184.32444352     
  -3535108752.8924150        7592901.1644024849        306877800.41299611     
  -4732205732.6297312       -20409629.424223661        308736033.45264924     
  -4496448466.8963108       -14291778.002674818        254178710.18737021     
  -4259774123.9541798       -5117002.5521130562        212334684.39553374     
  -4022182703.8033714        7114696.9273841381        183203956.07713535     
  -3783674206.4438429        22403320.435949802        166786525.23218846     
  -2778679810.9716315       -33618582.270263553        715439523.52836442     
  -2641278281.8556046       -28496670.514312148        691023773.95559108     
  -2504883235.7635088       -26729702.171462655        671122802.58124745     
  -2369494672.6953497       -28317677.241735101        655736609.40533710     
  -2235112592.6511307       -33260595.725131035        644865194.42785966     
  -3032611555.1563058       -20418050.188697457        581204299.56108797     
  -2885633657.7023916       -16988584.446697474        555800220.37883961     
  -2739326053.4681807       -15793429.437049150        533638364.64591300     
  -2593688742.4536839       -16832585.159776330        514718732.36230457     
  -2448721724.6588907       -20106051.614862204        499041323.52800959     
  -3284754535.7965689       -6680889.0438063145        445017058.52262843     
  -3131836140.7165151       -6034630.5292769670        419016871.16917425     
  -2979251849.0519485       -6502050.0663715601        394986352.51592594     
  -2827001660.8028603       -8083147.6550637484        372925502.56288207     
  -2675085575.9692597       -10777923.295376301        352834321.31003940     
  -3535108752.8924150        7592901.1644024849        306877800.41299611     
  -3379885730.8979836        4365191.2379200459        280673726.32660133     
  -3224660622.5148082        1144435.9405820370        255166766.19128802     
  -3069433427.7428870       -2069364.7276127338        230356920.00707680     
  -2914204146.5822353       -5276210.7666854858        206244187.77394044     
  -3783674206.4438429        22403320.435949802        166786525.23218846     
  -3629782428.2467861        14210880.854936838        140770785.85111058     
  -3475552373.8567677        7146028.5837955475        114179605.67200351     
  -3320984043.2737703        1208763.6225786209        87012984.694868743     
  -3166077436.4978089       -3600914.0287474394        59270922.919716023     
  -2235112592.6511307       -33260595.725131035        644865194.42785966     
  -2101750380.2189057       -38787165.517664909        636655809.48512685     
  -1967564777.7466249       -41569101.843341947        630675782.39264357     
  -1832555785.2343001       -41606404.702202797        626925113.15040934     
  -1696723402.6819065       -38899074.094171941        625403801.75842333     
  -2448721724.6588907       -20106051.614862204        499041323.52800959     
  -2307839324.2196641       -24878491.364274502        487709883.02414382     
  -2166467018.3108206       -28017912.881650329        479759814.66546428     
  -2024604806.9323671       -29524316.166984081        475191118.45197600     
  -1882252690.0843103       -29397701.220293760        474003794.38367784     
  -2675085575.9692597       -10777923.295376301        352834321.31003940     
  -2523391518.1089015       -13808792.177406192        337991759.91284961     
  -2371541039.3493772       -16318258.062232733        327682584.95578516     
  -2219534139.6906896       -18306320.949841857        321906796.43886030     
  -2067370819.1328430       -19772980.840247512        320664394.36205602     
  -2914204146.5822353       -5276210.7666854858        206244187.77394044     
  -2748406961.8866339       -5578067.9571138620        187501440.15123528     
  -2582786840.8623085       -6470137.3851412535        174444093.26361024     
  -2417343783.5092673       -7952419.0507761240        167072147.11105290     
  -2252077789.8275123       -10024912.954032302        165385601.69356900     
  -3166077436.4978089       -3600914.0287474394        59270922.919716023     
  -2982885655.5528426       -186318.70331776142        36238923.739321336     
  -2800204422.8496151        1526449.1496275663        20044339.588936716     
  -2618033738.3881001        1537389.5302087069        10687170.468567289     
  -2436373602.1683240       -153497.56167292595        8167416.3782079304     
  -1696723402.6819065       -38899074.094171941        625403801.75842333     
  -1554805959.7530146       -35428119.727135718        608860564.58320320     
  -1414412056.9876368       -37035632.571811318        591648903.05359745     
  -1275541694.3857770       -43721612.628215849        573768817.16960609     
  -1138194871.9474332       -55486059.896337152        555220306.93123162     
  -1882252690.0843103       -29397701.220293760        474003794.38367784     
  -1741975262.3752601       -29654511.533897161        456989644.59777594     
  -1602030169.9283366       -31019106.054574966        440242622.38498360     
  -1462417412.7435102       -33491484.782234430        423762727.74530524     
  -1323136990.8207893       -37071647.716923773        407549960.67873377     
  -2067370819.1328430       -19772980.840247512        320664394.36205602     
  -1926060401.1365325       -22955654.182431579        304569071.01712084     
  -1783891113.5009201       -23275428.726917982        289676427.17279547     
  -1640862956.2259910       -20732304.473690689        275986462.82907629     
  -1496975929.3117590       -15326281.422794282        263499177.98596948     
  -2252077789.8275123       -10024912.954032302        165385601.69356900     
  -2107061376.0367973       -15331547.672600985        151598843.84124976     
  -1959994887.7053616       -13804600.588774562        139950317.41703954     
  -1810878324.8331990       -5444071.7025283575        130440022.42092754     
  -1659711687.4203358        9750038.9860662222        123067958.85291854     
  -2436373602.1683240       -153497.56167292595        8167416.3782079304     
  -2284978187.0760689       -6782192.0044994354       -1921036.9298536470     
  -2130341492.5416965       -2606621.6402558088       -8935706.8823036328     
  -1972463518.5651789        12373213.531143308       -12876593.479169568     
  -1811344265.1465290        38157313.509628534       -13743696.720414942     
  -1138194871.9474332       -55486059.896337152        555220306.93123162     
  -953141887.31892848       -43857552.708002359        571504208.37638927     
  -760577820.24158216       -7192104.0235297680        599056660.01625097     
  -560502670.71535766        54510286.157195240        637877661.85081363     
  -352916438.74031854        141249617.83398587        687967213.88008416     
  -1323136990.8207893       -37071647.716923773        407549960.67873377     
  -1122601958.5075436       -17244963.495337248        427970236.14334989     
  -918417801.45586216        14745469.854361355        447139341.85538101     
  -710584519.66573834        58899652.332214147        465057277.81484687     
  -499102113.13717914        115217583.93816572        481724044.02173799     
  -1496975929.3117590       -15326281.422794282        263499177.98596948     
  -1316729477.7345650        1967391.3057858944        283550210.14121187     
  -1136695859.1293328        18551620.794474423        289830352.59661043     
  -956875073.49608076        34426407.043244302        282339605.35216355     
  -777267120.83479464        49591750.052129060        261077968.40786368     
  -1659711687.4203358        9750038.9860662222        123067958.85291854     
  -1535524444.9999647        13779511.695432365        138244130.36998370     
  -1415411993.2619877        4226348.7968294621        127129692.23993626     
  -1299374332.2063780       -18909449.709665179        89724644.462761372     
  -1187411461.8331692       -55627883.824173629        26028987.038461328     
  -1811344265.1465290        38157313.509628534       -13743696.720414942     
  -1778986860.3037803        18191397.673514009       -7948003.1703207726     
  -1754566203.8538218       -28230346.138556123       -40962639.214641847     
  -1738082295.7966678       -101107917.92664248       -112787604.85335574     
  -1729535136.1322861       -200441317.69064564       -223422900.08645797     
  -352916438.74031854        141249617.83398587        687967213.88008416     
  -278616341.81989622        282508845.53378326        790124231.03536153     
  -149515852.70700988        606436047.20846081        908168481.22636831     
   34385028.598363221        1113031222.8580749        1042099964.4531002     
   273086302.09618241        1802294372.4825482        1191918680.7155552     
  -499102113.13717914        115217583.93816572        481724044.02173799     
  -389810291.88998467        220959015.17278233        599996123.32628262     
  -231367150.18582711        490538181.26396215        737494095.18457949     
  -23772688.024672389        923955082.21176863        894217959.59663641     
   232973094.59344986        1521209718.0161529        1070167716.5624433     
  -777267120.83479464        49591750.052129060        261077968.40786368     
  -623444548.06645679        122677092.97987959        388874526.17026585     
  -426119726.57665563        340769931.64587414        539235636.00444102     
  -185292656.36535728        703870266.05017424        712161297.91040289     
   99036662.567437649        1211978096.1928005        907651511.88815224     
  -1187411461.8331692       -55627883.824173629        26028987.038461328     
  -979519110.34931207       -12336921.044918060        156759439.56731451     
  -733773581.87950993        157131298.35416466        313393103.68596131     
  -450174876.42368209        452776774.37333775        495929979.39443094     
  -128722993.98186523        874599507.01245391        704370066.69270611     
  -1729535136.1322861       -200441317.69064564       -223422900.08645797     
  -1458033978.7385676       -184083026.90168911       -96349136.482583627     
  -1154328716.0943835       -60377718.611147285        59966498.229138471     
  -818419348.19965792        170674607.18114352        245524004.04870063     
  -450305875.05445361        509073950.47510862        460323380.97609520     
 </DataArray>
 <DataArray  type="Float64" Name="VM" NumberOfComponents="1" format="ascii">
   12689444846.132521     
   10761071984.154181     
   9076203493.5115585     
   7561008958.0734444     
   6181214334.8341427     
   9546993184.9049511     
   8248673983.6594858     
   7160640020.3409786     
   6224603713.0294456     
   5410073080.2078161     
   7208923014.6385489     
   6396071374.4485703     
   5742695519.1240683     
   5208539822.3459768     
   4770255082.1392097     
   5645345181.4264336     
   5173997161.8129025     
   4801712358.8264980     
   4502270139.6100998     
   4259181360.9433064     
   4938248862.6208830     
   4602212205.1175709     
   4333160390.2459965     
   4098168546.2457609     
   3874512200.2441092     
   6181214334.8341427     
   5795122385.6257992     
   5432304673.8591127     
   5086157044.3994598     
   4752216209.1963902     
   5410073080.2078161     
   5135626239.0916710     
   4879723966.9528217     
   4638339870.0775499     
   4408987648.3148451     
   4770255082.1392097     
   4584257150.0300884     
   4411125742.5480423     
   4249080755.7776480     
   4097193519.9931989     
   4259181360.9433064     
   4139672057.3882999     
   4026565209.4068317     
   3919600001.5774560     
   3818782355.4910545     
   3874512200.2441092     
   3799877470.2503786     
   3725200047.1527786     
   3650469547.0822158     
   3575680864.9891882     
   4752216209.1963902     
   4510854827.8034430     
   4273074133.5253963     
   4038231296.1725755     
   3805904952.8483877     
   4408987648.3148451     
   4196240710.9991946     
   3987180176.8681707     
   3781378133.0781274     
   3578605207.5623951     
   4097193519.9931989     
   3910290373.5794358     
   3727038413.5941315     
   3547204650.3082886     
   3370731739.7518320     
   3818782355.4910545     
   3655354733.3919950     
   3495386637.2101431     
   3338804840.5164833     
   3185690669.2089200     
   3575680864.9891882     
   3433845003.1416292     
   3295118333.5745592     
   3159534712.8197603     
   3027265690.4709330     
   3805904952.8483877     
   3645072574.5537701     
   3484747151.9392481     
   3325005945.8794641     
   3165943406.7666192     
   3578605207.5623951     
   3416830940.8686514     
   3255373725.6206994     
   3094231246.0820279     
   2933402066.9044514     
   3370731739.7518320     
   3211893517.8725729     
   3053629851.2035599     
   2895923505.0451994     
   2738766749.8691626     
   3185690669.2089200     
   3033956005.3486323     
   2883609373.6196089     
   2734712464.3021617     
   2587379937.4180126     
   3027265690.4709330     
   2886942492.3397970     
   2749439427.8483996     
   2614991359.8699713     
   2483957880.0169640     
   3165943406.7666192     
   2983452845.3311772     
   2801183113.6497903     
   2618868191.3162122     
   2436337927.2271771     
   2933402066.9044514     
   2764762469.4420972     
   2597192901.4622927     
   2430664473.9592447     
   2265267131.7760921     
   2738766749.8691626     
   2583711620.2690716     
   2430617493.0829163     
   2279672645.6107998     
   2131199651.0074084     
   2587379937.4180126     
   2445998469.9687696     
   2307416932.4230566     
   2171990109.1552262     
   2040206926.5802851     
   2483957880.0169640     
   2356550450.2067590     
   2232600517.7252994     
   2112546102.1699271     
   1996940715.0956213     
   2436337927.2271771     
   2281597077.4794717     
   2129095633.2931674     
   1978804831.4066272     
   1830875945.0270400     
   2265267131.7760921     
   2115794133.4669330     
   1968113780.8370614     
   1822222596.7755799     
   1678200634.5455573     
   2131199651.0074084     
   1986028351.1265230     
   1842016752.7330620     
   1699219756.8808711     
   1557730465.7362604     
   2040206926.5802851     
   1900057468.8965166     
   1760457328.7289948     
   1621583296.1721127     
   1483679832.8833458     
   1996940715.0956213     
   1864330022.7686958     
   1731962682.4104285     
   1600244175.2325006     
   1469769059.4917705     
   1830875945.0270400     
   1788204950.7254519     
   1742068115.2988021     
   1701053240.5985947     
   1683612658.5790222     
   1678200634.5455573     
   1560935069.7405074     
   1434530192.5814509     
   1299350724.1601403     
   1161473107.2234600     
   1557730465.7362604     
   1406262093.3946621     
   1251205054.8183322     
   1090359487.8793955     
   921756297.70188177     
   1483679832.8833458     
   1338151293.8774540     
   1207084074.1366363     
   1095028549.7419941     
   1007996782.9189366     
   1469769059.4917705     
   1359577747.8040903     
   1284393568.1666672     
   1252338416.9734764     
   1270530378.0334971     
   1683612658.5790222     
   1385351870.1477137     
   1130138249.0778146     
   1009687853.4961716     
   1151895613.3755198     
   1161473107.2234600     
   1010567267.8830054     
   986437236.88845766     
   1161607760.2236509     
   1543530546.0143752     
   921756297.70188177     
   966377426.14527035     
   1146837465.0333211     
   1477061222.1536658     
   1957080146.9351482     
   1007996782.9189366     
   1169142032.5504932     
   1428056549.2375510     
   1809723821.0168521     
   2334465968.5190148     
   1270530378.0334971     
   1452253006.9608681     
   1719040849.7651639     
   2111792184.5109031     
   2663206648.4440522     
   4938248862.6208830     
   4602212205.1175709     
   4333160390.2459965     
   4098168546.2457609     
   3874512200.2441092     
   4988114846.8376493     
   4625504965.3042326     
   4286297632.5295110     
   3959026728.3976293     
   3636472976.2106576     
   4943996833.6755943     
   4553107213.1713018     
   4170255781.6952095     
   3794099520.5089054     
   3424476406.4238806     
   4776203494.8723125     
   4372855738.9787874     
   3982455635.9915514     
   3605504081.3777604     
   3243203476.4713125     
   4475054350.9157572     
   4082305706.1522117     
   3724741190.1631646     
   3397278161.1657023     
   3097760319.4883032     
   3874512200.2441092     
   3799877470.2503786     
   3725200047.1527786     
   3650469547.0822158     
   3575680864.9891882     
   3636472976.2106576     
   3564523359.0443206     
   3493741848.9633136     
   3424201461.3579154     
   3355981283.7375817     
   3424476406.4238806     
   3356399549.8763671     
   3290921799.4937186     
   3228143234.0020661     
   3168189462.2926512     
   3243203476.4713125     
   3179779483.8161707     
   3120574220.8597999     
   3065629890.8588066     
   3015053324.2820482     
   3097760319.4883032     
   3039161675.6726356     
   2986542483.1670375     
   2939775297.1284585     
   2898858326.8443174     
   3575680864.9891882     
   3433845003.1416292     
   3295118333.5745592     
   3159534712.8197603     
   3027265690.4709330     
   3355981283.7375817     
   3232228186.9150844     
   3112209104.0136347     
   2996106569.9332185     
   2884236419.4893994     
   3168189462.2926512     
   3062599536.8624854     
   2961382937.7226310     
   2864834186.4110909     
   2773363848.9563456     
   3015053324.2820482     
   2927643676.8195925     
   2845179278.4767556     
   2768015032.1752167     
   2696593443.3024330     
   2898858326.8443174     
   2829455528.8403974     
   2765410670.1713777     
   2707081055.7662406     
   2654877943.4146929     
   3027265690.4709330     
   2886942492.3397970     
   2749439427.8483996     
   2614991359.8699713     
   2483957880.0169640     
   2884236419.4893994     
   2759137335.6662483     
   2637647694.7068000     
   2520139527.8760958     
   2407122091.6344357     
   2773363848.9563456     
   2664637176.7531686     
   2560358696.6632748     
   2461005777.2544727     
   2367187819.2502093     
   2696593443.3024330     
   2605192005.3370080     
   2519026393.6413460     
   2438624521.4428067     
   2364623805.2142429     
   2654877943.4146929     
   2581373477.4374709     
   2513734997.0349612     
   2452477842.9702048     
   2398195000.1171126     
   2483957880.0169640     
   2356550450.2067590     
   2232600517.7252994     
   2112546102.1699271     
   1996940715.0956213     
   2407122091.6344357     
   2292722536.8498836     
   2183151871.5803595     
   2079035022.4237638     
   1981122692.7510390     
   2367187819.2502093     
   2268197522.6782084     
   2175498181.2495513     
   2089830513.9279144     
   2012035003.9098291     
   2364623805.2142429     
   2282695627.4027877     
   2208397782.3642397     
   2142478295.8159423     
   2085734172.8247716     
   2398195000.1171126     
   2334016039.0726895     
   2278524602.9443779     
   2232379639.6244903     
   2196239032.7924767     
   1996940715.0956213     
   1864330022.7686958     
   1731962682.4104285     
   1600244175.2325006     
   1469769059.4917705     
   1981122692.7510390     
   1864626253.9582231     
   1752767938.2558053     
   1646512266.6401234     
   1547043735.0424829     
   2012035003.9098291     
   1916478965.0429776     
   1829933475.6218495     
   1753596421.4672992     
   1688752994.2915421     
   2085734172.8247716     
   2012301371.3885219     
   1951342366.1051762     
   1903885970.6166637     
   1870912963.0160232     
   2196239032.7924767     
   2143040947.6778567     
   2104720657.7778618     
   2081964463.7057614     
   2075392489.3105605     
   1469769059.4917705     
   1359577747.8040903     
   1284393568.1666672     
   1252338416.9734764     
   1270530378.0334971     
   1547043735.0424829     
   1485307791.7052209     
   1456241245.5415933     
   1463834799.5271661     
   1511441414.1251233     
   1688752994.2915421     
   1659676015.8930049     
   1658273753.2099321     
   1686947217.4210627     
   1748338707.9744210     
   1870912963.0160232     
   1860139475.1875007     
   1872272560.5512426     
   1909555914.6555159     
   1975035252.2008526     
   2075392489.3105605     
   2071998535.0270510     
   2087756082.5423343     
   2125334018.2412045     
   2188543743.8802752     
   1270530378.0334971     
   1452253006.9608681     
   1719040849.7651639     
   2111792184.5109031     
   2663206648.4440522     
   1511441414.1251233     
   1617746204.2582278     
   1791116721.2057357     
   2066487727.7465849     
   2474259513.4910250     
   1748338707.9744210     
   1791156298.8586707     
   1885976375.6111293     
   2059783594.6713569     
   2337915553.4856091     
   1975035252.2008526     
   1971422213.8005898     
   2004193437.0420837     
   2091997189.9180472     
   2253492944.1039581     
   2188543743.8802752     
   2157813814.2982264     
   2146510123.4558096     
   2165046760.3236799     
   2224386899.5534401     
   4475054350.9157572     
   4082305706.1522117     
   3724741190.1631646     
   3397278161.1657023     
   3097760319.4883032     
   3973400662.2880735     
   3679320910.2123742     
   3412972761.4394202     
   3172590181.5506320     
   2958259854.5039401     
   3585844813.7745099     
   3367180712.7027526     
   3169411714.6806502     
   2992754411.4191637     
   2838190624.2781200     
   3315038179.5455213     
   3149135087.9788332     
   2997704841.8300810     
   2861290375.0031419     
   2740638931.1664305     
   3159248748.6415138     
   3024859311.2778521     
   2898816752.1271091     
   2780233906.4236994     
   2668757805.0087614     
   3097760319.4883032     
   3039161675.6726356     
   2986542483.1670375     
   2939775297.1284585     
   2898858326.8443174     
   2958259854.5039401     
   2905150337.3313198     
   2858213640.4555244     
   2817509048.7429099     
   2783165545.6551156     
   2838190624.2781200     
   2792223340.2688513     
   2752940352.1593442     
   2720521865.0564117     
   2695179147.4103956     
   2740638931.1664305     
   2703207886.5849433     
   2673259032.8955607     
   2651021148.3260984     
   2636736390.8485246     
   2668757805.0087614     
   2640780313.5949202     
   2621337522.2499981     
   2610632313.3294315     
   2608888623.7035723     
   2898858326.8443174     
   2829455528.8403974     
   2765410670.1713777     
   2707081055.7662406     
   2654877943.4146929     
   2783165545.6551156     
   2727331765.0806050     
   2677434043.8733640     
   2633803177.3776569     
   2596804140.8766155     
   2695179147.4103956     
   2652292093.1191692     
   2615796259.2578831     
   2585968591.6445441     
   2563102374.9367809     
   2636736390.8485246     
   2605730589.7444477     
   2581426166.8178873     
   2564029013.3239312     
   2553748666.2546206     
   2608888623.7035723     
   2588243869.5745449     
   2574467444.8202810     
   2567689966.3230557     
   2568039444.4225221     
   2654877943.4146929     
   2581373477.4374709     
   2513734997.0349612     
   2452477842.9702048     
   2398195000.1171126     
   2596804140.8766155     
   2539057636.9991775     
   2487932016.6298203     
   2443916632.8423815     
   2407557997.8263998     
   2563102374.9367809     
   2521164503.5644121     
   2486458196.6706362     
   2459411855.7087874     
   2440492773.9313135     
   2553748666.2546206     
   2527149532.0416155     
   2508234692.1962285     
   2497352911.2956390     
   2494880324.1310987     
   2568039444.4225221     
   2555810556.9713264     
   2551584294.8940434     
   2555628865.4107757     
   2568235918.7502146     
   2398195000.1171126     
   2334016039.0726895     
   2278524602.9443779     
   2232379639.6244903     
   2196239032.7924767     
   2407557997.8263998     
   2359413635.8707638     
   2320756171.6774926     
   2292072127.0525990     
   2273814028.3988748     
   2440492773.9313135     
   2406808795.1170788     
   2383104203.6091175     
   2369684726.6131139     
   2366813821.0689502     
   2494880324.1310987     
   2473498947.7246599     
   2462369483.1905775     
   2461638999.6306572     
   2471422969.2937188     
   2568235918.7502146     
   2556626005.8627076     
   2555426963.9624929     
   2564663151.4458084     
   2584348568.2584839     
   2196239032.7924767     
   2143040947.6778567     
   2104720657.7778618     
   2081964463.7057614     
   2075392489.3105605     
   2273814028.3988748     
   2235195229.3303595     
   2210381240.4227996     
   2199763065.4244299     
   2203691574.1536779     
   2366813821.0689502     
   2339894112.7451153     
   2325695900.5095940     
   2324428967.5335040     
   2336292939.9767756     
   2471422969.2937188     
   2453643529.4622889     
   2447603312.1357608     
   2453412720.4223013     
   2471195737.3973966     
   2584348568.2584839     
   2573539235.6503263     
   2573644502.0357590     
   2584728572.8410554     
   2606884563.5931177     
   2075392489.3105605     
   2071998535.0270510     
   2087756082.5423343     
   2125334018.2412045     
   2188543743.8802752     
   2203691574.1536779     
   2190195819.5330219     
   2191567618.6578546     
   2209795975.1850824     
   2247793159.6581659     
   2336292939.9767756     
   2313472653.5091281     
   2301995290.9452538     
   2303277484.1792083     
   2319400506.7546177     
   2471195737.3973966     
   2440795313.0279145     
   2418679806.1664081     
   2405801142.3881779     
   2403531787.9276972     
   2606884563.5931177     
   2571337333.7212577     
   2541303441.1492133     
   2517367998.2105865     
   2500337944.9982843     
   2188543743.8802752     
   2157813814.2982264     
   2146510123.4558096     
   2165046760.3236799     
   2224386899.5534401     
   2247793159.6581659     
   2182345457.9166694     
   2133150344.2232752     
   2109738106.4131410     
   2122888939.1454985     
   2319400506.7546177     
   2222583355.5072532     
   2138904767.3758633     
   2076577393.4548588     
   2045578642.6239905     
   2403531787.9276972     
   2278814812.8904495     
   2164410402.0458817     
   2066903143.3185179     
   1994842113.0343969     
   2500337944.9982843     
   2351242667.1191702     
   2210129640.7262497     
   2081834691.7340956     
   1973011822.7852821     
   3159248748.6415138     
   3024859311.2778521     
   2898816752.1271091     
   2780233906.4236994     
   2668757805.0087614     
   3104842057.0333800     
   2950663743.0089703     
   2810016548.9192181     
   2682724494.0573053     
   2568945170.5027885     
   3070347101.7269979     
   2898706898.2341542     
   2747268276.6875196     
   2616144013.5948482     
   2505627834.1522346     
   3070436828.0380111     
   2880688443.4442902     
   2718900896.5502043     
   2585163519.4298053     
   2479623628.8834462     
   3121131579.7486176     
   2908910383.4035306     
   2733009699.9412479     
   2593429529.3617682     
   2490169871.6651025     
   2668757805.0087614     
   2640780313.5949202     
   2621337522.2499981     
   2610632313.3294315     
   2608888623.7035723     
   2568945170.5027885     
   2553339655.0884061     
   2545532449.2245154     
   2545630111.2544646     
   2553747412.2532315     
   2505627834.1522346     
   2499594745.8101492     
   2500453806.6094327     
   2508246864.7295394     
   2523018198.9085965     
   2479623628.8834462     
   2480382212.3763108     
   2486999635.2497745     
   2499484622.5614209     
   2517846314.4439654     
   2490169871.6651025     
   2495174780.2555113     
   2504922932.6558437     
   2519414328.8660989     
   2538648968.8862739     
   2608888623.7035723     
   2588243869.5745449     
   2574467444.8202810     
   2567689966.3230557     
   2568039444.4225221     
   2553747412.2532315     
   2539399241.1979203     
   2532194504.4696674     
   2532214048.3340502     
   2539535864.4008627     
   2523018198.9085965     
   2513312511.6448212     
   2511022405.8846059     
   2516186689.3937745     
   2528842333.4975338     
   2517846314.4439654     
   2510795956.3717170     
   2511449255.5168829     
   2519816518.1305847     
   2535907483.8113499     
   2538648968.8862739     
   2532031569.1521950     
   2533437206.8455415     
   2542865881.9663129     
   2560317594.5145068     
   2568039444.4225221     
   2555810556.9713264     
   2551584294.8940434     
   2555628865.4107757     
   2568235918.7502146     
   2539535864.4008627     
   2538086862.1498060     
   2544808197.8407617     
   2559852725.2484832     
   2583382525.3726225     
   2528842333.4975338     
   2535509410.8946571     
   2550453119.0035114     
   2573741346.1378193     
   2605444731.5638428     
   2535907483.8113499     
   2547755018.6341691     
   2567977607.6442580     
   2596592089.8851519     
   2633615771.0410495     
   2560317594.5145068     
   2574260287.3115439     
   2596708075.1693215     
   2627660958.0878344     
   2667118936.0670962     
   2568235918.7502146     
   2556626005.8627076     
   2555426963.9624929     
   2564663151.4458084     
   2584348568.2584839     
   2583382525.3726225     
   2577166496.0792727     
   2581077391.9184837     
   2595126680.3370304     
   2619319391.2306614     
   2605444731.5638428     
   2603439194.3126607     
   2611427689.8463321     
   2629414631.3139710     
   2657401275.8889790     
   2633615771.0410495     
   2634628746.5599756     
   2645675867.0174766     
   2666758154.4843264     
   2697875756.1989064     
   2667118936.0670962     
   2669961816.7268715     
   2683069859.2030902     
   2706443063.4957581     
   2740081429.6048765     
   2584348568.2584839     
   2573539235.6503263     
   2573644502.0357590     
   2584728572.8410554     
   2606884563.5931177     
   2619319391.2306614     
   2610435635.2285089     
   2611464567.9309444     
   2622435880.9674420     
   2643397363.6744504     
   2657401275.8889790     
   2650277942.4315939     
   2652242160.7093744     
   2663304539.1434879     
   2683484365.0611401     
   2697875756.1989064     
   2692544173.3820038     
   2695626205.8188949     
   2707123910.5999050     
   2727041636.0160327     
   2740081429.6048765     
   2736748649.5658169     
   2741284685.6698928     
   2753689537.9170933     
   2773963206.3074245     
   2606884563.5931177     
   2571337333.7212577     
   2541303441.1492133     
   2517367998.2105865     
   2500337944.9982843     
   2643397363.6744504     
   2601107147.0852790     
   2564119405.4767509     
   2532766830.4180703     
   2507510709.8094287     
   2683484365.0611401     
   2636540551.5741992     
   2594823143.3838429     
   2558480271.5808640     
   2527717922.8859305     
   2727041636.0160327     
   2677539164.1106997     
   2633322139.1958351     
   2594427341.3669806     
   2560905935.6215253     
   2773963206.3074245     
   2723997377.9545040     
   2679511322.9470325     
   2640505041.2850170     
   2606978532.9684458     
   2500337944.9982843     
   2351242667.1191702     
   2210129640.7262497     
   2081834691.7340956     
   1973011822.7852821     
   2507510709.8094287     
   2341499089.5857139     
   2178892819.4445286     
   2022699176.6434791     
   1877328267.5614929     
   2527717922.8859305     
   2349749145.4268117     
   2171388414.5692635     
   1994062685.4478977     
   1819970482.1443386     
   2560905935.6215253     
   2376090365.9366117     
   2188067988.6675534     
   1997205621.1722434     
   1804086009.8836014     
   2606978532.9684458     
   2420490166.1119957     
   2229069192.2904077     
   2032715611.5036912     
   1831429423.7518311     
   3121131579.7486176     
   2908910383.4035306     
   2733009699.9412479     
   2593429529.3617682     
   2490169871.6651025     
   3070436828.0317135     
   2880688443.4393883     
   2718900896.5465045     
   2585163519.4271011     
   2479623628.8815231     
   3070347101.7150455     
   2898706898.2249031     
   2747268276.6805224     
   2616144013.5896378     
   2505627834.1483583     
   3104842057.0165367     
   2950663742.9960647     
   2810016548.9094381     
   2682724494.0498886     
   2568945170.4970460     
   3159248748.6205168     
   3024859311.2619667     
   2898816752.1150889     
   2780233906.4144506     
   2668757805.0013156     
   2490169871.6651025     
   2495174780.2555113     
   2504922932.6558437     
   2519414328.8660989     
   2538648968.8862739     
   2479623628.8815231     
   2480382212.3747106     
   2486999635.2484827     
   2499484622.5604062     
   2517846314.4431968     
   2505627834.1483583     
   2499594745.8069105     
   2500453806.6068010     
   2508246864.7274556     
   2523018198.9069967     
   2568945170.4970460     
   2553339655.0835781     
   2545532449.2205586     
   2545630111.2513041     
   2553747412.2507668     
   2668757805.0013156     
   2640780313.5886111     
   2621337522.2447834     
   2610632313.3252220     
   2608888623.7002597     
   2538648968.8862739     
   2532031569.1521950     
   2533437206.8455415     
   2542865881.9663129     
   2560317594.5145068     
   2517846314.4431968     
   2510795956.3710537     
   2511449255.5162849     
   2519816518.1300292     
   2535907483.8108039     
   2523018198.9069967     
   2513312511.6434288     
   2511022405.8833747     
   2516186689.3926439     
   2528842333.4964409     
   2553747412.2507668     
   2539399241.1957879     
   2532194504.4677734     
   2532214048.3323154     
   2539535864.3992133     
   2608888623.7002597     
   2588243869.5716581     
   2574467444.8177266     
   2567689966.3207269     
   2568039444.4203234     
   2560317594.5145068     
   2574260287.3115439     
   2596708075.1693215     
   2627660958.0878344     
   2667118936.0670962     
   2535907483.8108039     
   2547755018.6337881     
   2567977607.6440258     
   2596592089.8850589     
   2633615771.0410666     
   2528842333.4964409     
   2535509410.8938694     
   2550453119.0030150     
   2573741346.1375794     
   2605444731.5638275     
   2539535864.3992133     
   2538086862.1485896     
   2544808197.8399534     
   2559852725.2480488     
   2583382525.3724914     
   2568039444.4203234     
   2555810556.9696569     
   2551584294.8928819     
   2555628865.4100685     
   2568235918.7498965     
   2667118936.0670962     
   2669961816.7268715     
   2683069859.2030902     
   2706443063.4957581     
   2740081429.6048765     
   2633615771.0410666     
   2634628746.5598722     
   2645675867.0172191     
   2666758154.4838848     
   2697875756.1982589     
   2605444731.5638275     
   2603439194.3123994     
   2611427689.8457713     
   2629414631.3130569     
   2657401275.8876700     
   2583382525.3724914     
   2577166496.0787988     
   2581077391.9175758     
   2595126680.3356075     
   2619319391.2286706     
   2568235918.7498965     
   2556626005.8619466     
   2555426963.9611764     
   2564663151.4438167     
   2584348568.2557507     
   2740081429.6048765     
   2736748649.5658169     
   2741284685.6698928     
   2753689537.9170933     
   2773963206.3074245     
   2697875756.1982589     
   2692544173.3812675     
   2695626205.8180680     
   2707123910.5989890     
   2727041636.0150223     
   2657401275.8876700     
   2650277942.4301000     
   2652242160.7076831     
   2663304539.1416221     
   2683484365.0590739     
   2619319391.2286706     
   2610435635.2262182     
   2611464567.9283609     
   2622435880.9645791     
   2643397363.6713018     
   2584348568.2557507     
   2573539235.6472058     
   2573644502.0322433     
   2584728572.8371572     
   2606884563.5888386     
   2773963206.3074245     
   2723997377.9545040     
   2679511322.9470325     
   2640505041.2850170     
   2606978532.9684458     
   2727041636.0150223     
   2677539164.1097126     
   2633322139.1948719     
   2594427341.3660350     
   2560905935.6206088     
   2683484365.0590739     
   2636540551.5722146     
   2594823143.3819327     
   2558480271.5790277     
   2527717922.8841815     
   2643397363.6713018     
   2601107147.0822735     
   2564119405.4738717     
   2532766830.4153309     
   2507510709.8068433     
   2606884563.5888386     
   2571337333.7172103     
   2541303441.1453838     
   2517367998.2069821     
   2500337944.9949112     
   2606978532.9684458     
   2420490166.1119957     
   2229069192.2904077     
   2032715611.5036912     
   1831429423.7518311     
   2560905935.6206088     
   2376090365.9360952     
   2188067988.6675162     
   1997205621.1727722     
   1804086009.8849628     
   2527717922.8841815     
   2349749145.4257560     
   2171388414.5690880     
   1994062685.4488132     
   1819970482.1466806     
   2507510709.8068433     
   2341499089.5841103     
   2178892819.4441276     
   2022699176.6445899     
   1877328267.5644827     
   2500337944.9949112     
   2351242667.1170044     
   2210129640.7255244     
   2081834691.7351372     
   1973011822.7884762     
   3159248748.6205168     
   3024859311.2619667     
   2898816752.1150889     
   2780233906.4144506     
   2668757805.0013156     
   3315038179.5273480     
   3149135087.9634008     
   2997704841.8171654     
   2861290374.9924941     
   2740638931.1577554     
   3585844813.7584682     
   3367180712.6874647     
   3169411714.6667662     
   2992754411.4072227     
   2838190624.2684898     
   3973400662.2733727     
   3679320910.1969233     
   3412972761.4245343     
   3172590181.5375190     
   2958259854.4935918     
   4475054350.9015265     
   4082305706.1362805     
   3724741190.1472745     
   3397278161.1515546     
   3097760319.4774427     
   2668757805.0013156     
   2640780313.5886111     
   2621337522.2447834     
   2610632313.3252220     
   2608888623.7002597     
   2740638931.1577554     
   2703207886.5778461     
   2673259032.8898268     
   2651021148.3215146     
   2636736390.8448548     
   2838190624.2684898     
   2792223340.2611575     
   2752940352.1532202     
   2720521865.0515099     
   2695179147.4063826     
   2958259854.4935918     
   2905150337.3232203     
   2858213640.4491501     
   2817509048.7377872     
   2783165545.6508212     
   3097760319.4774427     
   3039161675.6642933     
   2986542483.1605430     
   2939775297.1232171     
   2898858326.8398066     
   2608888623.7002597     
   2588243869.5716581     
   2574467444.8177266     
   2567689966.3207269     
   2568039444.4203234     
   2636736390.8448548     
   2605730589.7411590     
   2581426166.8149052     
   2564029013.3211851     
   2553748666.2520199     
   2695179147.4063826     
   2652292093.1154313     
   2615796259.2543879     
   2585968591.6412220     
   2563102374.9335794     
   2783165545.6508212     
   2727331765.0764141     
   2677434043.8692822     
   2633803177.3736424     
   2596804140.8726239     
   2898858326.8398066     
   2829455528.8357816     
   2765410670.1666632     
   2707081055.7614198     
   2654877943.4097257     
   2568039444.4203234     
   2555810556.9696569     
   2551584294.8928819     
   2555628865.4100685     
   2568235918.7498965     
   2553748666.2520199     
   2527149532.0396423     
   2508234692.1948433     
   2497352911.2947955     
   2494880324.1307244     
   2563102374.9335794     
   2521164503.5619235     
   2486458196.6688280     
   2459411855.7076020     
   2440492773.9306741     
   2596804140.8726239     
   2539057636.9959650     
   2487932016.6273675     
   2443916632.8406343     
   2407557997.8252907     
   2654877943.4097257     
   2581373477.4333420     
   2513734997.0316544     
   2452477842.9676714     
   2398195000.1153140     
   2568235918.7498965     
   2556626005.8619466     
   2555426963.9611764     
   2564663151.4438167     
   2584348568.2557507     
   2494880324.1307244     
   2473498947.7237849     
   2462369483.1890726     
   2461638999.6284165     
   2471422969.2906203     
   2440492773.9306741     
   2406808795.1159210     
   2383104203.6072865     
   2369684726.6104898     
   2366813821.0654035     
   2407557997.8252907     
   2359413635.8691263     
   2320756171.6751680     
   2292072127.0494432     
   2273814028.3947535     
   2398195000.1153140     
   2334016039.0703630     
   2278524602.9413681     
   2232379639.6206417     
   2196239032.7876463     
   2584348568.2557507     
   2573539235.6472058     
   2573644502.0322433     
   2584728572.8371572     
   2606884563.5888386     
   2471422969.2906203     
   2453643529.4587555     
   2447603312.1317630     
   2453412720.4178309     
   2471195737.3924165     
   2366813821.0654035     
   2339894112.7411027     
   2325695900.5050550     
   2324428967.5283942     
   2336292939.9710746     
   2273814028.3947535     
   2235195229.3257718     
   2210381240.4176345     
   2199763065.4186287     
   2203691574.1471763     
   2196239032.7876463     
   2143040947.6725791     
   2104720657.7720010     
   2081964463.6992164     
   2075392489.3032575     
   2606884563.5888386     
   2571337333.7172103     
   2541303441.1453838     
   2517367998.2069821     
   2500337944.9949112     
   2471195737.3924165     
   2440795313.0232339     
   2418679806.1620188     
   2405801142.3841033     
   2403531787.9239912     
   2336292939.9710746     
   2313472653.5037589     
   2301995290.9402318     
   2303277484.1745706     
   2319400506.7504539     
   2203691574.1471763     
   2190195819.5269008     
   2191567618.6521311     
   2209795975.1798110     
   2247793159.6534624     
   2075392489.3032575     
   2071998535.0201323     
   2087756082.5358295     
   2125334018.2352066     
   2188543743.8748894     
   2500337944.9949112     
   2351242667.1170044     
   2210129640.7255244     
   2081834691.7351372     
   1973011822.7884762     
   2403531787.9239912     
   2278814812.8881021     
   2164410402.0451465     
   2066903143.3197322     
   1994842113.0379057     
   2319400506.7504539     
   2222583355.5046206     
   2138904767.3750105     
   2076577393.4560840     
   2045578642.6276097     
   2247793159.6534624     
   2182345457.9136257     
   2133150344.2221591     
   2109738106.4142094     
   2122888939.1489549     
   2188543743.8748894     
   2157813814.2946720     
   2146510123.4542956     
   2165046760.3243794     
   2224386899.5565271     
   4475054350.9015265     
   4082305706.1362805     
   3724741190.1472745     
   3397278161.1515546     
   3097760319.4774427     
   4776203494.8471832     
   4372855738.9570913     
   3982455635.9734664     
   3605504081.3633742     
   3243203476.4605846     
   4943996833.6411743     
   4553107213.1456747     
   4170255781.6763949     
   3794099520.4952068     
   3424476406.4137759     
   4988114846.7930746     
   4625504965.2751541     
   4286297632.5108595     
   3959026728.3853869     
   3636472976.2016897     
   4938248862.5621367     
   4602212205.0838318     
   4333160390.2277184     
   4098168546.2355680     
   3874512200.2367926     
   3097760319.4774427     
   3039161675.6642933     
   2986542483.1605430     
   2939775297.1232171     
   2898858326.8398066     
   3243203476.4605846     
   3179779483.8072553     
   3120574220.8522453     
   3065629890.8522129     
   3015053324.2760577     
   3424476406.4137759     
   3356399549.8671923     
   3290921799.4851875     
   3228143233.9939327     
   3168189462.2846813     
   3636472976.2016897     
   3564523359.0352111     
   3493741848.9539042     
   3424201461.3480697     
   3355981283.7271647     
   3874512200.2367926     
   3799877470.2416415     
   3725200047.1425724     
   3650469547.0704885     
   3575680864.9758706     
   2898858326.8398066     
   2829455528.8357816     
   2765410670.1666632     
   2707081055.7614198     
   2654877943.4097257     
   3015053324.2760577     
   2927643676.8135061     
   2845179278.4705877     
   2768015032.1689687     
   2696593443.2960625     
   3168189462.2846813     
   3062599536.8544641     
   2961382937.7145891     
   2864834186.4030323     
   2773363848.9482412     
   3355981283.7271647     
   3232228186.9046917     
   3112209104.0033121     
   2996106569.9229832     
   2884236419.4792404     
   3575680864.9758706     
   3433845003.1284561     
   3295118333.5615840     
   3159534712.8070168     
   3027265690.4584394     
   2654877943.4097257     
   2581373477.4333420     
   2513734997.0316544     
   2452477842.9676714     
   2398195000.1153140     
   2696593443.2960625     
   2605192005.3316674     
   2519026393.6370158     
   2438624521.4394598     
   2364623805.2118139     
   2773363848.9482412     
   2664637176.7462564     
   2560358696.6575394     
   2461005777.2498870     
   2367187819.2467327     
   2884236419.4792404     
   2759137335.6574154     
   2637647694.6992917     
   2520139527.8698854     
   2407122091.6294999     
   3027265690.4584394     
   2886942492.3287497     
   2749439427.8387947     
   2614991359.8617940     
   2483957880.0102015     
   2398195000.1153140     
   2334016039.0703630     
   2278524602.9413681     
   2232379639.6206417     
   2196239032.7876463     
   2364623805.2118139     
   2282695627.3999701     
   2208397782.3608642     
   2142478295.8118269     
   2085734172.8197494     
   2367187819.2467327     
   2268197522.6744986     
   2175498181.2454290     
   2089830513.9231825     
   2012035003.9043093     
   2407122091.6294999     
   2292722536.8448815     
   2183151871.5751204     
   2079035022.4180923     
   1981122692.7447386     
   2483957880.0102015     
   2356550450.2001076     
   2232600517.7186055     
   2112546102.1630001     
   1996940715.0882771     
   2196239032.7876463     
   2143040947.6725791     
   2104720657.7720010     
   2081964463.6992164     
   2075392489.3032575     
   2085734172.8197494     
   2012301371.3831360     
   1951342366.0993061     
   1903885970.6101918     
   1870912963.0088351     
   2012035003.9043093     
   1916478965.0372517     
   1829933475.6157947     
   1753596421.4607704     
   1688752994.2844083     
   1981122692.7447386     
   1864626253.9518962     
   1752767938.2493405     
   1646512266.6333909     
   1547043735.0353379     
   1996940715.0882771     
   1864330022.7615361     
   1731962682.4033575     
   1600244175.2254262     
   1469769059.4845533     
   2075392489.3032575     
   2071998535.0201323     
   2087756082.5358295     
   2125334018.2352066     
   2188543743.8748894     
   1870912963.0088351     
   1860139475.1807370     
   1872272560.5449378     
   1909555914.6497021     
   1975035252.1956179     
   1688752994.2844083     
   1659676015.8863449     
   1658273753.2037463     
   1686947217.4153733     
   1748338707.9692347     
   1547043735.0353379     
   1485307791.6985836     
   1456241245.5354550     
   1463834799.5215118     
   1511441414.1199479     
   1469769059.4845533     
   1359577747.7974179     
   1284393568.1604891     
   1252338416.9677687     
   1270530378.0282366     
   2188543743.8748894     
   2157813814.2946720     
   2146510123.4542956     
   2165046760.3243794     
   2224386899.5565271     
   1975035252.1956179     
   1971422213.7971559     
   2004193437.0406973     
   2091997189.9188509     
   2253492944.1069722     
   1748338707.9692347     
   1791156298.8552613     
   1885976375.6096759     
   2059783594.6719561     
   2337915553.4881754     
   1511441414.1199479     
   1617746204.2547169     
   1791116721.2040424     
   2066487727.7467306     
   2474259513.4927940     
   1270530378.0282366     
   1452253006.9571145     
   1719040849.7630863     
   2111792184.5104134     
   2663206648.4448667     
   4938248862.5621367     
   4602212205.0838318     
   4333160390.2277184     
   4098168546.2355680     
   3874512200.2367926     
   5645345181.3833675     
   5173997161.7854013     
   4801712358.8083811     
   4502270139.5968561     
   4259181360.9317303     
   7208923014.6004305     
   6396071374.4189615     
   5742695519.0995770     
   5208539822.3243465     
   4770255082.1185923     
   9546993184.8604679     
   8248673983.6193495     
   7160640020.3035831     
   6224603712.9940214     
   5410073080.1732359     
   12689444846.071346     
   10761071984.095224     
   9076203493.4544983     
   7561008958.0184956     
   6181214334.7804718     
   3874512200.2367926     
   3799877470.2416415     
   3725200047.1425724     
   3650469547.0704885     
   3575680864.9758706     
   4259181360.9317303     
   4139672057.3752971     
   4026565209.3923893     
   3919600001.5614963     
   3818782355.4734368     
   4770255082.1185923     
   4584257150.0090675     
   4411125742.5265350     
   4249080755.7555375     
   4097193519.9702973     
   5410073080.1732359     
   5135626239.0587502     
   4879723966.9213133     
   4638339870.0472822     
   4408987648.2856283     
   6181214334.7804718     
   5795122385.5769100     
   5432304673.8145542     
   5086157044.3589678     
   4752216209.1597834     
   3575680864.9758706     
   3433845003.1284561     
   3295118333.5615840     
   3159534712.8070168     
   3027265690.4584394     
   3818782355.4734368     
   3655354733.3751225     
   3495386637.1939850     
   3338804840.5009933     
   3185690669.1940346     
   4097193519.9702973     
   3910290373.5580521     
   3727038413.5741768     
   3547204650.2896609     
   3370731739.7344379     
   4408987648.2856283     
   4196240710.9724751     
   3987180176.8438182     
   3781378133.0560265     
   3578605207.5424218     
   4752216209.1597834     
   4510854827.7705479     
   4273074133.4960561     
   4038231296.1466722     
   3805904952.8258429     
   3027265690.4584394     
   2886942492.3287497     
   2749439427.8387947     
   2614991359.8617940     
   2483957880.0102015     
   3185690669.1940346     
   3033956005.3352418     
   2883609373.6077213     
   2734712464.2917767     
   2587379937.4091330     
   3370731739.7344379     
   3211893517.8566384     
   3053629851.1890988     
   2895923505.0322199     
   2738766749.8576674     
   3578605207.5424218     
   3416830940.8500452     
   3255373725.6034608     
   3094231246.0661597     
   2933402066.8899498     
   3805904952.8258429     
   3645072574.5324168     
   3484747151.9190936     
   3325005945.8605027     
   3165943406.7488413     
   2483957880.0102015     
   2356550450.2001076     
   2232600517.7186055     
   2112546102.1630001     
   1996940715.0882771     
   2587379937.4091330     
   2445998469.9602284     
   2307416932.4147601     
   2171990109.1470528     
   2040206926.5721161     
   2738766749.8576674     
   2583711620.2580552     
   2430617493.0723152     
   2279672645.6005669     
   2131199650.9974525     
   2933402066.8899498     
   2764762469.4281073     
   2597192901.4488049     
   2430664473.9462290     
   2265267131.7634945     
   3165943406.7488413     
   2983452845.3138719     
   2801183113.6329279     
   2618868191.2998109     
   2436337927.2112036     
   1996940715.0882771     
   1864330022.7615361     
   1731962682.4033575     
   1600244175.2254262     
   1469769059.4845533     
   2040206926.5721161     
   1900057468.8889294     
   1760457328.7218938     
   1621583296.1653843     
   1483679832.8768625     
   2131199650.9974525     
   1986028351.1176002     
   1842016752.7250910     
   1699219756.8737617     
   1557730465.7299089     
   2265267131.7634945     
   2115794133.4558818     
   1968113780.8275077     
   1822222596.7674654     
   1678200634.5388317     
   2436337927.2112036     
   2281597077.4656157     
   2129095633.2814231     
   1978804831.3969960     
   1830875945.0195372     
   1469769059.4845533     
   1359577747.7974179     
   1284393568.1604891     
   1252338416.9677687     
   1270530378.0282366     
   1483679832.8768625     
   1338151293.8716817     
   1207084074.1315045     
   1095028549.7374377     
   1007996782.9148151     
   1557730465.7299089     
   1406262093.3892920     
   1251205054.8139248     
   1090359487.8758996     
   921756297.69920945     
   1678200634.5388317     
   1560935069.7350523     
   1434530192.5772874     
   1299350724.1573052     
   1161473107.2220039     
   1830875945.0195372     
   1788204950.7195048     
   1742068115.2944605     
   1701053240.5958922     
   1683612658.5780327     
   1270530378.0282366     
   1452253006.9571145     
   1719040849.7630863     
   2111792184.5104134     
   2663206648.4448667     
   1007996782.9148151     
   1169142032.5475473     
   1428056549.2359235     
   1809723821.0165167     
   2334465968.5197387     
   921756297.69920945     
   966377426.14321077     
   1146837465.0322185     
   1477061222.1535673     
   1957080146.9358366     
   1161473107.2220039     
   1010567267.8819476     
   986437236.88799572     
   1161607760.2239556     
   1543530546.0151577     
   1683612658.5780327     
   1385351870.1472979     
   1130138249.0780840     
   1009687853.4971756     
   1151895613.3768380     
 </DataArray>
 <DataArray  type="Float64" Name="strain" NumberOfComponents="3" format="ascii">
  0.19681764206023189       -6.5526569126394985E-002  0.11021016836617092     
  0.17288507093471650       -5.0327865215526013E-002   7.3419526307892280E-002
  0.14895249980920122       -3.9066586699748773E-002   4.8259437749000433E-002
  0.12501992868368589       -3.1742733579063612E-002   3.4729902689495551E-002
  0.10108735755817055       -2.8356305853470043E-002   3.2830921129377244E-002
  0.14353349590346554       -5.7819803000015435E-002   8.9780583134688619E-002
  0.12955117562527729       -4.4284779091705917E-002   6.3332544998373597E-002
  0.11556885534708905       -3.4313569544353051E-002   4.5154455057326182E-002
  0.10158653506890075       -2.7906174357956670E-002   3.5246313311546068E-002
   8.7604214790712565E-002  -2.5062593532516719E-002   3.3608119761033173E-002
  0.10602287619874684       -5.0113036873635830E-002   6.7500512383578737E-002
   9.8630201463766137E-002  -3.8241692967886098E-002   5.1768689203363305E-002
   9.1237526728785462E-002  -2.9560552388957245E-002   4.0946208914295484E-002
   8.3844851993804786E-002  -2.4069615136849555E-002   3.5033071516375608E-002
   7.6452177258824083E-002  -2.1768881211563229E-002   3.4029277009603259E-002
   8.4285782946076027E-002  -4.2406270747256281E-002   4.3369956112842042E-002
   8.0122148450183339E-002  -3.2198606844066030E-002   3.8727958922861072E-002
   7.5958513954290638E-002  -2.4807535233561426E-002   3.5634699319908363E-002
   7.1794879458397937E-002  -2.0233055915742749E-002   3.4090177303983810E-002
   6.7631244962505291E-002  -1.8475168890609767E-002   3.4094392875087580E-002
   7.8322216145453039E-002  -3.4699504620876676E-002   1.7388914322477966E-002
   7.4027016584528760E-002  -2.6155520720246017E-002   2.4210354156866898E-002
   6.9731817023604509E-002  -2.0054518078165703E-002   2.9219926274164393E-002
   6.5436617462680299E-002  -1.6396496694635786E-002   3.2417630674370854E-002
   6.1141417901756034E-002  -1.5181456569656415E-002   3.3803467357485906E-002
  0.10108735755817055       -2.8356305853470043E-002   3.2830921129377244E-002
   9.5507530017955589E-002  -2.6978304727401758E-002   2.4877151600323444E-002
   8.9927702477740568E-002  -2.5679731405291700E-002   1.8983835144026462E-002
   8.4347874937525547E-002  -2.4460585887139626E-002   1.5150971760487159E-002
   7.8768047397310581E-002  -2.3320868172945985E-002   1.3378561449704618E-002
   8.7604214790712565E-002  -2.5062593532516719E-002   3.3608119761033173E-002
   8.3826355593843493E-002  -2.4024965715180757E-002   2.7663211008532806E-002
   8.0048496396974422E-002  -2.3035429553097148E-002   2.3261785869966550E-002
   7.6270637200105351E-002  -2.2093985046265092E-002   2.0403844345335737E-002
   7.2492778003236336E-002  -2.1200632194685376E-002   1.9089386434639255E-002
   7.6452177258824083E-002  -2.1768881211563229E-002   3.4029277009603259E-002
   7.3959316946478545E-002  -2.1071626702960061E-002   3.0124565182362256E-002
   7.1466456634133063E-002  -2.0391127700902581E-002   2.7246367510233641E-002
   6.8973596321787498E-002  -1.9727384205390667E-002   2.5394683993217329E-002
   6.6480736009442071E-002  -1.9080396216424322E-002   2.4569514631313238E-002
   6.7631244962505291E-002  -1.8475168890609767E-002   3.4094392875087580E-002
   6.5906414075860828E-002  -1.8118287690739324E-002   3.2261214121812619E-002
   6.4181583189216490E-002  -1.7746825848708132E-002   3.0937580064827424E-002
   6.2456752302572124E-002  -1.7360783364516297E-002   3.0123490704132380E-002
   6.0731921415927731E-002  -1.6960160238163380E-002   2.9818946039726887E-002
   6.1141417901756034E-002  -1.5181456569656415E-002   3.3803467357485906E-002
   5.9667646981990397E-002  -1.5164948678518475E-002   3.4073157826883249E-002
   5.8193876062224731E-002  -1.5102523996513739E-002   3.4335423533747966E-002
   5.6720105142459079E-002  -1.4994182523641722E-002   3.4590264478080293E-002
   5.5246334222693427E-002  -1.4839924259902659E-002   3.4837680659880133E-002
   7.8768047397310581E-002  -2.3320868172945985E-002   1.3378561449704618E-002
   7.4869348892135590E-002  -2.2244046034619436E-002   1.1014410774830674E-002
   7.0970650386960599E-002  -2.1213587244068910E-002   9.2011696571634438E-003
   6.7071951881785663E-002  -2.0229491801293922E-002   7.9388380967022332E-003
   6.3173253376610616E-002  -1.9291759706294487E-002   7.2274160934473475E-003
   7.2492778003236336E-002  -2.1200632194685376E-002   1.9089386434639255E-002
   6.9108694432680196E-002  -2.0336243171887980E-002   1.6924068862413155E-002
   6.5724610862123972E-002  -1.9481690151404218E-002   1.5237071602218599E-002
   6.2340527291567832E-002  -1.8636973133234008E-002   1.4028394654055684E-002
   5.8956443721011664E-002  -1.7802092117377377E-002   1.3298038017923841E-002
   6.6480736009442071E-002  -1.9080396216424322E-002   2.4569514631313238E-002
   6.3538678128329723E-002  -1.8428440309156496E-002   2.2639557507197428E-002
   6.0596620247217403E-002  -1.7749793058739832E-002   2.1115331449938185E-002
   5.7654562366105153E-002  -1.7044454465174198E-002   1.9996836459535178E-002
   5.4712504484992791E-002  -1.6312424528459712E-002   1.9284072535988517E-002
   6.0731921415927731E-002  -1.6960160238163380E-002   2.9818946039726887E-002
   5.8159299979084332E-002  -1.6520637446424916E-002   2.8160876709183769E-002
   5.5586678542240933E-002  -1.6017895966075182E-002   2.6835949200321944E-002
   5.3014057105397520E-002  -1.5451935797114336E-002   2.5844163513141376E-002
   5.0441435668554156E-002  -1.4822756939542103E-002   2.5185519647642499E-002
   5.5246334222693427E-002  -1.4839924259902659E-002   3.4837680659880133E-002
   5.2970559984943905E-002  -1.4612834583693446E-002   3.3488026468371679E-002
   5.0694785747194493E-002  -1.4285998873410644E-002   3.2398924853369732E-002
   4.8419011509445053E-002  -1.3859417129054363E-002   3.1570375814874457E-002
   4.6143237271695559E-002  -1.3333089350624605E-002   3.1002379352885079E-002
   6.3173253376610616E-002  -1.9291759706294487E-002   7.2274160934473475E-003
   6.0567428208736729E-002  -1.8385760155616326E-002   6.1000673869111566E-003
   5.7961603040862730E-002  -1.7496862345803665E-002   4.9477829124585648E-003
   5.5355777872988760E-002  -1.6625066276856906E-002   3.7705626700909045E-003
   5.2749952705114844E-002  -1.5770371948776063E-002   2.5684066598061772E-003
   5.8956443721011664E-002  -1.7802092117377377E-002   1.3298038017923841E-002
   5.6353254804786257E-002  -1.6972181841947875E-002   1.2162528140828244E-002
   5.3750065888560850E-002  -1.6142377045059886E-002   1.1057226534946007E-002
   5.1146876972335442E-002  -1.5312677726713284E-002   9.9821332002769936E-003
   4.8543688056110035E-002  -1.4483083886908554E-002   8.9372481368206191E-003
   5.4712504484992791E-002  -1.6312424528459712E-002   1.9284072535988517E-002
   5.2167095859544987E-002  -1.5558603528279424E-002   1.8157397750658888E-002
   4.9621687234097170E-002  -1.4787891744315856E-002   1.7116075275671022E-002
   4.7076278608649304E-002  -1.4000289176569432E-002   1.6160105111025461E-002
   4.4530869983201521E-002  -1.3195795825040157E-002   1.5289487256721856E-002
   5.0441435668554156E-002  -1.4822756939542103E-002   2.5185519647642499E-002
   4.8008951373012913E-002  -1.4145025214610640E-002   2.4084676216402576E-002
   4.5576467077471705E-002  -1.3433406443571952E-002   2.3124329134633526E-002
   4.3143982781930469E-002  -1.2687900626425806E-002   2.2304478402335997E-002
   4.0711498486389261E-002  -1.1908507763172205E-002   2.1625124019509279E-002
   4.6143237271695559E-002  -1.3333089350624605E-002   3.1002379352885079E-002
   4.3878821345190000E-002  -1.2731446900942189E-002   2.9944363538059349E-002
   4.1614405418684441E-002  -1.2078921142827881E-002   2.9081988111833879E-002
   3.9349989492178897E-002  -1.1375512076281971E-002   2.8415253074208585E-002
   3.7085573565673324E-002  -1.0621219701304141E-002   2.7944158425183385E-002
   5.2749952705114844E-002  -1.5770371948776063E-002   2.5684066598061772E-003
   4.9713829332652670E-002  -1.4911322966129736E-002   1.5703533620187171E-003
   4.6677705960190607E-002  -1.4026462933487638E-002   8.6858804886236207E-004
   4.3641582587728545E-002  -1.3115791850848157E-002   4.6311072033722311E-004
   4.0605459215266371E-002  -1.2179309718212794E-002   3.5392137644363331E-004
   4.8543688056110035E-002  -1.4483083886908554E-002   8.9372481368206191E-003
   4.5778892358555978E-002  -1.3649067010240268E-002   8.1250624065380972E-003
   4.3014096661001922E-002  -1.2806098581304159E-002   7.5592440414402051E-003
   4.0249300963447865E-002  -1.1954178600100854E-002   7.2397930415268874E-003
   3.7484505265893808E-002  -1.1093307066630587E-002   7.1667094067981996E-003
   4.4530869983201521E-002  -1.3195795825040157E-002   1.5289487256721856E-002
   4.1987481341108912E-002  -1.2386811054350022E-002   1.4646309596214990E-002
   3.9444092699016331E-002  -1.1585734229121569E-002   1.4199578681446584E-002
   3.6900704056923750E-002  -1.0792565349353994E-002   1.3949294512415999E-002
   3.4357315414831141E-002  -1.0007304415048268E-002   1.3895457089123819E-002
   4.0711498486389261E-002  -1.1908507763172205E-002   2.1625124019509279E-002
   3.8339596280311569E-002  -1.1124555098460054E-002   2.1134094931049910E-002
   3.5967694074233808E-002  -1.0365369876938202E-002   2.0789591968881652E-002
   3.3595791868156089E-002  -9.6309520986070235E-003   2.0591615133005337E-002
   3.1223889662078307E-002  -8.9213017634657832E-003   2.0540164423420215E-002
   3.7085573565673324E-002  -1.0621219701304141E-002   2.7944158425183385E-002
   3.4835237176163825E-002  -9.8622991425700857E-003   2.7588418411041926E-002
   3.2584900786654353E-002  -9.1450055247549733E-003   2.7329283903745394E-002
   3.0334564397144936E-002  -8.4693388478597545E-003   2.7166754903293872E-002
   2.8084228007635381E-002  -7.8352991118835202E-003   2.7100831409687443E-002
   4.0605459215266371E-002  -1.2179309718212794E-002   3.5392137644363331E-004
   3.8049058824811688E-002  -1.1311854402032417E-002  -8.3244933597459436E-005
   3.5492658434357005E-002  -1.0608263768759341E-002  -3.8721396488283766E-004
   3.2936258043902350E-002  -1.0068537818394591E-002  -5.5798571741261238E-004
   3.0379857653447639E-002  -9.6926765509359747E-003  -5.9556019118689463E-004
   3.7484505265893808E-002  -1.1093307066630587E-002   7.1667094067981996E-003
   3.5041031862431016E-002  -1.0279781085694051E-002   6.5692832331816220E-003
   3.2597558458968195E-002  -9.5698977620937153E-003   6.0645137547926109E-003
   3.0154085055505417E-002  -8.9636570958300799E-003   5.6524009716318879E-003
   2.7710611652042583E-002  -8.4610590869023117E-003   5.3329448836987314E-003
   3.4357315414831141E-002  -1.0007304415048268E-002   1.3895457089123819E-002
   3.1986228414832507E-002  -9.2477077693554066E-003   1.3197993077502468E-002
   2.9615141414833915E-002  -8.5315317554282566E-003   1.2552645177581201E-002
   2.7244054414835274E-002  -7.8587763732662214E-003   1.1959413389360407E-002
   2.4872967414836661E-002  -7.2294416228693148E-003   1.1418297712839476E-002
   3.1223889662078307E-002  -8.9213017634657832E-003   2.0540164423420215E-002
   2.8884648482016224E-002  -8.2156344530171233E-003   1.9802884599364981E-002
   2.6545407301954042E-002  -7.4931657487624925E-003   1.9077180303482141E-002
   2.4206166121891935E-002  -6.7538956507020367E-003   1.8363051535772362E-002
   2.1866924941829721E-002  -5.9978241588357628E-003   1.7660498296234686E-002
   2.8084228007635381E-002  -7.8352991118835202E-003   2.7100831409687443E-002
   2.5736292063982036E-002  -7.1835611366783958E-003   2.6383957798769231E-002
   2.3388356120328690E-002  -6.4547997420968950E-003   2.5638119132496251E-002
   2.1040420176675331E-002  -5.6490149281377272E-003   2.4863315410868003E-002
   1.8692484233022000E-002  -4.7662066948022108E-003   2.4059546633885209E-002
   3.0379857653447639E-002  -9.6926765509359747E-003  -5.9556019118689463E-004
   2.9740737993528277E-002  -9.1981242627801052E-003  -3.4441347069558148E-004
   2.9101618333609081E-002  -8.3023252503206524E-003  -1.7750476992893782E-003
   2.8462498673689773E-002  -7.0052795135590457E-003  -4.8874628769677853E-003
   2.7823379013770522E-002  -5.3069870524946605E-003  -9.6816590037305250E-003
   2.7710611652042583E-002  -8.4610590869023117E-003   5.3329448836987314E-003
   2.5660971641895847E-002  -7.9072807532823974E-003   5.9905789827588984E-003
   2.3611331631749166E-002  -7.1474991129423238E-003   5.5089533304477079E-003
   2.1561691621602458E-002  -6.1817141658809804E-003   3.8880679267666030E-003
   1.9512051611455750E-002  -5.0099259120992556E-003   1.1279227717153617E-003
   2.4872967414836661E-002  -7.2294416228693148E-003   1.1418297712839476E-002
   2.1955328252177109E-002  -6.6164372437855778E-003   1.2287175772884906E-002
   1.9037689089517557E-002  -5.9926729755638009E-003   1.2559315279274452E-002
   1.6120049926858032E-002  -5.3581488182031442E-003   1.2234716232008655E-002
   1.3202410764198425E-002  -4.7128647717044059E-003   1.1313378631087334E-002
   2.1866924941829721E-002  -5.9978241588357628E-003   1.7660498296234686E-002
   1.8623807824371924E-002  -5.3255937342885362E-003   1.8545376899683913E-002
   1.5380690706914259E-002  -4.8378468381849310E-003   1.9376038147192097E-002
   1.2137573589456517E-002  -4.5345834705256376E-003   2.0152482038759151E-002
   8.8944564719987892E-003  -4.4158036313097226E-003   2.0874708574385545E-002
   1.8692484233022000E-002  -4.7662066948022108E-003   2.4059546633885209E-002
   1.5666410358480598E-002  -4.0347502247913281E-003   2.4765182363155613E-002
   1.2640336483939307E-002  -3.6830207008063387E-003   2.5959121934199691E-002
   9.6142626093979888E-003  -3.7110181228474232E-003   2.7641365347017693E-002
   6.5881887348566148E-003  -4.1187424909148174E-003   2.9811912601609203E-002
   2.7823379013770522E-002  -5.3069870524946605E-003  -9.6816590037305250E-003
   2.3380151177808561E-002  -4.2221194453331279E-003  -4.1751292475729063E-003
   1.8936923341846601E-002  -4.7653482702831318E-003   2.5985482565936691E-003
   1.4493695505884502E-002  -6.9366735273446029E-003   1.0639373508768590E-002
   1.0050467669922680E-002  -1.0736095216515196E-002   1.9947346508953245E-002
   1.9512051611455750E-002  -5.0099259120992556E-003   1.1279227717153617E-003
   1.6263633900611696E-002  -4.6919802009928180E-003   6.7929090479484922E-003
   1.3015216189767809E-002  -6.2877228819583908E-003   1.3580367826409701E-002
   9.7667984789237827E-003  -9.7971539549952941E-003   2.1490299107096600E-002
   6.5183807680797567E-003  -1.5220273420103680E-002   3.0522702890011466E-002
   1.3202410764198425E-002  -4.7128647717044059E-003   1.1313378631087334E-002
   1.1004127932690705E-002  -5.1618409566525081E-003   1.6851229467435225E-002
   8.8058451011829852E-003  -7.8100974936334555E-003   2.3366877560228733E-002
   6.6075622696751754E-003  -1.2657634382646325E-002   3.0860322909467261E-002
   4.4092794381675460E-003  -1.9704451623692165E-002   3.9331565515151157E-002
   8.8944564719987892E-003  -4.4158036313097226E-003   2.0874708574385545E-002
   7.6016332740454565E-003  -5.6317017123121982E-003   2.5999832010886834E-002
   6.3088100760922937E-003  -9.3324721053086174E-003   3.1958077458052549E-002
   5.0159868781389626E-003  -1.5518114810298075E-002   3.8749444915881601E-002
   3.7231636801857010E-003  -2.4188629827280872E-002   4.6373934384373539E-002
   6.5881887348566148E-003  -4.1187424909148174E-003   2.9811912601609203E-002
   6.0561499246761796E-003  -6.1015624679718883E-003   3.4238716678304026E-002
   5.5241111144956334E-003  -1.0854846716983724E-002   3.9353967519879962E-002
   4.9920723043151150E-003  -1.8378595237949311E-002   4.5157665126338786E-002
   4.4600334941347075E-003  -2.8672808030869579E-002   5.1649809497678500E-002
   7.8322216145453039E-002  -3.4699504620876676E-002   1.7388914322477966E-002
   7.4027016584528760E-002  -2.6155520720246017E-002   2.4210354156866898E-002
   6.9731817023604509E-002  -2.0054518078165703E-002   2.9219926274164393E-002
   6.5436617462680299E-002  -1.6396496694635786E-002   3.2417630674370854E-002
   6.1141417901756034E-002  -1.5181456569656415E-002   3.3803467357485906E-002
   7.8661208694354945E-002  -2.8511059747274969E-002   3.4590628588731576E-002
   7.2963752087395223E-002  -2.2621622908540334E-002   3.6629076053689619E-002
   6.7266295480435473E-002  -1.8337595386233335E-002   3.7674877143667851E-002
   6.1568838873475737E-002  -1.5658977180354174E-002   3.7728031858666286E-002
   5.5871382266515973E-002  -1.4585768290902801E-002   3.6788540198685160E-002
   7.5831793490259217E-002  -2.2322614873673235E-002   4.8719009822027967E-002
   6.9551301179375538E-002  -1.9087725096834540E-002   4.6812036859677691E-002
   6.3270808868491901E-002  -1.6620672694300946E-002   4.4731638864459085E-002
   5.6990316557608209E-002  -1.4921457666072479E-002   4.2477815836372460E-002
   5.0709824246724586E-002  -1.3990080012149186E-002   4.0050567775417628E-002
   6.9833970533165757E-002  -1.6134170000071515E-002   5.9774058022367127E-002
   6.3789663860469706E-002  -1.5553827285128732E-002   5.4759236574830859E-002
   5.7745357187773752E-002  -1.4903750002368567E-002   5.0390211436538178E-002
   5.1701050515077812E-002  -1.4183938151790799E-002   4.6666982607488992E-002
   4.5656743842381761E-002  -1.3394391733395600E-002   4.3589550087683254E-002
   6.0667739823074607E-002  -9.9457251264697955E-003   6.7755773189748847E-002
   5.5678840130677865E-002  -1.2019929473423091E-002   6.0470675199149726E-002
   5.0689940438281123E-002  -1.3186827310436175E-002   5.4650594859905449E-002
   4.5701040745884408E-002  -1.3446418637509169E-002   5.0295532172016280E-002
   4.0712141053487666E-002  -1.2798703454642013E-002   4.7405487135482149E-002
   6.1141417901756034E-002  -1.5181456569656415E-002   3.3803467357485906E-002
   5.9667646981990397E-002  -1.5164948678518475E-002   3.4073157826883249E-002
   5.8193876062224731E-002  -1.5102523996513739E-002   3.4335423533747966E-002
   5.6720105142459079E-002  -1.4994182523641722E-002   3.4590264478080293E-002
   5.5246334222693427E-002  -1.4839924259902659E-002   3.4837680659880133E-002
   5.5871382266515973E-002  -1.4585768290902801E-002   3.6788540198685160E-002
   5.4401083151784407E-002  -1.4324510567492274E-002   3.7191316738704114E-002
   5.2930784037052869E-002  -1.4081745859736081E-002   3.7608461651323755E-002
   5.1460484922321303E-002  -1.3857474167634064E-002   3.8039974936544166E-002
   4.9990185807589765E-002  -1.3651695491186222E-002   3.8485856594365209E-002
   5.0709824246724586E-002  -1.3990080012149186E-002   4.0050567775417628E-002
   4.9264790072160308E-002  -1.3484072456466101E-002   4.0522020579537119E-002
   4.7819755897596024E-002  -1.3060967722958533E-002   4.1029634891390415E-002
   4.6374721723031712E-002  -1.2720765811626351E-002   4.1573410710977469E-002
   4.4929687548467503E-002  -1.2463466722469618E-002   4.2153348038298566E-002
   4.5656743842381761E-002  -1.3394391733395600E-002   4.3589550087683254E-002
   4.4258767743117988E-002  -1.2643634345439969E-002   4.4065269349381930E-002
   4.2860791643854201E-002  -1.2040189586181041E-002   4.4598943253947497E-002
   4.1462815544590408E-002  -1.1584057455618638E-002   4.5190571801380253E-002
   4.0064839445326648E-002  -1.1275237953752959E-002   4.5840154991680038E-002
   4.0712141053487666E-002  -1.2798703454642013E-002   4.7405487135482149E-002
   3.9383016164657531E-002  -1.1803196234413699E-002   4.7821063048238743E-002
   3.8053891275827409E-002  -1.1019411449403368E-002   4.8316386738995604E-002
   3.6724766386997294E-002  -1.0447349099610991E-002   4.8891458207752703E-002
   3.5395641498167152E-002  -1.0087009185036522E-002   4.9546277454509902E-002
   5.5246334222693427E-002  -1.4839924259902659E-002   3.4837680659880133E-002
   5.2970559984943905E-002  -1.4612834583693446E-002   3.3488026468371679E-002
   5.0694785747194493E-002  -1.4285998873410644E-002   3.2398924853369732E-002
   4.8419011509445053E-002  -1.3859417129054363E-002   3.1570375814874457E-002
   4.6143237271695559E-002  -1.3333089350624605E-002   3.1002379352885079E-002
   4.9990185807589765E-002  -1.3651695491186222E-002   3.8485856594365209E-002
   4.7963821550237484E-002  -1.3413304511564583E-002   3.7412441790766582E-002
   4.5937457292885300E-002  -1.3091195909941233E-002   3.6577294371455793E-002
   4.3911093035533096E-002  -1.2685369686316450E-002   3.5980414336433023E-002
   4.1884728778180835E-002  -1.2195825840690178E-002   3.5621801685698395E-002
   4.4929687548467503E-002  -1.2463466722469618E-002   4.2153348038298566E-002
   4.3130448079294025E-002  -1.2213774439435721E-002   4.1340144210537680E-002
   4.1331208610120573E-002  -1.1896392946472045E-002   4.0742922574846366E-002
   3.9531969140947129E-002  -1.1511322243578703E-002   4.0361683131224610E-002
   3.7732729671773699E-002  -1.1058562330755695E-002   4.0196425879672398E-002
   4.0064839445326648E-002  -1.1275237953752959E-002   4.5840154991680038E-002
   3.8470439572113498E-002  -1.1014244367306858E-002   4.5271133727685070E-002
   3.6876039698900395E-002  -1.0701589983002857E-002   4.4895809463541499E-002
   3.5281639825687251E-002  -1.0337274800840984E-002   4.4714182199248581E-002
   3.3687239952474163E-002  -9.9212988208211284E-003   4.4726251934807115E-002
   3.5395641498167152E-002  -1.0087009185036522E-002   4.9546277454509902E-002
   3.3983796028695890E-002  -9.8147142951779676E-003   4.9205410342209099E-002
   3.2571950559224641E-002  -9.5067870195335857E-003   4.9035955037540907E-002
   3.1160105089753386E-002  -9.1632273581030779E-003   4.9037911540505325E-002
   2.9748259620282130E-002  -8.7840353108868396E-003   4.9211279851102352E-002
   4.6143237271695559E-002  -1.3333089350624605E-002   3.1002379352885079E-002
   4.3878821345190000E-002  -1.2731446900942189E-002   2.9944363538059349E-002
   4.1614405418684441E-002  -1.2078921142827881E-002   2.9081988111833879E-002
   3.9349989492178897E-002  -1.1375512076281971E-002   2.8415253074208585E-002
   3.7085573565673324E-002  -1.0621219701304141E-002   2.7944158425183385E-002
   4.1884728778180835E-002  -1.2195825840690178E-002   3.5621801685698395E-002
   3.9812061227671086E-002  -1.1636982579693367E-002   3.4719285503961361E-002
   3.7739393677161337E-002  -1.1023258109957121E-002   3.4004625685615797E-002
   3.5666726126651588E-002  -1.0354652431481853E-002   3.3477822230661591E-002
   3.3594058576141811E-002  -9.6311655442670174E-003   3.3138875139098967E-002
   3.7732729671773699E-002  -1.1058562330755695E-002   4.0196425879672398E-002
   3.5844026472050969E-002  -1.0542518258444267E-002   3.9453407231331575E-002
   3.3955323272328232E-002  -9.9675950770863608E-003   3.8890460921173431E-002
   3.2066620072605537E-002  -9.3337927866815676E-003   3.8507586949197911E-002
   3.0177916872882779E-002  -8.6411113872298384E-003   3.8304785315405293E-002
   3.3687239952474163E-002  -9.9212988208211284E-003   4.4726251934807115E-002
   3.1974717078329717E-002  -9.4480539371954164E-003   4.4146728720169906E-002
   3.0262194204185251E-002  -8.9119320442153788E-003   4.3739493818506787E-002
   2.8549671330040802E-002  -8.3129331418811993E-003   4.3504547229817489E-002
   2.6837148455896402E-002  -7.6510572301927426E-003   4.3441888954102080E-002
   2.9748259620282130E-002  -8.7840353108868396E-003   4.9211279851102352E-002
   2.8204133046507207E-002  -8.3535896159465661E-003   4.8799249970476466E-002
   2.6660006472732312E-002  -7.8562690113446326E-003   4.8551724377615596E-002
   2.5115879898957402E-002  -7.2920734970811397E-003   4.8468703072520117E-002
   2.3571753325182465E-002  -6.6610030731555359E-003   4.8550186055189570E-002
   3.7085573565673324E-002  -1.0621219701304141E-002   2.7944158425183385E-002
   3.4835237176163825E-002  -9.8622991425700857E-003   2.7588418411041926E-002
   3.2584900786654353E-002  -9.1450055247549733E-003   2.7329283903745394E-002
   3.0334564397144936E-002  -8.4693388478597545E-003   2.7166754903293872E-002
   2.8084228007635381E-002  -7.8352991118835202E-003   2.7100831409687443E-002
   3.3594058576141811E-002  -9.6311655442670174E-003   3.3138875139098967E-002
   3.1448530373396510E-002  -8.8962027304733127E-003   3.2829932942899043E-002
   2.9303002170651196E-002  -8.1931692722608807E-003   3.2634001613382618E-002
   2.7157473967905910E-002  -7.5220651696297214E-003   3.2551081150549555E-002
   2.5011945765160581E-002  -6.8828904225799459E-003   3.2581171554400157E-002
   3.0177916872882779E-002  -8.6411113872298384E-003   3.8304785315405293E-002
   2.8153602216740195E-002  -7.9301063183765397E-003   3.8052338522484658E-002
   2.6129287560597625E-002  -7.2413330197664411E-003   3.7929307956086261E-002
   2.4104972904455055E-002  -6.5747914913999068E-003   3.7935693616209874E-002
   2.2080658248312471E-002  -5.9304817332764825E-003   3.8071495502855185E-002
   2.6837148455896402E-002  -7.6510572301927426E-003   4.3441888954102080E-002
   2.4950452706195003E-002  -6.9640099062798777E-003   4.3255635149799146E-002
   2.3063756956493580E-002  -6.2894967672721749E-003   4.3215202931856711E-002
   2.1177061206792192E-002  -5.6275178131700385E-003   4.3320592300274532E-002
   1.9290365457090761E-002  -4.9780730439729082E-003   4.3571803255052999E-002
   2.3571753325182465E-002  -6.6610030731555359E-003   4.8550186055189570E-002
   2.1839081841760810E-002  -5.9979134941828272E-003   4.8439822824841994E-002
   2.0106410358339100E-002  -5.3376605147778533E-003   4.8491686540693579E-002
   1.8373738874917445E-002  -4.6802441349399898E-003   4.8705777202743994E-002
   1.6641067391495734E-002  -4.0256643546694448E-003   4.9082094810993349E-002
   2.8084228007635381E-002  -7.8352991118835202E-003   2.7100831409687443E-002
   2.5736292063982036E-002  -7.1835611366783958E-003   2.6383957798769231E-002
   2.3388356120328690E-002  -6.4547997420968950E-003   2.5638119132496251E-002
   2.1040420176675331E-002  -5.6490149281377272E-003   2.4863315410868003E-002
   1.8692484233022000E-002  -4.7662066948022108E-003   2.4059546633885209E-002
   2.5011945765160581E-002  -6.8828904225799459E-003   3.2581171554400157E-002
   2.2670848325361564E-002  -6.2476954897898729E-003   3.2091592801537394E-002
   2.0329750885562492E-002  -5.5885308299378766E-003   3.1644656111738112E-002
   1.7988653445763454E-002  -4.9053964430237490E-003   3.1240361485002616E-002
   1.5647556005964403E-002  -4.1982923290477814E-003   3.0878708921330433E-002
   2.2080658248312471E-002  -5.9304817332764825E-003   3.8071495502855185E-002
   1.9818006430786309E-002  -5.3118298429012389E-003   3.7756157915732891E-002
   1.7555354613260167E-002  -4.7222619177789971E-003   3.7555069510092604E-002
   1.5292702795734036E-002  -4.1617779579097777E-003   3.7468230285934864E-002
   1.3030050978207919E-002  -3.6303779632933519E-003   3.7495640243259243E-002
   1.9290365457090761E-002  -4.9780730439729082E-003   4.3571803255052999E-002
   1.7177766380256292E-002  -4.3759641960126605E-003   4.3377653141356151E-002
   1.5065167303421676E-002  -3.8559930056203812E-003   4.3369359327560149E-002
   1.2952568226587132E-002  -3.4181594727956364E-003   4.3546921813665040E-002
   1.0839969149752590E-002  -3.0624635975389225E-003   4.3910340599670764E-002
   1.6641067391495734E-002  -4.0256643546694448E-003   4.9082094810993349E-002
   1.4750128173771415E-002  -3.4400985491240821E-003   4.8956078478406995E-002
   1.2859188956047068E-002  -2.9897240934611546E-003   4.9087525564140311E-002
   1.0968249738322736E-002  -2.6745409876817311E-003   4.9476436068193186E-002
   9.0773105205984028E-003  -2.4945492317843820E-003   5.0122809990565287E-002
   1.8692484233022000E-002  -4.7662066948022108E-003   2.4059546633885209E-002
   1.5666410358480598E-002  -4.0347502247913281E-003   2.4765182363155613E-002
   1.2640336483939307E-002  -3.6830207008063387E-003   2.5959121934199691E-002
   9.6142626093979888E-003  -3.7110181228474232E-003   2.7641365347017693E-002
   6.5881887348566148E-003  -4.1187424909148174E-003   2.9811912601609203E-002
   1.5647556005964403E-002  -4.1982923290477814E-003   3.0878708921330433E-002
   1.3090365700254458E-002  -3.6963942713248987E-003   3.1585293184163199E-002
   1.0533175394544569E-002  -3.6288780531702480E-003   3.2741340742884290E-002
   7.9759850888346459E-003  -3.9957436745833019E-003   3.4346851597495079E-002
   5.4187947831247363E-003  -4.7969911355650874E-003   3.6401825747994998E-002
   1.3030050978207919E-002  -3.6303779632933519E-003   3.7495640243259243E-002
   1.0902903695444902E-002  -3.3580383178585527E-003   3.8148518146111476E-002
   8.7757564126818982E-003  -3.5747354055341296E-003   3.9212018798968101E-002
   6.6486091299188602E-003  -4.2804692263197289E-003   4.0686142201829201E-002
   4.5214618471558776E-003  -5.4752397802156905E-003   4.2570888354695358E-002
   1.0839969149752590E-002  -3.0624635975389225E-003   4.3910340599670764E-002
   9.1040243440519593E-003  -3.0196823643923870E-003   4.4454857249000640E-002
   7.3680795383513041E-003  -3.5205927578978030E-003   4.5371156102450121E-002
   5.6321347326506888E-003  -4.5651947780561038E-003   4.6659237160020128E-002
   3.8961899269499625E-003  -6.1534884248664601E-003   4.8319100421709796E-002
   9.0773105205984028E-003  -2.4945492317843820E-003   5.0122809990565287E-002
   7.6937276460755655E-003  -2.6813264109258328E-003   5.0504310492830329E-002
   6.3101447715527559E-003  -3.4664501102616985E-003   5.1218752653331201E-002
   4.9265618970299602E-003  -4.8499203297916460E-003   5.2266136472067515E-002
   3.5429790225071089E-003  -6.8317370695166746E-003   5.3646461949039215E-002
   6.5881887348566148E-003  -4.1187424909148174E-003   2.9811912601609203E-002
   6.0561499246761796E-003  -6.1015624679718883E-003   3.4238716678304026E-002
   5.5241111144956334E-003  -1.0854846716983724E-002   3.9353967519879962E-002
   4.9920723043151150E-003  -1.8378595237949311E-002   4.5157665126338786E-002
   4.4600334941347075E-003  -2.8672808030869579E-002   5.1649809497678500E-002
   5.4187947831247363E-003  -4.7969911355650874E-003   3.6401825747994998E-002
   5.4712033908333180E-003  -6.9327523630947074E-003   3.8494136510718591E-002
   5.5236119985419552E-003  -1.1303159284151931E-002   4.1066895344338772E-002
   5.5760206062505577E-003  -1.7908211898736481E-002   4.4120102248855153E-002
   5.6284292139592296E-003  -2.6747910206849079E-002   4.7653757224267901E-002
   4.5214618471558776E-003  -5.4752397802156905E-003   4.2570888354695358E-002
   4.9503191787680090E-003  -7.7639422582171935E-003   4.2864524381874713E-002
   5.3791765103801681E-003  -1.1751471851319834E-002   4.3430609785964996E-002
   5.8080338419924452E-003  -1.7437828559523770E-002   4.4269144566965929E-002
   6.2368911736043475E-003  -2.4823012382828358E-002   4.5380128724877622E-002
   3.8961899269499625E-003  -6.1534884248664601E-003   4.8319100421709796E-002
   4.4934972884800375E-003  -8.5951321533400682E-003   4.7349880291772062E-002
   5.0908046500101056E-003  -1.2199784418487777E-002   4.6445110844759115E-002
   5.6881120115401754E-003  -1.6967445220310667E-002   4.5604792080671031E-002
   6.2854193730703042E-003  -2.2898114558807858E-002   4.4828923999509024E-002
   3.5429790225071089E-003  -6.8317370695166746E-003   5.3646461949039215E-002
   4.1007377199695494E-003  -9.4263220484623877E-003   5.1950204240410414E-002
   4.6584964174319621E-003  -1.2648096985655805E-002   5.0110398520720689E-002
   5.2162551148943748E-003  -1.6497061881098139E-002   4.8127044789971124E-002
   5.7740138123568707E-003  -2.0973216734787137E-002   4.6000143048160691E-002
   6.0667739823074607E-002  -9.9457251264697955E-003   6.7755773189748847E-002
   5.5678840130677865E-002  -1.2019929473423091E-002   6.0470675199149726E-002
   5.0689940438281123E-002  -1.3186827310436175E-002   5.4650594859905449E-002
   4.5701040745884408E-002  -1.3446418637509169E-002   5.0295532172016280E-002
   4.0712141053487666E-002  -1.2798703454642013E-002   4.7405487135482149E-002
   5.0571181336216742E-002  -1.0261956956405915E-002   6.5676383095841617E-002
   4.6871718777480018E-002  -1.1392589089557370E-002   6.0262141917371809E-002
   4.3172256218743293E-002  -1.1953157471928530E-002   5.5961757354867164E-002
   3.9472793660006569E-002  -1.1943662103519100E-002   5.2775229408327295E-002
   3.5773331101269845E-002  -1.1364102984329327E-002   5.0702558077752535E-002
   4.1782375048823220E-002  -1.0578188786342008E-002   6.4709186595315896E-002
   3.9021188588356348E-002  -1.0765248705691691E-002   6.0828559469815954E-002
   3.6260002127889587E-002  -1.0719487633420725E-002   5.7710627924890935E-002
   3.3498815667422785E-002  -1.0440905569529089E-002   5.5355391960540831E-002
   3.0737629206955934E-002  -9.9295025140167248E-003   5.3762851576765636E-002
   3.4301320960893916E-002  -1.0894420616278086E-002   6.4854183688171890E-002
   3.2127249563306967E-002  -1.0137908321826018E-002   6.2169927856482080E-002
   2.9953178165720018E-002  -9.4858177949130006E-003   5.9897206569977046E-002
   2.7779106768133034E-002  -8.9381490355390503E-003   5.8036019828656804E-002
   2.5605035370546057E-002  -8.4949020437041084E-003   5.6586367632521326E-002
   2.8128019072429011E-002  -1.1210652446214220E-002   6.6111374374409504E-002
   2.6189901702331791E-002  -9.5105679379602903E-003   6.4286247077370018E-002
   2.4251784332234558E-002  -8.2521479564052758E-003   6.2521493290125185E-002
   2.2313666962137324E-002  -7.4353925015490235E-003   6.0817113012675172E-002
   2.0375549592040104E-002  -7.0603015733914365E-003   5.9173106245019813E-002
   4.0712141053487666E-002  -1.2798703454642013E-002   4.7405487135482149E-002
   3.9383016164657531E-002  -1.1803196234413699E-002   4.7821063048238743E-002
   3.8053891275827409E-002  -1.1019411449403368E-002   4.8316386738995604E-002
   3.6724766386997294E-002  -1.0447349099610991E-002   4.8891458207752703E-002
   3.5395641498167152E-002  -1.0087009185036522E-002   4.9546277454509902E-002
   3.5773331101269845E-002  -1.1364102984329327E-002   5.0702558077752535E-002
   3.4543119628553359E-002  -1.0574748439657874E-002   5.0859310019009021E-002
   3.3312908155836887E-002  -9.9358667948030999E-003   5.1134141014492610E-002
   3.2082696683120394E-002  -9.4474580497653018E-003   5.1527051064203182E-002
   3.0852485210403957E-002  -9.1095222045442514E-003   5.2038040168140759E-002
   3.0737629206955934E-002  -9.9295025140167248E-003   5.3762851576765636E-002
   2.9644662426579906E-002  -9.3463006449019809E-003   5.3722029081923237E-002
   2.8551695646203901E-002  -8.8523221402028937E-003   5.3837616917534643E-002
   2.7458728865827883E-002  -8.4475669999194477E-003   5.4109615083599835E-002
   2.6365762085451834E-002  -8.1320352240517868E-003   5.4538023580118972E-002
   2.5605035370546057E-002  -8.4949020437041084E-003   5.6586367632521326E-002
   2.4687644558737239E-002  -8.1178528501460664E-003   5.6409220236981077E-002
   2.3770253746928441E-002  -7.7687774856027118E-003   5.6426814448121566E-002
   2.2852862935119608E-002  -7.4476759500736204E-003   5.6639150265942455E-002
   2.1935472123310797E-002  -7.1545482435592805E-003   5.7046227690444283E-002
   2.0375549592040104E-002  -7.0603015733914365E-003   5.9173106245019813E-002
   1.9672066025025303E-002  -6.8894050553902353E-003   5.8920883484182951E-002
   1.8968582458010488E-002  -6.6852328310024051E-003   5.8901733606253420E-002
   1.8265098890995687E-002  -6.4477849002279007E-003   5.9115656611231318E-002
   1.7561615323980873E-002  -6.1770612630670518E-003   5.9562652499116464E-002
   3.5395641498167152E-002  -1.0087009185036522E-002   4.9546277454509902E-002
   3.3983796028695890E-002  -9.8147142951779676E-003   4.9205410342209099E-002
   3.2571950559224641E-002  -9.5067870195335857E-003   4.9035955037540907E-002
   3.1160105089753386E-002  -9.1632273581030779E-003   4.9037911540505325E-002
   2.9748259620282130E-002  -8.7840353108868396E-003   4.9211279851102352E-002
   3.0852485210403957E-002  -9.1095222045442514E-003   5.2038040168140759E-002
   2.9611486727088090E-002  -8.8349236927107444E-003   5.1782756706587801E-002
   2.8370488243772224E-002  -8.5365269478356876E-003   5.1697755409712540E-002
   2.7129489760456364E-002  -8.2143319699191641E-003   5.1783036277515564E-002
   2.5888491277140532E-002  -7.8683387589612019E-003   5.2038599309996825E-002
   2.6365762085451834E-002  -8.1320352240517868E-003   5.4538023580118972E-002
   2.5294480945336907E-002  -7.8551330902433686E-003   5.4356489616568970E-002
   2.4223199805221984E-002  -7.5662668761378310E-003   5.4344108174742417E-002
   2.3151918665107060E-002  -7.2654365817353024E-003   5.4500879254639929E-002
   2.2080637524992106E-002  -6.9526422070355365E-003   5.4826802856260862E-002
   2.1935472123310797E-002  -7.1545482435592805E-003   5.7046227690444283E-002
   2.1032778683442339E-002  -6.8753424877760691E-003   5.6926609072152842E-002
   2.0130085243573858E-002  -6.5960068044401202E-003   5.6975013332630858E-002
   1.9227391803705359E-002  -6.3165411935514146E-003   5.7191440471877984E-002
   1.8324698363836888E-002  -6.0369456551097739E-003   5.7575890489894324E-002
   1.7561615323980873E-002  -6.1770612630670518E-003   5.9562652499116464E-002
   1.6826379941404387E-002  -5.8955518853087419E-003   5.9493115073339653E-002
   1.6091144558827888E-002  -5.6257467327420901E-003   5.9590470883377378E-002
   1.5355909176251396E-002  -5.3676458053674748E-003   5.9854719929229958E-002
   1.4620673793674877E-002  -5.1212491031842888E-003   6.0285862210897212E-002
   2.9748259620282130E-002  -8.7840353108868396E-003   4.9211279851102352E-002
   2.8204133046507207E-002  -8.3535896159465661E-003   4.8799249970476466E-002
   2.6660006472732312E-002  -7.8562690113446326E-003   4.8551724377615596E-002
   2.5115879898957402E-002  -7.2920734970811397E-003   4.8468703072520117E-002
   2.3571753325182465E-002  -6.6610030731555359E-003   4.8550186055189570E-002
   2.5888491277140532E-002  -7.8683387589612019E-003   5.2038599309996825E-002
   2.4512979341355656E-002  -7.4744461778250004E-003   5.1752032079077304E-002
   2.3137467405570787E-002  -7.0085530893742448E-003   5.1638189836372472E-002
   2.1761955469785921E-002  -6.4706594936086263E-003   5.1697072581882789E-002
   2.0386443534001070E-002  -5.8607653905284329E-003   5.1928680315608100E-002
   2.2080637524992106E-002  -6.9526422070355365E-003   5.4826802856260862E-002
   2.0881960927647075E-002  -6.5953027397034347E-003   5.4670823872700516E-002
   1.9683284330302059E-002  -6.1608371674035725E-003   5.4695790577804847E-002
   1.8484607732957039E-002  -5.6492454901363332E-003   5.4901702971573971E-002
   1.7285931135612012E-002  -5.0605277079012190E-003   5.5288561054007979E-002
   1.8324698363836888E-002  -6.0369456551097739E-003   5.7575890489894324E-002
   1.7311077805381520E-002  -5.7161593015818135E-003   5.7555625351346118E-002
   1.6297457246926141E-002  -5.3131212454332090E-003   5.7724526601912629E-002
   1.5283836688470762E-002  -4.8278314866640410E-003   5.8082594241593545E-002
   1.4270216130015358E-002  -4.2602900252741716E-003   5.8629828270388859E-002
   1.4620673793674877E-002  -5.1212491031842888E-003   6.0285862210897212E-002
   1.3800329974558934E-002  -4.8370158634603033E-003   6.0406436515014206E-002
   1.2979986155442991E-002  -4.4654053234625818E-003   6.0724397908695577E-002
   1.2159642336327048E-002  -4.0064174831917383E-003   6.1239746391941283E-002
   1.1339298517211105E-002  -3.4600523426469021E-003   6.1952481964751338E-002
   2.3571753325182465E-002  -6.6610030731555359E-003   4.8550186055189570E-002
   2.1839081841760810E-002  -5.9979134941828272E-003   4.8439822824841994E-002
   2.0106410358339100E-002  -5.3376605147778533E-003   4.8491686540693579E-002
   1.8373738874917445E-002  -4.6802441349399898E-003   4.8705777202743994E-002
   1.6641067391495734E-002  -4.0256643546694448E-003   4.9082094810993349E-002
   2.0386443534001070E-002  -5.8607653905284329E-003   5.1928680315608100E-002
   1.8823676236307374E-002  -5.2255195441025526E-003   5.1898724907486704E-002
   1.7260908938613650E-002  -4.6115707182993321E-003   5.2046350924622481E-002
   1.5698141640919969E-002  -4.0189189131194271E-003   5.2371558367015333E-002
   1.4135374343226231E-002  -3.4475641285625080E-003   5.2874347234665164E-002
   1.7285931135612012E-002  -5.0605277079012190E-003   5.5288561054007979E-002
   1.5908422502704328E-002  -4.4531255940218062E-003   5.5320553047057117E-002
   1.4530913869796651E-002  -3.8854809218210329E-003   5.5545480944421605E-002
   1.3153405236888981E-002  -3.3575936912988089E-003   5.5963344746100832E-002
   1.1775896603981290E-002  -2.8694639024552382E-003   5.6574144452095493E-002
   1.4270216130015358E-002  -4.2602900252741716E-003   5.8629828270388859E-002
   1.3093320640951756E-002  -3.6807316439413512E-003   5.8705307243553217E-002
   1.1916425151888135E-002  -3.1593911253424561E-003   5.8989076600090597E-002
   1.0739529662824548E-002  -2.6962684694782739E-003   5.9481136340000781E-002
   9.5626341737609158E-003  -2.2913636763481349E-003   6.0181486463284528E-002
   1.1339298517211105E-002  -3.4600523426469021E-003   6.1952481964751338E-002
   1.0378370651049601E-002  -2.9083376938607297E-003   6.2052987496974910E-002
   9.4174427848880971E-003  -2.4333013288641570E-003   6.2377137891629464E-002
   8.4565149187265862E-003  -2.0349432476576695E-003   6.2924933148715195E-002
   7.4955870525650892E-003  -1.7132634502410315E-003   6.3696373268231965E-002
   1.6641067391495734E-002  -4.0256643546694448E-003   4.9082094810993349E-002
   1.4750128173771415E-002  -3.4400985491240821E-003   4.8956078478406995E-002
   1.2859188956047068E-002  -2.9897240934611546E-003   4.9087525564140311E-002
   1.0968249738322736E-002  -2.6745409876817311E-003   4.9476436068193186E-002
   9.0773105205984028E-003  -2.4945492317843820E-003   5.0122809990565287E-002
   1.4135374343226231E-002  -3.4475641285625080E-003   5.2874347234665164E-002
   1.2500411874161316E-002  -2.9526055521532091E-003   5.2759716168665372E-002
   1.0865449405096414E-002  -2.5891423714164419E-003   5.2899575181665437E-002
   9.2304869360315192E-003  -2.3571745863519705E-003   5.3293924273664611E-002
   7.5955244669665967E-003  -2.2567021969601697E-003   5.3942763444663144E-002
   1.1775896603981290E-002  -2.8694639024552382E-003   5.6574144452095493E-002
   1.0393937544255598E-002  -2.4651125551823361E-003   5.6474594606892969E-002
   9.0119784845298853E-003  -2.1885606493712573E-003   5.6626561501369660E-002
   7.6300194248041762E-003  -2.0398081850226471E-003   5.7030045135525551E-002
   6.2480603650784533E-003  -2.0188551621359019E-003   5.7685045509360378E-002
   9.5626341737609158E-003  -2.2913636763481349E-003   6.0181486463284528E-002
   8.4307051840541609E-003  -1.9776195582111855E-003   6.0100713793089552E-002
   7.2987761943474356E-003  -1.7879789273264196E-003   6.0268484523253417E-002
   6.1668472046407024E-003  -1.7224417836931051E-003   6.0684798653775962E-002
   5.0349182149339554E-003  -1.7810081273116063E-003   6.1349656184657889E-002
   7.4955870525650892E-003  -1.7132634502410315E-003   6.3696373268231965E-002
   6.6107147935570987E-003  -1.4901265612404790E-003   6.3638073727254940E-002
   5.7258425345490943E-003  -1.3873972052813599E-003   6.3825344247316285E-002
   4.8409702755411038E-003  -1.4050753823636741E-003   6.4258184828416387E-002
   3.9560980165331272E-003  -1.5431610924874217E-003   6.4936595470555192E-002
   9.0773105205984028E-003  -2.4945492317843820E-003   5.0122809990565287E-002
   7.6937276460755655E-003  -2.6813264109258328E-003   5.0504310492830329E-002
   6.3101447715527559E-003  -3.4664501102616985E-003   5.1218752653331201E-002
   4.9265618970299602E-003  -4.8499203297916460E-003   5.2266136472067515E-002
   3.5429790225071089E-003  -6.8317370695166746E-003   5.3646461949039215E-002
   7.5955244669665967E-003  -2.2567021969601697E-003   5.3942763444663144E-002
   6.5171251687538567E-003  -2.4750922136862474E-003   5.3878539848367268E-002
   5.4387258705411307E-003  -3.1997116469756892E-003   5.4091741746456229E-002
   4.3603265723283838E-003  -4.4305604968287587E-003   5.4582369138929901E-002
   3.2819272741156647E-003  -6.1676387632449980E-003   5.5350422025787771E-002
   6.2480603650784533E-003  -2.0188551621359019E-003   5.7685045509360378E-002
   5.4193284793248170E-003  -2.2688580164466343E-003   5.7267214918134857E-002
   4.5905965935711668E-003  -2.9329731836896800E-003   5.7071293657443123E-002
   3.7618647078175409E-003  -4.0112006638655384E-003   5.7097281727284913E-002
   2.9331328220638803E-003  -5.5035404569737101E-003   5.7345179127660156E-002
   5.0349182149339554E-003  -1.7810081273116063E-003   6.1349656184657889E-002
   4.4003375777884220E-003  -2.0626238192073126E-003   6.0670335702133413E-002
   3.7657569406429336E-003  -2.6662347204036707E-003   6.0157408386291911E-002
   3.1311763034974028E-003  -3.5918408309023736E-003   5.9810874237132661E-002
   2.4965956663519119E-003  -4.8394421507023389E-003   5.9630733254656156E-002
   3.9560980165331272E-003  -1.5431610924874217E-003   6.4936595470555192E-002
   3.4601524641447445E-003  -1.8563896219674914E-003   6.4087902200362867E-002
   2.9642069117563619E-003  -2.3994962571177170E-003   6.3350085933002287E-002
   2.4682613593679931E-003  -3.1724809979391672E-003   6.2723146668473284E-002
   1.9723158069796243E-003  -4.1753438444307456E-003   6.2207084406776358E-002
   3.5429790225071089E-003  -6.8317370695166746E-003   5.3646461949039215E-002
   4.1007377199695494E-003  -9.4263220484623877E-003   5.1950204240410414E-002
   4.6584964174319621E-003  -1.2648096985655805E-002   5.0110398520720689E-002
   5.2162551148943748E-003  -1.6497061881098139E-002   4.8127044789971124E-002
   5.7740138123568707E-003  -2.0973216734787137E-002   4.6000143048160691E-002
   3.2819272741156647E-003  -6.1676387632449980E-003   5.5350422025787771E-002
   3.7133361586016711E-003  -8.4406613542798437E-003   5.2987195216122551E-002
   4.1447450430877053E-003  -1.1279343177987344E-002   5.0514816791564554E-002
   4.5761539275736840E-003  -1.4683684234367431E-002   4.7933286752114224E-002
   5.0075628120597182E-003  -1.8653684523421088E-002   4.5242605097771671E-002
   2.9331328220638803E-003  -5.5035404569737101E-003   5.7345179127660156E-002
   3.2725882897415570E-003  -7.4550006600970220E-003   5.4376513942533122E-002
   3.6120437574192685E-003  -9.9105893703183429E-003   5.1333093538681582E-002
   3.9514992250969383E-003  -1.2870306587637614E-002   4.8214917916106138E-002
   4.2909546927746567E-003  -1.6334152312054817E-002   4.5021987074805869E-002
   2.4965956663519119E-003  -4.8394421507023389E-003   5.9630733254656156E-002
   2.7784941133893043E-003  -6.4693399659142281E-003   5.6118160419642474E-002
   3.0603925604267678E-003  -8.5418355626497230E-003   5.2565228762072744E-002
   3.3422910074642175E-003  -1.1056928940907684E-002   4.8971938281946216E-002
   3.6241894545016237E-003  -1.4014620100688657E-002   4.5338288979264174E-002
   1.9723158069796243E-003  -4.1753438444307456E-003   6.2207084406776358E-002
   2.2310536295448991E-003  -5.4836792717315452E-003   5.8212134647450786E-002
   2.4897914521101322E-003  -7.1730817549808257E-003   5.4211222461737041E-002
   2.7485292746753931E-003  -9.2435512941774073E-003   5.0204347849635345E-002
   3.0072670972406401E-003  -1.1695087889322497E-002   4.6191510811145697E-002
   2.8128019072429011E-002  -1.1210652446214220E-002   6.6111374374409504E-002
   2.6189901702331791E-002  -9.5105679379602903E-003   6.4286247077370018E-002
   2.4251784332234558E-002  -8.2521479564052758E-003   6.2521493290125185E-002
   2.2313666962137324E-002  -7.4353925015490235E-003   6.0817113012675172E-002
   2.0375549592040104E-002  -7.0603015733914365E-003   5.9173106245019813E-002
   2.2230448538874931E-002  -8.4079893349142121E-003   6.9825391279021098E-002
   2.0458743636752194E-002  -7.1329259537031009E-003   6.6963556989656919E-002
   1.8687038734629464E-002  -6.1891109675169392E-003   6.4374174126447081E-002
   1.6915333832506724E-002  -5.5765443763557930E-003   6.2057242689391542E-002
   1.5143628930383984E-002  -5.2952261802194922E-003   6.0012762678490178E-002
   1.5576588515678211E-002  -5.6053262236141488E-003   7.3059178990753065E-002
   1.4183373997889576E-002  -4.7552839694458282E-003   6.9271053840738131E-002
   1.2790159480100920E-002  -4.1260739786286305E-003   6.5967458033236864E-002
   1.1396944962312278E-002  -3.7176962511625902E-003   6.3148391568249654E-002
   1.0003730444523629E-002  -3.5301507870475479E-003   6.0813854445776264E-002
   8.1664390028389038E-003  -2.8026631123141410E-003   7.5812737509605377E-002
   7.3637927857439257E-003  -2.3776419851886388E-003   7.1208737630613347E-002
   6.5611465686489547E-003  -2.0630369897403078E-003   6.7301345010494729E-002
   5.7585003515539636E-003  -1.8588481259693736E-003   6.4090559649249687E-002
   4.9558541344589969E-003  -1.7650753938755759E-003   6.1576381546877987E-002
   3.5695058020479564E-013  -1.0140777106926180E-012   7.8086066835577950E-002
   3.1524088894840929E-013  -9.3133833978242819E-013   7.2776608359282791E-002
   2.7352425879811904E-013  -8.5201290467296076E-013   6.8375835058220646E-002
   2.3181109809478073E-013  -7.7613609983373522E-013   6.4883746932391462E-002
   1.9009793739144243E-013  -7.0360384185619296E-013   6.2300343981795514E-002
   2.0375549592040104E-002  -7.0603015733914365E-003   5.9173106245019813E-002
   1.9672066025025303E-002  -6.8894050553902353E-003   5.8920883484182951E-002
   1.8968582458010488E-002  -6.6852328310024051E-003   5.8901733606253420E-002
   1.8265098890995687E-002  -6.4477849002279007E-003   5.9115656611231318E-002
   1.7561615323980873E-002  -6.1770612630670518E-003   5.9562652499116464E-002
   1.5143628930383984E-002  -5.2952261802194922E-003   6.0012762678490178E-002
   1.4658917748486655E-002  -5.1670537917013482E-003   5.9867377838746766E-002
   1.4174206566589312E-002  -5.0139246233942697E-003   5.9926464886330924E-002
   1.3689495384691976E-002  -4.8358386752985448E-003   6.0190023821242535E-002
   1.3204784202794626E-002  -4.6327959474138924E-003   6.0658054643481646E-002
   1.0003730444523629E-002  -3.5301507870475479E-003   6.0813854445776264E-002
   9.7091906521638849E-003  -3.4447025280125304E-003   6.0766988600528690E-002
   9.4146508598041447E-003  -3.3426164157863633E-003   6.0895993647028697E-002
   9.1201110674444009E-003  -3.2238924503690796E-003   6.1200869585276416E-002
   8.8255712750846607E-003  -3.0885306317606775E-003   6.1681616415271687E-002
   4.9558541344589969E-003  -1.7650753938755759E-003   6.1576381546877987E-002
   4.8228847360569814E-003  -1.7223512643237057E-003   6.1619715769528502E-002
   4.6899153376549676E-003  -1.6713082081783424E-003   6.1810319888346746E-002
   4.5569459392529564E-003  -1.6119462254397246E-003   6.2148193903332830E-002
   4.4239765408509383E-003  -1.5442653161074904E-003   6.2633337814486628E-002
   1.9009793739144243E-013  -7.0360384185619296E-013   6.2300343981795514E-002
   1.6595405605279723E-013  -6.3488103663189577E-013   6.2425559345746340E-002
   1.4180323582024812E-013  -5.7036320111336636E-013   6.2669443610285119E-002
   1.1765415031117499E-013  -5.1024115488296218E-013   6.3031996775411839E-002
   9.3508534249053810E-014  -4.5435877282784531E-013   6.3513218841126429E-002
   1.7561615323980873E-002  -6.1770612630670518E-003   5.9562652499116464E-002
   1.6826379941404387E-002  -5.8955518853087419E-003   5.9493115073339653E-002
   1.6091144558827888E-002  -5.6257467327420901E-003   5.9590470883377378E-002
   1.5355909176251396E-002  -5.3676458053674748E-003   5.9854719929229958E-002
   1.4620673793674877E-002  -5.1212491031842888E-003   6.0285862210897212E-002
   1.3204784202794626E-002  -4.6327959474138924E-003   6.0658054643481646E-002
   1.2640670958489267E-002  -4.4216639140821912E-003   6.0560123116594006E-002
   1.2076557714183894E-002  -4.2193100496453334E-003   6.0637542630434041E-002
   1.1512444469878525E-002  -4.0257343541033781E-003   6.0890313185001592E-002
   1.0948331225573163E-002  -3.8409368274563982E-003   6.1318434780296471E-002
   8.8255712750846607E-003  -3.0885306317606775E-003   6.1681616415271687E-002
   8.4410379739631794E-003  -2.9477759428556544E-003   6.1558216843570421E-002
   8.0565046728417189E-003  -2.8128733665486808E-003   6.1618626117509241E-002
   7.6719713717202428E-003  -2.6838229028396127E-003   6.1862844237088474E-002
   7.2874380705987771E-003  -2.5606245517284798E-003   6.2290871202307960E-002
   4.4239765408509383E-003  -1.5442653161074904E-003   6.2633337814486628E-002
   4.2274809878261477E-003  -1.4738879716290829E-003   6.2487396254268315E-002
   4.0309854348013364E-003  -1.4064366834519761E-003   6.2533721344603194E-002
   3.8344898817765359E-003  -1.3419114515756817E-003   6.2772313085491013E-002
   3.6379943287517345E-003  -1.2803122760006863E-003   6.3203171476932024E-002
   9.3508534249053810E-014  -4.5435877282784531E-013   6.3513218841126429E-002
   7.8138884251899299E-014  -4.0262237988031302E-013   6.3347661348688189E-002
   6.2776173148648695E-014  -3.5527136788005009E-013   6.3382828311715766E-002
   4.7411727321922115E-014  -3.1180613646597521E-013   6.3618719730209189E-002
   3.2043812048243581E-014  -2.7272628599916970E-013   6.4055335604168373E-002
   1.4620673793674877E-002  -5.1212491031842888E-003   6.0285862210897212E-002
   1.3800329974558934E-002  -4.8370158634603033E-003   6.0406436515014206E-002
   1.2979986155442991E-002  -4.4654053234625818E-003   6.0724397908695577E-002
   1.2159642336327048E-002  -4.0064174831917383E-003   6.1239746391941283E-002
   1.1339298517211105E-002  -3.4600523426469021E-003   6.1952481964751338E-002
   1.0948331225573163E-002  -3.8409368274563982E-003   6.1318434780296471E-002
   1.0327299212324503E-002  -3.6277618976542914E-003   6.1528838351582849E-002
   9.7062671990758784E-003  -3.3490539926474827E-003   6.1940478445039637E-002
   9.0852351858272153E-003  -3.0048131124358543E-003   6.2553355060666699E-002
   8.4642031725786077E-003  -2.5950392570193714E-003   6.3367468198464172E-002
   7.2874380705987771E-003  -2.5606245517284798E-003   6.2290871202307960E-002
   6.8695672958233624E-003  -2.4185079318485014E-003   6.2569259715695186E-002
   6.4516965210479615E-003  -2.2327026618323212E-003   6.3052734183858622E-002
   6.0338257462725642E-003  -2.0032087416799130E-003   6.3741294606798352E-002
   5.6159549714971460E-003  -1.7300261713916187E-003   6.4634940984514166E-002
   3.6379943287517345E-003  -1.2803122760006863E-003   6.3203171476932024E-002
   3.4271342250555038E-003  -1.2092539660424895E-003   6.3527700607351162E-002
   3.2162741213592784E-003  -1.1163513310170244E-003   6.4061165125152655E-002
   3.0054140176630452E-003  -1.0016043709241669E-003   6.4803565030336158E-002
   2.7945539139668223E-003  -8.6501308576408809E-004   6.5754900322901919E-002
   3.2043812048243581E-014  -2.7272628599916970E-013   6.4055335604168373E-002
   2.0927704014184201E-014  -2.3658852654762086E-013   6.4404161026550943E-002
   9.8011876392689601E-015  -2.0196344596712379E-013   6.4965771268921585E-002
  -1.3287981825982342E-015  -1.6817450210204754E-013   6.5740166331280173E-002
  -1.2441436769705660E-014  -1.3622436512150671E-013   6.6727346213627081E-002
   1.1339298517211105E-002  -3.4600523426469021E-003   6.1952481964751338E-002
   1.0378370651049601E-002  -2.9083376938607297E-003   6.2052987496974910E-002
   9.4174427848880971E-003  -2.4333013288641570E-003   6.2377137891629464E-002
   8.4565149187265862E-003  -2.0349432476576695E-003   6.2924933148715195E-002
   7.4955870525650892E-003  -1.7132634502410315E-003   6.3696373268231965E-002
   8.4642031725786077E-003  -2.5950392570193714E-003   6.3367468198464172E-002
   7.7310669448751590E-003  -2.1812532704221788E-003   6.3431874151948897E-002
   6.9979307171717173E-003  -1.8249759966684348E-003   6.3728218519918695E-002
   6.2647944894682721E-003  -1.5262074357579071E-003   6.4256501302373523E-002
   5.5316582617648408E-003  -1.2849475876908212E-003   6.5016722499313284E-002
   5.6159549714971460E-003  -1.7300261713916187E-003   6.4634940984514166E-002
   5.1189039343056894E-003  -1.4541688469837666E-003   6.4682416930207029E-002
   4.6218528971142224E-003  -1.2166506644726016E-003   6.4970124842438720E-002
   4.1248018599227571E-003  -1.0174716238581447E-003   6.5498064721209337E-002
   3.6277508227312849E-003  -8.5663172514061081E-004   6.6266236566518921E-002
   2.7945539139668223E-003  -8.6501308576408809E-004   6.5754900322901919E-002
   2.5418816193412026E-003  -7.2708442354517400E-004   6.5804615831749236E-002
   2.2892093247155873E-003  -6.0832533227671293E-004   6.6102856859189291E-002
   2.0365370300899767E-003  -5.0873581195849324E-004   6.6649623405222333E-002
   1.7838647354643522E-003  -4.2831586259040044E-004   6.7444915469848099E-002
  -1.2441436769705660E-014  -1.3622436512150671E-013   6.6727346213627081E-002
  -1.8304802118507268E-014  -1.0691447727140257E-013   6.6798470856575531E-002
  -2.4168167467308876E-014  -8.1046280797636427E-014   6.7126414570170601E-002
  -3.0026328645682554E-014  -5.8730798002670781E-014   6.7711177354412427E-002
  -3.5894898164912092E-014  -4.0079051188968151E-014   6.8552759209301040E-002
   7.4955870525650892E-003  -1.7132634502410315E-003   6.3696373268231965E-002
   6.6107147935570987E-003  -1.4901265612404790E-003   6.3638073727254940E-002
   5.7258425345490943E-003  -1.3873972052813599E-003   6.3825344247316285E-002
   4.8409702755411038E-003  -1.4050753823636741E-003   6.4258184828416387E-002
   3.9560980165331272E-003  -1.5431610924874217E-003   6.4936595470555192E-002
   5.5316582617648408E-003  -1.2849475876908212E-003   6.5016722499313284E-002
   4.8862680647238921E-003  -1.1175949209365488E-003   6.4906999719619829E-002
   4.2408778676829156E-003  -1.0405479039634624E-003   6.5030671002821616E-002
   3.5954876706419427E-003  -1.0538065367719784E-003   6.5387736348918479E-002
   2.9500974736009766E-003  -1.1573708193624022E-003   6.5978195757911140E-002
   3.6277508227312849E-003  -8.5663172514061081E-004   6.6266236566518921E-002
   3.2096666895141054E-003  -7.4506328063222993E-004   6.6135192431368617E-002
   2.7915825562969260E-003  -6.9369860264578698E-004   6.6225366360970567E-002
   2.3734984230797465E-003  -7.0253769118050480E-004   6.6536758355324466E-002
   1.9554142898625670E-003  -7.7158054623727157E-004   6.7069368414430952E-002
   1.7838647354643522E-003  -4.2831586259040044E-004   6.7444915469848099E-002
   1.5809106679277613E-003  -3.7253164032821640E-004   6.7322651862501193E-002
   1.3779566003911496E-003  -3.4684930132800051E-004   6.7409430321762956E-002
   1.1750025328545449E-003  -3.5126884558914218E-004   6.7705250847634041E-002
   9.7204846531794703E-004  -3.8579027311225200E-004   6.8210113440114004E-002
  -3.5894898164912092E-014  -4.0079051188968151E-014   6.8552759209301040E-002
  -3.5152436517194019E-014  -2.4036328483134639E-014   6.8469378013017335E-002
  -3.4416913763379853E-014  -1.0186296250935811E-014   6.8582862885199491E-002
  -3.3681391009565687E-014   2.5604518505417673E-015   6.8893213825847233E-002
  -3.2938929361847613E-014   1.2878587085651816E-014   6.9400430834960725E-002
   3.9560980165331272E-003  -1.5431610924874217E-003   6.4936595470555192E-002
   3.4601524641447445E-003  -1.8563896219674914E-003   6.4087902200362867E-002
   2.9642069117563619E-003  -2.3994962571177170E-003   6.3350085933002287E-002
   2.4682613593679931E-003  -3.1724809979391672E-003   6.2723146668473284E-002
   1.9723158069796243E-003  -4.1753438444307456E-003   6.2207084406776358E-002
   2.9500974736009766E-003  -1.1573708193624022E-003   6.5978195757911140E-002
   2.5683062703608095E-003  -1.3922922164698037E-003   6.4942953850767482E-002
   2.1865150671206424E-003  -1.7996221928308076E-003   6.4025143639088483E-002
   1.8047238638804822E-003  -2.3793607484442203E-003   6.3224765122874241E-002
   1.4229326606403081E-003  -3.1315078833109578E-003   6.2541818302124907E-002
   1.9554142898625670E-003  -7.7158054623727157E-004   6.7069368414430952E-002
   1.6943321284037111E-003  -9.2819481097253242E-004   6.5905047396753125E-002
   1.4332499669448655E-003  -1.1997481285434264E-003   6.4864712767173094E-002
   1.1721678054860130E-003  -1.5862404989495996E-003   6.3948364525691193E-002
   9.1108564402716391E-004  -2.0876719221916140E-003   6.3156002672306866E-002
   9.7204846531794703E-004  -3.8579027311225200E-004   6.8210113440114004E-002
   8.3823003827350126E-004  -4.6409740547516398E-004   6.6974182838319823E-002
   7.0441161122906156E-004  -5.9987406425600354E-004   6.5868793317256730E-002
   5.7059318418460798E-004  -7.9312024945492679E-004   6.4893944876924500E-002
   4.3677475714017609E-004  -1.0438359610718262E-003   6.4049637517323385E-002
  -3.2938929361847613E-014   1.2878587085651816E-014   6.9400430834960725E-002
  -2.9878877150224525E-014   2.2426505097428162E-014   6.8150360175467606E-002
  -2.6798008256889716E-014   3.0864200084579352E-014   6.7037385289338502E-002
  -2.3729282427886744E-014   3.9745984281580604E-014   6.6061506176573637E-002
  -2.0657087151931819E-014   4.7517545453956700E-014   6.5222722837172675E-002
   1.9723158069796243E-003  -4.1753438444307456E-003   6.2207084406776358E-002
   2.2310536295448991E-003  -5.4836792717315452E-003   5.8212134647450786E-002
   2.4897914521101322E-003  -7.1730817549808257E-003   5.4211222461737041E-002
   2.7485292746753931E-003  -9.2435512941774073E-003   5.0204347849635345E-002
   3.0072670972406401E-003  -1.1695087889322497E-002   4.6191510811145697E-002
   1.4229326606403081E-003  -3.1315078833109578E-003   6.2541818302124907E-002
   1.6610275495039933E-003  -4.1127594537844758E-003   5.8236290491258058E-002
   1.8991224383676716E-003  -5.3798113162179528E-003   5.3895439239376175E-002
   2.1372173272313777E-003  -6.9326634706112084E-003   4.9519264546479508E-002
   2.3753122160950213E-003  -8.7713159169646726E-003   4.5107766412567640E-002
   9.1108564402716391E-004  -2.0876719221916140E-003   6.3156002672306866E-002
   1.0991765845624057E-003  -2.7418396358373509E-003   5.8635163573887039E-002
   1.2872675250976441E-003  -3.5865408774551077E-003   5.4049640019824902E-002
   1.4753584656328825E-003  -4.6217756470451829E-003   4.9399432010121133E-002
   1.6634494061681243E-003  -5.8475439446070698E-003   4.4684539544775137E-002
   4.3677475714017609E-004  -1.0438359610718262E-003   6.4049637517323385E-002
   5.4550073472009464E-004  -1.3709198178901427E-003   5.9408753895337466E-002
   6.5422671229999844E-004  -1.7932704386921378E-003   5.4673824803082811E-002
   7.6295268987993346E-004  -2.3108878234789597E-003   4.9844850240560415E-002
   8.7167866745983466E-004  -2.9237719722493560E-003   4.4921830207767938E-002
  -2.0657087151931819E-014   4.7517545453956700E-014   6.5222722837172675E-002
  -2.2933044352413390E-014   5.6954441163270531E-014   6.0557061455609462E-002
  -2.5209001552894961E-014   7.0554673214928698E-014   5.5767993589150633E-002
  -2.7483224029900555E-014   8.7249651947729490E-014   5.0855519237796465E-002
  -2.9767854847762010E-014   1.0835776720341528E-013   4.5819638401546570E-002
   3.5695058020479564E-013  -1.0140777106926180E-012   7.8086066835577950E-002
   3.1524088894840929E-013  -9.3133833978242819E-013   7.2776608359282791E-002
   2.7352425879811904E-013  -8.5201290467296076E-013   6.8375835058220646E-002
   2.3181109809478073E-013  -7.7613609983373522E-013   6.4883746932391462E-002
   1.9009793739144243E-013  -7.0360384185619296E-013   6.2300343981795514E-002
  -8.1664390021276498E-003   2.8026631102850974E-003   7.5812737509735023E-002
  -7.3637927851155638E-003   2.3776419833339280E-003   7.1208737630730184E-002
  -6.5611465681034865E-003   2.0630369880502986E-003   6.7301345010599686E-002
  -5.7585003510914048E-003   1.8588481244344451E-003   6.4090559649343820E-002
  -4.9558541340793232E-003   1.7650753924862150E-003   6.1576381546962461E-002
  -1.5576588514974942E-002   5.6053262215843003E-003   7.3059178991022905E-002
  -1.4183373997267580E-002   4.7552839675990694E-003   6.9271053840979119E-002
  -1.2790159479560234E-002   4.1260739769525684E-003   6.5967458033451484E-002
  -1.1396944961852883E-002   3.7176962496449188E-003   6.3148391568439793E-002
  -1.0003730444145528E-002   3.5301507856760062E-003   6.0813854445944102E-002
  -2.2230448538184931E-002   8.4079893328834754E-003   6.9825391279441013E-002
  -2.0458743636140808E-002   7.1329259518643010E-003   6.6963556990029746E-002
  -1.8687038734096731E-002   6.1891109658548868E-003   6.4374174126775943E-002
  -1.6915333832052626E-002   5.5765443748554185E-003   6.2057242689679458E-002
  -1.5143628930008517E-002   5.2952261788658112E-003   6.0012762678740672E-002
  -2.8128019071757583E-002   1.1210652444182678E-002   6.6111374374989706E-002
  -2.6189901701735255E-002   9.5105679361294215E-003   6.4286247077881997E-002
  -2.4251784331712937E-002   8.2521479547571219E-003   6.2521493290572938E-002
  -2.2313666961690619E-002   7.4353925000659252E-003   6.0817113013063029E-002
  -2.0375549591668304E-002   7.0603015720555606E-003   5.9173106245351992E-002
   1.9009793739144243E-013  -7.0360384185619296E-013   6.2300343981795514E-002
   1.6595405605279723E-013  -6.3488103663189577E-013   6.2425559345746340E-002
   1.4180323582024812E-013  -5.7036320111336636E-013   6.2669443610285119E-002
   1.1765415031117499E-013  -5.1024115488296218E-013   6.3031996775411839E-002
   9.3508534249053810E-014  -4.5435877282784531E-013   6.3513218841126429E-002
  -4.9558541340793232E-003   1.7650753924862150E-003   6.1576381546962461E-002
  -4.8228847357255564E-003   1.7223512630707427E-003   6.1619715769603178E-002
  -4.6899153373717913E-003   1.6713082070531904E-003   6.1810319888411874E-002
  -4.5569459390180323E-003   1.6119462244332944E-003   6.2148193903388466E-002
  -4.4239765406642664E-003   1.5442653152114016E-003   6.2633337814532952E-002
  -1.0003730444145528E-002   3.5301507856760062E-003   6.0813854445944102E-002
  -9.7091906518339058E-003   3.4447025267763942E-003   6.0766988600676919E-002
  -9.4146508595222660E-003   3.3426164146767925E-003   6.0895993647157677E-002
  -9.1201110672106261E-003   3.2238924493769392E-003   6.1200869585386217E-002
  -8.8255712748990019E-003   3.0885306308770788E-003   6.1681616415362628E-002
  -1.5143628930008517E-002   5.2952261788658112E-003   6.0012762678740672E-002
  -1.4658917748159054E-002   5.1670537904819486E-003   5.9867377838967659E-002
  -1.4174206566309598E-002   5.0139246223004259E-003   5.9926464886522458E-002
  -1.3689495384460137E-002   4.8358386743206404E-003   6.0190023821405043E-002
  -1.3204784202610674E-002   4.6327959465428253E-003   6.0658054643615303E-002
  -2.0375549591668304E-002   7.0603015720555606E-003   5.9173106245351992E-002
  -1.9672066024701056E-002   6.8894050541876140E-003   5.8920883484475189E-002
  -1.8968582457733793E-002   6.6852328299239761E-003   5.8901733606506163E-002
  -1.8265098890766551E-002   6.4477848992641265E-003   5.9115656611444828E-002
  -1.7561615323799289E-002   6.1770612622084609E-003   5.9562652499291435E-002
   9.3508534249053810E-014  -4.5435877282784531E-013   6.3513218841126429E-002
   7.8138884251899299E-014  -4.0262237988031302E-013   6.3347661348688189E-002
   6.2776173148648695E-014  -3.5527136788005009E-013   6.3382828311715766E-002
   4.7411727321922115E-014  -3.1180613646597521E-013   6.3618719730209189E-002
   3.2043812048243581E-014  -2.7272628599916970E-013   6.4055335604168373E-002
  -4.4239765406642664E-003   1.5442653152114016E-003   6.2633337814532952E-002
  -4.2274809876700660E-003   1.4738879708348085E-003   6.2487396254306021E-002
  -4.0309854346758604E-003   1.4064366827513664E-003   6.2533721344632254E-002
  -3.8344898816816634E-003   1.3419114509609503E-003   6.2772313085511844E-002
  -3.6379943286874543E-003   1.2803122754637131E-003   6.3203171476944819E-002
  -8.8255712748990019E-003   3.0885306308770788E-003   6.1681616415362628E-002
  -8.4410379738077256E-003   2.9477759420723781E-003   6.1558216843644098E-002
  -8.0565046727164493E-003   2.8128733658578930E-003   6.1618626117566466E-002
  -7.6719713716251730E-003   2.6838229022338733E-003   6.1862844237129677E-002
  -7.2874380705338967E-003   2.5606245512000692E-003   6.2290871202333550E-002
  -1.3204784202610674E-002   4.6327959465428253E-003   6.0658054643615303E-002
  -1.2640670958334833E-002   4.4216639133098784E-003   6.0560123116702738E-002
  -1.2076557714058999E-002   4.2193100489643642E-003   6.0637542630518265E-002
  -1.1512444469783157E-002   4.0257343535067686E-003   6.0890313185062162E-002
  -1.0948331225507325E-002   3.8409368269364669E-003   6.1318434780334469E-002
  -1.7561615323799289E-002   6.1770612622084609E-003   5.9562652499291435E-002
  -1.6826379941251399E-002   5.8955518845473787E-003   5.9493115073481762E-002
  -1.6091144558703495E-002   5.6257467320710158E-003   5.9590470883487817E-002
  -1.5355909176155601E-002   5.3676458047796256E-003   5.9854719929309727E-002
  -1.4620673793607701E-002   5.1212491026729756E-003   6.0285862210947561E-002
   3.2043812048243581E-014  -2.7272628599916970E-013   6.4055335604168373E-002
   2.0927704014184201E-014  -2.3658852654762086E-013   6.4404161026550943E-002
   9.8011876392689601E-015  -2.0196344596712379E-013   6.4965771268921585E-002
  -1.3287981825982342E-015  -1.6817450210204754E-013   6.5740166331280173E-002
  -1.2441436769705660E-014  -1.3622436512150671E-013   6.6727346213627081E-002
  -3.6379943286874543E-003   1.2803122754637131E-003   6.3203171476944819E-002
  -3.4271342250133622E-003   1.2092539655775003E-003   6.3527700607361653E-002
  -3.2162741213392770E-003   1.1163513306210043E-003   6.4061165125160802E-002
  -3.0054140176651884E-003   1.0016043705942564E-003   6.4803565030342292E-002
  -2.7945539139910998E-003   8.6501308549691291E-004   6.5754900322906040E-002
  -7.2874380705338967E-003   2.5606245512000692E-003   6.2290871202333550E-002
  -6.8695672957803534E-003   2.4185079313918112E-003   6.2569259715715544E-002
  -6.4516965210267892E-003   2.2327026614439791E-003   6.3052734183874221E-002
  -6.0338257462732294E-003   2.0032087413569110E-003   6.3741294606809398E-002
  -5.6159549715196818E-003   1.7300261711302167E-003   6.4634940984521300E-002
  -1.0948331225507325E-002   3.8409368269364669E-003   6.1318434780334469E-002
  -1.0327299212280028E-002   3.6277618972061221E-003   6.1528838351612658E-002
  -9.7062671990527337E-003   3.3490539922670058E-003   6.1940478445061772E-002
  -9.0852351858254354E-003   3.0048131121195093E-003   6.2553355060681909E-002
  -8.4642031725981424E-003   2.5950392567635483E-003   6.3367468198472748E-002
  -1.4620673793607701E-002   5.1212491026729756E-003   6.0285862210947561E-002
  -1.3800329974512394E-002   4.8370158630201554E-003   6.0406436515053008E-002
  -1.2979986155417112E-002   4.4654053230898383E-003   6.0724397908723637E-002
  -1.2159642336321821E-002   4.0064174828820867E-003   6.1239746391959338E-002
  -1.1339298517226523E-002   3.4600523423967688E-003   6.1952481964760331E-002
  -1.2441436769705660E-014  -1.3622436512150671E-013   6.6727346213627081E-002
  -1.8304802118507268E-014  -1.0691447727140257E-013   6.6798470856575531E-002
  -2.4168167467308876E-014  -8.1046280797636427E-014   6.7126414570170601E-002
  -3.0026328645682554E-014  -5.8730798002670781E-014   6.7711177354412427E-002
  -3.5894898164912092E-014  -4.0079051188968151E-014   6.8552759209301040E-002
  -2.7945539139910998E-003   8.6501308549691291E-004   6.5754900322906040E-002
  -2.5418816193771843E-003   7.2708442333618839E-004   6.5804615831747459E-002
  -2.2892093247632739E-003   6.0832533211818696E-004   6.6102856859181658E-002
  -2.0365370301493576E-003   5.0873581184335270E-004   6.6649623405208802E-002
  -1.7838647355354481E-003   4.2831586251190767E-004   6.7444915469828670E-002
  -5.6159549715196818E-003   1.7300261711302167E-003   6.4634940984521300E-002
  -5.1189039343398166E-003   1.4541688467787917E-003   6.4682416930202241E-002
  -4.6218528971599428E-003   1.2166506643173092E-003   6.4970124842422344E-002
  -4.1248018599800863E-003   1.0174716237456027E-003   6.5498064721181443E-002
  -3.6277508228002176E-003   8.5663172506361684E-004   6.6266236566479592E-002
  -8.4642031725981424E-003   2.5950392567635483E-003   6.3367468198472748E-002
  -7.7310669449061741E-003   2.1812532702215892E-003   6.3431874151940057E-002
  -6.9979307172141928E-003   1.8249759965163759E-003   6.3728218519892701E-002
  -6.2647944895222185E-003   1.5262074356478250E-003   6.4256501302330446E-002
  -5.5316582618302433E-003   1.2849475876154093E-003   6.5016722499253554E-002
  -1.1339298517226523E-002   3.4600523423967688E-003   6.1952481964760331E-002
  -1.0378370651076253E-002   2.9083376936644978E-003   6.2052987496960754E-002
  -9.4174427849260042E-003   2.4333013287156646E-003   6.2377137891592715E-002
  -8.4565149187757482E-003   2.0349432475499363E-003   6.2924933148655743E-002
  -7.4955870526254853E-003   1.7132634501673127E-003   6.3696373268150475E-002
  -3.5894898164912092E-014  -4.0079051188968151E-014   6.8552759209301040E-002
  -3.5152436517194019E-014  -2.4036328483134639E-014   6.8469378013017335E-002
  -3.4416913763379853E-014  -1.0186296250935811E-014   6.8582862885199491E-002
  -3.3681391009565687E-014   2.5604518505417673E-015   6.8893213825847233E-002
  -3.2938929361847613E-014   1.2878587085651816E-014   6.9400430834960725E-002
  -1.7838647355354481E-003   4.2831586251190767E-004   6.7444915469828670E-002
  -1.5809106679973289E-003   3.7253164028056007E-004   6.7322651862479710E-002
  -1.3779566004592063E-003   3.4684930130782221E-004   6.7409430321739489E-002
  -1.1750025329210836E-003   3.5126884559303490E-004   6.7705250847608658E-002
  -9.7204846538296447E-004   3.8579027313634384E-004   6.8210113440086539E-002
  -3.6277508228002176E-003   8.5663172506361684E-004   6.6266236566479592E-002
  -3.2096666895814353E-003   7.4506328058573934E-004   6.6135192431325013E-002
  -2.7915825563626399E-003   6.9369860262570582E-004   6.6225366360922647E-002
  -2.3734984231438584E-003   7.0253769118372791E-004   6.6536758355272840E-002
  -1.9554142899250622E-003   7.7158054625992012E-004   6.7069368414374941E-002
  -5.5316582618302433E-003   1.2849475876154093E-003   6.5016722499253554E-002
  -4.8862680647874914E-003   1.1175949208905717E-003   6.4906999719553216E-002
  -4.2408778677447308E-003   1.0405479039437629E-003   6.5030671002748647E-002
  -3.5954876707019754E-003   1.0538065367745337E-003   6.5387736348839584E-002
  -2.9500974736592191E-003   1.1573708193832744E-003   6.5978195757826083E-002
  -7.4955870526254853E-003   1.7132634501673127E-003   6.3696373268150475E-002
  -6.6107147936154756E-003   1.4901265611955705E-003   6.3638073727164679E-002
  -5.7258425346054694E-003   1.3873972052615147E-003   6.3825344247217530E-002
  -4.8409702755954596E-003   1.4050753823653186E-003   6.4258184828309556E-002
  -3.9560980165854534E-003   1.5431610925069617E-003   6.4936595470440173E-002
  -3.2938929361847613E-014   1.2878587085651816E-014   6.9400430834960725E-002
  -2.9878877150224525E-014   2.2426505097428162E-014   6.8150360175467606E-002
  -2.6798008256889716E-014   3.0864200084579352E-014   6.7037385289338502E-002
  -2.3729282427886744E-014   3.9745984281580604E-014   6.6061506176573637E-002
  -2.0657087151931819E-014   4.7517545453956700E-014   6.5222722837172675E-002
  -9.7204846538296447E-004   3.8579027313634384E-004   6.8210113440086539E-002
  -8.3823003833255472E-004   4.6409740551756062E-004   6.6974182838293039E-002
  -7.0441161128213456E-004   5.9987406431605272E-004   6.5868793317230390E-002
  -5.7059318423171093E-004   7.9312024953248628E-004   6.4893944876898091E-002
  -4.3677475718130465E-004   1.0438359611659731E-003   6.4049637517296754E-002
  -1.9554142899250622E-003   7.7158054625992012E-004   6.7069368414374941E-002
  -1.6943321284607279E-003   9.2819481101269474E-004   6.5905047396699334E-002
  -1.4332499669963920E-003   1.1997481286009082E-003   6.4864712767120858E-002
  -1.1721678055320573E-003   1.5862404990246715E-003   6.3948364525639775E-002
  -9.1108564406772174E-004   2.0876719222839846E-003   6.3156002672255629E-002
  -2.9500974736592191E-003   1.1573708193832744E-003   6.5978195757826083E-002
  -2.5683062704144038E-003   1.3922922165082174E-003   6.4942953850686214E-002
  -2.1865150671695741E-003   1.7996221928858191E-003   6.4025143639009879E-002
  -1.8047238639247484E-003   2.3793607485171342E-003   6.3224765122797497E-002
  -1.4229326606799292E-003   3.1315078834024401E-003   6.2541818302048857E-002
  -3.9560980165854534E-003   1.5431610925069617E-003   6.4936595470440173E-002
  -3.4601524641935666E-003   1.8563896220030185E-003   6.4087902200253843E-002
  -2.9642069118016798E-003   2.3994962571708689E-003   6.3350085932897870E-002
  -2.4682613594097930E-003   3.1724809980095761E-003   6.2723146668372282E-002
  -1.9723158070179062E-003   4.1753438445203406E-003   6.2207084406676771E-002
  -2.0657087151931819E-014   4.7517545453956700E-014   6.5222722837172675E-002
  -2.2933044352413390E-014   5.6954441163270531E-014   6.0557061455609462E-002
  -2.5209001552894961E-014   7.0554673214928698E-014   5.5767993589150633E-002
  -2.7483224029900555E-014   8.7249651947729490E-014   5.0855519237796465E-002
  -2.9767854847762010E-014   1.0835776720341528E-013   4.5819638401546570E-002
  -4.3677475718130465E-004   1.0438359611659731E-003   6.4049637517296754E-002
  -5.4550073476570399E-004   1.3709198180030802E-003   5.9408753895318356E-002
  -6.5422671235009291E-004   1.7932704388307630E-003   5.4673824803071314E-002
  -7.6295268993447317E-004   2.3108878236486191E-003   4.9844850240555738E-002
  -8.7167866751888118E-004   2.9237719724568567E-003   4.4921830207771851E-002
  -9.1108564406772174E-004   2.0876719222839846E-003   6.3156002672255629E-002
  -1.0991765846071911E-003   2.7418396359493724E-003   5.8635163573848126E-002
  -1.2872675251466691E-003   3.5865408775912211E-003   5.4049640019799533E-002
  -1.4753584656861502E-003   4.6217756472098845E-003   4.9399432010109198E-002
  -1.6634494062256026E-003   5.8475439448053557E-003   4.4684539544776691E-002
  -1.4229326606799292E-003   3.1315078834024401E-003   6.2541818302048857E-002
  -1.6610275495474590E-003   4.1127594538955814E-003   5.8236290491199119E-002
  -1.8991224384149823E-003   5.3798113163517763E-003   5.3895439239335131E-002
  -2.1372173272824918E-003   6.9326634707710909E-003   4.9519264546457151E-002
  -2.3753122161500355E-003   8.7713159171538546E-003   4.5107766412563310E-002
  -1.9723158070179062E-003   4.1753438445203406E-003   6.2207084406676771E-002
  -2.2310536295864491E-003   5.4836792718416794E-003   5.8212134647371516E-002
  -2.4897914521549887E-003   7.1730817551120263E-003   5.4211222461678588E-002
  -2.7485292747234952E-003   9.2435512943322765E-003   5.0204347849598013E-002
  -3.0072670972920712E-003   1.1695087889502354E-002   4.6191510811129710E-002
  -2.8128019071757583E-002   1.1210652444182678E-002   6.6111374374989706E-002
  -2.6189901701735255E-002   9.5105679361294215E-003   6.4286247077881997E-002
  -2.4251784331712937E-002   8.2521479547571219E-003   6.2521493290572938E-002
  -2.2313666961690619E-002   7.4353925000659252E-003   6.0817113013063029E-002
  -2.0375549591668304E-002   7.0603015720555606E-003   5.9173106245351992E-002
  -3.4301320960237441E-002   1.0894420614283362E-002   6.4854183688882738E-002
  -3.2127249562723052E-002   1.0137908320026451E-002   6.2169927857118834E-002
  -2.9953178165208587E-002   9.4858177932937993E-003   5.9897206570540179E-002
  -2.7779106767694191E-002   8.9381490340853867E-003   5.8036019829146787E-002
  -2.5605035370179760E-002   8.4949020424011923E-003   5.6586367632938644E-002
  -4.1782375048169014E-002   1.0578188784383935E-002   6.4709186596150409E-002
  -3.9021188587776270E-002   1.0765248703923452E-002   6.0828559470573779E-002
  -3.6260002127383409E-002   1.0719487631830379E-002   5.7710627925568705E-002
  -3.3498815666990589E-002   1.0440905568104872E-002   5.5355391961135252E-002
  -3.0737629206597790E-002   9.9295025127467962E-003   5.3762851577273230E-002
  -5.0571181335552398E-002   1.0261956954484563E-002   6.5676383096792967E-002
  -4.6871718776894888E-002   1.1392589087820468E-002   6.0262141918246810E-002
  -4.3172256218237372E-002   1.1953157470367008E-002   5.5961757355658434E-002
  -3.9472793659579855E-002   1.1943662102124374E-002   5.2775229409027936E-002
  -3.5773331100922345E-002   1.1364102983092442E-002   5.0702558078355338E-002
  -6.0667739822387490E-002   9.9457251245851919E-003   6.7755773190810109E-002
  -5.5678840130079010E-002   1.2019929471717483E-002   6.0470675200137824E-002
  -5.0689940437770503E-002   1.3186827308903595E-002   5.4650594860809448E-002
  -4.5701040745461982E-002   1.3446418636143809E-002   5.0295532172825355E-002
  -4.0712141053153489E-002   1.2798703453438032E-002   4.7405487136185365E-002
  -2.0375549591668304E-002   7.0603015720555606E-003   5.9173106245351992E-002
  -1.9672066024701056E-002   6.8894050541876140E-003   5.8920883484475189E-002
  -1.8968582457733793E-002   6.6852328299239761E-003   5.8901733606506163E-002
  -1.8265098890766551E-002   6.4477848992641265E-003   5.9115656611444828E-002
  -1.7561615323799289E-002   6.1770612622084609E-003   5.9562652499291435E-002
  -2.5605035370179760E-002   8.4949020424011923E-003   5.6586367632938644E-002
  -2.4687644558417932E-002   8.1178528489807972E-003   5.6409220237345889E-002
  -2.3770253746656117E-002   7.7687774845638033E-003   5.6426814448434504E-002
  -2.2852862934894264E-002   7.4476759491502505E-003   5.6639150266204419E-002
  -2.1935472123132443E-002   7.1545482427403106E-003   5.7046227690655871E-002
  -3.0737629206597790E-002   9.9295025127467962E-003   5.3762851577273230E-002
  -2.9644662426267780E-002   9.3463006437737584E-003   5.3722029082363808E-002
  -2.8551695645937781E-002   8.8523221392036860E-003   5.3837616917909351E-002
  -2.7458728865607795E-002   8.4475669990363746E-003   5.4109615083909816E-002
  -2.6365762085277800E-002   8.1320352232720772E-003   5.4538023580365344E-002
  -3.5773331100922345E-002   1.1364102983092442E-002   5.0702558078355338E-002
  -3.4543119628250560E-002   1.0574748438566858E-002   5.0859310019528821E-002
  -3.3312908155578795E-002   9.9358667938436521E-003   5.1134141014930759E-002
  -3.2082696682907003E-002   9.4474580489226096E-003   5.1527051064561250E-002
  -3.0852485210235241E-002   9.1095222038038576E-003   5.2038040168420535E-002
  -4.0712141053153489E-002   1.2798703453438032E-002   4.7405487136185365E-002
  -3.9383016164366347E-002   1.1803196233359903E-002   4.7821063048840873E-002
  -3.8053891275579177E-002   1.1019411448483410E-002   4.8316386739498729E-002
  -3.6724766386792035E-002   1.0447349098808709E-002   4.8891458208158656E-002
  -3.5395641498004879E-002   1.0087009184335638E-002   4.9546277454820764E-002
  -1.7561615323799289E-002   6.1770612622084609E-003   5.9562652499291435E-002
  -1.6826379941251399E-002   5.8955518845473787E-003   5.9493115073481762E-002
  -1.6091144558703495E-002   5.6257467320710158E-003   5.9590470883487817E-002
  -1.5355909176155601E-002   5.3676458047796256E-003   5.9854719929309727E-002
  -1.4620673793607701E-002   5.1212491026729756E-003   6.0285862210947561E-002
  -2.1935472123132443E-002   7.1545482427403106E-003   5.7046227690655871E-002
  -2.1032778683291103E-002   6.8753424870519053E-003   5.6926609072323969E-002
  -2.0130085243449752E-002   6.5960068038033448E-003   5.6975013332763197E-002
  -1.9227391803608412E-002   6.3165411929947402E-003   5.7191440471973540E-002
  -1.8324698363767065E-002   6.0369456546258693E-003   5.7575890489954817E-002
  -2.6365762085277800E-002   8.1320352232720772E-003   5.4538023580365344E-002
  -2.5294480945187717E-002   7.8551330895565430E-003   5.4356489616766340E-002
  -2.4223199805097639E-002   7.5662668755357779E-003   5.4344108174893692E-002
  -2.3151918665007560E-002   7.2654365812098529E-003   5.4500879254747323E-002
  -2.2080637524917478E-002   6.9526422065785964E-003   5.4826802856327406E-002
  -3.0852485210235241E-002   9.1095222038038576E-003   5.2038040168420535E-002
  -2.9611486726941170E-002   8.8349236920610974E-003   5.1782756706809166E-002
  -2.8370488243647095E-002   8.5365269472682977E-003   5.1697755409879566E-002
  -2.7129489760353034E-002   8.2143319694249657E-003   5.1783036277631464E-002
  -2.5888491277058927E-002   7.8683387585314624E-003   5.2038599310065263E-002
  -3.5395641498004879E-002   1.0087009184335638E-002   4.9546277454820764E-002
  -3.3983796028551519E-002   9.8147142945656518E-003   4.9205410342452238E-002
  -3.2571950559098152E-002   9.5067870190005815E-003   4.9035955037720569E-002
  -3.1160105089644789E-002   9.1632273576401739E-003   4.9037911540625964E-002
  -2.9748259620191425E-002   8.7840353104842173E-003   4.9211279851168133E-002
  -1.4620673793607701E-002   5.1212491026729756E-003   6.0285862210947561E-002
  -1.3800329974512394E-002   4.8370158630201554E-003   6.0406436515053008E-002
  -1.2979986155417112E-002   4.4654053230898383E-003   6.0724397908723637E-002
  -1.2159642336321821E-002   4.0064174828820867E-003   6.1239746391959338E-002
  -1.1339298517226523E-002   3.4600523423967688E-003   6.1952481964760331E-002
  -1.8324698363767065E-002   6.0369456546258693E-003   5.7575890489954817E-002
  -1.7311077805331549E-002   5.7161593011648693E-003   5.7555625351393691E-002
  -1.6297457246895981E-002   5.3131212450797105E-003   5.7724526601947851E-002
  -1.5283836688460457E-002   4.8278314863704624E-003   5.8082594241617450E-002
  -1.4270216130024896E-002   4.2602900250373610E-003   5.8629828270402362E-002
  -2.2080637524917478E-002   6.9526422065785964E-003   5.4826802856327406E-002
  -2.0881960927591453E-002   6.5953027393094998E-003   5.4670823872752988E-002
  -1.9683284330265415E-002   6.1608371670696799E-003   5.4695790577844003E-002
  -1.8484607732939379E-002   5.6492454898589457E-003   5.4901702971600623E-002
  -1.7285931135613355E-002   5.0605277076776756E-003   5.5288561054022967E-002
  -2.5888491277058927E-002   7.8683387585314624E-003   5.2038599310065263E-002
  -2.4512979341292200E-002   7.4744461774542276E-003   5.1752032079130719E-002
  -2.3137467405525414E-002   7.0085530890595452E-003   5.1638189836411996E-002
  -2.1761955469758645E-002   6.4706594933474863E-003   5.1697072581909073E-002
  -2.0386443533991876E-002   5.8607653903180179E-003   5.1928680315622200E-002
  -2.9748259620191425E-002   8.7840353104842173E-003   4.9211279851168133E-002
  -2.8204133046433696E-002   8.3535896155988443E-003   4.8799249970527092E-002
  -2.6660006472675968E-002   7.8562690110495215E-003   4.8551724377651984E-002
  -2.5115879898918246E-002   7.2920734968357770E-003   4.8468703072542946E-002
  -2.3571753325160510E-002   6.6610030729584713E-003   4.8550186055200228E-002
  -1.1339298517226523E-002   3.4600523423967688E-003   6.1952481964760331E-002
  -1.0378370651076253E-002   2.9083376936644978E-003   6.2052987496960754E-002
  -9.4174427849260042E-003   2.4333013287156646E-003   6.2377137891592715E-002
  -8.4565149187757482E-003   2.0349432475499363E-003   6.2924933148655743E-002
  -7.4955870526254853E-003   1.7132634501673127E-003   6.3696373268150475E-002
  -1.4270216130024896E-002   4.2602900250373610E-003   5.8629828270402362E-002
  -1.3093320640972225E-002   3.6807316437557636E-003   5.8705307243539340E-002
  -1.1916425151919569E-002   3.1593911252024709E-003   5.8989076600049761E-002
  -1.0739529662866910E-002   2.6962684693767058E-003   5.9481136339933738E-002
  -9.5626341738142689E-003   2.2913636762789125E-003   6.0181486463190992E-002
  -1.7285931135613355E-002   5.0605277076776756E-003   5.5288561054022967E-002
  -1.5908422502716235E-002   4.4531255938471404E-003   5.5320553047041088E-002
  -1.4530913869819122E-002   3.8854809216891661E-003   5.5545480944374698E-002
  -1.3153405236921987E-002   3.3575936912034754E-003   5.5963344746023852E-002
  -1.1775896604024887E-002   2.8694639023902901E-003   5.6574144451988495E-002
  -2.0386443533991876E-002   5.8607653903180179E-003   5.1928680315622200E-002
  -1.8823676236308214E-002   5.2255195439384616E-003   5.1898724907466082E-002
  -1.7260908938624583E-002   4.6115707181758614E-003   5.2046350924567358E-002
  -1.5698141640940948E-002   4.0189189130301339E-003   5.2371558366926328E-002
  -1.4135374343257290E-002   3.4475641285016678E-003   5.2874347234542769E-002
  -2.3571753325160510E-002   6.6610030729584713E-003   4.8550186055200228E-002
  -2.1839081841748265E-002   5.9979134940297274E-003   4.8439822824814183E-002
  -2.0106410358336033E-002   5.3376605146626122E-003   4.8491686540627854E-002
  -1.8373738874923801E-002   4.6802441348570561E-003   4.8705777202640965E-002
  -1.6641067391511555E-002   4.0256643546131565E-003   4.9082094810853794E-002
  -7.4955870526254853E-003   1.7132634501673127E-003   6.3696373268150475E-002
  -6.6107147936154756E-003   1.4901265611955705E-003   6.3638073727164679E-002
  -5.7258425346054694E-003   1.3873972052615147E-003   6.3825344247217530E-002
  -4.8409702755954596E-003   1.4050753823653186E-003   6.4258184828309556E-002
  -3.9560980165854534E-003   1.5431610925069617E-003   6.4936595470440173E-002
  -9.5626341738142689E-003   2.2913636762789125E-003   6.0181486463190992E-002
  -8.4307051841054394E-003   1.9776195581691636E-003   6.0100713792986149E-002
  -7.2987761943966827E-003   1.7879789273074764E-003   6.0268484523140070E-002
  -6.1668472046878999E-003   1.7224417836947253E-003   6.0684798653652658E-002
  -5.0349182149790964E-003   1.7810081273297307E-003   6.1349656184523649E-002
  -1.1775896604024887E-002   2.8694639023902901E-003   5.6574144451988495E-002
  -1.0393937544297519E-002   2.4651125551427289E-003   5.6474594606775230E-002
  -9.0119784845701916E-003   2.1885606493539794E-003   5.6626561501240444E-002
  -7.6300194248428302E-003   2.0398081850241286E-003   5.7030045135384198E-002
  -6.2480603651154966E-003   2.0188551621528328E-003   5.7685045509206417E-002
  -1.4135374343257290E-002   3.4475641285016678E-003   5.2874347234542769E-002
  -1.2500411874191625E-002   2.9526055521164191E-003   5.2759716168531645E-002
  -1.0865449405125991E-002   2.5891423714003228E-003   5.2899575181518721E-002
  -9.2304869360603555E-003   2.3571745863530894E-003   5.3293924273504108E-002
  -7.5955244669946931E-003   2.2567021969758794E-003   5.3942763444487486E-002
  -1.6641067391511555E-002   4.0256643546131565E-003   4.9082094810853794E-002
  -1.4750128173787819E-002   3.4400985490899427E-003   4.8956078478255560E-002
  -1.2859188956064097E-002   2.9897240934463609E-003   4.9087525563974943E-002
  -1.0968249738340347E-002   2.6745409876829176E-003   4.9476436068012442E-002
  -9.0773105206166382E-003   2.4945492317988149E-003   5.0122809990367889E-002
  -3.9560980165854534E-003   1.5431610925069617E-003   6.4936595470440173E-002
  -3.4601524641935666E-003   1.8563896220030185E-003   6.4087902200253843E-002
  -2.9642069118016798E-003   2.3994962571708689E-003   6.3350085932897870E-002
  -2.4682613594097930E-003   3.1724809980095761E-003   6.2723146668372282E-002
  -1.9723158070179062E-003   4.1753438445203406E-003   6.2207084406676771E-002
  -5.0349182149790964E-003   1.7810081273297307E-003   6.1349656184523649E-002
  -4.4003375778312662E-003   2.0626238192401614E-003   6.0670335702007028E-002
  -3.7657569406834707E-003   2.6662347204528536E-003   6.0157408386172034E-002
  -3.1311763035356578E-003   3.5918408309676825E-003   5.9810874237018183E-002
  -2.4965956663878137E-003   4.8394421507844676E-003   5.9630733254546042E-002
  -6.2480603651154966E-003   2.0188551621528328E-003   5.7685045509206417E-002
  -5.4193284793605905E-003   2.2688580164774985E-003   5.7267214917989834E-002
  -4.5905965936056826E-003   2.9329731837351575E-003   5.7071293657306163E-002
  -3.7618647078507903E-003   4.0112006639254523E-003   5.7097281727154996E-002
  -2.9331328220958703E-003   5.5035404570488722E-003   5.7345179127536755E-002
  -7.5955244669946931E-003   2.2567021969758794E-003   5.3942763444487486E-002
  -6.5171251687814900E-003   2.4750922137149051E-003   5.3878539848202206E-002
  -5.4387258705683554E-003   3.1997116470173018E-003   5.4091741746300770E-002
  -4.3603265723552009E-003   4.4305604968833904E-003   5.4582369138783150E-002
  -3.2819272741420190E-003   6.1676387633130270E-003   5.5350422025649597E-002
  -9.0773105206166382E-003   2.4945492317988149E-003   5.0122809990367889E-002
  -7.6937276460940091E-003   2.6813264109520341E-003   5.0504310492644366E-002
  -6.3101447715714493E-003   3.4664501102995016E-003   5.1218752653155675E-002
  -4.9265618970488409E-003   4.8499203298412868E-003   5.2266136471902092E-002
  -3.5429790225262603E-003   6.8317370695772928E-003   5.3646461948883339E-002
  -1.9723158070179062E-003   4.1753438445203406E-003   6.2207084406676771E-002
  -2.2310536295864491E-003   5.4836792718416794E-003   5.8212134647371516E-002
  -2.4897914521549887E-003   7.1730817551120263E-003   5.4211222461678588E-002
  -2.7485292747234952E-003   9.2435512943322765E-003   5.0204347849598013E-002
  -3.0072670972920712E-003   1.1695087889502354E-002   4.6191510811129710E-002
  -2.4965956663878137E-003   4.8394421507844676E-003   5.9630733254546042E-002
  -2.7784941134281066E-003   6.4693399660149531E-003   5.6118160419555141E-002
  -3.0603925604683353E-003   8.5418355627698284E-003   5.2565228762008698E-002
  -3.3422910075085700E-003   1.1056928941049607E-002   4.8971938281905852E-002
  -3.6241894545488568E-003   1.4014620100853525E-002   4.5338288979247299E-002
  -2.9331328220958703E-003   5.5035404570488722E-003   5.7345179127536755E-002
  -3.2725882897762376E-003   7.4550006601882823E-003   5.4376513942435922E-002
  -3.6120437574565902E-003   9.9105893704275055E-003   5.1333093538610611E-002
  -3.9514992251369410E-003   1.2870306587766545E-002   4.8214917916061313E-002
  -4.2909546928173101E-003   1.6334152312204919E-002   4.5021987074787440E-002
  -3.2819272741420190E-003   6.1676387633130270E-003   5.5350422025649597E-002
  -3.7133361586309155E-003   8.4406613543616948E-003   5.2987195216013194E-002
  -4.1447450431198523E-003   1.1279343178085245E-002   5.0514816791484674E-002
  -4.5761539276087410E-003   1.4683684234483347E-002   4.7933286752063382E-002
  -5.0075628120976583E-003   1.8653684523556313E-002   4.5242605097748884E-002
  -3.5429790225262603E-003   6.8317370695772928E-003   5.3646461948883339E-002
  -4.1007377199921147E-003   9.4263220485351074E-003   5.1950204240287290E-002
  -4.6584964174579691E-003   1.2648096985742846E-002   5.0110398520629873E-002
  -5.2162551149237402E-003   1.6497061881200557E-002   4.8127044789911672E-002
  -5.7740138123896778E-003   2.0973216734907485E-002   4.6000143048131825E-002
  -6.0667739822387490E-002   9.9457251245851919E-003   6.7755773190810109E-002
  -5.5678840130079010E-002   1.2019929471717483E-002   6.0470675200137824E-002
  -5.0689940437770503E-002   1.3186827308903595E-002   5.4650594860809448E-002
  -4.5701040745461982E-002   1.3446418636143809E-002   5.0295532172825355E-002
  -4.0712141053153489E-002   1.2798703453438032E-002   4.7405487136185365E-002
  -6.9833970532467121E-002   1.6134169998105796E-002   5.9774058023633503E-002
  -6.3789663859866674E-002   1.5553827283424221E-002   5.4759236575974479E-002
  -5.7745357187266241E-002   1.4903750000895194E-002   5.0390211437555399E-002
  -5.1701050514665843E-002   1.4183938150518487E-002   4.6666982608376012E-002
  -4.5656743842065396E-002   1.3394391732294064E-002   4.3589550088436374E-002
  -7.5831793489584104E-002   2.2322614871626317E-002   4.8719009823593742E-002
  -6.9551301178796182E-002   1.9087725095131181E-002   4.6812036861046791E-002
  -6.3270808868008177E-002   1.6620672692886786E-002   4.4731638865635283E-002
  -5.6990316557220186E-002   1.4921457664893162E-002   4.2477815837359059E-002
  -5.0709824246432188E-002   1.3990080011150208E-002   4.0050567776218224E-002
  -7.8661208693738702E-002   2.8511059745146852E-002   3.4590628590691105E-002
  -7.2963752086867464E-002   2.2621622906838085E-002   3.6629076055354620E-002
  -6.7266295479996310E-002   1.8337595384878339E-002   3.7674877145048920E-002
  -6.1568838873125170E-002   1.5658977179267727E-002   3.7728031859774212E-002
  -5.5871382266253933E-002   1.4585768290006351E-002   3.6788540199530539E-002
  -7.8322216144930568E-002   3.4699504618667443E-002   1.7388914324925731E-002
  -7.4027016584080590E-002   2.6155520718544933E-002   2.4210354158897829E-002
  -6.9731817023230586E-002   2.0054518076869920E-002   2.9219926275796504E-002
  -6.5436617462380636E-002   1.6396496693642459E-002   3.2417630675621867E-002
  -6.1141417901530631E-002   1.5181456568862439E-002   3.3803467358373807E-002
  -4.0712141053153489E-002   1.2798703453438032E-002   4.7405487136185365E-002
  -3.9383016164366347E-002   1.1803196233359903E-002   4.7821063048840873E-002
  -3.8053891275579177E-002   1.1019411448483410E-002   4.8316386739498729E-002
  -3.6724766386792035E-002   1.0447349098808709E-002   4.8891458208158656E-002
  -3.5395641498004879E-002   1.0087009184335638E-002   4.9546277454820764E-002
  -4.5656743842065396E-002   1.3394391732294064E-002   4.3589550088436374E-002
  -4.4258767742840356E-002   1.2643634344484761E-002   4.4065269350012370E-002
  -4.2860791643615392E-002   1.2040189585352953E-002   4.4598943254461815E-002
  -4.1462815544390443E-002   1.1584057454898888E-002   4.5190571801784776E-002
  -4.0064839445165451E-002   1.1275237953122463E-002   4.5840154991981241E-002
  -5.0709824246432188E-002   1.3990080011150208E-002   4.0050567776218224E-002
  -4.9264790071898060E-002   1.3484072455609564E-002   4.0522020580190596E-002
  -4.7819755897364008E-002   1.3060967722222434E-002   4.1029634891907647E-002
  -4.6374721722829915E-002   1.2720765810989175E-002   4.1573410711369538E-002
  -4.4929687548295780E-002   1.2463466721909428E-002   4.2153348038576191E-002
  -5.5871382266253933E-002   1.4585768290006351E-002   3.6788540199530539E-002
  -5.4401083151539430E-002   1.4324510566734283E-002   3.7191316739375452E-002
  -5.2930784036824934E-002   1.4081745859091947E-002   3.7608461651836275E-002
  -5.1460484922110424E-002   1.3857474167079407E-002   3.8039974936913211E-002
  -4.9990185807395865E-002   1.3651695490696239E-002   3.8485856594606155E-002
  -6.1141417901530631E-002   1.5181456568862439E-002   3.3803467358373807E-002
  -5.9667646981764411E-002   1.5164948677859252E-002   3.4073157827567008E-002
  -5.8193876061998190E-002   1.5102523995961431E-002   3.4335423534247456E-002
  -5.6720105142232011E-002   1.4994182523169607E-002   3.4590264478415345E-002
  -5.5246334222465776E-002   1.4839924259483217E-002   3.4837680660070647E-002
  -3.5395641498004879E-002   1.0087009184335638E-002   4.9546277454820764E-002
  -3.3983796028551519E-002   9.8147142945656518E-003   4.9205410342452238E-002
  -3.2571950559098152E-002   9.5067870190005815E-003   4.9035955037720569E-002
  -3.1160105089644789E-002   9.1632273576401739E-003   4.9037911540625964E-002
  -2.9748259620191425E-002   8.7840353104842173E-003   4.9211279851168133E-002
  -4.0064839445165451E-002   1.1275237953122463E-002   4.5840154991981241E-002
  -3.8470439571966511E-002   1.1014244366752385E-002   4.5271133727921326E-002
  -3.6876039698767620E-002   1.0701589982517301E-002   4.4895809463715658E-002
  -3.5281639825568714E-002   1.0337274800417032E-002   4.4714182199364072E-002
  -3.3687239952369788E-002   9.9212988204516184E-003   4.4726251934866790E-002
  -4.4929687548295780E-002   1.2463466721909428E-002   4.2153348038576191E-002
  -4.3130448079134076E-002   1.2213774438939090E-002   4.1340144210755242E-002
  -4.1331208609972338E-002   1.1896392946034028E-002   4.0742922575005704E-002
  -3.9531969140810620E-002   1.1511322243194002E-002   4.0361683131327653E-002
  -3.7732729671648889E-002   1.1058562330419019E-002   4.0196425879720943E-002
  -4.9990185807395865E-002   1.3651695490696239E-002   3.8485856594606155E-002
  -4.7963821550054062E-002   1.3413304511125837E-002   3.7412441790954196E-002
  -4.5937457292712286E-002   1.3091195909550695E-002   3.6577294371590956E-002
  -4.3911093035370483E-002   1.2685369685970973E-002   3.5980414336516338E-002
  -4.1884728778028658E-002   1.2195825840386421E-002   3.5621801685730509E-002
  -5.5246334222465776E-002   1.4839924259483217E-002   3.4837680660070647E-002
  -5.2970559984726634E-002   1.4612834583312473E-002   3.3488026468517951E-002
  -5.0694785746987492E-002   1.4285998873067515E-002   3.2398924853471234E-002
  -4.8419011509248350E-002   1.3859417128747924E-002   3.1570375814930593E-002
  -4.6143237271509208E-002   1.3333089350353766E-002   3.1002379352895792E-002
  -2.9748259620191425E-002   8.7840353104842173E-003   4.9211279851168133E-002
  -2.8204133046433696E-002   8.3535896155988443E-003   4.8799249970527092E-002
  -2.6660006472675968E-002   7.8562690110495215E-003   4.8551724377651984E-002
  -2.5115879898918246E-002   7.2920734968357770E-003   4.8468703072542946E-002
  -2.3571753325160510E-002   6.6610030729584713E-003   4.8550186055200228E-002
  -3.3687239952369788E-002   9.9212988204516184E-003   4.4726251934866790E-002
  -3.1974717078241899E-002   9.4480539368756722E-003   4.4146728720218992E-002
  -3.0262194204114003E-002   8.9119320439437211E-003   4.3739493818545361E-002
  -2.8549671329986124E-002   8.3129331416554667E-003   4.3504547229846188E-002
  -2.6837148455858231E-002   7.6510572300113044E-003   4.3441888954120933E-002
  -3.7732729671648889E-002   1.1058562330419019E-002   4.0196425879720943E-002
  -3.5844026471942680E-002   1.0542518258152556E-002   3.9453407231374416E-002
  -3.3955323272236437E-002   9.9675950768379762E-003   3.8890460921210235E-002
  -3.2066620072530229E-002   9.3337927864751563E-003   3.8507586949228387E-002
  -3.0177916872823993E-002   8.6411113870643042E-003   3.8304785315429135E-002
  -4.1884728778028658E-002   1.2195825840386421E-002   3.5621801685730509E-002
  -3.9812061227535944E-002   1.1636982579429300E-002   3.4719285503993259E-002
  -3.7739393677043299E-002   1.1023258109732315E-002   3.4004625685646446E-002
  -3.5666726126550537E-002   1.0354652431294846E-002   3.3477822230690256E-002
  -3.3594058576057892E-002   9.6311655441172761E-003   3.3138875139124599E-002
  -4.6143237271509208E-002   1.3333089350353766E-002   3.1002379352895792E-002
  -4.3878821345021857E-002   1.2731446900706156E-002   2.9944363538075613E-002
  -4.1614405418534506E-002   1.2078921142626500E-002   2.9081988111854057E-002
  -3.9349989492047155E-002   1.1375512076114497E-002   2.8415253074231275E-002
  -3.7085573565559860E-002   1.0621219701170137E-002   2.7944158425207255E-002
  -2.3571753325160510E-002   6.6610030729584713E-003   4.8550186055200228E-002
  -2.1839081841748265E-002   5.9979134940297274E-003   4.8439822824814183E-002
  -2.0106410358336033E-002   5.3376605146626122E-003   4.8491686540627854E-002
  -1.8373738874923801E-002   4.6802441348570561E-003   4.8705777202640965E-002
  -1.6641067391511555E-002   4.0256643546131565E-003   4.9082094810853794E-002
  -2.6837148455858231E-002   7.6510572300113044E-003   4.3441888954120933E-002
  -2.4950452706165763E-002   6.9640099061390459E-003   4.3255635149778204E-002
  -2.3063756956473370E-002   6.2894967671664054E-003   4.3215202931796121E-002
  -2.1177061206780971E-002   5.6275178130932614E-003   4.3320592300174529E-002
  -1.9290365457088510E-002   4.9780730439199505E-003   4.3571803254914110E-002
  -3.0177916872823993E-002   8.6411113870643042E-003   3.8304785315429135E-002
  -2.8153602216690242E-002   7.9301063182482812E-003   3.8052338522467380E-002
  -2.6129287560556547E-002   7.2413330196699766E-003   3.7929307956027572E-002
  -2.4104972904422817E-002   6.5747914913292446E-003   3.7935693616109517E-002
  -2.2080658248289108E-002   5.9304817332265780E-003   3.8071495502713548E-002
  -3.3594058576057892E-002   9.6311655441172761E-003   3.3138875139124599E-002
  -3.1448530373321702E-002   8.8962027303574470E-003   3.2829932942882292E-002
  -2.9303002170585540E-002   8.1931692721737698E-003   3.2634001613322798E-002
  -2.7157473967849365E-002   7.5220651695655054E-003   3.2551081150446151E-002
  -2.5011945765113192E-002   6.8828904225331222E-003   3.2581171554252948E-002
  -3.7085573565559860E-002   1.0621219701170137E-002   2.7944158425207255E-002
  -3.4835237176060102E-002   9.8622991424667794E-003   2.7588418411022164E-002
  -3.2584900786560372E-002   9.1450055246774242E-003   2.7329283903681223E-002
  -3.0334564397060657E-002   8.4693388478014539E-003   2.7166754903184404E-002
  -2.8084228007560913E-002   7.8352991118399995E-003   2.7100831409531678E-002
  -1.6641067391511555E-002   4.0256643546131565E-003   4.9082094810853794E-002
  -1.4750128173787819E-002   3.4400985490899427E-003   4.8956078478255560E-002
  -1.2859188956064097E-002   2.9897240934463609E-003   4.9087525563974943E-002
  -1.0968249738340347E-002   2.6745409876829176E-003   4.9476436068012442E-002
  -9.0773105206166382E-003   2.4945492317988149E-003   5.0122809990367889E-002
  -1.9290365457088510E-002   4.9780730439199505E-003   4.3571803254914110E-002
  -1.7177766380256150E-002   4.3759641959790763E-003   4.3377653141205175E-002
  -1.5065167303423777E-002   3.8559930056032976E-003   4.3369359327395662E-002
  -1.2952568226591455E-002   3.4181594727933778E-003   4.3546921813485504E-002
  -1.0839969149759099E-002   3.0624635975486925E-003   4.3910340599474573E-002
  -2.2080658248289108E-002   5.9304817332265780E-003   3.8071495502713548E-002
  -1.9818006430766710E-002   5.3118298428680710E-003   3.7756157915580096E-002
  -1.7555354613244374E-002   4.7222619177605535E-003   3.7555069509927194E-002
  -1.5292702795722021E-002   4.1617779579040566E-003   3.7468230285754960E-002
  -1.3030050978199641E-002   3.6303779632985145E-003   3.7495640243063399E-002
  -2.5011945765113192E-002   6.8828904225331222E-003   3.2581171554252948E-002
  -2.2670848325319560E-002   6.2476954897570797E-003   3.2091592801380117E-002
  -2.0329750885525869E-002   5.5885308299177053E-003   3.1644656111569316E-002
  -1.7988653445732236E-002   4.9053964430146816E-003   3.1240361484820699E-002
  -1.5647556005938493E-002   4.1982923290484198E-003   3.0878708921133924E-002
  -2.8084228007560913E-002   7.8352991118399995E-003   2.7100831409531678E-002
  -2.5736292063914562E-002   7.1835611366461438E-003   2.6383957798605473E-002
  -2.3388356120268225E-002   6.4547997420746628E-003   2.5638119132322557E-002
  -2.1040420176621867E-002   5.6490149281252858E-003   2.4863315410682929E-002
  -1.8692484232975537E-002   4.7662066947982140E-003   2.4059546633686701E-002
  -9.0773105206166382E-003   2.4945492317988149E-003   5.0122809990367889E-002
  -7.6937276460940091E-003   2.6813264109520341E-003   5.0504310492644366E-002
  -6.3101447715714493E-003   3.4664501102995016E-003   5.1218752653155675E-002
  -4.9265618970488409E-003   4.8499203298412868E-003   5.2266136471902092E-002
  -3.5429790225262603E-003   6.8317370695772928E-003   5.3646461948883339E-002
  -1.0839969149759099E-002   3.0624635975486925E-003   4.3910340599474573E-002
  -9.1040243440595053E-003   3.0196823644125237E-003   4.4454857248817925E-002
  -7.3680795383600506E-003   3.5205927579288199E-003   4.5371156102279903E-002
  -5.6321347326604744E-003   4.5651947780966096E-003   4.6659237159861019E-002
  -3.8961899269610023E-003   6.1534884249164756E-003   4.8319100421561068E-002
  -1.3030050978199641E-002   3.6303779632985145E-003   3.7495640243063399E-002
  -1.0902903695439399E-002   3.3580383178733186E-003   3.8148518145931259E-002
  -8.7757564126790429E-003   3.5747354055576663E-003   3.9212018798801873E-002
  -6.6486091299187682E-003   4.2804692263522584E-003   4.0686142201675018E-002
  -4.5214618471585005E-003   5.4752397802559361E-003   4.2570888354551001E-002
  -1.5647556005938493E-002   4.1982923290484198E-003   3.0878708921133924E-002
  -1.3090365700233588E-002   3.6963942713339054E-003   3.1585293183984356E-002
  -1.0533175394528655E-002   3.6288780531867487E-003   3.2741340742721010E-002
  -7.9759850888237102E-003   3.9957436746075221E-003   3.4346851597344297E-002
  -5.4187947831188209E-003   4.7969911355955908E-003   3.6401825747854312E-002
  -1.8692484232975537E-002   4.7662066947982140E-003   2.4059546633686701E-002
  -1.5666410358442129E-002   4.0347502247946032E-003   2.4765182362976867E-002
  -1.2640336483908721E-002   3.6830207008157478E-003   2.5959121934037543E-002
  -9.6142626093752709E-003   3.7110181228633757E-003   2.7641365346868590E-002
  -6.5881887348419044E-003   4.1187424909346904E-003   2.9811912601470314E-002
  -3.5429790225262603E-003   6.8317370695772928E-003   5.3646461948883339E-002
  -4.1007377199921147E-003   9.4263220485351074E-003   5.1950204240287290E-002
  -4.6584964174579691E-003   1.2648096985742846E-002   5.0110398520629873E-002
  -5.2162551149237402E-003   1.6497061881200557E-002   4.8127044789911672E-002
  -5.7740138123896778E-003   2.0973216734907485E-002   4.6000143048131825E-002
  -3.8961899269610023E-003   6.1534884249164756E-003   4.8319100421561068E-002
  -4.4934972884951713E-003   8.5951321534002423E-003   4.7349880291657265E-002
  -5.0908046500293402E-003   1.2199784418559512E-002   4.6445110844678561E-002
  -5.6881120115634780E-003   1.6967445220394284E-002   4.5604792080623846E-002
  -6.2854193730977337E-003   2.2898114558904226E-002   4.4828923999493897E-002
  -4.5214618471585005E-003   5.4752397802559361E-003   4.2570888354551001E-002
  -4.9503191787753018E-003   7.7639422582654882E-003   4.2864524381765967E-002
  -5.3791765103922140E-003   1.1751471851376191E-002   4.3430609785891042E-002
  -5.8080338420091193E-003   1.7437828559588291E-002   4.4269144566926287E-002
  -6.2368911736259275E-003   2.4823012382901188E-002   4.5380128724871627E-002
  -5.4187947831188209E-003   4.7969911355955908E-003   3.6401825747854312E-002
  -5.4712033908326796E-003   6.9327523631306787E-003   3.8494136510613244E-002
  -5.5236119985465904E-003   1.1303159284192864E-002   4.1066895344268009E-002
  -5.5760206062604872E-003   1.7908211898781827E-002   4.4120102248818620E-002
  -5.6284292139743598E-003   2.6747910206897929E-002   4.7653757224264737E-002
  -6.5881887348419044E-003   4.1187424909346904E-003   2.9811912601470314E-002
  -6.0561499246671868E-003   6.1015624679958691E-003   3.4238716678198999E-002
  -5.5241111144924693E-003   1.0854846717009398E-002   3.9353967519809296E-002
  -4.9920723043176546E-003   1.8378595237976102E-002   4.5157665126301011E-002
  -4.4600334941430342E-003   2.8672808030894892E-002   5.1649809497674060E-002
  -7.8322216144930568E-002   3.4699504618667443E-002   1.7388914324925731E-002
  -7.4027016584080590E-002   2.6155520718544933E-002   2.4210354158897829E-002
  -6.9731817023230586E-002   2.0054518076869920E-002   2.9219926275796504E-002
  -6.5436617462380636E-002   1.6396496693642459E-002   3.2417630675621867E-002
  -6.1141417901530631E-002   1.5181456568862439E-002   3.3803467358373807E-002
  -8.4285782945597854E-002   4.2406270745171781E-002   4.3369956115035968E-002
  -8.0122148449765493E-002   3.2198606842516547E-002   3.8727958924657246E-002
  -7.5958513953933215E-002   2.4807535232427125E-002   3.5634699321316549E-002
  -7.1794879458100855E-002   2.0233055914903611E-002   3.4090177305013833E-002
  -6.7631244962268522E-002   1.8475168889945742E-002   3.4094392875749113E-002
 -0.10602287619817818        5.0113036871676064E-002   6.7500512385554434E-002
  -9.8630201463252104E-002   3.8241692966488133E-002   5.1768689204943236E-002
  -9.1237526728326149E-002   2.9560552387984440E-002   4.0946208915481230E-002
  -8.3844851993400166E-002   2.4069615136164763E-002   3.5033071517168959E-002
  -7.6452177258474127E-002   2.1768881211029073E-002   3.4029277010005812E-002
 -0.14353349590267173        5.7819802998180347E-002   8.9780583136480949E-002
 -0.12955117562454066        4.4284779090459678E-002   6.3332544999755422E-002
 -0.11556885534640950        3.4313569543541533E-002   4.5154455058290667E-002
 -0.10158653506827839        2.7906174357425872E-002   3.5246313312086885E-002
  -8.7604214790147183E-002   2.5062593532112667E-002   3.3608119761143911E-002
 -0.19681764205907859        6.5526569124684686E-002  0.11021016836781583     
 -0.17288507093363092        5.0327865214431333E-002   7.3419526309094263E-002
 -0.14895249980818326        3.9066586699098849E-002   4.8259437749745004E-002
 -0.12501992868273559        3.1742733578687191E-002   3.4729902689768180E-002
 -0.10108735755728793        2.8356305853195707E-002   3.2830921129163138E-002
  -6.1141417901530631E-002   1.5181456568862439E-002   3.3803467358373807E-002
  -5.9667646981764411E-002   1.5164948677859252E-002   3.4073157827567008E-002
  -5.8193876061998190E-002   1.5102523995961431E-002   3.4335423534247456E-002
  -5.6720105142232011E-002   1.4994182523169607E-002   3.4590264478415345E-002
  -5.5246334222465776E-002   1.4839924259483217E-002   3.4837680660070647E-002
  -6.7631244962268522E-002   1.8475168889945742E-002   3.4094392875749113E-002
  -6.5906414075613151E-002   1.8118287690180382E-002   3.2261214122338996E-002
  -6.4181583188957766E-002   1.7746825848234178E-002   3.0937580065219794E-002
  -6.2456752302302403E-002   1.7360783364106791E-002   3.0123490704391694E-002
  -6.0731921415647011E-002   1.6960160237798672E-002   2.9818946039854549E-002
  -7.6452177258474127E-002   2.1768881211029073E-002   3.4029277010005812E-002
  -7.3959316946125800E-002   2.1071626702501692E-002   3.0124565182705516E-002
  -7.1466456633777542E-002   2.0391127700506925E-002   2.7246367510500198E-002
  -6.8973596321429256E-002   1.9727384205044201E-002   2.5394683993389441E-002
  -6.6480736009080971E-002   1.9080396216114126E-002   2.4569514631373329E-002
  -8.7604214790147183E-002   2.5062593532112667E-002   3.3608119761143911E-002
  -8.3826355593302385E-002   2.4024965714823328E-002   2.7663211008666984E-002
  -8.0048496396457586E-002   2.3035429552779478E-002   2.3261785870088574E-002
  -7.6270637199612745E-002   2.2093985045981777E-002   2.0403844345408415E-002
  -7.2492778002767988E-002   2.1200632194429525E-002   1.9089386434626539E-002
 -0.10108735755728793        2.8356305853195707E-002   3.2830921129163138E-002
  -9.5507530017142850E-002   2.6978304727144187E-002   2.4877151600223191E-002
  -8.9927702476997828E-002   2.5679731405052281E-002   1.8983835143984787E-002
  -8.4347874936852807E-002   2.4460585886919010E-002   1.5150971760448956E-002
  -7.8768047396707730E-002   2.3320868172744924E-002   1.3378561449614801E-002
  -5.5246334222465776E-002   1.4839924259483217E-002   3.4837680660070647E-002
  -5.2970559984726634E-002   1.4612834583312473E-002   3.3488026468517951E-002
  -5.0694785746987492E-002   1.4285998873067515E-002   3.2398924853471234E-002
  -4.8419011509248350E-002   1.3859417128747924E-002   3.1570375814930593E-002
  -4.6143237271509208E-002   1.3333089350353766E-002   3.1002379352895792E-002
  -6.0731921415647011E-002   1.6960160237798672E-002   2.9818946039854549E-002
  -5.8159299978817317E-002   1.6520637446093750E-002   2.8160876709290211E-002
  -5.5586678541987636E-002   1.6017895965776241E-002   2.6835949200400749E-002
  -5.3014057105157948E-002   1.5451935796845964E-002   2.5844163513186288E-002
  -5.0441435668328274E-002   1.4822756939303239E-002   2.5185519647647148E-002
  -6.6480736009080971E-002   1.9080396216114126E-002   2.4569514631373329E-002
  -6.3538678127991660E-002   1.8428440308874666E-002   2.2639557507258767E-002
  -6.0596620246902377E-002   1.7749793058484918E-002   2.1115331449988499E-002
  -5.7654562365813088E-002   1.7044454464943896E-002   1.9996836459562500E-002
  -5.4712504484723784E-002   1.6312424528252739E-002   1.9284072535980565E-002
  -7.2492778002767988E-002   2.1200632194429525E-002   1.9089386434626539E-002
  -6.9108694432249873E-002   2.0336243171655818E-002   1.6924068862424105E-002
  -6.5724610861731800E-002   1.9481690151193342E-002   1.5237071602234821E-002
  -6.2340527291213664E-002   1.8636973133042491E-002   1.4028394654059220E-002
  -5.8956443720695598E-002   1.7802092117202115E-002   1.3298038017896498E-002
  -7.8768047396707730E-002   2.3320868172744924E-002   1.3378561449614801E-002
  -7.4869348891591803E-002   2.2244046034436971E-002   1.1014410774786043E-002
  -7.0970650386475764E-002   2.1213587243902349E-002   9.2011696571397961E-003
  -6.7071951881359781E-002   2.0229491801139927E-002   7.9388380966758654E-003
  -6.3173253376243799E-002   1.9291759706151712E-002   7.2274160933948339E-003
  -4.6143237271509208E-002   1.3333089350353766E-002   3.1002379352895792E-002
  -4.3878821345021857E-002   1.2731446900706156E-002   2.9944363538075613E-002
  -4.1614405418534506E-002   1.2078921142626500E-002   2.9081988111854057E-002
  -3.9349989492047155E-002   1.1375512076114497E-002   2.8415253074231275E-002
  -3.7085573565559860E-002   1.0621219701170137E-002   2.7944158425207255E-002
  -5.0441435668328274E-002   1.4822756939303239E-002   2.5185519647647148E-002
  -4.8008951372806377E-002   1.4145025214400336E-002   2.4084676216416384E-002
  -4.5576467077284431E-002   1.3433406443390083E-002   2.3124329134656230E-002
  -4.3143982781762513E-002   1.2687900626272147E-002   2.2304478402366532E-002
  -4.0711498486240533E-002   1.1908507763046750E-002   2.1625124019547082E-002
  -5.4712504484723784E-002   1.6312424528252739E-002   1.9284072535980565E-002
  -5.2167095859295534E-002   1.5558603528094628E-002   1.8157397750664217E-002
  -4.9621687233867284E-002   1.4787891744153549E-002   1.7116075275690125E-002
  -4.7076278608439021E-002   1.4000289176429906E-002   1.6160105111058223E-002
  -4.4530869983010785E-002   1.3195795824923362E-002   1.5289487256768375E-002
  -5.8956443720695598E-002   1.7802092117202115E-002   1.3298038017896498E-002
  -5.6353254804489328E-002   1.6972181841788586E-002   1.2162528140819390E-002
  -5.3750065888283044E-002   1.6142377044917073E-002   1.1057226534955814E-002
  -5.1146876972076719E-002   1.5312677726587554E-002   9.9821332003066608E-003
  -4.8543688055870497E-002   1.4483083886799752E-002   8.9372481368707526E-003
  -6.3173253376243799E-002   1.9291759706151712E-002   7.2274160933948339E-003
  -6.0567428208387786E-002   1.8385760155482878E-002   6.1000673868814581E-003
  -5.7961603040531773E-002   1.7496862345680431E-002   4.9477829124534856E-003
  -5.5355777872675732E-002   1.6625066276745162E-002   3.7705626701109787E-003
  -5.2749952704819747E-002   1.5770371948676587E-002   2.5684066598543609E-003
  -3.7085573565559860E-002   1.0621219701170137E-002   2.7944158425207255E-002
  -3.4835237176060102E-002   9.8622991424667794E-003   2.7588418411022164E-002
  -3.2584900786560372E-002   9.1450055246774242E-003   2.7329283903681223E-002
  -3.0334564397060657E-002   8.4693388478014539E-003   2.7166754903184404E-002
  -2.8084228007560913E-002   7.8352991118399995E-003   2.7100831409531678E-002
  -4.0711498486240533E-002   1.1908507763046750E-002   2.1625124019547082E-002
  -3.8339596280173027E-002   1.1124555098360411E-002   2.1134094931046232E-002
  -3.5967694074105425E-002   1.0365369876859931E-002   2.0789591968836785E-002
  -3.3595791868037864E-002   9.6309520985454339E-003   2.0591615132918961E-002
  -3.1223889661970372E-002   8.9213017634166558E-003   2.0540164423292706E-002
  -4.4530869983010785E-002   1.3195795824923362E-002   1.5289487256768375E-002
  -4.1987481340927994E-002   1.2386811054254404E-002   1.4646309596223483E-002
  -3.9444092698845121E-002   1.1585734229043007E-002   1.4199578681417357E-002
  -3.6900704056762289E-002   1.0792565349289417E-002   1.3949294512350614E-002
  -3.4357315414679478E-002   1.0007304414993423E-002   1.3895457089022428E-002
  -4.8543688055870497E-002   1.4483083886799752E-002   8.9372481368707526E-003
  -4.5778892358324996E-002   1.3649067010147939E-002   8.1250624065535293E-003
  -4.3014096660779433E-002   1.2806098581225854E-002   7.5592440414231112E-003
  -4.0249300963233904E-002   1.1954178600033399E-002   7.2397930414789587E-003
  -3.7484505265688375E-002   1.1093307066570357E-002   7.1667094067213236E-003
  -5.2749952704819747E-002   1.5770371948676587E-002   2.5684066598543609E-003
  -4.9713829332364123E-002   1.4911322966042251E-002   1.5703533620372578E-003
  -4.6677705959908389E-002   1.4026462933408534E-002   8.6858804885392438E-004
  -4.3641582587452710E-002   1.3115791850777311E-002   4.6311072030458256E-004
  -4.0605459214997031E-002   1.2179309718147069E-002   3.5392137638901033E-004
  -2.8084228007560913E-002   7.8352991118399995E-003   2.7100831409531678E-002
  -2.5736292063914562E-002   7.1835611366461438E-003   2.6383957798605473E-002
  -2.3388356120268225E-002   6.4547997420746628E-003   2.5638119132322557E-002
  -2.1040420176621867E-002   5.6490149281252858E-003   2.4863315410682929E-002
  -1.8692484232975537E-002   4.7662066947982140E-003   2.4059546633686701E-002
  -3.1223889661970372E-002   8.9213017634166558E-003   2.0540164423292706E-002
  -2.8884648481918185E-002   8.2156344529780156E-003   1.9802884599236958E-002
  -2.6545407301866067E-002   7.4931657487321002E-003   1.9077180303349289E-002
  -2.4206166121813998E-002   6.7538956506803111E-003   1.8363051535629893E-002
  -2.1866924941761873E-002   5.9978241588218850E-003   1.7660498296078464E-002
  -3.4357315414679478E-002   1.0007304414993423E-002   1.3895457089022428E-002
  -3.1986228414696720E-002   9.2477077693088050E-003   1.3197993077408571E-002
  -2.9615141414714077E-002   8.5315317553893016E-003   1.2552645177487803E-002
  -2.7244054414731399E-002   7.8587763732351108E-003   1.1959413389259974E-002
  -2.4872967414748676E-002   7.2294416228455560E-003   1.1418297712725345E-002
  -3.7484505265688375E-002   1.1093307066570357E-002   7.1667094067213236E-003
  -3.5041031862250278E-002   1.0279781085640635E-002   6.5692832331208234E-003
  -3.2597558458812154E-002   9.5698977620472317E-003   6.0645137547383800E-003
  -3.0154085055374012E-002   8.9636570957905230E-003   5.6524009715735266E-003
  -2.7710611651935928E-002   8.4610590868694491E-003   5.3329448836264698E-003
  -4.0605459214997031E-002   1.2179309718147069E-002   3.5392137638901033E-004
  -3.8049058824578652E-002   1.1311854401972021E-002  -8.3244933626991369E-005
  -3.5492658434160329E-002   1.0608263768704218E-002  -3.8721396489982407E-004
  -3.2936258043742034E-002   1.0068537818344950E-002  -5.5798571743068126E-004
  -3.0379857653323628E-002   9.6926765508931201E-003  -5.9556019121798087E-004
  -1.8692484232975537E-002   4.7662066947982140E-003   2.4059546633686701E-002
  -1.5666410358442129E-002   4.0347502247946032E-003   2.4765182362976867E-002
  -1.2640336483908721E-002   3.6830207008157478E-003   2.5959121934037543E-002
  -9.6142626093752709E-003   3.7110181228633757E-003   2.7641365346868590E-002
  -6.5881887348419044E-003   4.1187424909346904E-003   2.9811912601470314E-002
  -2.1866924941761873E-002   5.9978241588218850E-003   1.7660498296078464E-002
  -1.8623807824315705E-002   5.3255937342820969E-003   1.8545376899545163E-002
  -1.5380690706869510E-002   4.8378468381853335E-003   1.9376038147066510E-002
  -1.2137573589423377E-002   4.5345834705322607E-003   2.0152482038643366E-002
  -8.8944564719771468E-003   4.4158036313219906E-003   2.0874708574275314E-002
  -2.4872967414748676E-002   7.2294416228455560E-003   1.1418297712725345E-002
  -2.1955328252105014E-002   6.6164372437692576E-003   1.2287175772785847E-002
  -1.9037689089461254E-002   5.9926729755545721E-003   1.2559315279186453E-002
  -1.6120049926817568E-002   5.3581488182011423E-003   1.2234716231927088E-002
  -1.3202410764173889E-002   4.7128647717094574E-003   1.1313378631007426E-002
  -2.7710611651935928E-002   8.4610590868694491E-003   5.3329448836264698E-003
  -2.5660971641809905E-002   7.9072807532570288E-003   5.9905789826992933E-003
  -2.3611331631683941E-002   7.1474991129237622E-003   5.5089533303972378E-003
  -2.1561691621557973E-002   6.1817141658708028E-003   3.8880679267196596E-003
  -1.9512051611431953E-002   5.0099259120962858E-003   1.1279227716666576E-003
  -3.0379857653323628E-002   9.6926765508931201E-003  -5.9556019121798087E-004
  -2.9740737993430577E-002   9.1981242627441340E-003  -3.4441347071390016E-004
  -2.9101618333537582E-002   8.3023252502931744E-003  -1.7750476993011466E-003
  -2.8462498673644587E-002   7.0052795135392976E-003  -4.8874628769787487E-003
  -2.7823379013751537E-002   5.3069870524840024E-003  -9.6816590037465122E-003
  -6.5881887348419044E-003   4.1187424909346904E-003   2.9811912601470314E-002
  -6.0561499246671868E-003   6.1015624679958691E-003   3.4238716678198999E-002
  -5.5241111144924693E-003   1.0854846717009398E-002   3.9353967519809296E-002
  -4.9920723043176546E-003   1.8378595237976102E-002   4.5157665126301011E-002
  -4.4600334941430342E-003   2.8672808030894892E-002   5.1649809497674060E-002
  -8.8944564719771468E-003   4.4158036313219906E-003   2.0874708574275314E-002
  -7.6016332740303227E-003   5.6317017123296287E-003   2.5999832010805579E-002
  -6.3088100760835958E-003   9.3324721053285042E-003   3.1958077457998446E-002
  -5.0159868781367162E-003   1.5518114810319505E-002   3.8749444915854248E-002
  -3.7231636801899337E-003   2.4188629827301966E-002   4.6373934384372539E-002
  -1.3202410764173889E-002   4.7128647717094574E-003   1.1313378631007426E-002
  -1.1004127932673677E-002   5.1618409566636103E-003   1.6851229467378187E-002
  -8.8058451011736316E-003   7.8100974936478468E-003   2.3366877560192442E-002
  -6.6075622696734927E-003   1.2657634382663024E-002   3.0860322909450795E-002
  -4.4092794381733746E-003   1.9704451623709485E-002   3.9331565515153266E-002
  -1.9512051611431953E-002   5.0099259120962858E-003   1.1279227716666576E-003
  -1.6263633900597277E-002   4.6919802009979250E-003   6.7929090479169618E-003
  -1.3015216189762655E-002   6.2877228819669603E-003   1.3580367826391656E-002
  -9.7667984789280571E-003   9.7971539550073729E-003   2.1490299107092006E-002
  -6.5183807680933570E-003   1.5220273420116892E-002   3.0522702890017267E-002
  -2.7823379013751537E-002   5.3069870524840024E-003  -9.6816590037465122E-003
  -2.3380151177801012E-002   4.2221194453313515E-003  -4.1751292475786239E-003
  -1.8936923341850653E-002   4.7653482702861294E-003   2.5985482565960005E-003
  -1.4493695505900017E-002   6.9366735273506813E-003   1.0639373508777028E-002
  -1.0050467669949770E-002   1.0736095216524078E-002   1.9947346508964126E-002
 </DataArray>
 </PointData>
 </Piece>
 </UnstructuredGrid>
 </VTKFile>
