 <VTKFile type="UnstructuredGrid"  version="0.1"   >
 <UnstructuredGrid>
 <Piece  NumberOfPoints="            25 "  NumberOfCells="           16 ">
 <Points>
 <DataArray  type="Float64" NumberOfComponents="3"  format="ascii" >
   0.0000000000000000        0.0000000000000000        0.0000000000000000     
  0.25000000000000000        0.0000000000000000        0.0000000000000000     
  0.50000000000000000        0.0000000000000000        0.0000000000000000     
  0.75000000000000000        0.0000000000000000        0.0000000000000000     
   1.0000000000000000        0.0000000000000000        0.0000000000000000     
   0.0000000000000000       0.25000000000000000        0.0000000000000000     
  0.25000000000000000       0.25000000000000000        0.0000000000000000     
  0.50000000000000000       0.25000000000000000        0.0000000000000000     
  0.75000000000000000       0.25000000000000000        0.0000000000000000     
   1.0000000000000000       0.25000000000000000        0.0000000000000000     
   0.0000000000000000       0.50000000000000000        0.0000000000000000     
  0.25000000000000000       0.50000000000000000        0.0000000000000000     
  0.50000000000000000       0.50000000000000000        0.0000000000000000     
  0.75000000000000000       0.50000000000000000        0.0000000000000000     
   1.0000000000000000       0.50000000000000000        0.0000000000000000     
   0.0000000000000000       0.75000000000000000        0.0000000000000000     
  0.25000000000000000       0.75000000000000000        0.0000000000000000     
  0.50000000000000000       0.75000000000000000        0.0000000000000000     
  0.75000000000000000       0.75000000000000000        0.0000000000000000     
   1.0000000000000000       0.75000000000000000        0.0000000000000000     
   0.0000000000000000        1.0000000000000000        0.0000000000000000     
  0.25000000000000000        1.0000000000000000        0.0000000000000000     
  0.50000000000000000        1.0000000000000000        0.0000000000000000     
  0.75000000000000000        1.0000000000000000        0.0000000000000000     
   1.0000000000000000        1.0000000000000000        0.0000000000000000     
 </DataArray>
 </Points>
 <Cells>
 <DataArray  type="Int32"  Name="connectivity"  format="ascii">
           0           1           6           5
           1           2           7           6
           2           3           8           7
           3           4           9           8
           5           6          11          10
           6           7          12          11
           7           8          13          12
           8           9          14          13
          10          11          16          15
          11          12          17          16
          12          13          18          17
          13          14          19          18
          15          16          21          20
          16          17          22          21
          17          18          23          22
          18          19          24          23
 </DataArray>
 <DataArray  type="Int32"  Name="offsets"  format="ascii"> 
           4
           8
          12
          16
          20
          24
          28
          32
          36
          40
          44
          48
          52
          56
          60
          64
 </DataArray>
 <DataArray  type="UInt8"  Name="types"  format="ascii">
 9
 9
 9
 9
 9
 9
 9
 9
 9
 9
 9
 9
 9
 9
 9
 9
 </DataArray>
 </Cells> 
 <PointData>
 <DataArray  type="Float64" Name="disp" NumberOfComponents="3" format="ascii">
   0.0000000000000000        0.0000000000000000        0.0000000000000000     
   3.2249256060393583E-002   2.4197525115853012E-002   0.0000000000000000     
   5.8615678655490194E-002   5.7524733174352367E-002   0.0000000000000000     
   7.9099267785289820E-002   9.9981624175498066E-002   0.0000000000000000     
   9.3700023449792474E-002  0.15156819811929012        0.0000000000000000     
   0.0000000000000000        0.0000000000000000        0.0000000000000000     
   1.6124628030196712E-002   1.9306010971928373E-002   0.0000000000000000     
   2.9307839327744972E-002   5.1365800609257863E-002   0.0000000000000000     
   3.9549633892644799E-002   9.6179368911988486E-002   0.0000000000000000     
   4.6850011724896182E-002  0.15374671588012018        0.0000000000000000     
   0.0000000000000000        0.0000000000000000        0.0000000000000000     
  -8.6736173798840355E-017   1.7675506257286814E-002   0.0000000000000000     
  -8.8470897274817162E-017   4.9312823087559597E-002   0.0000000000000000     
  -3.4694469519536142E-018   9.4911950490818353E-002   0.0000000000000000     
   1.7000290064572710E-016  0.15447288846706309        0.0000000000000000     
   0.0000000000000000        0.0000000000000000        0.0000000000000000     
  -1.6124628030196802E-002   1.9306010971928335E-002   0.0000000000000000     
  -2.9307839327744997E-002   5.1365800609257564E-002   0.0000000000000000     
  -3.9549633892644577E-002   9.6179368911987709E-002   0.0000000000000000     
  -4.6850011724895557E-002  0.15374671588011873        0.0000000000000000     
   0.0000000000000000        0.0000000000000000        0.0000000000000000     
  -3.2249256060393437E-002   2.4197525115852936E-002   0.0000000000000000     
  -5.8615678655489750E-002   5.7524733174351785E-002   0.0000000000000000     
  -7.9099267785288946E-002   9.9981624175496553E-002   0.0000000000000000     
  -9.3700023449791003E-002  0.15156819811928723        0.0000000000000000     
 </DataArray>
 <DataArray  type="Float64" Name="stress" NumberOfComponents="3" format="ascii">
   9281056560.8023052        2784316968.2406917        1812247721.0335233     
   7213512176.7495146        598769126.96897197        1166560482.1827016     
   5528289978.8334932       -312371427.18018150        792388634.03789866     
   4225389967.0542445        50895305.793232203        689732176.59911489     
   3304812141.4117618        1688569325.8892097        858591109.86634934     
   4640528280.4011240        1392158484.1203372        1193457382.0825675     
   3606756088.3747401        299384563.48447871        882302056.10142410     
   2764144989.4167376       -156185713.59011102        842662120.82629895     
   2112694983.5271161        25447652.896569967        1074537576.2571926     
   1652406070.7058735        844284662.94451618        1577928422.3941038     
  -3.4313211612728054E-005  -1.0293963483818415E-005   987193935.76558423     
  -1.3141960047674844E-005  -8.4181745823226141E-006   787549247.40766537     
  -3.2025664171879372E-007  -3.5068102268208066E-005   859419949.75576425     
   4.1976495539570667E-006  -8.9397353988360825E-005   1202806042.8098812     
  -8.2351707870547780E-007  -1.7344184696513608E-004   1817707526.5700159     
  -4640528280.4011707       -1392158484.1203513        1193457382.0825737     
  -3606756088.3747463       -299384563.48448944        882302056.10142577     
  -2764144989.4167194        156185713.59004676        842662120.82629442     
  -2112694983.5270898       -25447652.896742582        1074537576.2571809     
  -1652406070.7058589       -844284662.94485819        1577928422.3940837     
  -9281056560.8022861       -2784316968.2406855        1812247721.0335362     
  -7213512176.7494583       -598769126.96896410        1166560482.1827042     
  -5528289978.8334208        312371427.18013406        792388634.03788912     
  -4225389967.0541677       -50895305.793390751        689732176.59909034     
  -3304812141.4117022       -1688569325.8895383        858591109.86630797     
 </DataArray>
 <DataArray  type="Float64" Name="VM" NumberOfComponents="1" format="ascii">
   8826197029.6484241     
   7221955696.2669992     
   5854065687.2980900     
   4366766494.5213213     
   3225551321.9242053     
   4613597156.0477829     
   3788652036.7236676     
   3197944622.2397785     
   2806110752.6623940     
   3085082759.1384015     
   1709870053.6698785     
   1364075309.9727085     
   1488559018.0152755     
   2083321177.7975802     
   3148361789.3196225     
   4613597156.0478249     
   3788652036.7236700     
   3197944622.2397280     
   2806110752.6622977     
   3085082759.1383672     
   8826197029.6484184     
   7221955696.2669506     
   5854065687.2979908     
   4366766494.5211620     
   3225551321.9241304     
 </DataArray>
 <DataArray  type="Float64" Name="strain" NumberOfComponents="3" format="ascii">
  0.14076269117216830        0.0000000000000000        7.8530734578119349E-002
  0.11723135731098039       -2.6088075434264710E-002   5.0550954227917069E-002
   9.3700023449792474E-002  -3.2847640347170498E-002   3.4336840808308941E-002
   7.0168689588604574E-002  -2.0278694738717348E-002   2.9888394319294978E-002
   4.6637355727416646E-002   1.1618761391094690E-002   3.7205614760875139E-002
   7.0381345586083721E-002   0.0000000000000000        5.1716486556911252E-002
   5.8615678655489944E-002  -1.3044037717132390E-002   3.8233089097728379E-002
   4.6850011724896182E-002  -1.6423820173585537E-002   3.6515358569139622E-002
   3.5084344794302419E-002  -1.0139347369359415E-002   4.6563294971145017E-002
   2.3318677863708642E-002   5.8093806955459015E-003   6.8376898303744493E-002
  -5.2041704279304213E-016   0.0000000000000000        4.2778403883175317E-002
  -1.7694179454963432E-016  -7.4593109467002705E-017   3.4127134054332167E-002
   1.7000290064572710E-016  -5.8286708792820718E-016   3.7241531156083120E-002
   5.1694759584108851E-016  -1.5109441475757990E-015   5.2121595188428183E-002
   8.5348395018058909E-016  -2.8865798640254070E-015   7.8767326151367362E-002
  -7.0381345586084429E-002   0.0000000000000000        5.1716486556911530E-002
  -5.8615678655489993E-002   1.3044037717132240E-002   3.8233089097728448E-002
  -4.6850011724895557E-002   1.6423820173584378E-002   3.6515358569139428E-002
  -3.5084344794301121E-002   1.0139347369356407E-002   4.6563294971144503E-002
  -2.3318677863706692E-002  -5.8093806955516747E-003   6.8376898303743633E-002
 -0.14076269117216800        0.0000000000000000        7.8530734578119904E-002
 -0.11723135731097950        2.6088075434264561E-002   5.0550954227917187E-002
  -9.3700023449791003E-002   3.2847640347169332E-002   3.4336840808308532E-002
  -7.0168689588602506E-002   2.0278694738714326E-002   2.9888394319293913E-002
  -4.6637355727414009E-002  -1.1618761391100463E-002   3.7205614760873348E-002
 </DataArray>
 </PointData>
 </Piece>
 <Piece  NumberOfPoints="            25 "  NumberOfCells="           16 ">
 <Points>
 <DataArray  type="Float64" NumberOfComponents="3"  format="ascii" >
  0.50000000000000000        0.0000000000000000        0.0000000000000000     
  0.75000000000000000        0.0000000000000000        0.0000000000000000     
   1.0000000000000000        0.0000000000000000        0.0000000000000000     
   1.2500000000000000        0.0000000000000000        0.0000000000000000     
   1.5000000000000000        0.0000000000000000        0.0000000000000000     
  0.50000000000000000       0.25000000000000000        0.0000000000000000     
  0.75000000000000000       0.25000000000000000        0.0000000000000000     
   1.0000000000000000       0.25000000000000000        0.0000000000000000     
   1.2500000000000000       0.25000000000000000        0.0000000000000000     
   1.5000000000000000       0.25000000000000000        0.0000000000000000     
  0.50000000000000000       0.50000000000000000        0.0000000000000000     
  0.75000000000000000       0.50000000000000000        0.0000000000000000     
   1.0000000000000000       0.50000000000000000        0.0000000000000000     
   1.2500000000000000       0.50000000000000000        0.0000000000000000     
   1.5000000000000000       0.50000000000000000        0.0000000000000000     
  0.50000000000000000       0.75000000000000000        0.0000000000000000     
  0.75000000000000000       0.75000000000000000        0.0000000000000000     
   1.0000000000000000       0.75000000000000000        0.0000000000000000     
   1.2500000000000000       0.75000000000000000        0.0000000000000000     
   1.5000000000000000       0.75000000000000000        0.0000000000000000     
  0.50000000000000000        1.0000000000000000        0.0000000000000000     
  0.75000000000000000        1.0000000000000000        0.0000000000000000     
   1.0000000000000000        1.0000000000000000        0.0000000000000000     
   1.2500000000000000        1.0000000000000000        0.0000000000000000     
   1.5000000000000000        1.0000000000000000        0.0000000000000000     
 </DataArray>
 </Points>
 <Cells>
 <DataArray  type="Int32"  Name="connectivity"  format="ascii">
           0           1           6           5
           1           2           7           6
           2           3           8           7
           3           4           9           8
           5           6          11          10
           6           7          12          11
           7           8          13          12
           8           9          14          13
          10          11          16          15
          11          12          17          16
          12          13          18          17
          13          14          19          18
          15          16          21          20
          16          17          22          21
          17          18          23          22
          18          19          24          23
 </DataArray>
 <DataArray  type="Int32"  Name="offsets"  format="ascii"> 
           4
           8
          12
          16
          20
          24
          28
          32
          36
          40
          44
          48
          52
          56
          60
          64
 </DataArray>
 <DataArray  type="UInt8"  Name="types"  format="ascii">
 9
 9
 9
 9
 9
 9
 9
 9
 9
 9
 9
 9
 9
 9
 9
 9
 </DataArray>
 </Cells> 
 <PointData>
 <DataArray  type="Float64" Name="disp" NumberOfComponents="3" format="ascii">
   5.8667113063224773E-002   5.4664190185779102E-002   0.0000000000000000     
   7.9077389833913214E-002  0.10140993892211438        0.0000000000000000     
   9.3751457857525602E-002  0.15354584984377748        0.0000000000000000     
  0.10268931713406193       0.21107192295076843        0.0000000000000000     
  0.10589096766352218       0.27398815824308725        0.0000000000000000     
   2.9333556531612237E-002   4.8817610981693974E-002   0.0000000000000000     
   3.9538694916956399E-002   9.7248655911787468E-002   0.0000000000000000     
   4.6875728928762586E-002  0.15086460733762674        0.0000000000000000     
   5.1344658567030799E-002  0.20966546525921179        0.0000000000000000     
   5.2945483831761050E-002  0.27365122967654254        0.0000000000000000     
   1.3357370765021415E-016   4.6868751246999699E-002   0.0000000000000000     
  -8.3266726846886741E-017   9.5861561575012202E-002   0.0000000000000000     
  -1.8778381627448937E-016  0.14997085983557656        0.0000000000000000     
  -1.8268806606380750E-016  0.20919664602869281        0.0000000000000000     
  -6.5919492087118670E-017  0.27353892015436093        0.0000000000000000     
  -2.9333556531611547E-002   4.8817610981696291E-002   0.0000000000000000     
  -3.9538694916956205E-002   9.7248655911788551E-002   0.0000000000000000     
  -4.6875728928762704E-002  0.15086460733762699        0.0000000000000000     
  -5.1344658567031007E-002  0.20966546525921165        0.0000000000000000     
  -5.2945483831761148E-002  0.27365122967654243        0.0000000000000000     
  -5.8667113063222802E-002   5.4664190185783744E-002   0.0000000000000000     
  -7.9077389833911993E-002  0.10140993892211650        0.0000000000000000     
  -9.3751457857524950E-002  0.15354584984377798        0.0000000000000000     
 -0.10268931713406169       0.21107192295076818        0.0000000000000000     
 -0.10589096766352220       0.27398815824308703        0.0000000000000000     
 </DataArray>
 <DataArray  type="Float64" Name="stress" NumberOfComponents="3" format="ascii">
   5522571286.8375349       -214133959.25607347        1358502564.1900256     
   4187514512.4447308       -75356209.571230888        914043222.65004873     
   2830804390.5795279       -8756284.7943903208        734331977.12897313     
   1452440921.2419219       -14334184.925554931        819368827.62680149     
   52424104.431915127       -92089909.964722887        1169153774.1435294     
   2761285643.4187880       -107066979.62789130        1523541706.2099974     
   2093757256.2223763       -37678104.785549283        1060135685.6316679     
   1415402195.2897749       -4378142.3971787095        861477761.07223821     
   726220460.62098122       -7167092.4627807736        927567932.53170979     
   26212052.215994533       -46044954.982360348        1258406200.0100803     
   2.0679428865270780E-005   2.8473102996241740E-004   1578554753.5499690     
  -1.6012832085939601E-007   1.2714188676236170E-004   1108833173.2921972     
  -3.8659551750340275E-006   2.7359067392548502E-005   903859689.05332398     
   1.0208180454786596E-005  -1.3330682711544849E-005   963634300.83335042     
   4.0443838754202132E-005  -1.1895246692412399E-006   1288157008.6322742     
  -2761285643.4187632        107066979.62845564        1523541706.2099407     
  -2093757256.2223995        37678104.785796881        1060135685.6316363     
  -1415402195.2898083        4378142.3972261548        861477761.07223046     
  -726220460.62099135        7167092.4627412558        927567932.53172135     
  -26212052.215948619        46044954.982345805        1258406200.0101101     
  -5522571286.8375645        214133959.25662184        1358502564.1899111     
  -4187514512.4448195        75356209.571459055        914043222.64998627     
  -2830804390.5796390        8756284.7944152355        734331977.12895727     
  -1452440921.2420230        14334184.925492585        819368827.62682486     
  -52424104.431973323        92089909.964678779        1169153774.1435876     
 </DataArray>
 <DataArray  type="Float64" Name="VM" NumberOfComponents="1" format="ascii">
   6104408626.2607059     
   4512531064.7192211     
   3107418198.0530553     
   2035854975.7715173     
   2028994384.4382844     
   3859448438.3253350     
   2799248275.6462874     
   2058157227.5674982     
   1764596050.7186921     
   2180544114.4348383     
   2734137035.6779137     
   1920555393.2599111     
   1565530904.3537643     
   1669063568.9594750     
   2231153387.0770397     
   3859448438.3254676     
   2799248275.6463652     
   2058157227.5675280     
   1764596050.7187064     
   2180544114.4348884     
   6104408626.2609243     
   4512531064.7193756     
   3107418198.0531564     
   2035854975.7715952     
   2028994384.4383850     
 </DataArray>
 <DataArray  type="Float64" Name="strain" NumberOfComponents="3" format="ascii">
   9.3113524576905957E-002  -3.1181755755122234E-002   5.8868444448234442E-002
   7.0168689588601674E-002  -2.2193509388410838E-002   3.9608539648168781E-002
   4.7223854600297412E-002  -1.4299960032804142E-002   3.1821052342255504E-002
   2.4279019611993139E-002  -7.5011076883021912E-003   3.5505982530494730E-002
   1.3341846236888666E-003  -1.7969523549049571E-003   5.0663330212886271E-002
   4.6556762288452583E-002  -1.5590877877558793E-002   6.6020140602433219E-002
   3.5084344794300684E-002  -1.1096754694204368E-002   4.5939213044038939E-002
   2.3611927300148806E-002  -7.1499800164018523E-003   3.7330702979796987E-002
   1.2139509805996925E-002  -3.7505538441512526E-003   4.0194610409707426E-002
   6.6709231184504392E-004  -8.9847617745264508E-004   5.4530935333770153E-002
  -1.0789980020575740E-015   4.6421200217139358E-015   6.8404039320498655E-002
  -6.3837823915946501E-016   2.1198320876436583E-015   4.8049437509328552E-002
  -2.0122792321330962E-016   4.7531423241764514E-016   3.9167253192310708E-002
   2.3678975447083417E-016  -2.7321894746634712E-016   4.1757486369445186E-002
   6.8001160258290838E-016  -2.2204460492503131E-016   5.5820137040731882E-002
  -4.6556762288454998E-002   1.5590877877568077E-002   6.6020140602430763E-002
  -3.5084344794302308E-002   1.1096754694208613E-002   4.5939213044037572E-002
  -2.3611927300149604E-002   7.1499800164028116E-003   3.7330702979796654E-002
  -1.2139509805996896E-002   3.7505538441506441E-003   4.0194610409707926E-002
  -6.6709231184420605E-004   8.9847617745217323E-004   5.4530935333771444E-002
  -9.3113524576909176E-002   3.1181755755131518E-002   5.8868444448229480E-002
  -7.0168689588604297E-002   2.2193509388415085E-002   3.9608539648166075E-002
  -4.7223854600299396E-002   1.4299960032805117E-002   3.1821052342254817E-002
  -2.4279019611994513E-002   7.5011076883016578E-003   3.5505982530495743E-002
  -1.3341846236896160E-003   1.7969523549045130E-003   5.0663330212888796E-002
 </DataArray>
 </PointData>
 </Piece>
 </UnstructuredGrid>
 </VTKFile>
